<?xml version="1.0"?>
<VTKFile type="UnstructuredGrid" version="0.1" byte_order="LittleEndian">
<UnstructuredGrid>
<Piece NumberOfPoints="31898" NumberOfCells="11152">
<Points>
<DataArray type="Float64" NumberOfComponents="3" format="ascii">
-0.5 -0.5 0 -0.47620991077874902 -0.44978878706170539 0 -0.49999999999999473 -0.42132396840504388 0 -0.5 -0.5 0 -0.47160970827802529 -0.4793630013852106 0 -0.47620991077874902 -0.44978878706170539 0 -0.5 -0.5 0 -0.47160970827802529 -0.4793630013852106 0 -0.44860394795025399 -0.5 0 -0.47160970827802529 -0.4793630013852106 0 -0.44860394795025399 -0.5 0 -0.4490820238307246 -0.45820516232899983 0 -0.44860394795025399 -0.5 0 -0.4490820238307246 -0.45820516232899983 0 -0.42881687682924802 -0.47781464288736519 0 -0.4490820238307246 -0.45820516232899983 0 -0.45555437223955858 -0.42914059360647611 0 -0.4490820238307246 -0.45820516232899983 0 -0.45555437223955858 -0.42914059360647611 0 -0.43867285131603428 -0.4271457417558665 0 -0.4490820238307246 -0.45820516232899983 0 -0.43867285131603428 -0.4271457417558665 0 -0.4263356171060747 -0.44269880333887462 0 -0.47160970827802529 -0.4793630013852106 0 -0.4490820238307246 -0.45820516232899983 0 -0.47620991077874902 -0.44978878706170539 0 -0.4490820238307246 -0.45820516232899983 0 -0.47620991077874902 -0.44978878706170539 0 -0.45555437223955858 -0.42914059360647611 0 -0.47620991077874902 -0.44978878706170539 0 -0.48101336032419229 -0.41069999664450008 0 -0.45555437223955858 -0.42914059360647611 0 -0.47620991077874902 -0.44978878706170539 0 -0.49999999999999473 -0.42132396840504388 0 -0.48101336032419229 -0.41069999664450008 0 -0.49999999999999473 -0.42132396840504388 0 -0.48101336032419229 -0.41069999664450008 0 -0.5 -0.393886241813306 0 -0.49999999999999473 -0.42132396840504388 0 -0.48101336032419229 -0.41069999664450008 0 -0.5 -0.393886241813306 0 -0.47854472220918332 -0.38978458738689759 0 -0.48422759779560409 -0.37130120630367158 0 -0.5 -0.393886241813306 0 -0.5 -0.36644851522156802 0 -0.48422759779560409 -0.37130120630367158 0 -0.48101336032419229 -0.41069999664450008 0 -0.5 -0.393886241813306 0 -0.47854472220918332 -0.38978458738689759 0 -0.48101336032419229 -0.41069999664450008 0 -0.47854472220918332 -0.38978458738689759 0 -0.46202672064839212 -0.40007602488395211 0 -0.48101336032419229 -0.41069999664450008 0 -0.46202672064839212 -0.40007602488395211 0 -0.47854472220918332 -0.38978458738689759 0 -0.46725442735267431 -0.37660061361585562 0 -0.46202672064839212 -0.40007602488395211 0 -0.47854472220918332 -0.38978458738689759 0 -0.46725442735267431 -0.37660061361585562 0 -0.48422759779560409 -0.37130120630367158 0 -0.46725442735267431 -0.37660061361585562 0 -0.46202672064839212 -0.40007602488395211 0 -0.46725442735267431 -0.37660061361585562 0 -0.45645674801697989 -0.38644133236760531 0 -0.46202672064839212 -0.40007602488395211 0 -0.46725442735267431 -0.37660061361585562 0 -0.45645674801697989 -0.38644133236760531 0 -0.4540003998136638 -0.37455519391687309 0 -0.45645674801697989 -0.38644133236760531 0 -0.46202672064839212 -0.40007602488395211 0 -0.44257020456291563 -0.38918913383950271 0 -0.46202672064839212 -0.40007602488395211 0 -0.44257020456291563 -0.38918913383950271 0 -0.44727608925983742 -0.41095911152778891 0 -0.46202672064839212 -0.40007602488395211 0 -0.44257020456291563 -0.38918913383950271 0 -0.44257020456291563 -0.38918913383950271 0 -0.44727608925983742 -0.41095911152778891 0 -0.43479358559901082 -0.4041454901736512 0 -0.44257020456291563 -0.38918913383950271 0 -0.4540003998136638 -0.37455519391687309 0 -0.44172858264042247 -0.37082207246888088 0 -0.45645674801697989 -0.38644133236760531 0 -0.44257020456291563 -0.38918913383950271 0 -0.4540003998136638 -0.37455519391687309 0 -0.46202672064839212 -0.40007602488395211 0 -0.45555437223955858 -0.42914059360647611 0 -0.44727608925983742 -0.41095911152778891 0 -0.46202672064839212 -0.40007602488395211 0 -0.45555437223955858 -0.42914059360647611 0 -0.48101336032419229 -0.41069999664450008 0 -0.46202672064839212 -0.40007602488395211 0 -0.45555437223955858 -0.42914059360647611 0 -0.44727608925983742 -0.41095911152778891 0 -0.43867285131603428 -0.4271457417558665 0 -0.43676601469929588 -0.41441201227470881 0 -0.44727608925983742 -0.41095911152778891 0 -0.43676601469929588 -0.41441201227470881 0 -0.43479358559901082 -0.4041454901736512 0 -0.45555437223955858 -0.42914059360647611 0 -0.44727608925983742 -0.41095911152778891 0 -0.43867285131603428 -0.4271457417558665 0 -0.43867285131603428 -0.4271457417558665 0 -0.42681803064840879 -0.42717069814352421 0 -0.4263356171060747 -0.44269880333887462 0 -0.42681803064840879 -0.42717069814352421 0 -0.41531815884496182 -0.42985383783075998 0 -0.4263356171060747 -0.44269880333887462 0 -0.42681803064840879 -0.42717069814352421 0 -0.42624289495594048 -0.42089725947505818 0 -0.42083332353326591 -0.42146747131641099 0 -0.42681803064840879 -0.42717069814352421 0 -0.43096994786351572 -0.41951492446283251 0 -0.42624289495594048 -0.42089725947505818 0 -0.43867285131603428 -0.4271457417558665 0 -0.42681803064840879 -0.42717069814352421 0 -0.43096994786351572 -0.41951492446283251 0 -0.43867285131603428 -0.4271457417558665 0 -0.43676601469929588 -0.41441201227470881 0 -0.43096994786351572 -0.41951492446283251 0 -0.43676601469929588 -0.41441201227470881 0 -0.43096994786351572 -0.41951492446283251 0 -0.42907264086257813 -0.41311715872526122 0 -0.43676601469929588 -0.41441201227470881 0 -0.42907264086257813 -0.41311715872526122 0 -0.43479358559901082 -0.4041454901736512 0 -0.42907264086257813 -0.41311715872526122 0 -0.43479358559901082 -0.4041454901736512 0 -0.42460885511582858 -0.40417321677700252 0 -0.42907264086257813 -0.41311715872526122 0 -0.41997834854398469 -0.41180534796019508 0 -0.42907264086257813 -0.41311715872526122 0 -0.42635027777857132 -0.41543594397746519 0 -0.41997834854398469 -0.41180534796019508 0 -0.42907264086257813 -0.41311715872526122 0 -0.41997834854398469 -0.41180534796019508 0 -0.42460885511582858 -0.40417321677700252 0 -0.42635027777857132 -0.41543594397746519 0 -0.41997834854398469 -0.41180534796019508 0 -0.42635027777857132 -0.41543594397746519 0 -0.42083332353326591 -0.42146747131641099 0 -0.41997834854398469 -0.41180534796019508 0 -0.43096994786351572 -0.41951492446283251 0 -0.42624289495594048 -0.42089725947505818 0 -0.42635027777857132 -0.41543594397746519 0 -0.43096994786351572 -0.41951492446283251 0 -0.42907264086257813 -0.41311715872526122 0 -0.42635027777857132 -0.41543594397746519 0 -0.42624289495594048 -0.42089725947505818 0 -0.42635027777857132 -0.41543594397746519 0 -0.42083332353326591 -0.42146747131641099 0 -0.42083332353326591 -0.42146747131641099 0 -0.41997834854398469 -0.41180534796019508 0 -0.40992282953163789 -0.42011435591993562 0 -0.41997834854398469 -0.41180534796019508 0 -0.39756877647335259 -0.40857286797681719 0 -0.41997834854398469 -0.41180534796019508 0 -0.40992282953163789 -0.42011435591993562 0 -0.39756877647335259 -0.40857286797681719 0 -0.40992282953163789 -0.42011435591993562 0 -0.41531815884496182 -0.42985383783075998 0 -0.39591554026262499 -0.42887225451549271 0 -0.41531815884496182 -0.42985383783075998 0 -0.39591554026262499 -0.42887225451549271 0 -0.41160927495564159 -0.44339431233754628 0 -0.42083332353326591 -0.42146747131641099 0 -0.40992282953163789 -0.42011435591993562 0 -0.41531815884496182 -0.42985383783075998 0 -0.42681803064840879 -0.42717069814352421 0 -0.42083332353326591 -0.42146747131641099 0 -0.41531815884496182 -0.42985383783075998 0 -0.44257020456291563 -0.38918913383950271 0 -0.42311368847744002 -0.37830224279505142 0 -0.42594061475171041 -0.39368797999533162 0 -0.44257020456291563 -0.38918913383950271 0 -0.42311368847744002 -0.37830224279505142 0 -0.44172858264042247 -0.37082207246888088 0 -0.44257020456291563 -0.38918913383950271 0 -0.42311368847744002 -0.37830224279505142 0 -0.42311368847744002 -0.37830224279505142 0 -0.42594061475171041 -0.39368797999533162 0 -0.416587075656149 -0.38785930376960043 0 -0.44257020456291563 -0.38918913383950271 0 -0.42594061475171041 -0.39368797999533162 0 -0.43479358559901082 -0.4041454901736512 0 -0.42594061475171041 -0.39368797999533162 0 -0.43479358559901082 -0.4041454901736512 0 -0.42460885511582858 -0.40417321677700252 0 -0.41997834854398469 -0.41180534796019508 0 -0.41325908582185972 -0.39811010703057192 0 -0.39770572831670092 -0.39911486077581648 0 -0.41997834854398469 -0.41180534796019508 0 -0.39770572831670092 -0.39911486077581648 0 -0.42594061475171041 -0.39368797999533162 0 -0.42460885511582858 -0.40417321677700252 0 -0.41325908582185972 -0.39811010703057192 0 -0.41997834854398469 -0.41180534796019508 0 -0.42460885511582858 -0.40417321677700252 0 -0.41325908582185972 -0.39811010703057192 0 -0.42594061475171041 -0.39368797999533162 0 -0.41325908582185972 -0.39811010703057192 0 -0.416587075656149 -0.38785930376960043 0 -0.41325908582185972 -0.39811010703057192 0 -0.416587075656149 -0.38785930376960043 0 -0.40403491357358612 -0.38133688525744702 0 -0.42311368847744002 -0.37830224279505142 0 -0.40403491357358612 -0.38133688525744702 0 -0.40365717239196519 -0.36741535175059892 0 -0.42311368847744002 -0.37830224279505142 0 -0.416587075656149 -0.38785930376960043 0 -0.40403491357358612 -0.38133688525744702 0 -0.40403491357358612 -0.38133688525744702 0 -0.39190790742475001 -0.38540387676521748 0 -0.39770572831670092 -0.39911486077581648 0 -0.40403491357358612 -0.38133688525744702 0 -0.39190790742475001 -0.38540387676521748 0 -0.3904578797192948 -0.37473938743617019 0 -0.41325908582185972 -0.39811010703057192 0 -0.40403491357358612 -0.38133688525744702 0 -0.39770572831670092 -0.39911486077581648 0 -0.39770572831670092 -0.39911486077581648 0 -0.37543310808941849 -0.38642437359143528 0 -0.39770572831670092 -0.39911486077581648 0 -0.37515920440272033 -0.40534038799344108 0 -0.37543310808941849 -0.38642437359143528 0 -0.39770572831670092 -0.39911486077581648 0 -0.37515920440272033 -0.40534038799344108 0 -0.39756877647335259 -0.40857286797681719 0 -0.37515920440272033 -0.40534038799344108 0 -0.37543310808941849 -0.38642437359143528 0 -0.37543310808941849 -0.38642437359143528 0 -0.3904578797192948 -0.37473938743617019 0 -0.37568304780698558 -0.36916333065311507 0 -0.39190790742475001 -0.38540387676521748 0 -0.37543310808941849 -0.38642437359143528 0 -0.3904578797192948 -0.37473938743617019 0 -0.37543310808941849 -0.38642437359143528 0 -0.37568304780698558 -0.36916333065311507 0 -0.39190790742475001 -0.38540387676521748 0 -0.39770572831670092 -0.39911486077581648 0 -0.37543310808941849 -0.38642437359143528 0 -0.41997834854398469 -0.41180534796019508 0 -0.39770572831670092 -0.39911486077581648 0 -0.39756877647335259 -0.40857286797681719 0 -0.40992282953163789 -0.42011435591993562 0 -0.39591554026262499 -0.42887225451549271 0 -0.39756877647335259 -0.40857286797681719 0 -0.37515920440272033 -0.40534038799344108 0 -0.39591554026262499 -0.42887225451549271 0 -0.39756877647335259 -0.40857286797681719 0 -0.37515920440272033 -0.40534038799344108 0 -0.39756877647335259 -0.40857286797681719 0 -0.37515920440272033 -0.40534038799344108 0 -0.39591554026262499 -0.42887225451549271 0 -0.37472313619600889 -0.43545561783144832 0 -0.39591554026262499 -0.42887225451549271 0 -0.39301703415267508 -0.44654444244683272 0 -0.37472313619600889 -0.43545561783144832 0 -0.39301703415267508 -0.44654444244683272 0 -0.37428706798929601 -0.46557084766945539 0 -0.37472313619600889 -0.43545561783144832 0 -0.39591554026262499 -0.42887225451549271 0 -0.39301703415267508 -0.44654444244683272 0 -0.41160927495564159 -0.44339431233754628 0 -0.39301703415267508 -0.44654444244683272 0 -0.40396056051613372 -0.45751466911048011 0 -0.41160927495564159 -0.44339431233754628 0 -0.40396056051613372 -0.45751466911048011 0 -0.39245383412573559 -0.47875733455523922 0 -0.41207507163844148 -0.46917161410542801 0 -0.40396056051613372 -0.45751466911048011 0 -0.38912381425271458 -0.46154275838996711 0 -0.39245383412573559 -0.47875733455523922 0 -0.40396056051613372 -0.45751466911048011 0 -0.39245383412573559 -0.47875733455523922 0 -0.40396056051613372 -0.45751466911048011 0 -0.40649676728151513 -0.45682610390212369 0 -0.40396056051613372 -0.45751466911048011 0 -0.38912381425271458 -0.46154275838996711 0 -0.39301703415267508 -0.44654444244683272 0 -0.40396056051613372 -0.45751466911048011 0 -0.38912381425271458 -0.46154275838996711 0 -0.39301703415267508 -0.44654444244683272 0 -0.38912381425271458 -0.46154275838996711 0 -0.37428706798929601 -0.46557084766945539 0 -0.38912381425271458 -0.46154275838996711 0 -0.37428706798929601 -0.46557084766945539 0 -0.38912381425271458 -0.46154275838996711 0 -0.38378714202547332 -0.47159002408209011 0 -0.37428706798929601 -0.46557084766945539 0 -0.38378714202547332 -0.47159002408209011 0 -0.39245383412573559 -0.47875733455523922 0 -0.37411677223754131 -0.47733161267270968 0 -0.39245383412573559 -0.47875733455523922 0 -0.37240076261097882 -0.48974555046165519 0 -0.37411677223754131 -0.47733161267270968 0 -0.38378714202547332 -0.47159002408209011 0 -0.37411677223754131 -0.47733161267270968 0 -0.37428706798929601 -0.46557084766945539 0 -0.38912381425271458 -0.46154275838996711 0 -0.38378714202547332 -0.47159002408209011 0 -0.39245383412573559 -0.47875733455523922 0 -0.38094710773533791 -0.49999999999999839 0 -0.39245383412573559 -0.47875733455523922 0 -0.38094710773533791 -0.49999999999999839 0 -0.39245383412573559 -0.47875733455523922 0 -0.37240076261097882 -0.48974555046165519 0 -0.38094710773533791 -0.49999999999999839 0 -0.39245383412573559 -0.47875733455523922 0 -0.40997732063196057 -0.5 0 -0.39245383412573559 -0.47875733455523922 0 -0.41207507163844148 -0.46917161410542801 0 -0.40997732063196057 -0.5 0 -0.41207507163844148 -0.46917161410542801 0 -0.40997732063196057 -0.5 0 -0.42881687682924802 -0.47781464288736519 0 -0.44860394795025399 -0.5 0 -0.40997732063196057 -0.5 0 -0.42881687682924802 -0.47781464288736519 0 -0.41207507163844148 -0.46917161410542801 0 -0.42881687682924802 -0.47781464288736519 0 -0.42627766738448791 -0.46032764904509182 0 -0.4490820238307246 -0.45820516232899983 0 -0.42881687682924802 -0.47781464288736519 0 -0.42627766738448791 -0.46032764904509182 0 -0.4490820238307246 -0.45820516232899983 0 -0.42627766738448791 -0.46032764904509182 0 -0.4263356171060747 -0.44269880333887462 0 -0.42627766738448791 -0.46032764904509182 0 -0.4263356171060747 -0.44269880333887462 0 -0.41655419253802572 -0.45404861160063659 0 -0.4263356171060747 -0.44269880333887462 0 -0.41160927495564159 -0.44339431233754628 0 -0.41655419253802572 -0.45404861160063659 0 -0.41531815884496182 -0.42985383783075998 0 -0.4263356171060747 -0.44269880333887462 0 -0.41160927495564159 -0.44339431233754628 0 -0.40396056051613372 -0.45751466911048011 0 -0.41160927495564159 -0.44339431233754628 0 -0.40649676728151513 -0.45682610390212369 0 -0.41160927495564159 -0.44339431233754628 0 -0.40649676728151513 -0.45682610390212369 0 -0.41655419253802572 -0.45404861160063659 0 -0.40396056051613372 -0.45751466911048011 0 -0.41160927495564159 -0.44339431233754628 0 -0.41207507163844148 -0.46917161410542801 0 -0.40649676728151513 -0.45682610390212369 0 -0.41655419253802572 -0.45404861160063659 0 -0.40396056051613372 -0.45751466911048011 0 -0.41207507163844148 -0.46917161410542801 0 -0.40649676728151513 -0.45682610390212369 0 -0.41207507163844148 -0.46917161410542801 0 -0.42627766738448791 -0.46032764904509182 0 -0.41655419253802572 -0.45404861160063659 0 -0.45662330498375908 -0.25656877445722759 0 -0.43445882011373449 -0.25478651907497341 0 -0.45662330498375908 -0.25656877445722759 0 -0.43445882011373449 -0.25478651907497341 0 -0.45034617445999431 -0.24335722649563979 0 -0.44999384684511368 -0.2755750489792308 0 -0.45662330498375908 -0.25656877445722759 0 -0.43445882011373449 -0.25478651907497341 0 -0.44999384684511368 -0.2755750489792308 0 -0.43077531442077321 -0.27459050524281542 0 -0.43445882011373449 -0.25478651907497341 0 -0.44999384684511368 -0.2755750489792308 0 -0.441361257405879 -0.29303276451920029 0 -0.43077531442077321 -0.27459050524281542 0 -0.44999384684511368 -0.2755750489792308 0 -0.4670541169931961 -0.26846056693166809 0 -0.46910519348062618 -0.28320526693770848 0 -0.44999384684511368 -0.2755750489792308 0 -0.4670541169931961 -0.26846056693166809 0 -0.45662330498375908 -0.25656877445722759 0 -0.45662330498375908 -0.25656877445722759 0 -0.47878778985378329 -0.25835102983948688 0 -0.4670541169931961 -0.26846056693166809 0 -0.45662330498375908 -0.25656877445722759 0 -0.47878778985378329 -0.25835102983948688 0 -0.45662330498375908 -0.25656877445722759 0 -0.47878778985378329 -0.25835102983948688 0 -0.47142395938804471 -0.23802335247430181 0 -0.47878778985378329 -0.25835102983948688 0 -0.5 -0.25669760885461612 0 -0.48361763707807442 -0.27426406281091331 0 -0.47878778985378329 -0.25835102983948688 0 -0.5 -0.25669760885461612 0 -0.4875835208682564 -0.24248539692068891 0 -0.5 -0.25669760885461612 0 -0.48361763707807442 -0.27426406281091331 0 -0.5 -0.28413533544635422 0 -0.4670541169931961 -0.26846056693166809 0 -0.47878778985378329 -0.25835102983948688 0 -0.48361763707807442 -0.27426406281091331 0 -0.4670541169931961 -0.26846056693166809 0 -0.48361763707807442 -0.27426406281091331 0 -0.46910519348062618 -0.28320526693770848 0 -0.46910519348062618 -0.28320526693770848 0 -0.48580896399913942 -0.29193665231809679 0 -0.47164434439118558 -0.29859902487093259 0 -0.48361763707807442 -0.27426406281091331 0 -0.46910519348062618 -0.28320526693770848 0 -0.48580896399913942 -0.29193665231809679 0 -0.5 -0.28413533544635422 0 -0.48580896399913942 -0.29193665231809679 0 -0.5 -0.3115730620380921 0 -0.48361763707807442 -0.27426406281091331 0 -0.5 -0.28413533544635422 0 -0.48580896399913942 -0.29193665231809679 0 -0.48580896399913942 -0.29193665231809679 0 -0.5 -0.3115730620380921 0 -0.48293754746551898 -0.30617437981156609 0 -0.48293754746551898 -0.30617437981156609 0 -0.47164434439118558 -0.29859902487093259 0 -0.47203566342767839 -0.31514771464943409 0 -0.48580896399913942 -0.29193665231809679 0 -0.48293754746551898 -0.30617437981156609 0 -0.47164434439118558 -0.29859902487093259 0 -0.47164434439118558 -0.29859902487093259 0 -0.46096111539772322 -0.3069557537098867 0 -0.47203566342767839 -0.31514771464943409 0 -0.46096111539772322 -0.3069557537098867 0 -0.44739706002137658 -0.30395698434733032 0 -0.45229582611609759 -0.31444164243390338 0 -0.46096111539772322 -0.3069557537098867 0 -0.45682111422556548 -0.29317658806621089 0 -0.44739706002137658 -0.30395698434733032 0 -0.47164434439118558 -0.29859902487093259 0 -0.46096111539772322 -0.3069557537098867 0 -0.45682111422556548 -0.29317658806621089 0 -0.44999384684511368 -0.2755750489792308 0 -0.46910519348062618 -0.28320526693770848 0 -0.45682111422556548 -0.29317658806621089 0 -0.46910519348062618 -0.28320526693770848 0 -0.47164434439118558 -0.29859902487093259 0 -0.45682111422556548 -0.29317658806621089 0 -0.44999384684511368 -0.2755750489792308 0 -0.45682111422556548 -0.29317658806621089 0 -0.441361257405879 -0.29303276451920029 0 -0.45682111422556548 -0.29317658806621089 0 -0.441361257405879 -0.29303276451920029 0 -0.44739706002137658 -0.30395698434733032 0 -0.441361257405879 -0.29303276451920029 0 -0.44739706002137658 -0.30395698434733032 0 -0.43527018611072049 -0.30465000121327751 0 -0.44739706002137658 -0.30395698434733032 0 -0.44024276041750632 -0.31887045497680111 0 -0.43527018611072049 -0.30465000121327751 0 -0.44739706002137658 -0.30395698434733032 0 -0.45229582611609759 -0.31444164243390338 0 -0.44024276041750632 -0.31887045497680111 0 -0.44024276041750632 -0.31887045497680111 0 -0.45653421084860168 -0.32646185290925811 0 -0.44024276041750632 -0.31887045497680111 0 -0.43930980958642257 -0.33554338078202212 0 -0.45653421084860168 -0.32646185290925811 0 -0.45229582611609759 -0.31444164243390338 0 -0.44024276041750632 -0.31887045497680111 0 -0.45653421084860168 -0.32646185290925811 0 -0.43930980958642257 -0.33554338078202212 0 -0.44966367396753332 -0.33841986907325933 0 -0.46855294336124231 -0.32873531729210143 0 -0.43930980958642257 -0.33554338078202212 0 -0.4507851133594416 -0.34910720111649318 0 -0.43930980958642257 -0.33554338078202212 0 -0.44966367396753332 -0.33841986907325933 0 -0.4507851133594416 -0.34910720111649318 0 -0.44966367396753332 -0.33841986907325933 0 -0.46855294336124231 -0.32873531729210143 0 -0.46386644800117471 -0.33586508895417932 0 -0.43930980958642257 -0.33554338078202212 0 -0.46855294336124231 -0.32873531729210143 0 -0.43930980958642257 -0.33554338078202212 0 -0.46855294336124231 -0.32873531729210143 0 -0.45653421084860168 -0.32646185290925811 0 -0.44966367396753332 -0.33841986907325933 0 -0.4586808436472537 -0.3401528003513713 0 -0.45711636988675219 -0.34547487934353349 0 -0.44966367396753332 -0.33841986907325933 0 -0.4586808436472537 -0.3401528003513713 0 -0.46386644800117471 -0.33586508895417932 0 -0.4586808436472537 -0.3401528003513713 0 -0.46472493826860672 -0.34236766697450172 0 -0.45711636988675219 -0.34547487934353349 0 -0.4586808436472537 -0.3401528003513713 0 -0.46472493826860672 -0.34236766697450172 0 -0.46386644800117471 -0.33586508895417932 0 -0.46855294336124231 -0.32873531729210143 0 -0.46207595183026873 -0.31834845619891672 0 -0.47203566342767839 -0.31514771464943409 0 -0.46855294336124231 -0.32873531729210143 0 -0.45653421084860168 -0.32646185290925811 0 -0.46207595183026873 -0.31834845619891672 0 -0.46096111539772322 -0.3069557537098867 0 -0.45229582611609759 -0.31444164243390338 0 -0.46207595183026873 -0.31834845619891672 0 -0.45229582611609759 -0.31444164243390338 0 -0.45653421084860168 -0.32646185290925811 0 -0.46207595183026873 -0.31834845619891672 0 -0.46096111539772322 -0.3069557537098867 0 -0.46207595183026873 -0.31834845619891672 0 -0.47203566342767839 -0.31514771464943409 0 -0.48293754746551898 -0.30617437981156609 0 -0.47203566342767839 -0.31514771464943409 0 -0.47770984076123751 -0.32964979107966252 0 -0.48293754746551898 -0.30617437981156609 0 -0.47770984076123751 -0.32964979107966252 0 -0.48293754746551898 -0.30617437981156609 0 -0.48763303240419292 -0.31981883507337211 0 -0.47770984076123751 -0.32964979107966252 0 -0.46855294336124231 -0.32873531729210143 0 -0.47203566342767839 -0.31514771464943409 0 -0.47770984076123751 -0.32964979107966252 0 -0.5 -0.3115730620380921 0 -0.5 -0.33901078862982997 0 -0.49048543526404831 -0.32960291085151988 0 -0.5 -0.3115730620380921 0 -0.48763303240419292 -0.31981883507337211 0 -0.49048543526404831 -0.32960291085151988 0 -0.5 -0.3115730620380921 0 -0.48293754746551898 -0.30617437981156609 0 -0.48763303240419292 -0.31981883507337211 0 -0.48763303240419292 -0.31981883507337211 0 -0.49048543526404831 -0.32960291085151988 0 -0.47770984076123751 -0.32964979107966252 0 -0.49048543526404831 -0.32960291085151988 0 -0.47770984076123751 -0.32964979107966252 0 -0.48708430315481122 -0.3479620774366432 0 -0.5 -0.33901078862982997 0 -0.49048543526404831 -0.32960291085151988 0 -0.48708430315481122 -0.3479620774366432 0 -0.47770984076123751 -0.32964979107966252 0 -0.47248213405695583 -0.35312520234775913 0 -0.47770984076123751 -0.32964979107966252 0 -0.47248213405695583 -0.35312520234775913 0 -0.48708430315481122 -0.3479620774366432 0 -0.46472493826860672 -0.34236766697450172 0 -0.47770984076123751 -0.32964979107966252 0 -0.47248213405695583 -0.35312520234775913 0 -0.46855294336124231 -0.32873531729210143 0 -0.46386644800117471 -0.33586508895417932 0 -0.47770984076123751 -0.32964979107966252 0 -0.46472493826860672 -0.34236766697450172 0 -0.46386644800117471 -0.33586508895417932 0 -0.47770984076123751 -0.32964979107966252 0 -0.47248213405695583 -0.35312520234775913 0 -0.48708430315481122 -0.3479620774366432 0 -0.48422759779560409 -0.37130120630367158 0 -0.5 -0.33901078862982997 0 -0.48708430315481122 -0.3479620774366432 0 -0.5 -0.36644851522156802 0 -0.48708430315481122 -0.3479620774366432 0 -0.5 -0.36644851522156802 0 -0.48422759779560409 -0.37130120630367158 0 -0.46725442735267431 -0.37660061361585562 0 -0.47248213405695583 -0.35312520234775913 0 -0.48422759779560409 -0.37130120630367158 0 -0.46725442735267431 -0.37660061361585562 0 -0.47248213405695583 -0.35312520234775913 0 -0.46725442735267431 -0.37660061361585562 0 -0.4540003998136638 -0.37455519391687309 0 -0.46226041713245919 -0.36267102145096558 0 -0.46725442735267431 -0.37660061361585562 0 -0.47248213405695583 -0.35312520234775913 0 -0.46226041713245919 -0.36267102145096558 0 -0.4540003998136638 -0.37455519391687309 0 -0.46226041713245919 -0.36267102145096558 0 -0.45167034254705118 -0.36337553476545958 0 -0.47248213405695583 -0.35312520234775913 0 -0.46226041713245919 -0.36267102145096558 0 -0.46130034509645268 -0.35111989715704561 0 -0.46472493826860672 -0.34236766697450172 0 -0.47248213405695583 -0.35312520234775913 0 -0.46130034509645268 -0.35111989715704561 0 -0.46472493826860672 -0.34236766697450172 0 -0.46130034509645268 -0.35111989715704561 0 -0.45711636988675219 -0.34547487934353349 0 -0.46130034509645268 -0.35111989715704561 0 -0.45711636988675219 -0.34547487934353349 0 -0.4507851133594416 -0.34910720111649318 0 -0.46226041713245919 -0.36267102145096558 0 -0.4507851133594416 -0.34910720111649318 0 -0.45167034254705118 -0.36337553476545958 0 -0.46226041713245919 -0.36267102145096558 0 -0.46130034509645268 -0.35111989715704561 0 -0.4507851133594416 -0.34910720111649318 0 -0.46226041713245919 -0.36267102145096558 0 -0.4507851133594416 -0.34910720111649318 0 -0.4507851133594416 -0.34910720111649318 0 -0.44504098357239391 -0.35771747353496869 0 -0.45167034254705118 -0.36337553476545958 0 -0.44966367396753332 -0.33841986907325933 0 -0.45711636988675219 -0.34547487934353349 0 -0.4507851133594416 -0.34910720111649318 0 -0.4507851133594416 -0.34910720111649318 0 -0.44408457896710762 -0.34741130507322732 0 -0.44504098357239391 -0.35771747353496869 0 -0.43930980958642257 -0.33554338078202212 0 -0.4507851133594416 -0.34910720111649318 0 -0.44408457896710762 -0.34741130507322732 0 -0.44408457896710762 -0.34741130507322732 0 -0.43834809566141358 -0.35386966642967582 0 -0.4310745521241639 -0.35060051531725012 0 -0.44408457896710762 -0.34741130507322732 0 -0.43834809566141358 -0.35386966642967582 0 -0.44504098357239391 -0.35771747353496869 0 -0.43834809566141358 -0.35386966642967582 0 -0.44504098357239391 -0.35771747353496869 0 -0.43256408976529492 -0.36260533289695268 0 -0.44504098357239391 -0.35771747353496869 0 -0.44172858264042247 -0.37082207246888088 0 -0.43256408976529492 -0.36260533289695268 0 -0.4540003998136638 -0.37455519391687309 0 -0.44172858264042247 -0.37082207246888088 0 -0.45167034254705118 -0.36337553476545958 0 -0.44504098357239391 -0.35771747353496869 0 -0.44172858264042247 -0.37082207246888088 0 -0.45167034254705118 -0.36337553476545958 0 -0.42311368847744002 -0.37830224279505142 0 -0.44172858264042247 -0.37082207246888088 0 -0.43256408976529492 -0.36260533289695268 0 -0.42311368847744002 -0.37830224279505142 0 -0.43256408976529492 -0.36260533289695268 0 -0.41867380740831611 -0.36398836527224071 0 -0.43256408976529492 -0.36260533289695268 0 -0.42210656065146929 -0.35476551363046099 0 -0.41867380740831611 -0.36398836527224071 0 -0.44408457896710762 -0.34741130507322732 0 -0.4310745521241639 -0.35060051531725012 0 -0.42443636388738298 -0.3390060521705498 0 -0.43834809566141358 -0.35386966642967582 0 -0.43256408976529492 -0.36260533289695268 0 -0.4310745521241639 -0.35060051531725012 0 -0.4310745521241639 -0.35060051531725012 0 -0.42266042161335821 -0.34652378860874011 0 -0.42210656065146929 -0.35476551363046099 0 -0.4310745521241639 -0.35060051531725012 0 -0.42266042161335821 -0.34652378860874011 0 -0.42443636388738298 -0.3390060521705498 0 -0.43256408976529492 -0.36260533289695268 0 -0.4310745521241639 -0.35060051531725012 0 -0.42210656065146929 -0.35476551363046099 0 -0.42210656065146929 -0.35476551363046099 0 -0.41243440171204931 -0.35621682403100541 0 -0.41867380740831611 -0.36398836527224071 0 -0.41243440171204931 -0.35621682403100541 0 -0.40365717239196519 -0.36741535175059892 0 -0.40302160193259851 -0.3439916005776541 0 -0.42210656065146929 -0.35476551363046099 0 -0.41714587076776338 -0.34786779488983011 0 -0.41243440171204931 -0.35621682403100541 0 -0.42266042161335821 -0.34652378860874011 0 -0.42210656065146929 -0.35476551363046099 0 -0.41714587076776338 -0.34786779488983011 0 -0.42266042161335821 -0.34652378860874011 0 -0.41714587076776338 -0.34786779488983011 0 -0.41853876063601031 -0.34037906703560689 0 -0.41714587076776338 -0.34786779488983011 0 -0.41853876063601031 -0.34037906703560689 0 -0.41714587076776338 -0.34786779488983011 0 -0.41243440171204931 -0.35621682403100541 0 -0.40302160193259851 -0.3439916005776541 0 -0.41714587076776338 -0.34786779488983011 0 -0.40302160193259851 -0.3439916005776541 0 -0.41853876063601031 -0.34037906703560689 0 -0.42311368847744002 -0.37830224279505142 0 -0.41867380740831611 -0.36398836527224071 0 -0.40365717239196519 -0.36741535175059892 0 -0.42311368847744002 -0.37830224279505142 0 -0.40365717239196519 -0.36741535175059892 0 -0.41243440171204931 -0.35621682403100541 0 -0.41867380740831611 -0.36398836527224071 0 -0.40365717239196519 -0.36741535175059892 0 -0.40403491357358612 -0.38133688525744702 0 -0.40365717239196519 -0.36741535175059892 0 -0.40403491357358612 -0.38133688525744702 0 -0.40365717239196519 -0.36741535175059892 0 -0.3904578797192948 -0.37473938743617019 0 -0.40365717239196519 -0.36741535175059892 0 -0.38979507995825918 -0.35965881973269581 0 -0.40365717239196519 -0.36741535175059892 0 -0.3904578797192948 -0.37473938743617019 0 -0.38979507995825918 -0.35965881973269581 0 -0.3904578797192948 -0.37473938743617019 0 -0.38979507995825918 -0.35965881973269581 0 -0.37568304780698558 -0.36916333065311507 0 -0.37568304780698558 -0.36916333065311507 0 -0.37593298752455201 -0.35190228771479481 0 -0.38979507995825918 -0.35965881973269581 0 -0.37568304780698558 -0.36916333065311507 0 -0.37593298752455201 -0.35190228771479481 0 -0.38979507995825918 -0.35965881973269581 0 -0.37595629511297179 -0.35029264644438168 0 -0.40302160193259851 -0.3439916005776541 0 -0.37595629511297179 -0.35029264644438168 0 -0.40302160193259851 -0.3439916005776541 0 -0.38842354837557669 -0.33756560667471242 0 -0.37595629511297179 -0.35029264644438168 0 -0.40302160193259851 -0.3439916005776541 0 -0.37595629511297179 -0.35029264644438168 0 -0.37607676276689278 -0.3419730509543204 0 -0.37390838074359528 -0.35076941925389299 0 -0.37595629511297179 -0.35029264644438168 0 -0.37607676276689278 -0.3419730509543204 0 -0.37595629511297179 -0.35029264644438168 0 -0.37593298752455201 -0.35190228771479481 0 -0.37390838074359528 -0.35076941925389299 0 -0.37595629511297179 -0.35029264644438168 0 -0.37593298752455201 -0.35190228771479481 0 -0.38979507995825918 -0.35965881973269581 0 -0.37595629511297179 -0.35029264644438168 0 -0.37593298752455201 -0.35190228771479481 0 -0.38979507995825918 -0.35965881973269581 0 -0.37593298752455201 -0.35190228771479481 0 -0.40365717239196519 -0.36741535175059892 0 -0.40302160193259851 -0.3439916005776541 0 -0.40365717239196519 -0.36741535175059892 0 -0.38979507995825918 -0.35965881973269581 0 -0.40302160193259851 -0.3439916005776541 0 -0.40302160193259851 -0.3439916005776541 0 -0.40263324863316441 -0.32967896077653092 0 -0.40263324863316441 -0.32967896077653092 0 -0.38842354837557669 -0.33756560667471242 0 -0.38442983343225828 -0.32189177462067481 0 -0.40302160193259851 -0.3439916005776541 0 -0.40263324863316441 -0.32967896077653092 0 -0.38842354837557669 -0.33756560667471242 0 -0.37607676276689278 -0.3419730509543204 0 -0.37641717267996733 -0.3184640617331177 0 -0.38842354837557669 -0.33756560667471242 0 -0.37607676276689278 -0.3419730509543204 0 -0.38442983343225828 -0.32189177462067481 0 -0.37607676276689278 -0.3419730509543204 0 -0.38442983343225828 -0.32189177462067481 0 -0.37595629511297179 -0.35029264644438168 0 -0.38842354837557669 -0.33756560667471242 0 -0.37607676276689278 -0.3419730509543204 0 -0.37607676276689278 -0.3419730509543204 0 -0.37641717267996733 -0.3184640617331177 0 -0.38442983343225828 -0.32189177462067481 0 -0.37641717267996733 -0.3184640617331177 0 -0.38442983343225828 -0.32189177462067481 0 -0.3841914044669909 -0.30132118344037401 0 -0.37641717267996733 -0.3184640617331177 0 -0.38442983343225828 -0.32189177462067481 0 -0.40263324863316441 -0.32967896077653092 0 -0.38442983343225828 -0.32189177462067481 0 -0.40185461233875269 -0.30098256284660307 0 -0.40263324863316441 -0.32967896077653092 0 -0.38442983343225828 -0.32189177462067481 0 -0.40263324863316441 -0.32967896077653092 0 -0.40185461233875269 -0.30098256284660307 0 -0.40263324863316441 -0.32967896077653092 0 -0.41242695344044827 -0.31820451366256841 0 -0.40185461233875269 -0.30098256284660307 0 -0.41242695344044827 -0.31820451366256841 0 -0.41920998916455232 -0.33677027649670849 0 -0.42301959421646518 -0.31628833020920039 0 -0.41920998916455232 -0.33677027649670849 0 -0.42301959421646518 -0.31628833020920039 0 -0.41242695344044827 -0.31820451366256841 0 -0.42301959421646518 -0.31628833020920039 0 -0.41541732284930832 -0.30730243798379953 0 -0.40302160193259851 -0.3439916005776541 0 -0.41920998916455232 -0.33677027649670849 0 -0.41853876063601031 -0.34037906703560689 0 -0.40302160193259851 -0.3439916005776541 0 -0.40263324863316441 -0.32967896077653092 0 -0.41920998916455232 -0.33677027649670849 0 -0.40263324863316441 -0.32967896077653092 0 -0.41920998916455232 -0.33677027649670849 0 -0.40263324863316441 -0.32967896077653092 0 -0.41242695344044827 -0.31820451366256841 0 -0.41920998916455232 -0.33677027649670849 0 -0.40302160193259851 -0.3439916005776541 0 -0.41853876063601031 -0.34037906703560689 0 -0.41853876063601031 -0.34037906703560689 0 -0.42443636388738298 -0.3390060521705498 0 -0.41920998916455232 -0.33677027649670849 0 -0.42443636388738298 -0.3390060521705498 0 -0.41920998916455232 -0.33677027649670849 0 -0.41853876063601031 -0.34037906703560689 0 -0.42443636388738298 -0.3390060521705498 0 -0.41920998916455232 -0.33677027649670849 0 -0.41853876063601031 -0.34037906703560689 0 -0.43930980958642257 -0.33554338078202212 0 -0.44408457896710762 -0.34741130507322732 0 -0.42443636388738298 -0.3390060521705498 0 -0.43930980958642257 -0.33554338078202212 0 -0.42443636388738298 -0.3390060521705498 0 -0.42301959421646518 -0.31628833020920039 0 -0.41920998916455232 -0.33677027649670849 0 -0.42443636388738298 -0.3390060521705498 0 -0.42301959421646518 -0.31628833020920039 0 -0.44408457896710762 -0.34741130507322732 0 -0.42443636388738298 -0.3390060521705498 0 -0.42266042161335821 -0.34652378860874011 0 -0.41853876063601031 -0.34037906703560689 0 -0.42443636388738298 -0.3390060521705498 0 -0.43930980958642257 -0.33554338078202212 0 -0.42443636388738298 -0.3390060521705498 0 -0.43930980958642257 -0.33554338078202212 0 -0.42301959421646518 -0.31628833020920039 0 -0.44024276041750632 -0.31887045497680111 0 -0.42395130998641067 -0.31127905704434472 0 -0.44024276041750632 -0.31887045497680111 0 -0.43930980958642257 -0.33554338078202212 0 -0.42301959421646518 -0.31628833020920039 0 -0.44024276041750632 -0.31887045497680111 0 -0.42301959421646518 -0.31628833020920039 0 -0.42395130998641067 -0.31127905704434472 0 -0.42301959421646518 -0.31628833020920039 0 -0.42395130998641067 -0.31127905704434472 0 -0.42395130998641067 -0.31127905704434472 0 -0.42709180872781188 -0.29439449141065738 0 -0.44024276041750632 -0.31887045497680111 0 -0.42395130998641067 -0.31127905704434472 0 -0.43527018611072049 -0.30465000121327751 0 -0.42395130998641067 -0.31127905704434472 0 -0.42709180872781188 -0.29439449141065738 0 -0.41541732284930832 -0.30730243798379953 0 -0.42395130998641067 -0.31127905704434472 0 -0.43527018611072049 -0.30465000121327751 0 -0.42709180872781188 -0.29439449141065738 0 -0.441361257405879 -0.29303276451920029 0 -0.43527018611072049 -0.30465000121327751 0 -0.42709180872781188 -0.29439449141065738 0 -0.42709180872781188 -0.29439449141065738 0 -0.43077531442077321 -0.27459050524281542 0 -0.42709180872781188 -0.29439449141065738 0 -0.41684225135067149 -0.28376244362903152 0 -0.43077531442077321 -0.27459050524281542 0 -0.441361257405879 -0.29303276451920029 0 -0.42709180872781188 -0.29439449141065738 0 -0.441361257405879 -0.29303276451920029 0 -0.42709180872781188 -0.29439449141065738 0 -0.43077531442077321 -0.27459050524281542 0 -0.42709180872781188 -0.29439449141065738 0 -0.41684225135067149 -0.28376244362903152 0 -0.40618483967714292 -0.29638963380315841 0 -0.42709180872781188 -0.29439449141065738 0 -0.40618483967714292 -0.29638963380315841 0 -0.41684225135067149 -0.28376244362903152 0 -0.40690107601488551 -0.28490397733270861 0 -0.40618483967714292 -0.29638963380315841 0 -0.41541732284930832 -0.30730243798379953 0 -0.40185461233875269 -0.30098256284660307 0 -0.40618483967714292 -0.29638963380315841 0 -0.42709180872781188 -0.29439449141065738 0 -0.41541732284930832 -0.30730243798379953 0 -0.40618483967714292 -0.29638963380315841 0 -0.41541732284930832 -0.30730243798379953 0 -0.40618483967714292 -0.29638963380315841 0 -0.41242695344044827 -0.31820451366256841 0 -0.41541732284930832 -0.30730243798379953 0 -0.40185461233875269 -0.30098256284660307 0 -0.41541732284930832 -0.30730243798379953 0 -0.40185461233875269 -0.30098256284660307 0 -0.42301959421646518 -0.31628833020920039 0 -0.41541732284930832 -0.30730243798379953 0 -0.42395130998641067 -0.31127905704434472 0 -0.41541732284930832 -0.30730243798379953 0 -0.42301959421646518 -0.31628833020920039 0 -0.42395130998641067 -0.31127905704434472 0 -0.41541732284930832 -0.30730243798379953 0 -0.38442983343225828 -0.32189177462067481 0 -0.40185461233875269 -0.30098256284660307 0 -0.39448508010510541 -0.297525044214214 0 -0.40185461233875269 -0.30098256284660307 0 -0.40174149504185092 -0.29681366012781812 0 -0.40618483967714292 -0.29638963380315841 0 -0.40185461233875269 -0.30098256284660307 0 -0.40174149504185092 -0.29681366012781812 0 -0.40185461233875269 -0.30098256284660307 0 -0.39448508010510541 -0.297525044214214 0 -0.40174149504185092 -0.29681366012781812 0 -0.40185461233875269 -0.30098256284660307 0 -0.39448508010510541 -0.297525044214214 0 -0.39448508010510541 -0.297525044214214 0 -0.40174149504185092 -0.29681366012781812 0 -0.37641717267996733 -0.3184640617331177 0 -0.37669606201677502 -0.29920373422444158 0 -0.38442983343225828 -0.32189177462067481 0 -0.39448508010510541 -0.297525044214214 0 -0.38442983343225828 -0.32189177462067481 0 -0.39448508010510541 -0.297525044214214 0 -0.3841914044669909 -0.30132118344037401 0 -0.37641717267996733 -0.3184640617331177 0 -0.3841914044669909 -0.30132118344037401 0 -0.37669606201677502 -0.29920373422444158 0 -0.39448508010510541 -0.297525044214214 0 -0.3841914044669909 -0.30132118344037401 0 -0.37928718982873688 -0.29895646409505849 0 -0.39448508010510541 -0.297525044214214 0 -0.37928718982873688 -0.29895646409505849 0 -0.3841914044669909 -0.30132118344037401 0 -0.37928718982873688 -0.29895646409505849 0 -0.3841914044669909 -0.30132118344037401 0 -0.37928718982873688 -0.29895646409505849 0 -0.37669606201677502 -0.29920373422444158 0 -0.37928718982873688 -0.29895646409505849 0 -0.37669606201677502 -0.29920373422444158 0 -0.37671758341694961 -0.29771744858697219 0 -0.37928718982873688 -0.29895646409505849 0 -0.37671758341694961 -0.29771744858697219 0 -0.37928718982873688 -0.29895646409505849 0 -0.37669606201677502 -0.29920373422444158 0 -0.37669606201677502 -0.29920373422444158 0 -0.37671758341694961 -0.29771744858697219 0 -0.37671758341694961 -0.29771744858697219 0 -0.38607699004493318 -0.28757386461908069 0 -0.38483052758877101 -0.28123782127595193 0 -0.37671758341694961 -0.29771744858697219 0 -0.3770412393053626 -0.27536550612006683 0 -0.37671758341694961 -0.29771744858697219 0 -0.38483052758877101 -0.28123782127595193 0 -0.3770412393053626 -0.27536550612006683 0 -0.37928718982873688 -0.29895646409505849 0 -0.37671758341694961 -0.29771744858697219 0 -0.38467000758835601 -0.29297497791584359 0 -0.37671758341694961 -0.29771744858697219 0 -0.38467000758835601 -0.29297497791584359 0 -0.38607699004493318 -0.28757386461908069 0 -0.39448508010510541 -0.297525044214214 0 -0.37928718982873688 -0.29895646409505849 0 -0.38467000758835601 -0.29297497791584359 0 -0.39448508010510541 -0.297525044214214 0 -0.38467000758835601 -0.29297497791584359 0 -0.39448508010510541 -0.297525044214214 0 -0.38467000758835601 -0.29297497791584359 0 -0.39217701296355612 -0.28987936211692023 0 -0.38467000758835601 -0.29297497791584359 0 -0.38607699004493318 -0.28757386461908069 0 -0.39217701296355612 -0.28987936211692023 0 -0.38607699004493318 -0.28757386461908069 0 -0.39049541959166939 -0.28414526237041138 0 -0.39217701296355612 -0.28987936211692023 0 -0.39049541959166939 -0.28414526237041138 0 -0.39420405367365152 -0.27853706101481662 0 -0.38483052758877101 -0.28123782127595193 0 -0.38607699004493318 -0.28757386461908069 0 -0.39049541959166939 -0.28414526237041138 0 -0.38483052758877101 -0.28123782127595193 0 -0.39597078832761667 -0.28551153658085893 0 -0.40174149504185092 -0.29681366012781812 0 -0.40123596036735593 -0.27818233727432817 0 -0.39049541959166939 -0.28414526237041138 0 -0.39597078832761667 -0.28551153658085893 0 -0.39420405367365152 -0.27853706101481662 0 -0.40174149504185092 -0.29681366012781812 0 -0.40123596036735593 -0.27818233727432817 0 -0.40174149504185092 -0.29681366012781812 0 -0.40322207619149192 -0.29288764445213411 0 -0.40123596036735593 -0.27818233727432817 0 -0.39049541959166939 -0.28414526237041138 0 -0.39597078832761667 -0.28551153658085893 0 -0.39217701296355612 -0.28987936211692023 0 -0.39597078832761667 -0.28551153658085893 0 -0.39217701296355612 -0.28987936211692023 0 -0.40174149504185092 -0.29681366012781812 0 -0.39448508010510541 -0.297525044214214 0 -0.39217701296355612 -0.28987936211692023 0 -0.40174149504185092 -0.29681366012781812 0 -0.40690107601488551 -0.28490397733270861 0 -0.40322207619149192 -0.29288764445213411 0 -0.40618483967714292 -0.29638963380315841 0 -0.40174149504185092 -0.29681366012781812 0 -0.40322207619149192 -0.29288764445213411 0 -0.40618483967714292 -0.29638963380315841 0 -0.40174149504185092 -0.29681366012781812 0 -0.40618483967714292 -0.29638963380315841 0 -0.40322207619149192 -0.29288764445213411 0 -0.40618483967714292 -0.29638963380315841 0 -0.40690107601488551 -0.28490397733270861 0 -0.40322207619149192 -0.29288764445213411 0 -0.40123596036735593 -0.27818233727432817 0 -0.39420405367365152 -0.27853706101481662 0 -0.37710287173325818 -0.2711091198417086 0 -0.40073042569286338 -0.25955101442083811 0 -0.40123596036735593 -0.27818233727432817 0 -0.39420405367365152 -0.27853706101481662 0 -0.40073042569286338 -0.25955101442083811 0 -0.40123596036735593 -0.27818233727432817 0 -0.40073042569286338 -0.25955101442083811 0 -0.40123596036735593 -0.27818233727432817 0 -0.40073042569286338 -0.25955101442083811 0 -0.41341650638623911 -0.27076301679274262 0 -0.39597078832761667 -0.28551153658085893 0 -0.40123596036735593 -0.27818233727432817 0 -0.39420405367365152 -0.27853706101481662 0 -0.39420405367365152 -0.27853706101481662 0 -0.37710287173325818 -0.2711091198417086 0 -0.3770412393053626 -0.27536550612006683 0 -0.39420405367365152 -0.27853706101481662 0 -0.3770412393053626 -0.27536550612006683 0 -0.39420405367365152 -0.27853706101481662 0 -0.38483052758877101 -0.28123782127595193 0 -0.3770412393053626 -0.27536550612006683 0 -0.37710287173325818 -0.2711091198417086 0 -0.3770412393053626 -0.27536550612006683 0 -0.37710287173325818 -0.2711091198417086 0 -0.38543722149146659 -0.25821727905458303 0 -0.40073042569286338 -0.25955101442083811 0 -0.37710287173325818 -0.2711091198417086 0 -0.37747963509906429 -0.24508953120583671 0 -0.37710287173325818 -0.2711091198417086 0 -0.40073042569286338 -0.25955101442083811 0 -0.37710287173325818 -0.2711091198417086 0 -0.38543722149146659 -0.25821727905458303 0 -0.37747963509906429 -0.24508953120583671 0 -0.38543722149146659 -0.25821727905458303 0 -0.3938256931015453 -0.25037754026629511 0 -0.37747963509906429 -0.24508953120583671 0 -0.38543722149146659 -0.25821727905458303 0 -0.3938256931015453 -0.25037754026629511 0 -0.40073042569286338 -0.25955101442083811 0 -0.40073042569286338 -0.25955101442083811 0 -0.40282532782868952 -0.25224285689579767 0 -0.40022281387448849 -0.24084313907701979 0 -0.40073042569286338 -0.25955101442083811 0 -0.40022281387448849 -0.24084313907701979 0 -0.3938256931015453 -0.25037754026629511 0 -0.40073042569286338 -0.25955101442083811 0 -0.40022281387448849 -0.24084313907701979 0 -0.40073042569286338 -0.25955101442083811 0 -0.40282532782868952 -0.25224285689579767 0 -0.41385673751816382 -0.25312989710486528 0 -0.40073042569286338 -0.25955101442083811 0 -0.41385673751816382 -0.25312989710486528 0 -0.40073042569286338 -0.25955101442083811 0 -0.41385673751816382 -0.25312989710486528 0 -0.41341650638623911 -0.27076301679274262 0 -0.41385673751816382 -0.25312989710486528 0 -0.41341650638623911 -0.27076301679274262 0 -0.42312684460972783 -0.26331748455384929 0 -0.41385673751816382 -0.25312989710486528 0 -0.41679144862722167 -0.25169429778568547 0 -0.43445882011373449 -0.25478651907497341 0 -0.40282532782868952 -0.25224285689579767 0 -0.41385673751816382 -0.25312989710486528 0 -0.4086566941719203 -0.24778871483445111 0 -0.40282532782868952 -0.25224285689579767 0 -0.41385673751816382 -0.25312989710486528 0 -0.41385673751816382 -0.25312989710486528 0 -0.41679144862722167 -0.25169429778568547 0 -0.41627810448972868 -0.24641300060905449 0 -0.41385673751816382 -0.25312989710486528 0 -0.41679144862722167 -0.25169429778568547 0 -0.41684225135067149 -0.28376244362903152 0 -0.41341650638623911 -0.27076301679274262 0 -0.43077531442077321 -0.27459050524281542 0 -0.40690107601488551 -0.28490397733270861 0 -0.40123596036735593 -0.27818233727432817 0 -0.41341650638623911 -0.27076301679274262 0 -0.41684225135067149 -0.28376244362903152 0 -0.40690107601488551 -0.28490397733270861 0 -0.41341650638623911 -0.27076301679274262 0 -0.41341650638623911 -0.27076301679274262 0 -0.43077531442077321 -0.27459050524281542 0 -0.42312684460972783 -0.26331748455384929 0 -0.43077531442077321 -0.27459050524281542 0 -0.42312684460972783 -0.26331748455384929 0 -0.43445882011373449 -0.25478651907497341 0 -0.41385673751816382 -0.25312989710486528 0 -0.43445882011373449 -0.25478651907497341 0 -0.43077531442077321 -0.27459050524281542 0 -0.43445882011373449 -0.25478651907497341 0 -0.41385673751816382 -0.25312989710486528 0 -0.42312684460972783 -0.26331748455384929 0 -0.43445882011373449 -0.25478651907497341 0 -0.41679144862722167 -0.25169429778568547 0 -0.43445882011373449 -0.25478651907497341 0 -0.42335340856967768 -0.24893549408922019 0 -0.32580796388430833 -0.26195871891040218 0 -0.34139866608006603 -0.2687790352098644 0 -0.31202674084989918 -0.26335133138269068 0 -0.32580796388430833 -0.26195871891040218 0 -0.33345250408021371 -0.25331871279766999 0 -0.32023222063025569 -0.2489608815952247 0 -0.32580796388430833 -0.26195871891040218 0 -0.31664960680882542 -0.25714232151458272 0 -0.32023222063025569 -0.2489608815952247 0 -0.31664960680882542 -0.25714232151458272 0 -0.30853150187083839 -0.25429835417001312 0 -0.32023222063025569 -0.2489608815952247 0 -0.32580796388430833 -0.26195871891040218 0 -0.31664960680882542 -0.25714232151458272 0 -0.31202674084989918 -0.26335133138269068 0 -0.33223611708196649 -0.27626932861073827 0 -0.31972670239926188 -0.28454160199560091 0 -0.31187737399160442 -0.27618124236115132 0 -0.34139866608006603 -0.2687790352098644 0 -0.31202674084989918 -0.26335133138269068 0 -0.33223611708196649 -0.27626932861073827 0 -0.31202674084989918 -0.26335133138269068 0 -0.3062135479255173 -0.26372173898871692 0 -0.33223611708196649 -0.27626932861073827 0 -0.31187737399160442 -0.27618124236115132 0 -0.3062135479255173 -0.26372173898871692 0 -0.33260241140844943 -0.2743168067351805 0 -0.33223611708196649 -0.27626932861073827 0 -0.31202674084989918 -0.26335133138269068 0 -0.33223611708196649 -0.27626932861073827 0 -0.3062135479255173 -0.26372173898871692 0 -0.33260241140844943 -0.2743168067351805 0 -0.34139866608006603 -0.2687790352098644 0 -0.31202674084989918 -0.26335133138269068 0 -0.33223611708196649 -0.27626932861073827 0 -0.34139866608006603 -0.2687790352098644 0 -0.34951875912658742 -0.28460269103381453 0 -0.33223611708196649 -0.27626932861073827 0 -0.34951875912658742 -0.28460269103381453 0 -0.33260241140844943 -0.2743168067351805 0 -0.33223611708196649 -0.27626932861073827 0 -0.34139866608006603 -0.2687790352098644 0 -0.33260241140844943 -0.2743168067351805 0 -0.33223611708196649 -0.27626932861073827 0 -0.34139866608006603 -0.2687790352098644 0 -0.3363084638556994 -0.26041051377605268 0 -0.34457472137820933 -0.25758558818627408 0 -0.32580796388430833 -0.26195871891040218 0 -0.34139866608006603 -0.2687790352098644 0 -0.3363084638556994 -0.26041051377605268 0 -0.32580796388430833 -0.26195871891040218 0 -0.3363084638556994 -0.26041051377605268 0 -0.33345250408021371 -0.25331871279766999 0 -0.3363084638556994 -0.26041051377605268 0 -0.33345250408021371 -0.25331871279766999 0 -0.34457472137820933 -0.25758558818627408 0 -0.33345250408021371 -0.25331871279766999 0 -0.34457472137820933 -0.25758558818627408 0 -0.34395992200845399 -0.24382677409400949 0 -0.34139866608006603 -0.2687790352098644 0 -0.34457472137820933 -0.25758558818627408 0 -0.35733732661955131 -0.26288598862094092 0 -0.34457472137820933 -0.25758558818627408 0 -0.35872453044413888 -0.25078889886649508 0 -0.34395992200845399 -0.24382677409400949 0 -0.34457472137820933 -0.25758558818627408 0 -0.35733732661955131 -0.26288598862094092 0 -0.35872453044413888 -0.25078889886649508 0 -0.37710287173325818 -0.2711091198417086 0 -0.36828299104124951 -0.26081605551440462 0 -0.37747963509906429 -0.24508953120583671 0 -0.35872453044413888 -0.25078889886649508 0 -0.36828299104124951 -0.26081605551440462 0 -0.37747963509906429 -0.24508953120583671 0 -0.35733732661955131 -0.26288598862094092 0 -0.35872453044413888 -0.25078889886649508 0 -0.36828299104124951 -0.26081605551440462 0 -0.37077059131023282 -0.27420673903703829 0 -0.34951875912658742 -0.28460269103381453 0 -0.37710287173325818 -0.2711091198417086 0 -0.3770412393053626 -0.27536550612006683 0 -0.37077059131023282 -0.27420673903703829 0 -0.3770412393053626 -0.27536550612006683 0 -0.37077059131023282 -0.27420673903703829 0 -0.37710287173325818 -0.2711091198417086 0 -0.36828299104124951 -0.26081605551440462 0 -0.37077059131023282 -0.27420673903703829 0 -0.37710287173325818 -0.2711091198417086 0 -0.37077059131023282 -0.27420673903703829 0 -0.35733732661955131 -0.26288598862094092 0 -0.36828299104124951 -0.26081605551440462 0 -0.37077059131023282 -0.27420673903703829 0 -0.34139866608006603 -0.2687790352098644 0 -0.35733732661955131 -0.26288598862094092 0 -0.37077059131023282 -0.27420673903703829 0 -0.34139866608006603 -0.2687790352098644 0 -0.37077059131023282 -0.27420673903703829 0 -0.34951875912658742 -0.28460269103381453 0 -0.34139866608006603 -0.2687790352098644 0 -0.37077059131023282 -0.27420673903703829 0 -0.34951875912658742 -0.28460269103381453 0 -0.3581763596052473 -0.30097106086504849 0 -0.34010739644885768 -0.2892065328944351 0 -0.34951875912658742 -0.28460269103381453 0 -0.34010739644885768 -0.2892065328944351 0 -0.37671758341694961 -0.29771744858697219 0 -0.37077059131023282 -0.27420673903703829 0 -0.34951875912658742 -0.28460269103381453 0 -0.37671758341694961 -0.29771744858697219 0 -0.34951875912658742 -0.28460269103381453 0 -0.37671758341694961 -0.29771744858697219 0 -0.3770412393053626 -0.27536550612006683 0 -0.37077059131023282 -0.27420673903703829 0 -0.37671758341694961 -0.29771744858697219 0 -0.34951875912658742 -0.28460269103381453 0 -0.3581763596052473 -0.30097106086504849 0 -0.37669606201677502 -0.29920373422444158 0 -0.37671758341694961 -0.29771744858697219 0 -0.3581763596052473 -0.30097106086504849 0 -0.37641717267996733 -0.3184640617331177 0 -0.37669606201677502 -0.29920373422444158 0 -0.36799370156123501 -0.30592930732763762 0 -0.37641717267996733 -0.3184640617331177 0 -0.36799370156123501 -0.30592930732763762 0 -0.35803691493684492 -0.31060122461938489 0 -0.37669606201677502 -0.29920373422444158 0 -0.36799370156123501 -0.30592930732763762 0 -0.3581763596052473 -0.30097106086504849 0 -0.37669606201677502 -0.29920373422444158 0 -0.3581763596052473 -0.30097106086504849 0 -0.36799370156123501 -0.30592930732763762 0 -0.35803691493684492 -0.31060122461938489 0 -0.3581763596052473 -0.30097106086504849 0 -0.35803691493684492 -0.31060122461938489 0 -0.33965665719371979 -0.30273838750565862 0 -0.35803691493684492 -0.31060122461938489 0 -0.33965665719371979 -0.30273838750565862 0 -0.34514704515453298 -0.31300544250539297 0 -0.3581763596052473 -0.30097106086504849 0 -0.33965665719371979 -0.30273838750565862 0 -0.34010739644885768 -0.2892065328944351 0 -0.35803691493684492 -0.31060122461938489 0 -0.3581763596052473 -0.30097106086504849 0 -0.33965665719371979 -0.30273838750565862 0 -0.3581763596052473 -0.30097106086504849 0 -0.33965665719371979 -0.30273838750565862 0 -0.33676996251121621 -0.31158184422573892 0 -0.33965665719371979 -0.30273838750565862 0 -0.34514704515453298 -0.31300544250539297 0 -0.33676996251121621 -0.31158184422573892 0 -0.33965665719371979 -0.30273838750565862 0 -0.32704471803945162 -0.30394193902942662 0 -0.33676996251121621 -0.31158184422573892 0 -0.32594772137393307 -0.30978944971135602 0 -0.32704471803945162 -0.30394193902942662 0 -0.33965665719371979 -0.30273838750565862 0 -0.32704471803945162 -0.30394193902942662 0 -0.32819068517220462 -0.29783339261299951 0 -0.33965665719371979 -0.30273838750565862 0 -0.32704471803945162 -0.30394193902942662 0 -0.32819068517220462 -0.29783339261299951 0 -0.33965665719371979 -0.30273838750565862 0 -0.33223611708196649 -0.27626932861073827 0 -0.32819068517220462 -0.29783339261299951 0 -0.33223611708196649 -0.27626932861073827 0 -0.32819068517220462 -0.29783339261299951 0 -0.34010739644885768 -0.2892065328944351 0 -0.33223611708196649 -0.27626932861073827 0 -0.34951875912658742 -0.28460269103381453 0 -0.34010739644885768 -0.2892065328944351 0 -0.32819068517220462 -0.29783339261299951 0 -0.33965665719371979 -0.30273838750565862 0 -0.34010739644885768 -0.2892065328944351 0 -0.32819068517220462 -0.29783339261299951 0 -0.31972670239926188 -0.28454160199560091 0 -0.31332574866090718 -0.291474364566292 0 -0.32819068517220462 -0.29783339261299951 0 -0.31332574866090718 -0.291474364566292 0 -0.33223611708196649 -0.27626932861073827 0 -0.32819068517220462 -0.29783339261299951 0 -0.31972670239926188 -0.28454160199560091 0 -0.31972670239926188 -0.28454160199560091 0 -0.31332574866090718 -0.291474364566292 0 -0.30937392239009109 -0.28339120160471948 0 -0.31972670239926188 -0.28454160199560091 0 -0.30937392239009109 -0.28339120160471948 0 -0.31187737399160442 -0.27618124236115132 0 -0.31992409361072222 -0.30462145692723192 0 -0.32594772137393307 -0.30978944971135602 0 -0.31307430431717392 -0.31869978567557272 0 -0.31992409361072222 -0.30462145692723192 0 -0.32594772137393307 -0.30978944971135602 0 -0.32594772137393307 -0.30978944971135602 0 -0.32704471803945162 -0.30394193902942662 0 -0.31992409361072222 -0.30462145692723192 0 -0.32594772137393307 -0.30978944971135602 0 -0.32704471803945162 -0.30394193902942662 0 -0.32819068517220462 -0.29783339261299951 0 -0.31332574866090718 -0.291474364566292 0 -0.31992409361072222 -0.30462145692723192 0 -0.32819068517220462 -0.29783339261299951 0 -0.32704471803945162 -0.30394193902942662 0 -0.32819068517220462 -0.29783339261299951 0 -0.31992409361072222 -0.30462145692723192 0 -0.32704471803945162 -0.30394193902942662 0 -0.31992409361072222 -0.30462145692723192 0 -0.32704471803945162 -0.30394193902942662 0 -0.32594772137393307 -0.30978944971135602 0 -0.31307430431717392 -0.31869978567557272 0 -0.32184288384298337 -0.33167017375041419 0 -0.32594772137393307 -0.30978944971135602 0 -0.32184288384298337 -0.33167017375041419 0 -0.32184288384298337 -0.33167017375041419 0 -0.31773804631203251 -0.35355089778947202 0 -0.32184288384298337 -0.33167017375041419 0 -0.34475024534571441 -0.34586667392980902 0 -0.31773804631203251 -0.35355089778947202 0 -0.32184288384298337 -0.33167017375041419 0 -0.34612464597635118 -0.32710031367078812 0 -0.34475024534571441 -0.34586667392980902 0 -0.33676996251121621 -0.31158184422573892 0 -0.32594772137393307 -0.30978944971135602 0 -0.34612464597635118 -0.32710031367078812 0 -0.32594772137393307 -0.30978944971135602 0 -0.34612464597635118 -0.32710031367078812 0 -0.32594772137393307 -0.30978944971135602 0 -0.32184288384298337 -0.33167017375041419 0 -0.34612464597635118 -0.32710031367078812 0 -0.33676996251121621 -0.31158184422573892 0 -0.34514704515453298 -0.31300544250539297 0 -0.34612464597635118 -0.32710031367078812 0 -0.35803691493684492 -0.31060122461938489 0 -0.34514704515453298 -0.31300544250539297 0 -0.34612464597635118 -0.32710031367078812 0 -0.35803691493684492 -0.31060122461938489 0 -0.34612464597635118 -0.32710031367078812 0 -0.35600230731325749 -0.33324145173106873 0 -0.37641717267996733 -0.3184640617331177 0 -0.35803691493684492 -0.31060122461938489 0 -0.37641717267996733 -0.3184640617331177 0 -0.35803691493684492 -0.31060122461938489 0 -0.36719759625642318 -0.33008752154143739 0 -0.35803691493684492 -0.31060122461938489 0 -0.36719759625642318 -0.33008752154143739 0 -0.35600230731325749 -0.33324145173106873 0 -0.37607676276689278 -0.3419730509543204 0 -0.37641717267996733 -0.3184640617331177 0 -0.36719759625642318 -0.33008752154143739 0 -0.37607676276689278 -0.3419730509543204 0 -0.3688763256213185 -0.34309961767568647 0 -0.36719759625642318 -0.33008752154143739 0 -0.36719759625642318 -0.33008752154143739 0 -0.36118874601324108 -0.3436521492952741 0 -0.35600230731325749 -0.33324145173106873 0 -0.3688763256213185 -0.34309961767568647 0 -0.36719759625642318 -0.33008752154143739 0 -0.36118874601324108 -0.3436521492952741 0 -0.34612464597635118 -0.32710031367078812 0 -0.35600230731325749 -0.33324145173106873 0 -0.34475024534571441 -0.34586667392980902 0 -0.36118874601324108 -0.3436521492952741 0 -0.35600230731325749 -0.33324145173106873 0 -0.34475024534571441 -0.34586667392980902 0 -0.36118874601324108 -0.3436521492952741 0 -0.34475024534571441 -0.34586667392980902 0 -0.35925477447714671 -0.35134479444962452 0 -0.34475024534571441 -0.34586667392980902 0 -0.35480891830463612 -0.3592101017575729 0 -0.33937201587241012 -0.36587749477948078 0 -0.34475024534571441 -0.34586667392980902 0 -0.35480891830463612 -0.3592101017575729 0 -0.35925477447714671 -0.35134479444962452 0 -0.36118874601324108 -0.3436521492952741 0 -0.37225797237559449 -0.35115364910559932 0 -0.36118874601324108 -0.3436521492952741 0 -0.35925477447714671 -0.35134479444962452 0 -0.36985982957495511 -0.35171195823109852 0 -0.37568304780698558 -0.36916333065311507 0 -0.37593298752455201 -0.35190228771479481 0 -0.37225797237559449 -0.35115364910559932 0 -0.35480891830463612 -0.3592101017575729 0 -0.35925477447714671 -0.35134479444962452 0 -0.36985982957495511 -0.35171195823109852 0 -0.37607676276689278 -0.3419730509543204 0 -0.3688763256213185 -0.34309961767568647 0 -0.37225797237559449 -0.35115364910559932 0 -0.37607676276689278 -0.3419730509543204 0 -0.37225797237559449 -0.35115364910559932 0 -0.37607676276689278 -0.3419730509543204 0 -0.37390838074359528 -0.35076941925389299 0 -0.37225797237559449 -0.35115364910559932 0 -0.37593298752455201 -0.35190228771479481 0 -0.37390838074359528 -0.35076941925389299 0 -0.37225797237559449 -0.35115364910559932 0 -0.3688763256213185 -0.34309961767568647 0 -0.36118874601324108 -0.3436521492952741 0 -0.37225797237559449 -0.35115364910559932 0 -0.37593298752455201 -0.35190228771479481 0 -0.37390838074359528 -0.35076941925389299 0 -0.36118874601324108 -0.3436521492952741 0 -0.36985982957495511 -0.35171195823109852 0 -0.37225797237559449 -0.35115364910559932 0 -0.37595629511297179 -0.35029264644438168 0 -0.37390838074359528 -0.35076941925389299 0 -0.37390838074359528 -0.35076941925389299 0 -0.37225797237559449 -0.35115364910559932 0 -0.36985982957495511 -0.35171195823109852 0 -0.37225797237559449 -0.35115364910559932 0 -0.37568304780698558 -0.36916333065311507 0 -0.37225797237559449 -0.35115364910559932 0 -0.36100598543278789 -0.37820409176948921 0 -0.35480891830463612 -0.3592101017575729 0 -0.36985982957495511 -0.35171195823109852 0 -0.36100598543278789 -0.37820409176948921 0 -0.36985982957495511 -0.35171195823109852 0 -0.37225797237559449 -0.35115364910559932 0 -0.36100598543278789 -0.37820409176948921 0 -0.37225797237559449 -0.35115364910559932 0 -0.36100598543278789 -0.37820409176948921 0 -0.33937201587241012 -0.36587749477948078 0 -0.36100598543278789 -0.37820409176948921 0 -0.35480891830463612 -0.3592101017575729 0 -0.33937201587241012 -0.36587749477948078 0 -0.36100598543278789 -0.37820409176948921 0 -0.33937201587241012 -0.36587749477948078 0 -0.31773804631203251 -0.35355089778947202 0 -0.33937201587241012 -0.36587749477948078 0 -0.31773804631203251 -0.35355089778947202 0 -0.32803705280137402 -0.37447550275240871 0 -0.34475024534571441 -0.34586667392980902 0 -0.33937201587241012 -0.36587749477948078 0 -0.31773804631203251 -0.35355089778947202 0 -0.31773804631203251 -0.35355089778947202 0 -0.31381007312398762 -0.37448885129246268 0 -0.31773804631203251 -0.35355089778947202 0 -0.31381007312398762 -0.37448885129246268 0 -0.32803705280137402 -0.37447550275240871 0 -0.31381007312398762 -0.37448885129246268 0 -0.29871455833571747 -0.36148408621311728 0 -0.29196992941862432 -0.3825632544476108 0 -0.31773804631203251 -0.35355089778947202 0 -0.31381007312398762 -0.37448885129246268 0 -0.29871455833571747 -0.36148408621311728 0 -0.31773804631203251 -0.35355089778947202 0 -0.29871455833571747 -0.36148408621311728 0 -0.29282778547957722 -0.33935753649529382 0 -0.31773804631203251 -0.35355089778947202 0 -0.29282778547957722 -0.33935753649529382 0 -0.29871455833571747 -0.36148408621311728 0 -0.27675503022224163 -0.36681377825091099 0 -0.29282778547957722 -0.33935753649529382 0 -0.29871455833571747 -0.36148408621311728 0 -0.27675503022224163 -0.36681377825091099 0 -0.29196992941862432 -0.3825632544476108 0 -0.27675503022224163 -0.36681377825091099 0 -0.25757508569408222 -0.36424633604315798 0 -0.26546808025963542 -0.34847395767735678 0 -0.27675503022224163 -0.36681377825091099 0 -0.25757508569408222 -0.36424633604315798 0 -0.25812358553267323 -0.37605355791306738 0 -0.25757508569408222 -0.36424633604315798 0 -0.24839247009954951 -0.37292447016044328 0 -0.24532753696728959 -0.36501789644951049 0 -0.25757508569408222 -0.36424633604315798 0 -0.25812358553267323 -0.37605355791306738 0 -0.24839247009954951 -0.37292447016044328 0 -0.25757508569408222 -0.36424633604315798 0 -0.26546808025963542 -0.34847395767735678 0 -0.24650166737573331 -0.3569693529562265 0 -0.26546808025963542 -0.34847395767735678 0 -0.24650166737573331 -0.3569693529562265 0 -0.24881121389389799 -0.33838995723746451 0 -0.27675503022224163 -0.36681377825091099 0 -0.26546808025963542 -0.34847395767735678 0 -0.29282778547957722 -0.33935753649529382 0 -0.26791752464712137 -0.32516417520111718 0 -0.27544300416693679 -0.31995488319631832 0 -0.29282778547957722 -0.33935753649529382 0 -0.26546808025963542 -0.34847395767735678 0 -0.26791752464712137 -0.32516417520111718 0 -0.29282778547957722 -0.33935753649529382 0 -0.26791752464712137 -0.32516417520111718 0 -0.29282778547957722 -0.33935753649529382 0 -0.26791752464712137 -0.32516417520111718 0 -0.24881121389389799 -0.33838995723746451 0 -0.26546808025963542 -0.34847395767735678 0 -0.26791752464712137 -0.32516417520111718 0 -0.24881121389389799 -0.33838995723746451 0 -0.26791752464712137 -0.32516417520111718 0 -0.24881121389389799 -0.33838995723746451 0 -0.2441082332202735 -0.32380704628422963 0 -0.26791752464712137 -0.32516417520111718 0 -0.2444966906846206 -0.31181945912301329 0 -0.26791752464712137 -0.32516417520111718 0 -0.26963915832665503 -0.30942012505775762 0 -0.2444966906846206 -0.31181945912301329 0 -0.26791752464712137 -0.32516417520111718 0 -0.2441082332202735 -0.32380704628422963 0 -0.2444966906846206 -0.31181945912301329 0 -0.26791752464712137 -0.32516417520111718 0 -0.27544300416693679 -0.31995488319631832 0 -0.26963915832665503 -0.30942012505775762 0 -0.26791752464712137 -0.32516417520111718 0 -0.27544300416693679 -0.31995488319631832 0 -0.27544300416693679 -0.31995488319631832 0 -0.29403167998309421 -0.32125824908992018 0 -0.29478162596868879 -0.30702079099249591 0 -0.27544300416693679 -0.31995488319631832 0 -0.29403167998309421 -0.32125824908992018 0 -0.29282778547957722 -0.33935753649529382 0 -0.31307430431717392 -0.31869978567557272 0 -0.32184288384298337 -0.33167017375041419 0 -0.29282778547957722 -0.33935753649529382 0 -0.32184288384298337 -0.33167017375041419 0 -0.31773804631203251 -0.35355089778947202 0 -0.29282778547957722 -0.33935753649529382 0 -0.31307430431717392 -0.31869978567557272 0 -0.29403167998309421 -0.32125824908992018 0 -0.29282778547957722 -0.33935753649529382 0 -0.31307430431717392 -0.31869978567557272 0 -0.29403167998309421 -0.32125824908992018 0 -0.29478162596868879 -0.30702079099249591 0 -0.31992409361072222 -0.30462145692723192 0 -0.29478162596868879 -0.30702079099249591 0 -0.31992409361072222 -0.30462145692723192 0 -0.31307430431717392 -0.31869978567557272 0 -0.29478162596868879 -0.30702079099249591 0 -0.31992409361072222 -0.30462145692723192 0 -0.30687808727867438 -0.29770175581860719 0 -0.29478162596868879 -0.30702079099249591 0 -0.30687808727867438 -0.29770175581860719 0 -0.29813438661480679 -0.29530641477552327 0 -0.29478162596868879 -0.30702079099249591 0 -0.31992409361072222 -0.30462145692723192 0 -0.2984608121496099 -0.28511533651958437 0 -0.31992409361072222 -0.30462145692723192 0 -0.30687808727867438 -0.29770175581860719 0 -0.2984608121496099 -0.28511533651958437 0 -0.31332574866090718 -0.291474364566292 0 -0.31992409361072222 -0.30462145692723192 0 -0.2984608121496099 -0.28511533651958437 0 -0.31332574866090718 -0.291474364566292 0 -0.30937392239009109 -0.28339120160471948 0 -0.2984608121496099 -0.28511533651958437 0 -0.31332574866090718 -0.291474364566292 0 -0.2984608121496099 -0.28511533651958437 0 -0.30937392239009109 -0.28339120160471948 0 -0.2984608121496099 -0.28511533651958437 0 -0.30347897474907187 -0.279643462580969 0 -0.30687808727867438 -0.29770175581860719 0 -0.29951482580247829 -0.29240083595456018 0 -0.29813438661480679 -0.29530641477552327 0 -0.30687808727867438 -0.29770175581860719 0 -0.2984608121496099 -0.28511533651958437 0 -0.29951482580247829 -0.29240083595456018 0 -0.29951482580247829 -0.29240083595456018 0 -0.29813438661480679 -0.29530641477552327 0 -0.29499124589990039 -0.29073588210889412 0 -0.2984608121496099 -0.28511533651958437 0 -0.29951482580247829 -0.29240083595456018 0 -0.29499124589990039 -0.29073588210889412 0 -0.29499124589990039 -0.29073588210889412 0 -0.29148170063899659 -0.29460773718781319 0 -0.28586576089235322 -0.28577101837165192 0 -0.29813438661480679 -0.29530641477552327 0 -0.29499124589990039 -0.29073588210889412 0 -0.29148170063899659 -0.29460773718781319 0 -0.2984608121496099 -0.28511533651958437 0 -0.29499124589990039 -0.29073588210889412 0 -0.28586576089235322 -0.28577101837165192 0 -0.29148170063899659 -0.29460773718781319 0 -0.28586576089235322 -0.28577101837165192 0 -0.2798353156189245 -0.29508903771003908 0 -0.29148170063899659 -0.29460773718781319 0 -0.29478162596868879 -0.30702079099249591 0 -0.2798353156189245 -0.29508903771003908 0 -0.29478162596868879 -0.30702079099249591 0 -0.26963915832665503 -0.30942012505775762 0 -0.2798353156189245 -0.29508903771003908 0 -0.29478162596868879 -0.30702079099249591 0 -0.26963915832665503 -0.30942012505775762 0 -0.29813438661480679 -0.29530641477552327 0 -0.29148170063899659 -0.29460773718781319 0 -0.29478162596868879 -0.30702079099249591 0 -0.27544300416693679 -0.31995488319631832 0 -0.29478162596868879 -0.30702079099249591 0 -0.26963915832665503 -0.30942012505775762 0 -0.26963915832665503 -0.30942012505775762 0 -0.26057201890547982 -0.29344093798311832 0 -0.2798353156189245 -0.29508903771003908 0 -0.26963915832665503 -0.30942012505775762 0 -0.2444966906846206 -0.31181945912301329 0 -0.26963915832665503 -0.30942012505775762 0 -0.26057201890547982 -0.29344093798311832 0 -0.2444966906846206 -0.31181945912301329 0 -0.26057201890547982 -0.29344093798311832 0 -0.27108878797196961 -0.28331686931735522 0 -0.25298377122075039 -0.27518622721876451 0 -0.26057201890547982 -0.29344093798311832 0 -0.25298377122075039 -0.27518622721876451 0 -0.2435111179254994 -0.29490773243705071 0 -0.26057201890547982 -0.29344093798311832 0 -0.27108878797196961 -0.28331686931735522 0 -0.2798353156189245 -0.29508903771003908 0 -0.28586576089235322 -0.28577101837165192 0 -0.27108878797196961 -0.28331686931735522 0 -0.2798353156189245 -0.29508903771003908 0 -0.27108878797196961 -0.28331686931735522 0 -0.27618707322233982 -0.26709712530320262 0 -0.25298377122075039 -0.27518622721876451 0 -0.28586576089235322 -0.28577101837165192 0 -0.27108878797196961 -0.28331686931735522 0 -0.27618707322233982 -0.26709712530320262 0 -0.27618707322233982 -0.26709712530320262 0 -0.25431856302814809 -0.24833495949118861 0 -0.27618707322233982 -0.26709712530320262 0 -0.25298377122075039 -0.27518622721876451 0 -0.25431856302814809 -0.24833495949118861 0 -0.27618707322233982 -0.26709712530320262 0 -0.27309361240676189 -0.24179026653703889 0 -0.25431856302814809 -0.24833495949118861 0 -0.27618707322233982 -0.26709712530320262 0 -0.2907170577323625 -0.25177677077710309 0 -0.27309361240676189 -0.24179026653703889 0 -0.27618707322233982 -0.26709712530320262 0 -0.2907170577323625 -0.25177677077710309 0 -0.29477899871119112 -0.26293378760569941 0 -0.2984608121496099 -0.28511533651958437 0 -0.28586576089235322 -0.28577101837165192 0 -0.27618707322233982 -0.26709712530320262 0 -0.2984608121496099 -0.28511533651958437 0 -0.27618707322233982 -0.26709712530320262 0 -0.27618707322233982 -0.26709712530320262 0 -0.29477899871119112 -0.26293378760569941 0 -0.29948479845841441 -0.27338487519771032 0 -0.2984608121496099 -0.28511533651958437 0 -0.27618707322233982 -0.26709712530320262 0 -0.29948479845841441 -0.27338487519771032 0 -0.29477899871119112 -0.26293378760569941 0 -0.29948479845841441 -0.27338487519771032 0 -0.30156079933714469 -0.26765617134954151 0 -0.30156079933714469 -0.26765617134954151 0 -0.30403476516136241 -0.27459464834518948 0 -0.30588444940973558 -0.27063474712059482 0 -0.29948479845841441 -0.27338487519771032 0 -0.30156079933714469 -0.26765617134954151 0 -0.30403476516136241 -0.27459464834518948 0 -0.30156079933714469 -0.26765617134954151 0 -0.30588444940973558 -0.27063474712059482 0 -0.3062135479255173 -0.26372173898871692 0 -0.2984608121496099 -0.28511533651958437 0 -0.29948479845841441 -0.27338487519771032 0 -0.30347897474907187 -0.279643462580969 0 -0.29948479845841441 -0.27338487519771032 0 -0.30403476516136241 -0.27459464834518948 0 -0.30347897474907187 -0.279643462580969 0 -0.30937392239009109 -0.28339120160471948 0 -0.30347897474907187 -0.279643462580969 0 -0.31187737399160442 -0.27618124236115132 0 -0.30403476516136241 -0.27459464834518948 0 -0.30347897474907187 -0.279643462580969 0 -0.31187737399160442 -0.27618124236115132 0 -0.30403476516136241 -0.27459464834518948 0 -0.31187737399160442 -0.27618124236115132 0 -0.30588444940973558 -0.27063474712059482 0 -0.31187737399160442 -0.27618124236115132 0 -0.30588444940973558 -0.27063474712059482 0 -0.3062135479255173 -0.26372173898871692 0 -0.31664960680882542 -0.25714232151458272 0 -0.31202674084989918 -0.26335133138269068 0 -0.30853150187083839 -0.25429835417001312 0 -0.2907170577323625 -0.25177677077710309 0 -0.29477899871119112 -0.26293378760569941 0 -0.30853150187083839 -0.25429835417001312 0 -0.31202674084989918 -0.26335133138269068 0 -0.3062135479255173 -0.26372173898871692 0 -0.30853150187083839 -0.25429835417001312 0 -0.29477899871119112 -0.26293378760569941 0 -0.30156079933714469 -0.26765617134954151 0 -0.3062135479255173 -0.26372173898871692 0 -0.29477899871119112 -0.26293378760569941 0 -0.3062135479255173 -0.26372173898871692 0 -0.30853150187083839 -0.25429835417001312 0 -0.33709504481289931 -0.46474263175187808 0 -0.33075086723682939 -0.45093918684289991 0 -0.35302422329502631 -0.44785824460859458 0 -0.33709504481289931 -0.46474263175187808 0 -0.33075086723682939 -0.45093918684289991 0 -0.32054712240525829 -0.47546959342145068 0 -0.33075086723682939 -0.45093918684289991 0 -0.34095461206840061 -0.42640878026434909 0 -0.33075086723682939 -0.45093918684289991 0 -0.35302422329502631 -0.44785824460859458 0 -0.34095461206840061 -0.42640878026434909 0 -0.33075086723682939 -0.45093918684289991 0 -0.32054706720266329 -0.44859283512714471 0 -0.3206124180200437 -0.43193612962395289 0 -0.33075086723682939 -0.45093918684289991 0 -0.32054706720266329 -0.44859283512714471 0 -0.31571728338184601 -0.45752087103574601 0 -0.32054706720266329 -0.44859283512714471 0 -0.31571728338184601 -0.45752087103574601 0 -0.30706080135445341 -0.45057148265483188 0 -0.33075086723682939 -0.45093918684289991 0 -0.32054712240525829 -0.47546959342145068 0 -0.33075086723682939 -0.45093918684289991 0 -0.31571728338184601 -0.45752087103574601 0 -0.32054712240525829 -0.47546959342145068 0 -0.32054712240525829 -0.47546959342145068 0 -0.32750579650535672 -0.48798687004089669 0 -0.32933965142182292 -0.47777380670114528 0 -0.32054712240525829 -0.47546959342145068 0 -0.31034337757368669 -0.50000000000000133 0 -0.32750579650535672 -0.48798687004089669 0 -0.33387795429423722 -0.5 0 -0.31034337757368669 -0.50000000000000133 0 -0.32054712240525829 -0.47546959342145068 0 -0.32750579650535672 -0.48798687004089669 0 -0.31034337757368669 -0.50000000000000133 0 -0.32750579650535672 -0.48798687004089669 0 -0.34342087683177741 -0.48669095008188618 0 -0.33387795429423722 -0.5 0 -0.33709504481289931 -0.46474263175187808 0 -0.32933965142182292 -0.47777380670114528 0 -0.35181335970555933 -0.47167232718529989 0 -0.34342087683177741 -0.48669095008188618 0 -0.32933965142182292 -0.47777380670114528 0 -0.35181335970555933 -0.47167232718529989 0 -0.32750579650535672 -0.48798687004089669 0 -0.34342087683177741 -0.48669095008188618 0 -0.32933965142182292 -0.47777380670114528 0 -0.33709504481289931 -0.46474263175187808 0 -0.32054712240525829 -0.47546959342145068 0 -0.32933965142182292 -0.47777380670114528 0 -0.32933965142182292 -0.47777380670114528 0 -0.35181335970555933 -0.47167232718529989 0 -0.34342087683177741 -0.48669095008188618 0 -0.35181335970555933 -0.47167232718529989 0 -0.35979455825166368 -0.48519290092039941 0 -0.34342087683177741 -0.48669095008188618 0 -0.35741253101478748 -0.5 0 -0.35979455825166368 -0.48519290092039941 0 -0.34342087683177741 -0.48669095008188618 0 -0.33387795429423722 -0.5 0 -0.35741253101478748 -0.5 0 -0.38094710773533791 -0.49999999999999839 0 -0.35741253101478748 -0.5 0 -0.37240076261097882 -0.48974555046165519 0 -0.35741253101478748 -0.5 0 -0.35979455825166368 -0.48519290092039941 0 -0.37240076261097882 -0.48974555046165519 0 -0.35181335970555933 -0.47167232718529989 0 -0.35979455825166368 -0.48519290092039941 0 -0.37411677223754131 -0.47733161267270968 0 -0.35181335970555933 -0.47167232718529989 0 -0.37411677223754131 -0.47733161267270968 0 -0.37428706798929601 -0.46557084766945539 0 -0.35979455825166368 -0.48519290092039941 0 -0.37240076261097882 -0.48974555046165519 0 -0.37411677223754131 -0.47733161267270968 0 -0.37411677223754131 -0.47733161267270968 0 -0.37428706798929601 -0.46557084766945539 0 -0.35181335970555933 -0.47167232718529989 0 -0.37428706798929601 -0.46557084766945539 0 -0.35302422329502631 -0.44785824460859458 0 -0.35181335970555933 -0.47167232718529989 0 -0.37428706798929601 -0.46557084766945539 0 -0.33709504481289931 -0.46474263175187808 0 -0.35181335970555933 -0.47167232718529989 0 -0.35302422329502631 -0.44785824460859458 0 -0.37428706798929601 -0.46557084766945539 0 -0.35302422329502631 -0.44785824460859458 0 -0.37472313619600889 -0.43545561783144832 0 -0.37428706798929601 -0.46557084766945539 0 -0.37472313619600889 -0.43545561783144832 0 -0.35302422329502631 -0.44785824460859458 0 -0.37472313619600889 -0.43545561783144832 0 -0.36076670325611282 -0.42019275678090617 0 -0.37515920440272033 -0.40534038799344108 0 -0.37472313619600889 -0.43545561783144832 0 -0.36076670325611282 -0.42019275678090617 0 -0.37515920440272033 -0.40534038799344108 0 -0.36076670325611282 -0.42019275678090617 0 -0.35115835689997099 -0.40187837368579798 0 -0.37515920440272033 -0.40534038799344108 0 -0.37472313619600889 -0.43545561783144832 0 -0.36076670325611282 -0.42019275678090617 0 -0.35115835689997099 -0.40187837368579798 0 -0.34095461206840061 -0.42640878026434909 0 -0.34815033243380111 -0.40144447968524521 0 -0.35115835689997099 -0.40187837368579798 0 -0.34095461206840061 -0.42640878026434909 0 -0.35115835689997099 -0.40187837368579798 0 -0.34095461206840061 -0.42640878026434909 0 -0.35302422329502631 -0.44785824460859458 0 -0.36076670325611282 -0.42019275678090617 0 -0.34095461206840061 -0.42640878026434909 0 -0.37543310808941849 -0.38642437359143528 0 -0.36100598543278789 -0.37820409176948921 0 -0.35115835689997099 -0.40187837368579798 0 -0.37543310808941849 -0.38642437359143528 0 -0.37568304780698558 -0.36916333065311507 0 -0.36100598543278789 -0.37820409176948921 0 -0.37543310808941849 -0.38642437359143528 0 -0.36100598543278789 -0.37820409176948921 0 -0.37515920440272033 -0.40534038799344108 0 -0.37543310808941849 -0.38642437359143528 0 -0.35115835689997099 -0.40187837368579798 0 -0.37515920440272033 -0.40534038799344108 0 -0.35115835689997099 -0.40187837368579798 0 -0.35115835689997099 -0.40187837368579798 0 -0.34646966066369161 -0.38533898881774881 0 -0.34316085436749 -0.39382471367395527 0 -0.34815033243380111 -0.40144447968524521 0 -0.35115835689997099 -0.40187837368579798 0 -0.34316085436749 -0.39382471367395527 0 -0.34815033243380111 -0.40144447968524521 0 -0.35115835689997099 -0.40187837368579798 0 -0.33937201587241012 -0.36587749477948078 0 -0.36100598543278789 -0.37820409176948921 0 -0.34646966066369161 -0.38533898881774881 0 -0.36100598543278789 -0.37820409176948921 0 -0.35115835689997099 -0.40187837368579798 0 -0.36100598543278789 -0.37820409176948921 0 -0.35115835689997099 -0.40187837368579798 0 -0.34646966066369161 -0.38533898881774881 0 -0.33937201587241012 -0.36587749477948078 0 -0.32803705280137402 -0.37447550275240871 0 -0.34646966066369161 -0.38533898881774881 0 -0.32803705280137402 -0.37447550275240871 0 -0.34646966066369161 -0.38533898881774881 0 -0.32931529664348408 -0.38869437358142001 0 -0.34646966066369161 -0.38533898881774881 0 -0.32931529664348408 -0.38869437358142001 0 -0.34316085436749 -0.39382471367395527 0 -0.34815033243380111 -0.40144447968524521 0 -0.33486919938690762 -0.39884665705885908 0 -0.32944617452305069 -0.41182817437998842 0 -0.32931529664348408 -0.38869437358142001 0 -0.34316085436749 -0.39382471367395527 0 -0.33486919938690762 -0.39884665705885908 0 -0.32931529664348408 -0.38869437358142001 0 -0.33486919938690762 -0.39884665705885908 0 -0.32365381597648563 -0.39942827076698811 0 -0.34815033243380111 -0.40144447968524521 0 -0.34316085436749 -0.39382471367395527 0 -0.33486919938690762 -0.39884665705885908 0 -0.33486919938690762 -0.39884665705885908 0 -0.32365381597648563 -0.39942827076698811 0 -0.32944617452305069 -0.41182817437998842 0 -0.32931529664348408 -0.38869437358142001 0 -0.32365381597648563 -0.39942827076698811 0 -0.30988209993594379 -0.39542680479545339 0 -0.32365381597648563 -0.39942827076698811 0 -0.30595412674790001 -0.41636475829844438 0 -0.30988209993594379 -0.39542680479545339 0 -0.31381007312398762 -0.37448885129246268 0 -0.32931529664348408 -0.38869437358142001 0 -0.30988209993594379 -0.39542680479545339 0 -0.31381007312398762 -0.37448885129246268 0 -0.32803705280137402 -0.37447550275240871 0 -0.32931529664348408 -0.38869437358142001 0 -0.34095461206840061 -0.42640878026434909 0 -0.32944617452305069 -0.41182817437998842 0 -0.3206124180200437 -0.43193612962395289 0 -0.33075086723682939 -0.45093918684289991 0 -0.34095461206840061 -0.42640878026434909 0 -0.3206124180200437 -0.43193612962395289 0 -0.34815033243380111 -0.40144447968524521 0 -0.34095461206840061 -0.42640878026434909 0 -0.32944617452305069 -0.41182817437998842 0 -0.32944617452305069 -0.41182817437998842 0 -0.3206124180200437 -0.43193612962395289 0 -0.30595412674790001 -0.41636475829844438 0 -0.32365381597648563 -0.39942827076698811 0 -0.32944617452305069 -0.41182817437998842 0 -0.30595412674790001 -0.41636475829844438 0 -0.3206124180200437 -0.43193612962395289 0 -0.30595412674790001 -0.41636475829844438 0 -0.29602166034141808 -0.43748304283089118 0 -0.30595412674790001 -0.41636475829844438 0 -0.28680587137917263 -0.41476105187328532 0 -0.29502227998321778 -0.40112933436643161 0 -0.30595412674790001 -0.41636475829844438 0 -0.28680587137917263 -0.41476105187328532 0 -0.29602166034141808 -0.43748304283089118 0 -0.28680587137917263 -0.41476105187328532 0 -0.29602166034141808 -0.43748304283089118 0 -0.27149625348017281 -0.42637325053463759 0 -0.29602166034141808 -0.43748304283089118 0 -0.27149625348017281 -0.42637325053463759 0 -0.29602166034141808 -0.43748304283089118 0 -0.27149625348017281 -0.42637325053463759 0 -0.27906578537949278 -0.44687665772048962 0 -0.31381007312398762 -0.37448885129246268 0 -0.30988209993594379 -0.39542680479545339 0 -0.31381007312398762 -0.37448885129246268 0 -0.30988209993594379 -0.39542680479545339 0 -0.29196992941862432 -0.3825632544476108 0 -0.30595412674790001 -0.41636475829844438 0 -0.30988209993594379 -0.39542680479545339 0 -0.30595412674790001 -0.41636475829844438 0 -0.30988209993594379 -0.39542680479545339 0 -0.29502227998321778 -0.40112933436643161 0 -0.30988209993594379 -0.39542680479545339 0 -0.29502227998321778 -0.40112933436643161 0 -0.29196992941862432 -0.3825632544476108 0 -0.28680587137917263 -0.41476105187328532 0 -0.29502227998321778 -0.40112933436643161 0 -0.2806661672136338 -0.39648987600255969 0 -0.29502227998321778 -0.40112933436643161 0 -0.29196992941862432 -0.3825632544476108 0 -0.2806661672136338 -0.39648987600255969 0 -0.27675503022224163 -0.36681377825091099 0 -0.29196992941862432 -0.3825632544476108 0 -0.26924588117792803 -0.38334910629271668 0 -0.29196992941862432 -0.3825632544476108 0 -0.26924588117792803 -0.38334910629271668 0 -0.2806661672136338 -0.39648987600255969 0 -0.27675503022224163 -0.36681377825091099 0 -0.26924588117792803 -0.38334910629271668 0 -0.25812358553267323 -0.37605355791306738 0 -0.28680587137917263 -0.41476105187328532 0 -0.2806661672136338 -0.39648987600255969 0 -0.26326431180229581 -0.40282557300305732 0 -0.26924588117792803 -0.38334910629271668 0 -0.2806661672136338 -0.39648987600255969 0 -0.26326431180229581 -0.40282557300305732 0 -0.26326431180229581 -0.40282557300305732 0 -0.2504897110532438 -0.38524934403489181 0 -0.24394706363899241 -0.39877073912243299 0 -0.26326431180229581 -0.40282557300305732 0 -0.24697084661892749 -0.41526345823838401 0 -0.24394706363899241 -0.39877073912243299 0 -0.26924588117792803 -0.38334910629271668 0 -0.26326431180229581 -0.40282557300305732 0 -0.2504897110532438 -0.38524934403489181 0 -0.26924588117792803 -0.38334910629271668 0 -0.2504897110532438 -0.38524934403489181 0 -0.25812358553267323 -0.37605355791306738 0 -0.2504897110532438 -0.38524934403489181 0 -0.25812358553267323 -0.37605355791306738 0 -0.24839247009954951 -0.37292447016044328 0 -0.28680587137917263 -0.41476105187328532 0 -0.26326431180229581 -0.40282557300305732 0 -0.27149625348017281 -0.42637325053463759 0 -0.27149625348017281 -0.42637325053463759 0 -0.24697084661892749 -0.41526345823838401 0 -0.26326431180229581 -0.40282557300305732 0 -0.27149625348017281 -0.42637325053463759 0 -0.24697084661892749 -0.41526345823838401 0 -0.27149625348017281 -0.42637325053463759 0 -0.25687425522332558 -0.44642006451091643 0 -0.24697084661892749 -0.41526345823838401 0 -0.25687425522332558 -0.44642006451091643 0 -0.27607931301277078 -0.46657199895299017 0 -0.25409384940020791 -0.47271975939701871 0 -0.25687425522332558 -0.44642006451091643 0 -0.27607931301277078 -0.46657199895299017 0 -0.27906578537949278 -0.44687665772048962 0 -0.27149625348017281 -0.42637325053463759 0 -0.25687425522332558 -0.44642006451091643 0 -0.27906578537949278 -0.44687665772048962 0 -0.29602166034141808 -0.43748304283089118 0 -0.27906578537949278 -0.44687665772048962 0 -0.29968055871002541 -0.46203125713240301 0 -0.27607931301277078 -0.46657199895299017 0 -0.27906578537949278 -0.44687665772048962 0 -0.29968055871002541 -0.46203125713240301 0 -0.31571728338184601 -0.45752087103574601 0 -0.29968055871002541 -0.46203125713240301 0 -0.30706080135445341 -0.45057148265483188 0 -0.31571728338184601 -0.45752087103574601 0 -0.32054712240525829 -0.47546959342145068 0 -0.29968055871002541 -0.46203125713240301 0 -0.32054706720266329 -0.44859283512714471 0 -0.29602166034141808 -0.43748304283089118 0 -0.32054706720266329 -0.44859283512714471 0 -0.3206124180200437 -0.43193612962395289 0 -0.29602166034141808 -0.43748304283089118 0 -0.32054706720266329 -0.44859283512714471 0 -0.29602166034141808 -0.43748304283089118 0 -0.30706080135445341 -0.45057148265483188 0 -0.29602166034141808 -0.43748304283089118 0 -0.29968055871002541 -0.46203125713240301 0 -0.30706080135445341 -0.45057148265483188 0 -0.32054712240525829 -0.47546959342145068 0 -0.31034337757368669 -0.50000000000000133 0 -0.2941570887960146 -0.48201569375099518 0 -0.32054712240525829 -0.47546959342145068 0 -0.29968055871002541 -0.46203125713240301 0 -0.2941570887960146 -0.48201569375099518 0 -0.27607931301277078 -0.46657199895299017 0 -0.29968055871002541 -0.46203125713240301 0 -0.2941570887960146 -0.48201569375099518 0 -0.2941570887960146 -0.48201569375099518 0 -0.28248249767631262 -0.5 0 -0.27039562620846602 -0.48462576079096858 0 -0.31034337757368669 -0.50000000000000133 0 -0.2941570887960146 -0.48201569375099518 0 -0.28248249767631262 -0.5 0 -0.28248249767631262 -0.5 0 -0.27039562620846602 -0.48462576079096858 0 -0.25462161777893849 -0.5 0 -0.27607931301277078 -0.46657199895299017 0 -0.2941570887960146 -0.48201569375099518 0 -0.27039562620846602 -0.48462576079096858 0 -0.27607931301277078 -0.46657199895299017 0 -0.27039562620846602 -0.48462576079096858 0 -0.25409384940020791 -0.47271975939701871 0 -0.27039562620846602 -0.48462576079096858 0 -0.25409384940020791 -0.47271975939701871 0 -0.25462161777893849 -0.5 0 -0.25462161777893849 -0.5 0 -0.23155232774708009 -0.47932355884050398 0 -0.22676073788156451 -0.5 0 -0.25409384940020791 -0.47271975939701871 0 -0.25462161777893849 -0.5 0 -0.23155232774708009 -0.47932355884050398 0 -0.25409384940020791 -0.47271975939701871 0 -0.23155232774708009 -0.47932355884050398 0 -0.2350399564306665 -0.45937717328673289 0 -0.23155232774708009 -0.47932355884050398 0 -0.2350399564306665 -0.45937717328673289 0 -0.2080224731694312 -0.47403962225972662 0 -0.23155232774708009 -0.47932355884050398 0 -0.22676073788156451 -0.5 0 -0.2080224731694312 -0.47403962225972662 0 -0.25687425522332558 -0.44642006451091643 0 -0.2350399564306665 -0.45937717328673289 0 -0.23180750449586429 -0.4343742486430574 0 -0.25687425522332558 -0.44642006451091643 0 -0.25409384940020791 -0.47271975939701871 0 -0.2350399564306665 -0.45937717328673289 0 -0.2350399564306665 -0.45937717328673289 0 -0.21590660946663959 -0.44883644739355771 0 -0.2080224731694312 -0.47403962225972662 0 -0.2350399564306665 -0.45937717328673289 0 -0.21590660946663959 -0.44883644739355771 0 -0.23180750449586429 -0.4343742486430574 0 -0.21590660946663959 -0.44883644739355771 0 -0.1943898331460783 -0.4473597119794826 0 -0.20910912931781811 -0.42543372189632289 0 -0.21590660946663959 -0.44883644739355771 0 -0.1943898331460783 -0.4473597119794826 0 -0.2080224731694312 -0.47403962225972662 0 -0.1943898331460783 -0.4473597119794826 0 -0.2080224731694312 -0.47403962225972662 0 -0.17967053697433849 -0.46928570206264231 0 -0.22676073788156451 -0.5 0 -0.2080224731694312 -0.47403962225972662 0 -0.19889985798419041 -0.5 0 -0.2080224731694312 -0.47403962225972662 0 -0.1821948971586228 -0.48648437486529872 0 -0.17967053697433849 -0.46928570206264231 0 -0.2080224731694312 -0.47403962225972662 0 -0.19889985798419041 -0.5 0 -0.1821948971586228 -0.48648437486529872 0 -0.19889985798419041 -0.5 0 -0.1821948971586228 -0.48648437486529872 0 -0.17103897808681609 -0.49999999999999778 0 -0.1821948971586228 -0.48648437486529872 0 -0.17103897808681609 -0.49999999999999778 0 -0.16495124080259491 -0.49121169214579941 0 -0.17103897808681609 -0.49999999999999778 0 -0.16495124080259491 -0.49121169214579941 0 -0.17103897808681609 -0.49999999999999778 0 -0.16495124080259491 -0.49121169214579941 0 -0.15905149781887321 -0.49999999999999961 0 -0.16495124080259491 -0.49121169214579941 0 -0.15905149781887321 -0.49999999999999961 0 -0.1545750311736096 -0.49062041690426861 0 -0.16495124080259491 -0.49121169214579941 0 -0.15905149781887321 -0.49999999999999961 0 -0.16495124080259491 -0.49121169214579941 0 -0.16530166315622061 -0.47155300009798301 0 -0.17967053697433849 -0.46928570206264231 0 -0.16495124080259491 -0.49121169214579941 0 -0.16530166315622061 -0.47155300009798301 0 -0.15083103946930049 -0.47082765280793248 0 -0.16495124080259491 -0.49121169214579941 0 -0.1545750311736096 -0.49062041690426861 0 -0.15083103946930049 -0.47082765280793248 0 -0.16495124080259491 -0.49121169214579941 0 -0.15083103946930049 -0.47082765280793248 0 -0.16495124080259491 -0.49121169214579941 0 -0.17967053697433849 -0.46928570206264231 0 -0.1821948971586228 -0.48648437486529872 0 -0.16495124080259491 -0.49121169214579941 0 -0.17967053697433849 -0.46928570206264231 0 -0.1943898331460783 -0.4473597119794826 0 -0.17967053697433849 -0.46928570206264231 0 -0.1943898331460783 -0.4473597119794826 0 -0.17967053697433849 -0.46928570206264231 0 -0.1657538353786501 -0.45488695337555668 0 -0.1943898331460783 -0.4473597119794826 0 -0.1657538353786501 -0.45488695337555668 0 -0.1755027511393909 -0.43471579892562301 0 -0.1657538353786501 -0.45488695337555668 0 -0.15761868306950341 -0.43586407366366631 0 -0.1755027511393909 -0.43471579892562301 0 -0.16530166315622061 -0.47155300009798301 0 -0.1657538353786501 -0.45488695337555668 0 -0.15083103946930049 -0.47082765280793248 0 -0.16530166315622061 -0.47155300009798301 0 -0.17967053697433849 -0.46928570206264231 0 -0.1657538353786501 -0.45488695337555668 0 -0.13671083813600751 -0.45044361347006462 0 -0.15083103946930049 -0.47082765280793248 0 -0.13671083813600751 -0.45044361347006462 0 -0.13441782301728619 -0.47175980973682791 0 -0.15083103946930049 -0.47082765280793248 0 -0.1657538353786501 -0.45488695337555668 0 -0.13671083813600751 -0.45044361347006462 0 -0.15083103946930049 -0.47082765280793248 0 -0.13671083813600751 -0.45044361347006462 0 -0.13816776916695811 -0.432543871779144 0 -0.15761868306950341 -0.43586407366366631 0 -0.1657538353786501 -0.45488695337555668 0 -0.13671083813600751 -0.45044361347006462 0 -0.15761868306950341 -0.43586407366366631 0 -0.13671083813600751 -0.45044361347006462 0 -0.13816776916695811 -0.432543871779144 0 -0.1225906368027144 -0.43005957413219659 0 -0.13671083813600751 -0.45044361347006462 0 -0.1225906368027144 -0.43005957413219659 0 -0.13671083813600751 -0.45044361347006462 0 -0.13441782301728619 -0.47175980973682791 0 -0.1201929706126502 -0.46127799294672761 0 -0.13441782301728619 -0.47175980973682791 0 -0.12605423818426559 -0.48707922202292669 0 -0.14429533434837091 -0.48908967660720287 0 -0.13441782301728619 -0.47175980973682791 0 -0.12605423818426559 -0.48707922202292669 0 -0.1201929706126502 -0.46127799294672761 0 -0.1295391708778694 -0.5 0 -0.12605423818426559 -0.48707922202292669 0 -0.14429533434837091 -0.48908967660720287 0 -0.15905149781887321 -0.49999999999999961 0 -0.1295391708778694 -0.5 0 -0.14429533434837091 -0.48908967660720287 0 -0.15905149781887321 -0.49999999999999961 0 -0.14429533434837091 -0.48908967660720287 0 -0.1545750311736096 -0.49062041690426861 0 -0.14429533434837091 -0.48908967660720287 0 -0.1545750311736096 -0.49062041690426861 0 -0.15083103946930049 -0.47082765280793248 0 -0.13441782301728619 -0.47175980973682791 0 -0.14429533434837091 -0.48908967660720287 0 -0.15083103946930049 -0.47082765280793248 0 -0.15345949684661231 -0.4053237642064671 0 -0.15136585988972451 -0.39002590355483568 0 -0.13982663417143551 -0.39933000433158738 0 -0.15136585988972451 -0.39002590355483568 0 -0.1368738238800834 -0.3880397179408614 0 -0.13982663417143551 -0.39933000433158738 0 -0.15345949684661231 -0.4053237642064671 0 -0.13982663417143551 -0.39933000433158738 0 -0.1398029654186671 -0.41064466143528439 0 -0.15136585988972451 -0.39002590355483568 0 -0.1368738238800834 -0.3880397179408614 0 -0.13959568407155781 -0.37291875636350952 0 -0.15136585988972451 -0.39002590355483568 0 -0.15951650330528561 -0.37856285477961621 0 -0.13959568407155781 -0.37291875636350952 0 -0.1368738238800834 -0.3880397179408614 0 -0.12625141541498519 -0.38197991289387551 0 -0.13959568407155781 -0.37291875636350952 0 -0.1368738238800834 -0.3880397179408614 0 -0.12625141541498519 -0.38197991289387551 0 -0.1273295258527142 -0.39594401256049883 0 -0.1368738238800834 -0.3880397179408614 0 -0.1273295258527142 -0.39594401256049883 0 -0.13982663417143551 -0.39933000433158738 0 -0.13982663417143551 -0.39933000433158738 0 -0.1295768038857959 -0.40463739140698729 0 -0.1398029654186671 -0.41064466143528439 0 -0.1273295258527142 -0.39594401256049883 0 -0.13982663417143551 -0.39933000433158738 0 -0.1295768038857959 -0.40463739140698729 0 -0.1273295258527142 -0.39594401256049883 0 -0.1295768038857959 -0.40463739140698729 0 -0.1219584454402414 -0.40406961642135292 0 -0.1295768038857959 -0.40463739140698729 0 -0.1296119374269841 -0.41417592727859581 0 -0.1225700411049412 -0.40994677461386392 0 -0.1296119374269841 -0.41417592727859581 0 -0.12315425937001 -0.41747458531602638 0 -0.1225700411049412 -0.40994677461386392 0 -0.1296119374269841 -0.41417592727859581 0 -0.13713184062407599 -0.42036644340313623 0 -0.12908399078123631 -0.42243277819987513 0 -0.1296119374269841 -0.41417592727859581 0 -0.12908399078123631 -0.42243277819987513 0 -0.12315425937001 -0.41747458531602638 0 -0.1296119374269841 -0.41417592727859581 0 -0.13713184062407599 -0.42036644340313623 0 -0.1398029654186671 -0.41064466143528439 0 -0.1295768038857959 -0.40463739140698729 0 -0.1296119374269841 -0.41417592727859581 0 -0.1398029654186671 -0.41064466143528439 0 -0.12908399078123631 -0.42243277819987513 0 -0.13816776916695811 -0.432543871779144 0 -0.1225906368027144 -0.43005957413219659 0 -0.13713184062407599 -0.42036644340313623 0 -0.12908399078123631 -0.42243277819987513 0 -0.13816776916695811 -0.432543871779144 0 -0.13816776916695811 -0.432543871779144 0 -0.14921107955709881 -0.42003443798493328 0 -0.15761868306950341 -0.43586407366366631 0 -0.13713184062407599 -0.42036644340313623 0 -0.13816776916695811 -0.432543871779144 0 -0.14921107955709881 -0.42003443798493328 0 -0.15345949684661231 -0.4053237642064671 0 -0.1398029654186671 -0.41064466143528439 0 -0.14921107955709881 -0.42003443798493328 0 -0.13713184062407599 -0.42036644340313623 0 -0.1398029654186671 -0.41064466143528439 0 -0.14921107955709881 -0.42003443798493328 0 -0.15345949684661231 -0.4053237642064671 0 -0.14921107955709881 -0.42003443798493328 0 -0.17009787391258249 -0.41611158199907422 0 -0.14921107955709881 -0.42003443798493328 0 -0.17009787391258249 -0.41611158199907422 0 -0.15761868306950341 -0.43586407366366631 0 -0.17009787391258249 -0.41611158199907422 0 -0.15761868306950341 -0.43586407366366631 0 -0.1755027511393909 -0.43471579892562301 0 -0.1943898331460783 -0.4473597119794826 0 -0.1755027511393909 -0.43471579892562301 0 -0.18951413900105801 -0.42212105940109063 0 -0.17009787391258249 -0.41611158199907422 0 -0.1755027511393909 -0.43471579892562301 0 -0.18951413900105801 -0.42212105940109063 0 -0.17009787391258249 -0.41611158199907422 0 -0.18562609472684241 -0.40161550393767448 0 -0.18951413900105801 -0.42212105940109063 0 -0.18562609472684241 -0.40161550393767448 0 -0.16863204450281991 -0.39380366607865908 0 -0.18254917963999329 -0.38971973427100182 0 -0.17009787391258249 -0.41611158199907422 0 -0.18562609472684241 -0.40161550393767448 0 -0.16863204450281991 -0.39380366607865908 0 -0.18562609472684241 -0.40161550393767448 0 -0.18254917963999329 -0.38971973427100182 0 -0.19364364155811911 -0.391297223908462 0 -0.15345949684661231 -0.4053237642064671 0 -0.17009787391258249 -0.41611158199907422 0 -0.16863204450281991 -0.39380366607865908 0 -0.15345949684661231 -0.4053237642064671 0 -0.15136585988972451 -0.39002590355483568 0 -0.16863204450281991 -0.39380366607865908 0 -0.15951650330528561 -0.37856285477961621 0 -0.17625218554490921 -0.38180729220612769 0 -0.1663610822414904 -0.3702523776444529 0 -0.16863204450281991 -0.39380366607865908 0 -0.15951650330528561 -0.37856285477961621 0 -0.17625218554490921 -0.38180729220612769 0 -0.15136585988972451 -0.39002590355483568 0 -0.16863204450281991 -0.39380366607865908 0 -0.15951650330528561 -0.37856285477961621 0 -0.17625218554490921 -0.38180729220612769 0 -0.1663610822414904 -0.3702523776444529 0 -0.18579747934449059 -0.37379744869579251 0 -0.16863204450281991 -0.39380366607865908 0 -0.17625218554490921 -0.38180729220612769 0 -0.18254917963999329 -0.38971973427100182 0 -0.17625218554490921 -0.38180729220612769 0 -0.18254917963999329 -0.38971973427100182 0 -0.18859193186727599 -0.38007498522408562 0 -0.17625218554490921 -0.38180729220612769 0 -0.18859193186727599 -0.38007498522408562 0 -0.18579747934449059 -0.37379744869579251 0 -0.18859193186727599 -0.38007498522408562 0 -0.2014200033848125 -0.37119512976538899 0 -0.18859193186727599 -0.38007498522408562 0 -0.2014200033848125 -0.37119512976538899 0 -0.18579747934449059 -0.37379744869579251 0 -0.18859193186727599 -0.38007498522408562 0 -0.1989719328316337 -0.38216032023399737 0 -0.2014200033848125 -0.37119512976538899 0 -0.1989719328316337 -0.38216032023399737 0 -0.20694960464083431 -0.38128159833907621 0 -0.2014200033848125 -0.37119512976538899 0 -0.1989719328316337 -0.38216032023399737 0 -0.19364364155811911 -0.391297223908462 0 -0.20620014074293039 -0.39180645285032889 0 -0.18859193186727599 -0.38007498522408562 0 -0.1989719328316337 -0.38216032023399737 0 -0.19364364155811911 -0.391297223908462 0 -0.18254917963999329 -0.38971973427100182 0 -0.18859193186727599 -0.38007498522408562 0 -0.19364364155811911 -0.391297223908462 0 -0.18562609472684241 -0.40161550393767448 0 -0.19364364155811911 -0.391297223908462 0 -0.20208872018367391 -0.4070926974887904 0 -0.19364364155811911 -0.391297223908462 0 -0.20620014074293039 -0.39180645285032889 0 -0.20208872018367391 -0.4070926974887904 0 -0.20620014074293039 -0.39180645285032889 0 -0.21479853281951461 -0.38638530273916921 0 -0.22382842548955789 -0.4035077318131633 0 -0.20620014074293039 -0.39180645285032889 0 -0.20208872018367391 -0.4070926974887904 0 -0.22382842548955789 -0.4035077318131633 0 -0.21479853281951461 -0.38638530273916921 0 -0.20694960464083431 -0.38128159833907621 0 -0.21335741342528061 -0.3748607861064962 0 -0.21479853281951461 -0.38638530273916921 0 -0.22412886374227589 -0.38235217247817599 0 -0.21335741342528061 -0.3748607861064962 0 -0.20694960464083431 -0.38128159833907621 0 -0.2014200033848125 -0.37119512976538899 0 -0.21335741342528061 -0.3748607861064962 0 -0.20620014074293039 -0.39180645285032889 0 -0.21479853281951461 -0.38638530273916921 0 -0.20694960464083431 -0.38128159833907621 0 -0.1989719328316337 -0.38216032023399737 0 -0.20620014074293039 -0.39180645285032889 0 -0.20694960464083431 -0.38128159833907621 0 -0.1943898331460783 -0.4473597119794826 0 -0.20910912931781811 -0.42543372189632289 0 -0.1943898331460783 -0.4473597119794826 0 -0.18951413900105801 -0.42212105940109063 0 -0.20910912931781811 -0.42543372189632289 0 -0.18951413900105801 -0.42212105940109063 0 -0.20208872018367391 -0.4070926974887904 0 -0.20910912931781811 -0.42543372189632289 0 -0.18562609472684241 -0.40161550393767448 0 -0.18951413900105801 -0.42212105940109063 0 -0.20208872018367391 -0.4070926974887904 0 -0.20208872018367391 -0.4070926974887904 0 -0.20910912931781811 -0.42543372189632289 0 -0.22382842548955789 -0.4035077318131633 0 -0.20910912931781811 -0.42543372189632289 0 -0.22382842548955789 -0.4035077318131633 0 -0.21590660946663959 -0.44883644739355771 0 -0.20910912931781811 -0.42543372189632289 0 -0.23180750449586429 -0.4343742486430574 0 -0.20910912931781811 -0.42543372189632289 0 -0.23180750449586429 -0.4343742486430574 0 -0.22382842548955789 -0.4035077318131633 0 -0.23180750449586429 -0.4343742486430574 0 -0.24697084661892749 -0.41526345823838401 0 -0.22382842548955789 -0.4035077318131633 0 -0.25687425522332558 -0.44642006451091643 0 -0.23180750449586429 -0.4343742486430574 0 -0.24697084661892749 -0.41526345823838401 0 -0.22412886374227589 -0.38235217247817599 0 -0.2351820232309369 -0.38700758852266848 0 -0.22952037500089251 -0.37311519752493849 0 -0.22412886374227589 -0.38235217247817599 0 -0.22186900287429051 -0.37074082218821958 0 -0.21335741342528061 -0.3748607861064962 0 -0.22412886374227589 -0.38235217247817599 0 -0.22952037500089251 -0.37311519752493849 0 -0.22186900287429051 -0.37074082218821958 0 -0.22382842548955789 -0.4035077318131633 0 -0.24394706363899241 -0.39877073912243299 0 -0.2351820232309369 -0.38700758852266848 0 -0.21479853281951461 -0.38638530273916921 0 -0.22412886374227589 -0.38235217247817599 0 -0.22382842548955789 -0.4035077318131633 0 -0.22412886374227589 -0.38235217247817599 0 -0.22382842548955789 -0.4035077318131633 0 -0.2351820232309369 -0.38700758852266848 0 -0.24697084661892749 -0.41526345823838401 0 -0.22382842548955789 -0.4035077318131633 0 -0.24394706363899241 -0.39877073912243299 0 -0.2504897110532438 -0.38524934403489181 0 -0.24394706363899241 -0.39877073912243299 0 -0.2351820232309369 -0.38700758852266848 0 -0.2504897110532438 -0.38524934403489181 0 -0.2351820232309369 -0.38700758852266848 0 -0.24036284435674521 -0.37772398595485779 0 -0.2351820232309369 -0.38700758852266848 0 -0.24036284435674521 -0.37772398595485779 0 -0.22952037500089251 -0.37311519752493849 0 -0.2504897110532438 -0.38524934403489181 0 -0.24036284435674521 -0.37772398595485779 0 -0.24839247009954951 -0.37292447016044328 0 -0.24839247009954951 -0.37292447016044328 0 -0.24532753696728959 -0.36501789644951049 0 -0.23861636880082099 -0.36955921174380651 0 -0.24036284435674521 -0.37772398595485779 0 -0.24839247009954951 -0.37292447016044328 0 -0.23861636880082099 -0.36955921174380651 0 -0.25757508569408222 -0.36424633604315798 0 -0.24532753696728959 -0.36501789644951049 0 -0.24650166737573331 -0.3569693529562265 0 -0.24532753696728959 -0.36501789644951049 0 -0.24234943749700691 -0.36154613291017651 0 -0.24650166737573331 -0.3569693529562265 0 -0.24532753696728959 -0.36501789644951049 0 -0.24234943749700691 -0.36154613291017651 0 -0.23928568589256061 -0.36455139619594779 0 -0.24234943749700691 -0.36154613291017651 0 -0.23928568589256061 -0.36455139619594779 0 -0.23696933381926599 -0.3585493042599866 0 -0.24532753696728959 -0.36501789644951049 0 -0.23928568589256061 -0.36455139619594779 0 -0.23861636880082099 -0.36955921174380651 0 -0.23928568589256061 -0.36455139619594779 0 -0.23861636880082099 -0.36955921174380651 0 -0.23345080570298909 -0.36409891217005902 0 -0.23928568589256061 -0.36455139619594779 0 -0.23345080570298909 -0.36409891217005902 0 -0.23696933381926599 -0.3585493042599866 0 -0.24036284435674521 -0.37772398595485779 0 -0.23861636880082099 -0.36955921174380651 0 -0.22952037500089251 -0.37311519752493849 0 -0.23345080570298909 -0.36409891217005902 0 -0.22186900287429051 -0.37074082218821958 0 -0.21424807490234879 -0.36231527430669241 0 -0.22952037500089251 -0.37311519752493849 0 -0.23345080570298909 -0.36409891217005902 0 -0.22186900287429051 -0.37074082218821958 0 -0.23696933381926599 -0.3585493042599866 0 -0.21424807490234879 -0.36231527430669241 0 -0.23861636880082099 -0.36955921174380651 0 -0.22952037500089251 -0.37311519752493849 0 -0.23345080570298909 -0.36409891217005902 0 -0.23345080570298909 -0.36409891217005902 0 -0.23696933381926599 -0.3585493042599866 0 -0.21424807490234879 -0.36231527430669241 0 -0.22913587473404851 -0.35200963246311751 0 -0.2097464541822805 -0.33582260124732738 0 -0.22913587473404851 -0.35200963246311751 0 -0.23696933381926599 -0.3585493042599866 0 -0.21424807490234879 -0.36231527430669241 0 -0.22913587473404851 -0.35200963246311751 0 -0.21998707993494029 -0.33959044394559312 0 -0.22913587473404851 -0.35200963246311751 0 -0.21424807490234879 -0.36231527430669241 0 -0.22913587473404851 -0.35200963246311751 0 -0.23696933381926599 -0.3585493042599866 0 -0.22913587473404851 -0.35200963246311751 0 -0.24881121389389799 -0.33838995723746451 0 -0.22913587473404851 -0.35200963246311751 0 -0.23696933381926599 -0.3585493042599866 0 -0.24650166737573331 -0.3569693529562265 0 -0.22913587473404851 -0.35200963246311751 0 -0.24650166737573331 -0.3569693529562265 0 -0.24881121389389799 -0.33838995723746451 0 -0.23696933381926599 -0.3585493042599866 0 -0.24650166737573331 -0.3569693529562265 0 -0.24234943749700691 -0.36154613291017651 0 -0.23696933381926599 -0.3585493042599866 0 -0.24650166737573331 -0.3569693529562265 0 -0.22913587473404851 -0.35200963246311751 0 -0.24881121389389799 -0.33838995723746451 0 -0.2325545649384867 -0.33453283978227571 0 -0.24881121389389799 -0.33838995723746451 0 -0.2441082332202735 -0.32380704628422963 0 -0.2325545649384867 -0.33453283978227571 0 -0.23613058105125781 -0.31890710479075163 0 -0.2279063026952847 -0.3135077128279592 0 -0.2444966906846206 -0.31181945912301329 0 -0.2441082332202735 -0.32380704628422963 0 -0.23498207165859719 -0.32537142019391418 0 -0.23613058105125781 -0.31890710479075163 0 -0.2441082332202735 -0.32380704628422963 0 -0.23498207165859719 -0.32537142019391418 0 -0.2325545649384867 -0.33453283978227571 0 -0.2441082332202735 -0.32380704628422963 0 -0.23613058105125781 -0.31890710479075163 0 -0.2444966906846206 -0.31181945912301329 0 -0.2279063026952847 -0.3135077128279592 0 -0.2193464910840433 -0.31976030368968739 0 -0.21134622408423179 -0.310554889255794 0 -0.23613058105125781 -0.31890710479075163 0 -0.2279063026952847 -0.3135077128279592 0 -0.22829430606921119 -0.32293804105388452 0 -0.23498207165859719 -0.32537142019391418 0 -0.22829430606921119 -0.32293804105388452 0 -0.2325545649384867 -0.33453283978227571 0 -0.23498207165859719 -0.32537142019391418 0 -0.23613058105125781 -0.31890710479075163 0 -0.22829430606921119 -0.32293804105388452 0 -0.22829430606921119 -0.32293804105388452 0 -0.2193464910840433 -0.31976030368968739 0 -0.22209033975117781 -0.32887735541776358 0 -0.2279063026952847 -0.3135077128279592 0 -0.22829430606921119 -0.32293804105388452 0 -0.2193464910840433 -0.31976030368968739 0 -0.22913587473404851 -0.35200963246311751 0 -0.2325545649384867 -0.33453283978227571 0 -0.21998707993494029 -0.33959044394559312 0 -0.22913587473404851 -0.35200963246311751 0 -0.21998707993494029 -0.33959044394559312 0 -0.2097464541822805 -0.33582260124732738 0 -0.22829430606921119 -0.32293804105388452 0 -0.2325545649384867 -0.33453283978227571 0 -0.22209033975117781 -0.32887735541776358 0 -0.2325545649384867 -0.33453283978227571 0 -0.22209033975117781 -0.32887735541776358 0 -0.21998707993494029 -0.33959044394559312 0 -0.21998707993494029 -0.33959044394559312 0 -0.21026925672920721 -0.32756514861737779 0 -0.22209033975117781 -0.32887735541776358 0 -0.21998707993494029 -0.33959044394559312 0 -0.21026925672920721 -0.32756514861737779 0 -0.21998707993494029 -0.33959044394559312 0 -0.2097464541822805 -0.33582260124732738 0 -0.21026925672920721 -0.32756514861737779 0 -0.2097464541822805 -0.33582260124732738 0 -0.21026925672920721 -0.32756514861737779 0 -0.21026925672920721 -0.32756514861737779 0 -0.21134622408423179 -0.310554889255794 0 -0.19267178705524021 -0.30578920503631912 0 -0.21026925672920721 -0.32756514861737779 0 -0.21134622408423179 -0.310554889255794 0 -0.2097464541822805 -0.33582260124732738 0 -0.21026925672920721 -0.32756514861737779 0 -0.19254159852174429 -0.31996122112867409 0 -0.2193464910840433 -0.31976030368968739 0 -0.21026925672920721 -0.32756514861737779 0 -0.21134622408423179 -0.310554889255794 0 -0.2193464910840433 -0.31976030368968739 0 -0.22209033975117781 -0.32887735541776358 0 -0.21026925672920721 -0.32756514861737779 0 -0.2097464541822805 -0.33582260124732738 0 -0.1943588054861482 -0.32297640251143073 0 -0.19254159852174429 -0.31996122112867409 0 -0.21026925672920721 -0.32756514861737779 0 -0.19267178705524021 -0.30578920503631912 0 -0.21026925672920721 -0.32756514861737779 0 -0.19254159852174429 -0.31996122112867409 0 -0.19267178705524021 -0.30578920503631912 0 -0.2097464541822805 -0.33582260124732738 0 -0.19254159852174429 -0.31996122112867409 0 -0.1943588054861482 -0.32297640251143073 0 -0.18737083868624629 -0.33075534874643497 0 -0.18479650728396149 -0.32227615663527998 0 -0.1943588054861482 -0.32297640251143073 0 -0.19254159852174429 -0.31996122112867409 0 -0.1789711567900161 -0.3101302037755338 0 -0.2097464541822805 -0.33582260124732738 0 -0.19466829689393059 -0.33824472710720138 0 -0.19565175395430129 -0.3512554891803924 0 -0.2097464541822805 -0.33582260124732738 0 -0.1943588054861482 -0.32297640251143073 0 -0.19466829689393059 -0.33824472710720138 0 -0.2097464541822805 -0.33582260124732738 0 -0.1943588054861482 -0.32297640251143073 0 -0.1943588054861482 -0.32297640251143073 0 -0.19466829689393059 -0.33824472710720138 0 -0.18737083868624629 -0.33075534874643497 0 -0.19466829689393059 -0.33824472710720138 0 -0.18164424501215659 -0.34621916084723381 0 -0.18737083868624629 -0.33075534874643497 0 -0.19466829689393059 -0.33824472710720138 0 -0.19565175395430129 -0.3512554891803924 0 -0.18164424501215659 -0.34621916084723381 0 -0.20800359978069241 -0.36335027445133922 0 -0.18480326185087809 -0.36719565018674682 0 -0.19565175395430129 -0.3512554891803924 0 -0.20800359978069241 -0.36335027445133922 0 -0.18480326185087809 -0.36719565018674682 0 -0.2014200033848125 -0.37119512976538899 0 -0.18480326185087809 -0.36719565018674682 0 -0.18579747934449059 -0.37379744869579251 0 -0.2014200033848125 -0.37119512976538899 0 -0.20800359978069241 -0.36335027445133922 0 -0.18480326185087809 -0.36719565018674682 0 -0.2014200033848125 -0.37119512976538899 0 -0.20800359978069241 -0.36335027445133922 0 -0.20803809997708481 -0.36661394692190907 0 -0.20800359978069241 -0.36335027445133922 0 -0.20803809997708481 -0.36661394692190907 0 -0.21424807490234879 -0.36231527430669241 0 -0.20800359978069241 -0.36335027445133922 0 -0.20803809997708481 -0.36661394692190907 0 -0.2014200033848125 -0.37119512976538899 0 -0.20803809997708481 -0.36661394692190907 0 -0.21335741342528061 -0.3748607861064962 0 -0.2014200033848125 -0.37119512976538899 0 -0.20803809997708481 -0.36661394692190907 0 -0.20803809997708481 -0.36661394692190907 0 -0.21335741342528061 -0.3748607861064962 0 -0.21424807490234879 -0.36231527430669241 0 -0.22186900287429051 -0.37074082218821958 0 -0.21335741342528061 -0.3748607861064962 0 -0.21424807490234879 -0.36231527430669241 0 -0.20800359978069241 -0.36335027445133922 0 -0.21424807490234879 -0.36231527430669241 0 -0.20803809997708481 -0.36661394692190907 0 -0.21424807490234879 -0.36231527430669241 0 -0.2097464541822805 -0.33582260124732738 0 -0.19565175395430129 -0.3512554891803924 0 -0.20800359978069241 -0.36335027445133922 0 -0.2097464541822805 -0.33582260124732738 0 -0.20800359978069241 -0.36335027445133922 0 -0.2097464541822805 -0.33582260124732738 0 -0.20800359978069241 -0.36335027445133922 0 -0.21424807490234879 -0.36231527430669241 0 -0.22913587473404851 -0.35200963246311751 0 -0.2097464541822805 -0.33582260124732738 0 -0.21424807490234879 -0.36231527430669241 0 -0.2335542019388327 -0.26090262277066528 0 -0.21472073189145299 -0.25725591714607071 0 -0.22837296648480071 -0.23789375384220129 0 -0.2335542019388327 -0.26090262277066528 0 -0.21357196166535461 -0.27540027352014051 0 -0.21472073189145299 -0.25725591714607071 0 -0.25298377122075039 -0.27518622721876451 0 -0.2335542019388327 -0.26090262277066528 0 -0.25431856302814809 -0.24833495949118861 0 -0.25298377122075039 -0.27518622721876451 0 -0.2335542019388327 -0.26090262277066528 0 -0.23093648268818689 -0.28342115129973 0 -0.2335542019388327 -0.26090262277066528 0 -0.23093648268818689 -0.28342115129973 0 -0.21357196166535461 -0.27540027352014051 0 -0.23093648268818689 -0.28342115129973 0 -0.21242319143925911 -0.29354462989421048 0 -0.21357196166535461 -0.27540027352014051 0 -0.23093648268818689 -0.28342115129973 0 -0.2435111179254994 -0.29490773243705071 0 -0.2284599410619414 -0.30268204450860919 0 -0.23093648268818689 -0.28342115129973 0 -0.2284599410619414 -0.30268204450860919 0 -0.21242319143925911 -0.29354462989421048 0 -0.25298377122075039 -0.27518622721876451 0 -0.23093648268818689 -0.28342115129973 0 -0.2435111179254994 -0.29490773243705071 0 -0.2444966906846206 -0.31181945912301329 0 -0.2284599410619414 -0.30268204450860919 0 -0.2435111179254994 -0.29490773243705071 0 -0.2444966906846206 -0.31181945912301329 0 -0.2284599410619414 -0.30268204450860919 0 -0.26057201890547982 -0.29344093798311832 0 -0.2435111179254994 -0.29490773243705071 0 -0.2444966906846206 -0.31181945912301329 0 -0.2279063026952847 -0.3135077128279592 0 -0.2444966906846206 -0.31181945912301329 0 -0.2284599410619414 -0.30268204450860919 0 -0.2284599410619414 -0.30268204450860919 0 -0.21242319143925911 -0.29354462989421048 0 -0.2279063026952847 -0.3135077128279592 0 -0.2284599410619414 -0.30268204450860919 0 -0.21134622408423179 -0.310554889255794 0 -0.2284599410619414 -0.30268204450860919 0 -0.21134622408423179 -0.310554889255794 0 -0.21242319143925911 -0.29354462989421048 0 -0.21134622408423179 -0.310554889255794 0 -0.19267178705524021 -0.30578920503631912 0 -0.21242319143925911 -0.29354462989421048 0 -0.21134622408423179 -0.310554889255794 0 -0.21242319143925911 -0.29354462989421048 0 -0.19267178705524021 -0.30578920503631912 0 -0.19410774352861071 -0.2831088592208712 0 -0.21242319143925911 -0.29354462989421048 0 -0.19410774352861071 -0.2831088592208712 0 -0.21242319143925911 -0.29354462989421048 0 -0.21357196166535461 -0.27540027352014051 0 -0.19410774352861071 -0.2831088592208712 0 -0.21242319143925911 -0.29354462989421048 0 -0.21242319143925911 -0.29354462989421048 0 -0.21357196166535461 -0.27540027352014051 0 -0.21357196166535461 -0.27540027352014051 0 -0.21472073189145299 -0.25725591714607071 0 -0.19410774352861071 -0.2831088592208712 0 -0.21357196166535461 -0.27540027352014051 0 -0.1965391795889786 -0.26204425282134669 0 -0.19410774352861071 -0.2831088592208712 0 -0.1965391795889786 -0.26204425282134669 0 -0.17579229561796161 -0.27267308854753308 0 -0.1965391795889786 -0.26204425282134669 0 -0.20565562739327201 -0.24334207984173631 0 -0.18863044441395099 -0.24733650333174401 0 -0.1965391795889786 -0.26204425282134669 0 -0.18340152769721799 -0.25642831405215172 0 -0.18863044441395099 -0.24733650333174401 0 -0.1965391795889786 -0.26204425282134669 0 -0.21472073189145299 -0.25725591714607071 0 -0.20565562739327201 -0.24334207984173631 0 -0.21357196166535461 -0.27540027352014051 0 -0.1965391795889786 -0.26204425282134669 0 -0.21472073189145299 -0.25725591714607071 0 -0.15747684770731041 -0.26223731787419863 0 -0.16344648285301799 -0.25937253054906129 0 -0.17579229561796161 -0.27267308854753308 0 -0.1593809120407062 -0.25278805690175971 0 -0.16344648285301799 -0.25937253054906129 0 -0.1534429259631987 -0.25724555178864622 0 -0.1593809120407062 -0.25278805690175971 0 -0.16344648285301799 -0.25937253054906129 0 -0.16709258238786229 -0.25188408856254202 0 -0.1593809120407062 -0.25278805690175971 0 -0.16709258238786229 -0.25188408856254202 0 -0.1601832428566283 -0.24550858739866141 0 -0.15747684770731041 -0.26223731787419863 0 -0.16344648285301799 -0.25937253054906129 0 -0.1534429259631987 -0.25724555178864622 0 -0.16344648285301799 -0.25937253054906129 0 -0.1534429259631987 -0.25724555178864622 0 -0.16344648285301799 -0.25937253054906129 0 -0.17379217291466831 -0.25992581321180469 0 -0.17579229561796161 -0.27267308854753308 0 -0.16344648285301799 -0.25937253054906129 0 -0.16709258238786229 -0.25188408856254202 0 -0.17379217291466831 -0.25992581321180469 0 -0.16709258238786229 -0.25188408856254202 0 -0.17679077873490559 -0.25046109420941731 0 -0.17379217291466831 -0.25992581321180469 0 -0.1965391795889786 -0.26204425282134669 0 -0.18340152769721799 -0.25642831405215172 0 -0.17579229561796161 -0.27267308854753308 0 -0.17679077873490559 -0.25046109420941731 0 -0.18340152769721799 -0.25642831405215172 0 -0.17379217291466831 -0.25992581321180469 0 -0.18340152769721799 -0.25642831405215172 0 -0.17379217291466831 -0.25992581321180469 0 -0.17579229561796161 -0.27267308854753308 0 -0.17679077873490559 -0.25046109420941731 0 -0.18340152769721799 -0.25642831405215172 0 -0.18863044441395099 -0.24733650333174401 0 -0.19410774352861071 -0.2831088592208712 0 -0.17579229561796161 -0.27267308854753308 0 -0.17507431738127369 -0.28401326145526029 0 -0.19410774352861071 -0.2831088592208712 0 -0.17579229561796161 -0.27267308854753308 0 -0.15747684770731041 -0.26223731787419863 0 -0.17507431738127369 -0.28401326145526029 0 -0.15747684770731041 -0.26223731787419863 0 -0.17579229561796161 -0.27267308854753308 0 -0.15747684770731041 -0.26223731787419863 0 -0.17579229561796161 -0.27267308854753308 0 -0.17507431738127369 -0.28401326145526029 0 -0.15747684770731041 -0.26223731787419863 0 -0.1596399504195592 -0.27820623095404468 0 -0.17507431738127369 -0.28401326145526029 0 -0.1596399504195592 -0.27820623095404468 0 -0.1624028041075358 -0.29248408411088062 0 -0.1494793968803598 -0.28070198605355251 0 -0.1624028041075358 -0.29248408411088062 0 -0.15973767967650701 -0.30493196891575292 0 -0.15108397830665751 -0.29236825921418419 0 -0.1624028041075358 -0.29248408411088062 0 -0.17507431738127369 -0.28401326145526029 0 -0.17391538329452061 -0.29489800819007239 0 -0.1596399504195592 -0.27820623095404468 0 -0.1624028041075358 -0.29248408411088062 0 -0.17507431738127369 -0.28401326145526029 0 -0.19267178705524021 -0.30578920503631912 0 -0.19410774352861071 -0.2831088592208712 0 -0.17507431738127369 -0.28401326145526029 0 -0.19267178705524021 -0.30578920503631912 0 -0.17507431738127369 -0.28401326145526029 0 -0.17391538329452061 -0.29489800819007239 0 -0.19267178705524021 -0.30578920503631912 0 -0.17507431738127369 -0.28401326145526029 0 -0.17391538329452061 -0.29489800819007239 0 -0.17532621133471249 -0.30426618216820789 0 -0.19254159852174429 -0.31996122112867409 0 -0.19267178705524021 -0.30578920503631912 0 -0.17532621133471249 -0.30426618216820789 0 -0.19267178705524021 -0.30578920503631912 0 -0.17391538329452061 -0.29489800819007239 0 -0.17532621133471249 -0.30426618216820789 0 -0.19254159852174429 -0.31996122112867409 0 -0.17532621133471249 -0.30426618216820789 0 -0.1789711567900161 -0.3101302037755338 0 -0.19254159852174429 -0.31996122112867409 0 -0.17532621133471249 -0.30426618216820789 0 -0.17532621133471249 -0.30426618216820789 0 -0.15973767967650701 -0.30493196891575292 0 -0.16582550601247259 -0.31644195918285489 0 -0.1624028041075358 -0.29248408411088062 0 -0.17532621133471249 -0.30426618216820789 0 -0.15973767967650701 -0.30493196891575292 0 -0.1624028041075358 -0.29248408411088062 0 -0.17532621133471249 -0.30426618216820789 0 -0.1624028041075358 -0.29248408411088062 0 -0.17391538329452061 -0.29489800819007239 0 -0.17532621133471249 -0.30426618216820789 0 -0.144593184228827 -0.30237793828586917 0 -0.15261731536399281 -0.31699983390472031 0 -0.1327552185807534 -0.31482398186879779 0 -0.15973767967650701 -0.30493196891575292 0 -0.144593184228827 -0.30237793828586917 0 -0.15261731536399281 -0.31699983390472031 0 -0.15973767967650701 -0.30493196891575292 0 -0.144593184228827 -0.30237793828586917 0 -0.15108397830665751 -0.29236825921418419 0 -0.144593184228827 -0.30237793828586917 0 -0.1304175251842298 -0.30012492429455973 0 -0.1327552185807534 -0.31482398186879779 0 -0.1304175251842298 -0.30012492429455973 0 -0.1327552185807534 -0.31482398186879779 0 -0.11567190875339491 -0.3081878681979589 0 -0.1304175251842298 -0.30012492429455973 0 -0.13697378053928061 -0.28594316463020741 0 -0.11725087491461519 -0.29108504565108578 0 -0.144593184228827 -0.30237793828586917 0 -0.1304175251842298 -0.30012492429455973 0 -0.13697378053928061 -0.28594316463020741 0 -0.13697378053928061 -0.28594316463020741 0 -0.15108397830665751 -0.29236825921418419 0 -0.1494793968803598 -0.28070198605355251 0 -0.144593184228827 -0.30237793828586917 0 -0.13697378053928061 -0.28594316463020741 0 -0.15108397830665751 -0.29236825921418419 0 -0.1624028041075358 -0.29248408411088062 0 -0.15108397830665751 -0.29236825921418419 0 -0.1494793968803598 -0.28070198605355251 0 -0.1624028041075358 -0.29248408411088062 0 -0.1494793968803598 -0.28070198605355251 0 -0.15747684770731041 -0.26223731787419863 0 -0.1596399504195592 -0.27820623095404468 0 -0.1503927610565664 -0.27179087804580171 0 -0.1596399504195592 -0.27820623095404468 0 -0.1494793968803598 -0.28070198605355251 0 -0.1503927610565664 -0.27179087804580171 0 -0.15747684770731041 -0.26223731787419863 0 -0.1503927610565664 -0.27179087804580171 0 -0.1469785187108 -0.2635474229235048 0 -0.1503927610565664 -0.27179087804580171 0 -0.13966748117377659 -0.26847157538705668 0 -0.1469785187108 -0.2635474229235048 0 -0.1503927610565664 -0.27179087804580171 0 -0.14153524490660671 -0.2763029116229278 0 -0.13966748117377659 -0.26847157538705668 0 -0.1494793968803598 -0.28070198605355251 0 -0.1503927610565664 -0.27179087804580171 0 -0.14153524490660671 -0.2763029116229278 0 -0.13697378053928061 -0.28594316463020741 0 -0.1494793968803598 -0.28070198605355251 0 -0.14153524490660671 -0.2763029116229278 0 -0.13697378053928061 -0.28594316463020741 0 -0.14153524490660671 -0.2763029116229278 0 -0.13219795163187159 -0.27110871778552531 0 -0.13697378053928061 -0.28594316463020741 0 -0.1173011125765811 -0.2721428964285707 0 -0.13697378053928061 -0.28594316463020741 0 -0.13219795163187159 -0.27110871778552531 0 -0.1173011125765811 -0.2721428964285707 0 -0.13219795163187159 -0.27110871778552531 0 -0.1333337708168415 -0.26377523499205202 0 -0.12600056203783161 -0.26301541000095829 0 -0.13219795163187159 -0.27110871778552531 0 -0.12600056203783161 -0.26301541000095829 0 -0.1173011125765811 -0.2721428964285707 0 -0.13219795163187159 -0.27110871778552531 0 -0.13966748117377659 -0.26847157538705668 0 -0.1333337708168415 -0.26377523499205202 0 -0.14153524490660671 -0.2763029116229278 0 -0.13219795163187159 -0.27110871778552531 0 -0.13966748117377659 -0.26847157538705668 0 -0.13966748117377659 -0.26847157538705668 0 -0.13807993829988649 -0.25979154560904222 0 -0.1333337708168415 -0.26377523499205202 0 -0.13807993829988649 -0.25979154560904222 0 -0.1333337708168415 -0.26377523499205202 0 -0.13072292094084129 -0.25648892617767749 0 -0.12600056203783161 -0.26301541000095829 0 -0.13072292094084129 -0.25648892617767749 0 -0.1187556211832122 -0.25814451816493872 0 -0.1333337708168415 -0.26377523499205202 0 -0.12600056203783161 -0.26301541000095829 0 -0.13072292094084129 -0.25648892617767749 0 -0.13072292094084129 -0.25648892617767749 0 -0.13218950310710981 -0.25272660122947088 0 -0.1187556211832122 -0.25814451816493872 0 -0.13072292094084129 -0.25648892617767749 0 -0.13218950310710981 -0.25272660122947088 0 -0.13218950310710981 -0.25272660122947088 0 -0.1459019403517107 -0.25564217047089421 0 -0.13375162957080131 -0.24871916986845621 0 -0.13218950310710981 -0.25272660122947088 0 -0.1459019403517107 -0.25564217047089421 0 -0.13218950310710981 -0.25272660122947088 0 -0.13375162957080131 -0.24871916986845621 0 -0.1459019403517107 -0.25564217047089421 0 -0.13375162957080131 -0.24871916986845621 0 -0.13807993829988649 -0.25979154560904222 0 -0.13218950310710981 -0.25272660122947088 0 -0.1459019403517107 -0.25564217047089421 0 -0.13807993829988649 -0.25979154560904222 0 -0.13072292094084129 -0.25648892617767749 0 -0.13218950310710981 -0.25272660122947088 0 -0.1459019403517107 -0.25564217047089421 0 -0.1534429259631987 -0.25724555178864622 0 -0.1378886282313006 -0.2381062402767252 0 -0.13966748117377659 -0.26847157538705668 0 -0.13807993829988649 -0.25979154560904222 0 -0.1469785187108 -0.2635474229235048 0 -0.13807993829988649 -0.25979154560904222 0 -0.1459019403517107 -0.25564217047089421 0 -0.1469785187108 -0.2635474229235048 0 -0.15747684770731041 -0.26223731787419863 0 -0.1459019403517107 -0.25564217047089421 0 -0.1534429259631987 -0.25724555178864622 0 -0.15747684770731041 -0.26223731787419863 0 -0.1459019403517107 -0.25564217047089421 0 -0.1469785187108 -0.2635474229235048 0 -0.15747684770731041 -0.26223731787419863 0 -0.1459019403517107 -0.25564217047089421 0 -0.15747684770731041 -0.26223731787419863 0 -0.1534429259631987 -0.25724555178864622 0 -0.1593809120407062 -0.25278805690175971 0 -0.1534429259631987 -0.25724555178864622 0 -0.15289321433053751 -0.246830478479277 0 -0.1459019403517107 -0.25564217047089421 0 -0.1534429259631987 -0.25724555178864622 0 -0.17143624801538501 -0.35840063883308271 0 -0.1580141783998408 -0.34710035810185619 0 -0.15489216358121211 -0.36256913283011211 0 -0.17143624801538501 -0.35840063883308271 0 -0.1580141783998408 -0.34710035810185619 0 -0.18164424501215659 -0.34621916084723381 0 -0.17143624801538501 -0.35840063883308271 0 -0.1663610822414904 -0.3702523776444529 0 -0.15489216358121211 -0.36256913283011211 0 -0.15951650330528561 -0.37856285477961621 0 -0.1663610822414904 -0.3702523776444529 0 -0.15489216358121211 -0.36256913283011211 0 -0.17143624801538501 -0.35840063883308271 0 -0.1663610822414904 -0.3702523776444529 0 -0.18480326185087809 -0.36719565018674682 0 -0.1663610822414904 -0.3702523776444529 0 -0.18480326185087809 -0.36719565018674682 0 -0.1663610822414904 -0.3702523776444529 0 -0.18480326185087809 -0.36719565018674682 0 -0.18579747934449059 -0.37379744869579251 0 -0.18480326185087809 -0.36719565018674682 0 -0.18579747934449059 -0.37379744869579251 0 -0.18480326185087809 -0.36719565018674682 0 -0.18164424501215659 -0.34621916084723381 0 -0.19565175395430129 -0.3512554891803924 0 -0.18480326185087809 -0.36719565018674682 0 -0.18164424501215659 -0.34621916084723381 0 -0.17143624801538501 -0.35840063883308271 0 -0.18480326185087809 -0.36719565018674682 0 -0.18164424501215659 -0.34621916084723381 0 -0.18164424501215659 -0.34621916084723381 0 -0.17848522817343529 -0.32524267150772068 0 -0.1629610955137164 -0.33076913941787212 0 -0.18164424501215659 -0.34621916084723381 0 -0.17848522817343529 -0.32524267150772068 0 -0.18164424501215659 -0.34621916084723381 0 -0.18737083868624629 -0.33075534874643497 0 -0.17848522817343529 -0.32524267150772068 0 -0.17532621133471249 -0.30426618216820789 0 -0.17848522817343529 -0.32524267150772068 0 -0.17532621133471249 -0.30426618216820789 0 -0.1789711567900161 -0.3101302037755338 0 -0.17848522817343529 -0.32524267150772068 0 -0.17532621133471249 -0.30426618216820789 0 -0.17848522817343529 -0.32524267150772068 0 -0.16582550601247259 -0.31644195918285489 0 -0.1943588054861482 -0.32297640251143073 0 -0.1789711567900161 -0.3101302037755338 0 -0.18479650728396149 -0.32227615663527998 0 -0.1789711567900161 -0.3101302037755338 0 -0.18479650728396149 -0.32227615663527998 0 -0.17848522817343529 -0.32524267150772068 0 -0.1943588054861482 -0.32297640251143073 0 -0.1789711567900161 -0.3101302037755338 0 -0.18737083868624629 -0.33075534874643497 0 -0.18479650728396149 -0.32227615663527998 0 -0.17848522817343529 -0.32524267150772068 0 -0.17848522817343529 -0.32524267150772068 0 -0.16582550601247259 -0.31644195918285489 0 -0.1629610955137164 -0.33076913941787212 0 -0.16582550601247259 -0.31644195918285489 0 -0.1629610955137164 -0.33076913941787212 0 -0.15261731536399281 -0.31699983390472031 0 -0.15973767967650701 -0.30493196891575292 0 -0.16582550601247259 -0.31644195918285489 0 -0.15261731536399281 -0.31699983390472031 0 -0.1580141783998408 -0.34710035810185619 0 -0.18164424501215659 -0.34621916084723381 0 -0.1629610955137164 -0.33076913941787212 0 -0.1580141783998408 -0.34710035810185619 0 -0.1629610955137164 -0.33076913941787212 0 -0.14559484309128301 -0.3331209990743299 0 -0.14559484309128301 -0.3331209990743299 0 -0.15261731536399281 -0.31699983390472031 0 -0.1327552185807534 -0.31482398186879779 0 -0.1629610955137164 -0.33076913941787212 0 -0.14559484309128301 -0.3331209990743299 0 -0.15261731536399281 -0.31699983390472031 0 -0.14559484309128301 -0.3331209990743299 0 -0.1327552185807534 -0.31482398186879779 0 -0.12678352480283511 -0.3369129194106073 0 -0.14559484309128301 -0.3331209990743299 0 -0.12678352480283511 -0.3369129194106073 0 -0.14043772588655989 -0.35211976174212622 0 -0.12678352480283511 -0.3369129194106073 0 -0.14043772588655989 -0.35211976174212622 0 -0.1203130985899742 -0.35955571918490481 0 -0.1580141783998408 -0.34710035810185619 0 -0.14043772588655989 -0.35211976174212622 0 -0.15489216358121211 -0.36256913283011211 0 -0.1580141783998408 -0.34710035810185619 0 -0.14559484309128301 -0.3331209990743299 0 -0.14043772588655989 -0.35211976174212622 0 -0.14043772588655989 -0.35211976174212622 0 -0.15489216358121211 -0.36256913283011211 0 -0.13959568407155781 -0.37291875636350952 0 -0.15951650330528561 -0.37856285477961621 0 -0.15489216358121211 -0.36256913283011211 0 -0.13959568407155781 -0.37291875636350952 0 -0.12625141541498519 -0.38197991289387551 0 -0.13959568407155781 -0.37291875636350952 0 -0.1203130985899742 -0.35955571918490481 0 -0.14043772588655989 -0.35211976174212622 0 -0.13959568407155781 -0.37291875636350952 0 -0.1203130985899742 -0.35955571918490481 0 -0.1203130985899742 -0.35955571918490481 0 -0.11384267237711319 -0.38219851895920232 0 -0.1203130985899742 -0.35955571918490481 0 -0.10849363524981311 -0.36442991456039969 0 -0.11384267237711319 -0.38219851895920232 0 -0.12625141541498519 -0.38197991289387551 0 -0.1203130985899742 -0.35955571918490481 0 -0.11384267237711319 -0.38219851895920232 0 -0.10849363524981311 -0.36442991456039969 0 -0.096157591159299352 -0.35547454281719221 0 -0.10176491866177829 -0.38015793077534599 0 -0.096157591159299352 -0.35547454281719221 0 -0.10176491866177829 -0.38015793077534599 0 -0.096157591159299352 -0.35547454281719221 0 -0.10176491866177829 -0.38015793077534599 0 -0.085276019388031976 -0.37619188405436782 0 -0.096157591159299352 -0.35547454281719221 0 -0.10964553082547281 -0.34513317088572909 0 -0.090550263656820479 -0.33079115485903843 0 -0.10849363524981311 -0.36442991456039969 0 -0.096157591159299352 -0.35547454281719221 0 -0.10964553082547281 -0.34513317088572909 0 -0.1203130985899742 -0.35955571918490481 0 -0.10849363524981311 -0.36442991456039969 0 -0.10964553082547281 -0.34513317088572909 0 -0.12678352480283511 -0.3369129194106073 0 -0.1203130985899742 -0.35955571918490481 0 -0.10964553082547281 -0.34513317088572909 0 -0.12678352480283511 -0.3369129194106073 0 -0.1203130985899742 -0.35955571918490481 0 -0.12678352480283511 -0.3369129194106073 0 -0.10964553082547281 -0.34513317088572909 0 -0.1112875311940303 -0.32576775904759792 0 -0.1327552185807534 -0.31482398186879779 0 -0.12678352480283511 -0.3369129194106073 0 -0.1112875311940303 -0.32576775904759792 0 -0.1327552185807534 -0.31482398186879779 0 -0.1112875311940303 -0.32576775904759792 0 -0.11567190875339491 -0.3081878681979589 0 -0.1112875311940303 -0.32576775904759792 0 -0.1011365257202933 -0.31403431577096802 0 -0.11567190875339491 -0.3081878681979589 0 -0.1112875311940303 -0.32576775904759792 0 -0.1011365257202933 -0.31403431577096802 0 -0.090550263656820479 -0.33079115485903843 0 -0.10964553082547281 -0.34513317088572909 0 -0.1112875311940303 -0.32576775904759792 0 -0.090550263656820479 -0.33079115485903843 0 -0.096157591159299352 -0.35547454281719221 0 -0.090550263656820479 -0.33079115485903843 0 -0.096157591159299352 -0.35547454281719221 0 -0.090550263656820479 -0.33079115485903843 0 -0.073144777225565616 -0.33606175945158517 0 -0.090550263656820479 -0.33079115485903843 0 -0.084942936154341619 -0.30610776690088481 0 -0.090550263656820479 -0.33079115485903843 0 -0.073144777225565616 -0.33606175945158517 0 -0.084942936154341619 -0.30610776690088481 0 -0.1011365257202933 -0.31403431577096802 0 -0.090550263656820479 -0.33079115485903843 0 -0.084942936154341619 -0.30610776690088481 0 -0.073144777225565616 -0.33606175945158517 0 -0.084942936154341619 -0.30610776690088481 0 -0.060613113796085999 -0.32288269869712272 0 -0.073144777225565616 -0.33606175945158517 0 -0.076755031766953086 -0.35884624094615858 0 -0.063306301319701316 -0.35299520754669739 0 -0.076755031766953086 -0.35884624094615858 0 -0.063306301319701316 -0.35299520754669739 0 -0.065890469742167113 -0.37350781086095058 0 -0.076755031766953086 -0.35884624094615858 0 -0.065890469742167113 -0.37350781086095058 0 -0.085276019388031976 -0.37619188405436782 0 -0.096157591159299352 -0.35547454281719221 0 -0.076755031766953086 -0.35884624094615858 0 -0.085276019388031976 -0.37619188405436782 0 -0.096157591159299352 -0.35547454281719221 0 -0.073144777225565616 -0.33606175945158517 0 -0.076755031766953086 -0.35884624094615858 0 -0.097628444613881649 -0.25834262822693399 0 -0.1173011125765811 -0.2721428964285707 0 -0.097628444613881649 -0.25834262822693399 0 -0.1187556211832122 -0.25814451816493872 0 -0.1098930818979398 -0.24798588601512411 0 -0.13218950310710981 -0.25272660122947088 0 -0.1187556211832122 -0.25814451816493872 0 -0.1098930818979398 -0.24798588601512411 0 -0.097628444613881649 -0.25834262822693399 0 -0.1187556211832122 -0.25814451816493872 0 -0.1173011125765811 -0.2721428964285707 0 -0.13218950310710981 -0.25272660122947088 0 -0.1098930818979398 -0.24798588601512411 0 -0.12600056203783161 -0.26301541000095829 0 -0.1187556211832122 -0.25814451816493872 0 -0.1173011125765811 -0.2721428964285707 0 -0.097628444613881649 -0.25834262822693399 0 -0.1173011125765811 -0.2721428964285707 0 -0.090762408808148426 -0.27102181932101072 0 -0.1173011125765811 -0.2721428964285707 0 -0.096655829275762523 -0.28444542957314378 0 -0.090762408808148426 -0.27102181932101072 0 -0.096655829275762523 -0.28444542957314378 0 -0.10322998884287909 -0.29931702984935987 0 -0.084942936154341619 -0.30610776690088481 0 -0.096655829275762523 -0.28444542957314378 0 -0.11725087491461519 -0.29108504565108578 0 -0.10322998884287909 -0.29931702984935987 0 -0.13697378053928061 -0.28594316463020741 0 -0.1173011125765811 -0.2721428964285707 0 -0.11725087491461519 -0.29108504565108578 0 -0.1173011125765811 -0.2721428964285707 0 -0.096655829275762523 -0.28444542957314378 0 -0.11725087491461519 -0.29108504565108578 0 -0.11725087491461519 -0.29108504565108578 0 -0.11567190875339491 -0.3081878681979589 0 -0.10322998884287909 -0.29931702984935987 0 -0.1304175251842298 -0.30012492429455973 0 -0.11725087491461519 -0.29108504565108578 0 -0.11567190875339491 -0.3081878681979589 0 -0.1011365257202933 -0.31403431577096802 0 -0.10322998884287909 -0.29931702984935987 0 -0.084942936154341619 -0.30610776690088481 0 -0.1011365257202933 -0.31403431577096802 0 -0.11567190875339491 -0.3081878681979589 0 -0.10322998884287909 -0.29931702984935987 0 -0.084942936154341619 -0.30610776690088481 0 -0.066237696895848033 -0.30175990202967712 0 -0.078368201618682937 -0.28822753231137022 0 -0.084942936154341619 -0.30610776690088481 0 -0.066237696895848033 -0.30175990202967712 0 -0.060613113796085999 -0.32288269869712272 0 -0.066237696895848033 -0.30175990202967712 0 -0.078368201618682937 -0.28822753231137022 0 -0.057136779716869042 -0.28712205926022771 0 -0.078368201618682937 -0.28822753231137022 0 -0.072744725061100565 -0.27289296274949931 0 -0.057136779716869042 -0.28712205926022771 0 -0.096655829275762523 -0.28444542957314378 0 -0.084942936154341619 -0.30610776690088481 0 -0.078368201618682937 -0.28822753231137022 0 -0.096655829275762523 -0.28444542957314378 0 -0.078368201618682937 -0.28822753231137022 0 -0.090762408808148426 -0.27102181932101072 0 -0.078368201618682937 -0.28822753231137022 0 -0.090762408808148426 -0.27102181932101072 0 -0.072744725061100565 -0.27289296274949931 0 -0.090762408808148426 -0.27102181932101072 0 -0.072744725061100565 -0.27289296274949931 0 -0.081281336266817772 -0.26097832242812891 0 -0.072744725061100565 -0.27289296274949931 0 -0.067161912638977472 -0.25903173736147111 0 -0.055745381016590281 -0.2682223094504298 0 -0.072744725061100565 -0.27289296274949931 0 -0.067161912638977472 -0.25903173736147111 0 -0.081281336266817772 -0.26097832242812891 0 -0.067161912638977472 -0.25903173736147111 0 -0.081281336266817772 -0.26097832242812891 0 -0.077955776651182085 -0.24454236002529731 0 -0.067161912638977472 -0.25903173736147111 0 -0.056939497423126581 -0.24878681181634871 0 -0.077955776651182085 -0.24454236002529731 0 -0.097628444613881649 -0.25834262822693399 0 -0.081281336266817772 -0.26097832242812891 0 -0.077955776651182085 -0.24454236002529731 0 -0.097628444613881649 -0.25834262822693399 0 -0.090762408808148426 -0.27102181932101072 0 -0.081281336266817772 -0.26097832242812891 0 -0.097628444613881649 -0.25834262822693399 0 -0.077955776651182085 -0.24454236002529731 0 -0.025857267464119819 -0.25506418495113531 0 -0.050191684441297867 -0.2485850187836515 0 -0.034199021844566052 -0.25740496373097072 0 -0.056939497423126581 -0.24878681181634871 0 -0.034199021844566052 -0.25740496373097072 0 -0.041398382443623198 -0.25192549838374201 0 -0.056939497423126581 -0.24878681181634871 0 -0.041398382443623198 -0.25192549838374201 0 -0.025857267464119819 -0.25506418495113531 0 -0.050191684441297867 -0.2485850187836515 0 -0.034199021844566052 -0.25740496373097072 0 -0.048255079716108998 -0.25800015923011232 0 -0.056939497423126581 -0.24878681181634871 0 -0.034199021844566052 -0.25740496373097072 0 -0.041398382443623198 -0.25192549838374201 0 -0.025857267464119819 -0.25506418495113531 0 -0.041398382443623198 -0.25192549838374201 0 -0.025857267464119819 -0.25506418495113531 0 -0.034199021844566052 -0.25740496373097072 0 -0.037307574571523318 -0.26201401924185519 0 -0.024854767991187229 -0.26705994663832661 0 -0.037307574571523318 -0.26201401924185519 0 -0.048255079716108998 -0.25800015923011232 0 -0.046606779304586107 -0.26584835010199509 0 -0.034199021844566052 -0.25740496373097072 0 -0.037307574571523318 -0.26201401924185519 0 -0.048255079716108998 -0.25800015923011232 0 -0.05702546769870083 -0.25851025446459042 0 -0.048255079716108998 -0.25800015923011232 0 -0.056939497423126581 -0.24878681181634871 0 -0.041398382443623198 -0.25192549838374201 0 -0.056939497423126581 -0.24878681181634871 0 -0.067161912638977472 -0.25903173736147111 0 -0.05702546769870083 -0.25851025446459042 0 -0.056939497423126581 -0.24878681181634871 0 -0.067161912638977472 -0.25903173736147111 0 -0.05702546769870083 -0.25851025446459042 0 -0.055745381016590281 -0.2682223094504298 0 -0.05702546769870083 -0.25851025446459042 0 -0.048255079716108998 -0.25800015923011232 0 -0.055745381016590281 -0.2682223094504298 0 -0.048255079716108998 -0.25800015923011232 0 -0.055745381016590281 -0.2682223094504298 0 -0.046606779304586107 -0.26584835010199509 0 -0.055745381016590281 -0.2682223094504298 0 -0.045119081914121867 -0.27515691248558288 0 -0.046606779304586107 -0.26584835010199509 0 -0.055745381016590281 -0.2682223094504298 0 -0.045119081914121867 -0.27515691248558288 0 -0.057136779716869042 -0.28712205926022771 0 -0.072744725061100565 -0.27289296274949931 0 -0.055745381016590281 -0.2682223094504298 0 -0.057136779716869042 -0.28712205926022771 0 -0.037307574571523318 -0.26201401924185519 0 -0.034478529498429812 -0.28951379058442123 0 -0.037307574571523318 -0.26201401924185519 0 -0.034478529498429812 -0.28951379058442123 0 -0.024854767991187229 -0.26705994663832661 0 -0.037307574571523318 -0.26201401924185519 0 -0.045119081914121867 -0.27515691248558288 0 -0.034478529498429812 -0.28951379058442123 0 -0.037307574571523318 -0.26201401924185519 0 -0.045119081914121867 -0.27515691248558288 0 -0.046606779304586107 -0.26584835010199509 0 -0.045119081914121867 -0.27515691248558288 0 -0.034478529498429812 -0.28951379058442123 0 -0.057136779716869042 -0.28712205926022771 0 -0.034478529498429812 -0.28951379058442123 0 -0.057136779716869042 -0.28712205926022771 0 -0.05012745319326059 -0.30445945297878008 0 -0.066237696895848033 -0.30175990202967712 0 -0.05012745319326059 -0.30445945297878008 0 -0.060613113796085999 -0.32288269869712272 0 -0.066237696895848033 -0.30175990202967712 0 -0.057136779716869042 -0.28712205926022771 0 -0.05012745319326059 -0.30445945297878008 0 -0.034478529498429812 -0.28951379058442123 0 -0.05012745319326059 -0.30445945297878008 0 -0.031649484425336299 -0.31701356192698721 0 -0.034478529498429812 -0.28951379058442123 0 -0.031649484425336299 -0.31701356192698721 0 -0.034478529498429812 -0.28951379058442123 0 -0.020284114256294641 -0.29759304008048471 0 -0.031649484425336299 -0.31701356192698721 0 -0.020284114256294641 -0.29759304008048471 0 -0.01007927323019326 -0.3103345258507364 0 -0.031649484425336299 -0.31701356192698721 0 -0.020284114256294641 -0.29759304008048471 0 -0.01007927323019326 -0.3103345258507364 0 -0.0080748459131490501 -0.2914060437848453 0 -0.01007927323019326 -0.3103345258507364 0 -0.0080748459131490501 -0.2914060437848453 0 0.0017563221397047381 -0.2997067901486577 0 -0.020284114256294641 -0.29759304008048471 0 -0.0080748459131490501 -0.2914060437848453 0 -0.017138438214364771 -0.27969727825543328 0 -0.0080748459131490501 -0.2914060437848453 0 -0.002848760243290064 -0.27761611820401882 0 0.0066437179820165657 -0.2861171845936395 0 -0.0080748459131490501 -0.2914060437848453 0 -0.017138438214364771 -0.27969727825543328 0 -0.002848760243290064 -0.27761611820401882 0 -0.034478529498429812 -0.28951379058442123 0 -0.020284114256294641 -0.29759304008048471 0 -0.017138438214364771 -0.27969727825543328 0 -0.034478529498429812 -0.28951379058442123 0 -0.024854767991187229 -0.26705994663832661 0 -0.017138438214364771 -0.27969727825543328 0 -0.024854767991187229 -0.26705994663832661 0 -0.01588915841142927 -0.27169793716392882 0 -0.01145854626600548 -0.26602311564559261 0 -0.024854767991187229 -0.26705994663832661 0 -0.01588915841142927 -0.27169793716392882 0 -0.017138438214364771 -0.27969727825543328 0 -0.017138438214364771 -0.27969727825543328 0 -0.011833725783772399 -0.27375861231724341 0 -0.002848760243290064 -0.27761611820401882 0 -0.01145854626600548 -0.26602311564559261 0 0.01128192931255503 -0.27464126756021451 0 -0.002848760243290064 -0.27761611820401882 0 -0.01145854626600548 -0.26602311564559261 0 0.01128192931255503 -0.27464126756021451 0 -0.01588915841142927 -0.27169793716392882 0 -0.017138438214364771 -0.27969727825543328 0 -0.011833725783772399 -0.27375861231724341 0 -0.011833725783772399 -0.27375861231724341 0 -0.002848760243290064 -0.27761611820401882 0 -0.01145854626600548 -0.26602311564559261 0 -0.01588915841142927 -0.27169793716392882 0 -0.011833725783772399 -0.27375861231724341 0 -0.01145854626600548 -0.26602311564559261 0 -0.01269776775011346 -0.25850600500130039 0 -0.0051360078472848583 -0.25701396995817721 0 0.0057158633005241696 -0.26337829885565528 0 -0.01145854626600548 -0.26602311564559261 0 -0.01269776775011346 -0.25850600500130039 0 0.0057158633005241696 -0.26337829885565528 0 -0.01269776775011346 -0.25850600500130039 0 0.0057158633005241696 -0.26337829885565528 0 -0.0009620894167222515 -0.25496392916579452 0 -0.0051360078472848583 -0.25701396995817721 0 0.0057158633005241696 -0.26337829885565528 0 -0.0071971320314794382 -0.2528457057960789 0 -0.01082738352359053 -0.24876902592697839 0 -0.0029313858115674811 -0.24854412401401971 0 -0.0009620894167222515 -0.25496392916579452 0 -0.0071971320314794382 -0.2528457057960789 0 -0.0029313858115674811 -0.24854412401401971 0 -0.0009620894167222515 -0.25496392916579452 0 -0.0051360078472848583 -0.25701396995817721 0 -0.0071971320314794382 -0.2528457057960789 0 -0.0051360078472848583 -0.25701396995817721 0 -0.0071971320314794382 -0.2528457057960789 0 -0.0094143843739788544 -0.25459574361389747 0 -0.0071971320314794382 -0.2528457057960789 0 -0.0094143843739788544 -0.25459574361389747 0 -0.01082738352359053 -0.24876902592697839 0 -0.01269776775011346 -0.25850600500130039 0 -0.0094143843739788544 -0.25459574361389747 0 -0.01082738352359053 -0.24876902592697839 0 -0.01269776775011346 -0.25850600500130039 0 -0.0051360078472848583 -0.25701396995817721 0 -0.0094143843739788544 -0.25459574361389747 0 -0.01269776775011346 -0.25850600500130039 0 -0.025857267464119819 -0.25506418495113531 0 -0.034199021844566052 -0.25740496373097072 0 -0.01145854626600548 -0.26602311564559261 0 -0.025857267464119819 -0.25506418495113531 0 -0.01269776775011346 -0.25850600500130039 0 -0.025857267464119819 -0.25506418495113531 0 -0.02368513365757598 -0.23851275990414511 0 -0.034199021844566052 -0.25740496373097072 0 -0.024854767991187229 -0.26705994663832661 0 -0.01145854626600548 -0.26602311564559261 0 -0.034199021844566052 -0.25740496373097072 0 -0.01145854626600548 -0.26602311564559261 0 -0.01145854626600548 -0.26602311564559261 0 -0.01269776775011346 -0.25850600500130039 0 -0.025857267464119819 -0.25506418495113531 0 -0.046940286889098168 -0.35955036210978841 0 -0.050269733973634309 -0.3392354021108881 0 -0.02882043935224279 -0.34451333326955308 0 -0.046940286889098168 -0.35955036210978841 0 -0.02882043935224279 -0.34451333326955308 0 -0.026419717968229769 -0.36867473508972981 0 -0.046940286889098168 -0.35955036210978841 0 -0.026419717968229769 -0.36867473508972981 0 -0.046935058978613817 -0.3783756837809118 0 -0.065890469742167113 -0.37350781086095058 0 -0.046940286889098168 -0.35955036210978841 0 -0.046935058978613817 -0.3783756837809118 0 -0.063306301319701316 -0.35299520754669739 0 -0.065890469742167113 -0.37350781086095058 0 -0.046940286889098168 -0.35955036210978841 0 -0.063306301319701316 -0.35299520754669739 0 -0.046940286889098168 -0.35955036210978841 0 -0.050269733973634309 -0.3392354021108881 0 -0.073144777225565616 -0.33606175945158517 0 -0.063306301319701316 -0.35299520754669739 0 -0.050269733973634309 -0.3392354021108881 0 -0.073144777225565616 -0.33606175945158517 0 -0.050269733973634309 -0.3392354021108881 0 -0.060613113796085999 -0.32288269869712272 0 -0.050269733973634309 -0.3392354021108881 0 -0.060613113796085999 -0.32288269869712272 0 -0.031649484425336299 -0.31701356192698721 0 -0.05012745319326059 -0.30445945297878008 0 -0.060613113796085999 -0.32288269869712272 0 -0.031649484425336299 -0.31701356192698721 0 -0.050269733973634309 -0.3392354021108881 0 -0.031649484425336299 -0.31701356192698721 0 -0.02882043935224279 -0.34451333326955308 0 -0.031649484425336299 -0.31701356192698721 0 -0.02882043935224279 -0.34451333326955308 0 -0.031649484425336299 -0.31701356192698721 0 -0.0038616663111063101 -0.33241552487502413 0 -0.02882043935224279 -0.34451333326955308 0 -0.01007927323019326 -0.3103345258507364 0 -0.031649484425336299 -0.31701356192698721 0 -0.0038616663111063101 -0.33241552487502413 0 -0.01007927323019326 -0.3103345258507364 0 -0.0038616663111063101 -0.33241552487502413 0 0.0094652366165251054 -0.31053241408104548 0 -0.0038616663111063101 -0.33241552487502413 0 -0.0043130761299947744 -0.35643483176966217 0 -0.02882043935224279 -0.34451333326955308 0 -0.0043130761299947744 -0.35643483176966217 0 -0.02882043935224279 -0.34451333326955308 0 -0.026419717968229769 -0.36867473508972981 0 -0.0043130761299947744 -0.35643483176966217 0 -0.026419717968229769 -0.36867473508972981 0 -0.0064694903547723136 -0.38059021958606692 0 -0.0064694903547723136 -0.38059021958606692 0 -0.0080625817845775948 -0.40608726553411861 0 -0.026496984295852101 -0.39226102623928111 0 -0.0064694903547723136 -0.38059021958606692 0 -0.0080625817845775948 -0.40608726553411861 0 0.009690974369139977 -0.39295199195252922 0 -0.0080625817845775948 -0.40608726553411861 0 -0.026496984295852101 -0.39226102623928111 0 -0.029852467816379728 -0.41236872525256307 0 -0.026419717968229769 -0.36867473508972981 0 -0.0064694903547723136 -0.38059021958606692 0 -0.026496984295852101 -0.39226102623928111 0 -0.026496984295852101 -0.39226102623928111 0 -0.048213792324517578 -0.39768762776665978 0 -0.046935058978613817 -0.3783756837809118 0 -0.026419717968229769 -0.36867473508972981 0 -0.026496984295852101 -0.39226102623928111 0 -0.046935058978613817 -0.3783756837809118 0 -0.026496984295852101 -0.39226102623928111 0 -0.048213792324517578 -0.39768762776665978 0 -0.029852467816379728 -0.41236872525256307 0 -0.048213792324517578 -0.39768762776665978 0 -0.065379196062645584 -0.39052657147488062 0 -0.06528413140028641 -0.40548789039177052 0 -0.048213792324517578 -0.39768762776665978 0 -0.046935058978613817 -0.3783756837809118 0 -0.065379196062645584 -0.39052657147488062 0 -0.065890469742167113 -0.37350781086095058 0 -0.046935058978613817 -0.3783756837809118 0 -0.065379196062645584 -0.39052657147488062 0 -0.052630130657334448 -0.42871109396582502 0 -0.036803499053157718 -0.43392585985635063 0 -0.055908543568221357 -0.44353945242809251 0 -0.052630130657334448 -0.42871109396582502 0 -0.048282499091199083 -0.41684649723306111 0 -0.065713266975248902 -0.42040157794015642 0 -0.052630130657334448 -0.42871109396582502 0 -0.055908543568221357 -0.44353945242809251 0 -0.077753046024815156 -0.43509142098737241 0 -0.048282499091199083 -0.41684649723306111 0 -0.06528413140028641 -0.40548789039177052 0 -0.065713266975248902 -0.42040157794015642 0 -0.048213792324517578 -0.39768762776665978 0 -0.048282499091199083 -0.41684649723306111 0 -0.06528413140028641 -0.40548789039177052 0 -0.048213792324517578 -0.39768762776665978 0 -0.048282499091199083 -0.41684649723306111 0 -0.029852467816379728 -0.41236872525256307 0 -0.048282499091199083 -0.41684649723306111 0 -0.036803499053157718 -0.43392585985635063 0 -0.029852467816379728 -0.41236872525256307 0 -0.052630130657334448 -0.42871109396582502 0 -0.048282499091199083 -0.41684649723306111 0 -0.036803499053157718 -0.43392585985635063 0 -0.036803499053157718 -0.43392585985635063 0 -0.01686747062211669 -0.42668809062348251 0 -0.022482277956740859 -0.44034230556013138 0 -0.036803499053157718 -0.43392585985635063 0 -0.01686747062211669 -0.42668809062348251 0 -0.029852467816379728 -0.41236872525256307 0 -0.0080625817845775948 -0.40608726553411861 0 -0.01686747062211669 -0.42668809062348251 0 -0.029852467816379728 -0.41236872525256307 0 -0.0080625817845775948 -0.40608726553411861 0 -0.01686747062211669 -0.42668809062348251 0 0.01224976062295041 -0.42183763890738629 0 -0.01686747062211669 -0.42668809062348251 0 -0.008216644178786571 -0.4466179140804285 0 0.01224976062295041 -0.42183763890738629 0 -0.008216644178786571 -0.4466179140804285 0 -0.0021957942935651631 -0.46571035637089769 0 -0.016151777162071251 -0.46269316979172348 0 -0.0021957942935651631 -0.46571035637089769 0 -0.016151777162071251 -0.46269316979172348 0 -0.01292321871024151 -0.47600360382280887 0 -0.008216644178786571 -0.4466179140804285 0 -0.016151777162071251 -0.46269316979172348 0 -0.028753682251359231 -0.45370767630375852 0 -0.016151777162071251 -0.46269316979172348 0 -0.030722049445265721 -0.46513815794063051 0 -0.025757536927686689 -0.47561542944709773 0 -0.016151777162071251 -0.46269316979172348 0 -0.030722049445265721 -0.46513815794063051 0 -0.028753682251359231 -0.45370767630375852 0 -0.036803499053157718 -0.43392585985635063 0 -0.028753682251359231 -0.45370767630375852 0 -0.022482277956740859 -0.44034230556013138 0 -0.01686747062211669 -0.42668809062348251 0 -0.008216644178786571 -0.4466179140804285 0 -0.022482277956740859 -0.44034230556013138 0 -0.008216644178786571 -0.4466179140804285 0 -0.028753682251359231 -0.45370767630375852 0 -0.022482277956740859 -0.44034230556013138 0 -0.011489863113854141 -0.5 0 -0.010144146689038991 -0.48941639725935437 0 0.012735562036971701 -0.48508522326900949 0 -0.010144146689038991 -0.48941639725935437 0 -0.00065605929082254884 -0.47874224407546379 0 -0.01292321871024151 -0.47600360382280887 0 -0.010144146689038991 -0.48941639725935437 0 -0.01292321871024151 -0.47600360382280887 0 -0.022633997898264431 -0.48384402599231691 0 -0.0021957942935651631 -0.46571035637089769 0 -0.00065605929082254884 -0.47874224407546379 0 -0.01292321871024151 -0.47600360382280887 0 -0.016151777162071251 -0.46269316979172348 0 -0.01292321871024151 -0.47600360382280887 0 -0.025757536927686689 -0.47561542944709773 0 -0.025757536927686689 -0.47561542944709773 0 -0.022633997898264431 -0.48384402599231691 0 -0.032724513000240443 -0.48384135401243772 0 -0.01292321871024151 -0.47600360382280887 0 -0.025757536927686689 -0.47561542944709773 0 -0.022633997898264431 -0.48384402599231691 0 -0.011489863113854141 -0.5 0 -0.010144146689038991 -0.48941639725935437 0 -0.033023855415049652 -0.49374757124969931 0 -0.010144146689038991 -0.48941639725935437 0 -0.022633997898264431 -0.48384402599231691 0 -0.033023855415049652 -0.49374757124969931 0 -0.011489863113854141 -0.5 0 -0.041002190054857779 -0.5 0 -0.033023855415049652 -0.49374757124969931 0 -0.010144146689038991 -0.48941639725935437 0 -0.033023855415049652 -0.49374757124969931 0 -0.022633997898264431 -0.48384402599231691 0 -0.033023855415049652 -0.49374757124969931 0 -0.032724513000240443 -0.48384135401243772 0 -0.041002190054857779 -0.5 0 -0.040644419244316249 -0.48874723383863622 0 -0.055758353525359711 -0.48944453406372251 0 -0.041002190054857779 -0.5 0 -0.033023855415049652 -0.49374757124969931 0 -0.040644419244316249 -0.48874723383863622 0 -0.033023855415049652 -0.49374757124969931 0 -0.040644419244316249 -0.48874723383863622 0 -0.032724513000240443 -0.48384135401243772 0 -0.040644419244316249 -0.48874723383863622 0 -0.040713184226073652 -0.47670270986732172 0 -0.055758353525359711 -0.48944453406372251 0 -0.040644419244316249 -0.48874723383863622 0 -0.040713184226073652 -0.47670270986732172 0 -0.032724513000240443 -0.48384135401243772 0 -0.025757536927686689 -0.47561542944709773 0 -0.040713184226073652 -0.47670270986732172 0 -0.032724513000240443 -0.48384135401243772 0 -0.030722049445265721 -0.46513815794063051 0 -0.025757536927686689 -0.47561542944709773 0 -0.040713184226073652 -0.47670270986732172 0 -0.040713184226073652 -0.47670270986732172 0 -0.05604151524233808 -0.47085547185542692 0 -0.042137987481662489 -0.46199998676314519 0 -0.040713184226073652 -0.47670270986732172 0 -0.05604151524233808 -0.47085547185542692 0 -0.055758353525359711 -0.48944453406372251 0 -0.05604151524233808 -0.47085547185542692 0 -0.055758353525359711 -0.48944453406372251 0 -0.068357021366280857 -0.47830767763467641 0 -0.041002190054857779 -0.5 0 -0.055758353525359711 -0.48944453406372251 0 -0.070514516995861642 -0.5 0 -0.036803499053157718 -0.43392585985635063 0 -0.028753682251359231 -0.45370767630375852 0 -0.042591220718736618 -0.44931976272637059 0 -0.036803499053157718 -0.43392585985635063 0 -0.042591220718736618 -0.44931976272637059 0 -0.055908543568221357 -0.44353945242809251 0 -0.028753682251359231 -0.45370767630375852 0 -0.042591220718736618 -0.44931976272637059 0 -0.042137987481662489 -0.46199998676314519 0 -0.030722049445265721 -0.46513815794063051 0 -0.028753682251359231 -0.45370767630375852 0 -0.042137987481662489 -0.46199998676314519 0 -0.030722049445265721 -0.46513815794063051 0 -0.040713184226073652 -0.47670270986732172 0 -0.042137987481662489 -0.46199998676314519 0 -0.042591220718736618 -0.44931976272637059 0 -0.042137987481662489 -0.46199998676314519 0 -0.054601469153056192 -0.45704509188174619 0 -0.05604151524233808 -0.47085547185542692 0 -0.054601469153056192 -0.45704509188174619 0 -0.071896784036839162 -0.45711427830285839 0 -0.05604151524233808 -0.47085547185542692 0 -0.042137987481662489 -0.46199998676314519 0 -0.054601469153056192 -0.45704509188174619 0 -0.054601469153056192 -0.45704509188174619 0 -0.055908543568221357 -0.44353945242809251 0 -0.071896784036839162 -0.45711427830285839 0 -0.042591220718736618 -0.44931976272637059 0 -0.054601469153056192 -0.45704509188174619 0 -0.055908543568221357 -0.44353945242809251 0 -0.055908543568221357 -0.44353945242809251 0 -0.071896784036839162 -0.45711427830285839 0 -0.077753046024815156 -0.43509142098737241 0 -0.071896784036839162 -0.45711427830285839 0 -0.087573937031005744 -0.47412410395137422 0 -0.093954286744555499 -0.45179652052777369 0 -0.087573937031005744 -0.47412410395137422 0 -0.093954286744555499 -0.45179652052777369 0 -0.071896784036839162 -0.45711427830285839 0 -0.093954286744555499 -0.45179652052777369 0 -0.077753046024815156 -0.43509142098737241 0 -0.093954286744555499 -0.45179652052777369 0 -0.10033463645810529 -0.42946893710417328 0 -0.077753046024815156 -0.43509142098737241 0 -0.055758353525359711 -0.48944453406372251 0 -0.070514516995861642 -0.5 0 -0.068357021366280857 -0.47830767763467641 0 -0.05604151524233808 -0.47085547185542692 0 -0.071896784036839162 -0.45711427830285839 0 -0.068357021366280857 -0.47830767763467641 0 -0.071896784036839162 -0.45711427830285839 0 -0.068357021366280857 -0.47830767763467641 0 -0.087573937031005744 -0.47412410395137422 0 -0.070514516995861642 -0.5 0 -0.068357021366280857 -0.47830767763467641 0 -0.087573937031005744 -0.47412410395137422 0 -0.070514516995861642 -0.5 0 -0.087573937031005744 -0.47412410395137422 0 -0.10002684393686551 -0.5 0 -0.087573937031005744 -0.47412410395137422 0 -0.10002684393686551 -0.5 0 -0.10780494223314389 -0.47765854937150709 0 -0.087573937031005744 -0.47412410395137422 0 -0.10780494223314389 -0.47765854937150709 0 -0.1029954147344513 -0.46359439800738522 0 -0.12605423818426559 -0.48707922202292669 0 -0.10780494223314389 -0.47765854937150709 0 -0.1201929706126502 -0.46127799294672761 0 -0.12605423818426559 -0.48707922202292669 0 -0.1201929706126502 -0.46127799294672761 0 -0.12605423818426559 -0.48707922202292669 0 -0.10002684393686551 -0.5 0 -0.10780494223314389 -0.47765854937150709 0 -0.1295391708778694 -0.5 0 -0.12605423818426559 -0.48707922202292669 0 -0.10002684393686551 -0.5 0 -0.093954286744555499 -0.45179652052777369 0 -0.10033463645810529 -0.42946893710417328 0 -0.10636180231815941 -0.44832292249131772 0 -0.11433170304103479 -0.43547676387052858 0 -0.10033463645810529 -0.42946893710417328 0 -0.10636180231815941 -0.44832292249131772 0 -0.093954286744555499 -0.45179652052777369 0 -0.10033463645810529 -0.42946893710417328 0 -0.087573937031005744 -0.47412410395137422 0 -0.093954286744555499 -0.45179652052777369 0 -0.1029954147344513 -0.46359439800738522 0 -0.10636180231815941 -0.44832292249131772 0 -0.093954286744555499 -0.45179652052777369 0 -0.1029954147344513 -0.46359439800738522 0 -0.10780494223314389 -0.47765854937150709 0 -0.1029954147344513 -0.46359439800738522 0 -0.1201929706126502 -0.46127799294672761 0 -0.10636180231815941 -0.44832292249131772 0 -0.1029954147344513 -0.46359439800738522 0 -0.1201929706126502 -0.46127799294672761 0 -0.13671083813600751 -0.45044361347006462 0 -0.1201929706126502 -0.46127799294672761 0 -0.11433170304103479 -0.43547676387052858 0 -0.10636180231815941 -0.44832292249131772 0 -0.1201929706126502 -0.46127799294672761 0 -0.11433170304103479 -0.43547676387052858 0 -0.13671083813600751 -0.45044361347006462 0 -0.1225906368027144 -0.43005957413219659 0 -0.11433170304103479 -0.43547676387052858 0 -0.1201929706126502 -0.46127799294672761 0 -0.11433170304103479 -0.43547676387052858 0 -0.1225906368027144 -0.43005957413219659 0 -0.11433170304103479 -0.43547676387052858 0 -0.10847043546942051 -0.40967553479432928 0 -0.11433170304103479 -0.43547676387052858 0 -0.10847043546942051 -0.40967553479432928 0 -0.12908399078123631 -0.42243277819987513 0 -0.1225906368027144 -0.43005957413219659 0 -0.12315425937001 -0.41747458531602638 0 -0.11433170304103479 -0.43547676387052858 0 -0.10033463645810529 -0.42946893710417328 0 -0.10847043546942051 -0.40967553479432928 0 -0.10033463645810529 -0.42946893710417328 0 -0.094107383989168333 -0.41562629379671062 0 -0.1067149861716557 -0.40714135368057303 0 -0.10033463645810529 -0.42946893710417328 0 -0.1067149861716557 -0.40714135368057303 0 -0.10847043546942051 -0.40967553479432928 0 -0.10033463645810529 -0.42946893710417328 0 -0.1067149861716557 -0.40714135368057303 0 -0.094107383989168333 -0.41562629379671062 0 -0.1067149861716557 -0.40714135368057303 0 -0.093615658715422545 -0.40476526464288082 0 -0.10847043546942051 -0.40967553479432928 0 -0.1105756132387118 -0.40676785322215941 0 -0.1073722461642546 -0.40484131873350049 0 -0.10847043546942051 -0.40967553479432928 0 -0.1073722461642546 -0.40484131873350049 0 -0.1067149861716557 -0.40714135368057303 0 -0.10847043546942051 -0.40967553479432928 0 -0.1073722461642546 -0.40484131873350049 0 -0.1067149861716557 -0.40714135368057303 0 -0.10847043546942051 -0.40967553479432928 0 -0.1225906368027144 -0.43005957413219659 0 -0.1163272184937543 -0.41351727508190028 0 -0.12315425937001 -0.41747458531602638 0 -0.10847043546942051 -0.40967553479432928 0 -0.1125412123036873 -0.40894162881917728 0 -0.1163272184937543 -0.41351727508190028 0 -0.1125412123036873 -0.40894162881917728 0 -0.1105756132387118 -0.40676785322215941 0 -0.1147915820128618 -0.40580585217832088 0 -0.1225906368027144 -0.43005957413219659 0 -0.10847043546942051 -0.40967553479432928 0 -0.1163272184937543 -0.41351727508190028 0 -0.10847043546942051 -0.40967553479432928 0 -0.1125412123036873 -0.40894162881917728 0 -0.1105756132387118 -0.40676785322215941 0 -0.1225906368027144 -0.43005957413219659 0 -0.10847043546942051 -0.40967553479432928 0 -0.1125412123036873 -0.40894162881917728 0 -0.1163272184937543 -0.41351727508190028 0 -0.1147915820128618 -0.40580585217832088 0 -0.1225700411049412 -0.40994677461386392 0 -0.1219584454402414 -0.40406961642135292 0 -0.1147915820128618 -0.40580585217832088 0 -0.1163272184937543 -0.41351727508190028 0 -0.1225700411049412 -0.40994677461386392 0 -0.1147915820128618 -0.40580585217832088 0 -0.1163272184937543 -0.41351727508190028 0 -0.12315425937001 -0.41747458531602638 0 -0.1225700411049412 -0.40994677461386392 0 -0.1273295258527142 -0.39594401256049883 0 -0.1219584454402414 -0.40406961642135292 0 -0.1190781430676657 -0.39944145851713192 0 -0.11305295545189779 -0.39895005080087959 0 -0.11384267237711319 -0.38219851895920232 0 -0.1073722461642546 -0.40484131873350049 0 -0.1295768038857959 -0.40463739140698729 0 -0.1225700411049412 -0.40994677461386392 0 -0.1219584454402414 -0.40406961642135292 0 -0.1182582065806136 -0.392437760624607 0 -0.11305295545189779 -0.39895005080087959 0 -0.11384267237711319 -0.38219851895920232 0 -0.11384267237711319 -0.38219851895920232 0 -0.1073722461642546 -0.40484131873350049 0 -0.1219584454402414 -0.40406961642135292 0 -0.1190781430676657 -0.39944145851713192 0 -0.1147915820128618 -0.40580585217832088 0 -0.1273295258527142 -0.39594401256049883 0 -0.1190781430676657 -0.39944145851713192 0 -0.1182582065806136 -0.392437760624607 0 -0.1190781430676657 -0.39944145851713192 0 -0.1182582065806136 -0.392437760624607 0 -0.11305295545189779 -0.39895005080087959 0 -0.1105756132387118 -0.40676785322215941 0 -0.1114480992169309 -0.40409126873371493 0 -0.1073722461642546 -0.40484131873350049 0 -0.1105756132387118 -0.40676785322215941 0 -0.1114480992169309 -0.40409126873371493 0 -0.1147915820128618 -0.40580585217832088 0 -0.11305295545189779 -0.39895005080087959 0 -0.1114480992169309 -0.40409126873371493 0 -0.1147915820128618 -0.40580585217832088 0 -0.11305295545189779 -0.39895005080087959 0 -0.1114480992169309 -0.40409126873371493 0 -0.1073722461642546 -0.40484131873350049 0 -0.1190781430676657 -0.39944145851713192 0 -0.11305295545189779 -0.39895005080087959 0 -0.1147915820128618 -0.40580585217832088 0 -0.12625141541498519 -0.38197991289387551 0 -0.1182582065806136 -0.392437760624607 0 -0.11384267237711319 -0.38219851895920232 0 -0.12625141541498519 -0.38197991289387551 0 -0.1273295258527142 -0.39594401256049883 0 -0.1182582065806136 -0.392437760624607 0 -0.11384267237711319 -0.38219851895920232 0 -0.10176491866177829 -0.38015793077534599 0 -0.1073722461642546 -0.40484131873350049 0 -0.10176491866177829 -0.38015793077534599 0 -0.095995502779844255 -0.39166661886747001 0 -0.085276019388031976 -0.37619188405436782 0 -0.10849363524981311 -0.36442991456039969 0 -0.11384267237711319 -0.38219851895920232 0 -0.10176491866177829 -0.38015793077534599 0 -0.10176491866177829 -0.38015793077534599 0 -0.1073722461642546 -0.40484131873350049 0 -0.095995502779844255 -0.39166661886747001 0 -0.10176491866177829 -0.38015793077534599 0 -0.1073722461642546 -0.40484131873350049 0 -0.1067149861716557 -0.40714135368057303 0 -0.1073722461642546 -0.40484131873350049 0 -0.095995502779844255 -0.39166661886747001 0 -0.1067149861716557 -0.40714135368057303 0 -0.1073722461642546 -0.40484131873350049 0 -0.1067149861716557 -0.40714135368057303 0 -0.095995502779844255 -0.39166661886747001 0 -0.1067149861716557 -0.40714135368057303 0 -0.095995502779844255 -0.39166661886747001 0 -0.093615658715422545 -0.40476526464288082 0 -0.093615658715422545 -0.40476526464288082 0 -0.081664681120336771 -0.39582842074610342 0 -0.082451352827770552 -0.41163664718976212 0 -0.095995502779844255 -0.39166661886747001 0 -0.093615658715422545 -0.40476526464288082 0 -0.081664681120336771 -0.39582842074610342 0 -0.095995502779844255 -0.39166661886747001 0 -0.081664681120336771 -0.39582842074610342 0 -0.085276019388031976 -0.37619188405436782 0 -0.081664681120336771 -0.39582842074610342 0 -0.085276019388031976 -0.37619188405436782 0 -0.074552591578295357 -0.38401367178407558 0 -0.095995502779844255 -0.39166661886747001 0 -0.085276019388031976 -0.37619188405436782 0 -0.081664681120336771 -0.39582842074610342 0 -0.065379196062645584 -0.39052657147488062 0 -0.074552591578295357 -0.38401367178407558 0 -0.065890469742167113 -0.37350781086095058 0 -0.085276019388031976 -0.37619188405436782 0 -0.074552591578295357 -0.38401367178407558 0 -0.065890469742167113 -0.37350781086095058 0 -0.065379196062645584 -0.39052657147488062 0 -0.074552591578295357 -0.38401367178407558 0 -0.081664681120336771 -0.39582842074610342 0 -0.06528413140028641 -0.40548789039177052 0 -0.082451352827770552 -0.41163664718976212 0 -0.081664681120336771 -0.39582842074610342 0 -0.065379196062645584 -0.39052657147488062 0 -0.06528413140028641 -0.40548789039177052 0 -0.065713266975248902 -0.42040157794015642 0 -0.085028608260126398 -0.42320905853578622 0 -0.082451352827770552 -0.41163664718976212 0 -0.06528413140028641 -0.40548789039177052 0 -0.065713266975248902 -0.42040157794015642 0 -0.082451352827770552 -0.41163664718976212 0 -0.065713266975248902 -0.42040157794015642 0 -0.077753046024815156 -0.43509142098737241 0 -0.085028608260126398 -0.42320905853578622 0 -0.052630130657334448 -0.42871109396582502 0 -0.065713266975248902 -0.42040157794015642 0 -0.077753046024815156 -0.43509142098737241 0 -0.10033463645810529 -0.42946893710417328 0 -0.077753046024815156 -0.43509142098737241 0 -0.085028608260126398 -0.42320905853578622 0 -0.10033463645810529 -0.42946893710417328 0 -0.094107383989168333 -0.41562629379671062 0 -0.085028608260126398 -0.42320905853578622 0 -0.094107383989168333 -0.41562629379671062 0 -0.085028608260126398 -0.42320905853578622 0 -0.082451352827770552 -0.41163664718976212 0 -0.094107383989168333 -0.41562629379671062 0 -0.093615658715422545 -0.40476526464288082 0 -0.082451352827770552 -0.41163664718976212 0 -0.080832567710134945 -0.085265223789800185 0 -0.09573268077664969 -0.090624673380050064 0 -0.094924188455715333 -0.074372309221374736 0 -0.080832567710134945 -0.085265223789800185 0 -0.0944050220014645 -0.1050702242089397 0 -0.09573268077664969 -0.090624673380050064 0 -0.094924188455715333 -0.074372309221374736 0 -0.077079431972146645 -0.050953682142663811 0 -0.080832567710134945 -0.085265223789800185 0 -0.077460787511610923 -0.070469280456870842 0 -0.094924188455715333 -0.074372309221374736 0 -0.077460787511610923 -0.070469280456870842 0 -0.094924188455715333 -0.074372309221374736 0 -0.078535685693175539 -0.061573663464548622 0 -0.080832567710134945 -0.085265223789800185 0 -0.072736864716213656 -0.076885636419884412 0 -0.077460787511610923 -0.070469280456870842 0 -0.072736864716213656 -0.076885636419884412 0 -0.077460787511610923 -0.070469280456870842 0 -0.067174029152377468 -0.071022972744677337 0 -0.077460787511610923 -0.070469280456870842 0 -0.067174029152377468 -0.071022972744677337 0 -0.070308423821052124 -0.061023041189074957 0 -0.077460787511610923 -0.070469280456870842 0 -0.078535685693175539 -0.061573663464548622 0 -0.070308423821052124 -0.061023041189074957 0 -0.067174029152377468 -0.071022972744677337 0 -0.070308423821052124 -0.061023041189074957 0 -0.060830035872249492 -0.064558057335980773 0 -0.072736864716213656 -0.076885636419884412 0 -0.067174029152377468 -0.071022972744677337 0 -0.063732237529271596 -0.080733089011810297 0 -0.067174029152377468 -0.071022972744677337 0 -0.063732237529271596 -0.080733089011810297 0 -0.058000192015007383 -0.073011667883306972 0 -0.080832567710134945 -0.085265223789800185 0 -0.063732237529271596 -0.080733089011810297 0 -0.066023591375222151 -0.09957098179305135 0 -0.080832567710134945 -0.085265223789800185 0 -0.072736864716213656 -0.076885636419884412 0 -0.063732237529271596 -0.080733089011810297 0 -0.066023591375222151 -0.09957098179305135 0 -0.069466171350113709 -0.1135628440840601 0 -0.0944050220014645 -0.1050702242089397 0 -0.066023591375222151 -0.09957098179305135 0 -0.069466171350113709 -0.1135628440840601 0 -0.054384952187449757 -0.110609208962567 0 -0.077516787342341589 -0.1242022911324857 0 -0.069466171350113709 -0.1135628440840601 0 -0.059238207921678762 -0.13024384051707169 0 -0.077516787342341589 -0.1242022911324857 0 -0.093262550211769629 -0.1231040070079162 0 -0.0944050220014645 -0.1050702242089397 0 -0.077516787342341589 -0.1242022911324857 0 -0.069466171350113709 -0.1135628440840601 0 -0.0944050220014645 -0.1050702242089397 0 -0.066023591375222151 -0.09957098179305135 0 -0.0944050220014645 -0.1050702242089397 0 -0.080832567710134945 -0.085265223789800185 0 -0.066023591375222151 -0.09957098179305135 0 -0.0944050220014645 -0.1050702242089397 0 -0.0944050220014645 -0.1050702242089397 0 -0.1071147179002416 -0.1244919901550422 0 -0.11276894493928399 -0.097790936300085646 0 -0.0944050220014645 -0.1050702242089397 0 -0.11276894493928399 -0.097790936300085646 0 -0.09573268077664969 -0.090624673380050064 0 -0.093262550211769629 -0.1231040070079162 0 -0.0944050220014645 -0.1050702242089397 0 -0.1071147179002416 -0.1244919901550422 0 -0.1071147179002416 -0.1244919901550422 0 -0.11276894493928399 -0.097790936300085646 0 -0.1306137014228527 -0.1212095633787966 0 -0.11276894493928399 -0.097790936300085646 0 -0.1306137014228527 -0.1212095633787966 0 -0.112702195828283 -0.076339248342475546 0 -0.13438499311011279 -0.096174695905308166 0 -0.11276894493928399 -0.097790936300085646 0 -0.112702195828283 -0.076339248342475546 0 -0.13438499311011279 -0.096174695905308166 0 -0.11276894493928399 -0.097790936300085646 0 -0.094924188455715333 -0.074372309221374736 0 -0.112702195828283 -0.076339248342475546 0 -0.11276894493928399 -0.097790936300085646 0 -0.094924188455715333 -0.074372309221374736 0 -0.11276894493928399 -0.097790936300085646 0 -0.09573268077664969 -0.090624673380050064 0 -0.094924188455715333 -0.074372309221374736 0 -0.094924188455715333 -0.074372309221374736 0 -0.1026030192468113 -0.064894788769428779 0 -0.112702195828283 -0.076339248342475546 0 -0.094924188455715333 -0.074372309221374736 0 -0.1026030192468113 -0.064894788769428779 0 -0.090333769324138391 -0.059362086744932152 0 -0.1026030192468113 -0.064894788769428779 0 -0.112702195828283 -0.076339248342475546 0 -0.1158705629695205 -0.060236298698018297 0 -0.112702195828283 -0.076339248342475546 0 -0.1158705629695205 -0.060236298698018297 0 -0.13497135686491851 -0.078315161523928284 0 -0.1158705629695205 -0.060236298698018297 0 -0.1150956899200111 -0.045830426672337207 0 -0.1070798181065768 -0.041876824406217303 0 -0.1158705629695205 -0.060236298698018297 0 -0.1150956899200111 -0.045830426672337207 0 -0.12809376798702951 -0.047905065599393698 0 -0.1163329610324388 -0.034474533447810513 0 -0.12530131535501859 -0.034952786400489197 0 -0.12809376798702951 -0.047905065599393698 0 -0.11023593420079281 -0.033339602888773932 0 -0.1150956899200111 -0.045830426672337207 0 -0.12809376798702951 -0.047905065599393698 0 -0.11023593420079281 -0.033339602888773932 0 -0.1163329610324388 -0.034474533447810513 0 -0.12809376798702951 -0.047905065599393698 0 -0.11023593420079281 -0.033339602888773932 0 -0.12809376798702951 -0.047905065599393698 0 -0.1163329610324388 -0.034474533447810513 0 -0.1221370268088495 -0.025998648103035 0 -0.12530131535501859 -0.034952786400489197 0 -0.11023593420079281 -0.033339602888773932 0 -0.1150956899200111 -0.045830426672337207 0 -0.1070798181065768 -0.041876824406217303 0 -0.11023593420079281 -0.033339602888773932 0 -0.1163329610324388 -0.034474533447810513 0 -0.097427134368436918 -0.027820357899848831 0 -0.11023593420079281 -0.033339602888773932 0 -0.1070798181065768 -0.041876824406217303 0 -0.097427134368436918 -0.027820357899848831 0 -0.1070798181065768 -0.041876824406217303 0 -0.096769769074122519 -0.04215743587210824 0 -0.097427134368436918 -0.027820357899848831 0 -0.1158705629695205 -0.060236298698018297 0 -0.1070798181065768 -0.041876824406217303 0 -0.096769769074122519 -0.04215743587210824 0 -0.1026030192468113 -0.064894788769428779 0 -0.1158705629695205 -0.060236298698018297 0 -0.099264754381345577 -0.055060356505970513 0 -0.1158705629695205 -0.060236298698018297 0 -0.096769769074122519 -0.04215743587210824 0 -0.099264754381345577 -0.055060356505970513 0 -0.096769769074122519 -0.04215743587210824 0 -0.099264754381345577 -0.055060356505970513 0 -0.090746651292135133 -0.048651172445365112 0 -0.1158705629695205 -0.060236298698018297 0 -0.096769769074122519 -0.04215743587210824 0 -0.1026030192468113 -0.064894788769428779 0 -0.099264754381345577 -0.055060356505970513 0 -0.090333769324138391 -0.059362086744932152 0 -0.1029392013539359 -0.0085751277431150782 0 -0.12735709500343681 0.004015926865657337 0 -0.1236693299605585 -0.0137973575501921 0 -0.1110604598185659 -0.0207882196779367 0 -0.1029392013539359 -0.0085751277431150782 0 -0.1236693299605585 -0.0137973575501921 0 -0.1029392013539359 -0.0085751277431150782 0 -0.12735709500343681 0.004015926865657337 0 -0.1236693299605585 -0.0137973575501921 0 -0.1110604598185659 -0.0207882196779367 0 -0.1221370268088495 -0.025998648103035 0 -0.1163329610324388 -0.034474533447810513 0 -0.1221370268088495 -0.025998648103035 0 -0.11173939550707281 -0.027270439782157759 0 -0.1110604598185659 -0.0207882196779367 0 -0.1221370268088495 -0.025998648103035 0 -0.11173939550707281 -0.027270439782157759 0 -0.1163329610324388 -0.034474533447810513 0 -0.097427134368436918 -0.027820357899848831 0 -0.1110604598185659 -0.0207882196779367 0 -0.097427134368436918 -0.027820357899848831 0 -0.1029392013539359 -0.0085751277431150782 0 -0.1163329610324388 -0.034474533447810513 0 -0.11173939550707281 -0.027270439782157759 0 -0.097427134368436918 -0.027820357899848831 0 -0.1110604598185659 -0.0207882196779367 0 -0.11173939550707281 -0.027270439782157759 0 -0.097427134368436918 -0.027820357899848831 0 -0.1029392013539359 -0.0085751277431150782 0 -0.086097875964997059 -0.0058870606910941042 0 -0.078521307704434995 -0.021166182351887271 0 -0.1029392013539359 -0.0085751277431150782 0 -0.078521307704434995 -0.021166182351887271 0 -0.1029392013539359 -0.0085751277431150782 0 -0.086097875964997059 -0.0058870606910941042 0 -0.091682611010439896 0.0063963380850077774 0 -0.086097875964997059 -0.0058870606910941042 0 -0.073830544796709738 -0.0078542708917730738 0 -0.078933949510919491 0.00072378658541613432 0 -0.086097875964997059 -0.0058870606910941042 0 -0.078521307704434995 -0.021166182351887271 0 -0.073830544796709738 -0.0078542708917730738 0 -0.097427134368436918 -0.027820357899848831 0 -0.078521307704434995 -0.021166182351887271 0 -0.097427134368436918 -0.027820357899848831 0 -0.078521307704434995 -0.021166182351887271 0 -0.077668975178724509 -0.024078573046198169 0 -0.097427134368436918 -0.027820357899848831 0 -0.1029392013539359 -0.0085751277431150782 0 -0.078521307704434995 -0.021166182351887271 0 -0.078521307704434995 -0.021166182351887271 0 -0.055132092173872667 -0.033226800447327051 0 -0.05822397002114936 -0.01402224463886402 0 -0.078521307704434995 -0.021166182351887271 0 -0.055132092173872667 -0.033226800447327051 0 -0.077668975178724509 -0.024078573046198169 0 -0.075465350998538308 -0.032772608828030472 0 -0.055132092173872667 -0.033226800447327051 0 -0.078521307704434995 -0.021166182351887271 0 -0.077668975178724509 -0.024078573046198169 0 -0.055132092173872667 -0.033226800447327051 0 -0.078521307704434995 -0.021166182351887271 0 -0.05822397002114936 -0.01402224463886402 0 -0.078521307704434995 -0.021166182351887271 0 -0.073830544796709738 -0.0078542708917730738 0 -0.05822397002114936 -0.01402224463886402 0 -0.073830544796709738 -0.0078542708917730738 0 -0.05822397002114936 -0.01402224463886402 0 -0.068462160169621672 0.0025537029525893409 0 -0.073830544796709738 -0.0078542708917730738 0 -0.078933949510919491 0.00072378658541613432 0 -0.068462160169621672 0.0025537029525893409 0 -0.094924188455715333 -0.074372309221374736 0 -0.090333769324138391 -0.059362086744932152 0 -0.077079431972146645 -0.050953682142663811 0 -0.094924188455715333 -0.074372309221374736 0 -0.078535685693175539 -0.061573663464548622 0 -0.077079431972146645 -0.050953682142663811 0 -0.084868245962835154 -0.053326759561897898 0 -0.090333769324138391 -0.059362086744932152 0 -0.077079431972146645 -0.050953682142663811 0 -0.084868245962835154 -0.053326759561897898 0 -0.080876314157704687 -0.04955372347343575 0 -0.082849096915408454 -0.045583035938281863 0 -0.080876314157704687 -0.04955372347343575 0 -0.078708481780428496 -0.048351416250899462 0 -0.082849096915408454 -0.045583035938281863 0 -0.080876314157704687 -0.04955372347343575 0 -0.078708481780428496 -0.048351416250899462 0 -0.077079431972146645 -0.050953682142663811 0 -0.084868245962835154 -0.053326759561897898 0 -0.080876314157704687 -0.04955372347343575 0 -0.077079431972146645 -0.050953682142663811 0 -0.084868245962835154 -0.053326759561897898 0 -0.090746651292135133 -0.048651172445365112 0 -0.082849096915408454 -0.045583035938281863 0 -0.084868245962835154 -0.053326759561897898 0 -0.090333769324138391 -0.059362086744932152 0 -0.090746651292135133 -0.048651172445365112 0 -0.099264754381345577 -0.055060356505970513 0 -0.090333769324138391 -0.059362086744932152 0 -0.090746651292135133 -0.048651172445365112 0 -0.096769769074122519 -0.04215743587210824 0 -0.088481073739883592 -0.043344290748051233 0 -0.083558777677868248 -0.036985518736449702 0 -0.096769769074122519 -0.04215743587210824 0 -0.097427134368436918 -0.027820357899848831 0 -0.077668975178724509 -0.024078573046198169 0 -0.096769769074122519 -0.04215743587210824 0 -0.077668975178724509 -0.024078573046198169 0 -0.083558777677868248 -0.036985518736449702 0 -0.096769769074122519 -0.04215743587210824 0 -0.077668975178724509 -0.024078573046198169 0 -0.090746651292135133 -0.048651172445365112 0 -0.088481073739883592 -0.043344290748051233 0 -0.082849096915408454 -0.045583035938281863 0 -0.096769769074122519 -0.04215743587210824 0 -0.090746651292135133 -0.048651172445365112 0 -0.088481073739883592 -0.043344290748051233 0 -0.077668975178724509 -0.024078573046198169 0 -0.083558777677868248 -0.036985518736449702 0 -0.075465350998538308 -0.032772608828030472 0 -0.083558777677868248 -0.036985518736449702 0 -0.082849096915408454 -0.045583035938281863 0 -0.075062618692292638 -0.040325846155841297 0 -0.088481073739883592 -0.043344290748051233 0 -0.083558777677868248 -0.036985518736449702 0 -0.082849096915408454 -0.045583035938281863 0 -0.082849096915408454 -0.045583035938281863 0 -0.078067002861142085 -0.04575568247049161 0 -0.075062618692292638 -0.040325846155841297 0 -0.078708481780428496 -0.048351416250899462 0 -0.082849096915408454 -0.045583035938281863 0 -0.078067002861142085 -0.04575568247049161 0 -0.075647814056438792 -0.048762431536943832 0 -0.055132092173872667 -0.033226800447327051 0 -0.078067002861142085 -0.04575568247049161 0 -0.075062618692292638 -0.040325846155841297 0 -0.075647814056438792 -0.048762431536943832 0 -0.075062618692292638 -0.040325846155841297 0 -0.075465350998538308 -0.032772608828030472 0 -0.055132092173872667 -0.033226800447327051 0 -0.075647814056438792 -0.048762431536943832 0 -0.061428605263776047 -0.046553119166432878 0 -0.055132092173872667 -0.033226800447327051 0 -0.075062618692292638 -0.040325846155841297 0 -0.075647814056438792 -0.048762431536943832 0 -0.055132092173872667 -0.033226800447327051 0 -0.083558777677868248 -0.036985518736449702 0 -0.075062618692292638 -0.040325846155841297 0 -0.075465350998538308 -0.032772608828030472 0 -0.065722760200719738 -0.052253177456942877 0 -0.075647814056438792 -0.048762431536943832 0 -0.061428605263776047 -0.046553119166432878 0 -0.065722760200719738 -0.052253177456942877 0 -0.07269306068786438 -0.052406879740114577 0 -0.069833853901725543 -0.055329661047837618 0 -0.065722760200719738 -0.052253177456942877 0 -0.07269306068786438 -0.052406879740114577 0 -0.075647814056438792 -0.048762431536943832 0 -0.07269306068786438 -0.052406879740114577 0 -0.073703714626092445 -0.056102563442451223 0 -0.069833853901725543 -0.055329661047837618 0 -0.07269306068786438 -0.052406879740114577 0 -0.077079431972146645 -0.050953682142663811 0 -0.073703714626092445 -0.056102563442451223 0 -0.078708481780428496 -0.048351416250899462 0 -0.077079431972146645 -0.050953682142663811 0 -0.075647814056438792 -0.048762431536943832 0 -0.07269306068786438 -0.052406879740114577 0 -0.077079431972146645 -0.050953682142663811 0 -0.075647814056438792 -0.048762431536943832 0 -0.078708481780428496 -0.048351416250899462 0 -0.078067002861142085 -0.04575568247049161 0 -0.075647814056438792 -0.048762431536943832 0 -0.078535685693175539 -0.061573663464548622 0 -0.073703714626092445 -0.056102563442451223 0 -0.070308423821052124 -0.061023041189074957 0 -0.078535685693175539 -0.061573663464548622 0 -0.077079431972146645 -0.050953682142663811 0 -0.073703714626092445 -0.056102563442451223 0 -0.073703714626092445 -0.056102563442451223 0 -0.070308423821052124 -0.061023041189074957 0 -0.069833853901725543 -0.055329661047837618 0 -0.070308423821052124 -0.061023041189074957 0 -0.064391701294429504 -0.057679717025484439 0 -0.060830035872249492 -0.064558057335980773 0 -0.070308423821052124 -0.061023041189074957 0 -0.069833853901725543 -0.055329661047837618 0 -0.064391701294429504 -0.057679717025484439 0 -0.065722760200719738 -0.052253177456942877 0 -0.069833853901725543 -0.055329661047837618 0 -0.064391701294429504 -0.057679717025484439 0 -0.064391701294429504 -0.057679717025484439 0 -0.055978059279945473 -0.056388284161067823 0 -0.060830035872249492 -0.064558057335980773 0 -0.065722760200719738 -0.052253177456942877 0 -0.064391701294429504 -0.057679717025484439 0 -0.055978059279945473 -0.056388284161067823 0 -0.055978059279945473 -0.056388284161067823 0 -0.041230103293456458 -0.058058117591144771 0 -0.049479852383656611 -0.067543566470139038 0 -0.055978059279945473 -0.056388284161067823 0 -0.049741921456861897 -0.048697412542500033 0 -0.041230103293456458 -0.058058117591144771 0 -0.055978059279945473 -0.056388284161067823 0 -0.049741921456861897 -0.048697412542500033 0 -0.061428605263776047 -0.046553119166432878 0 -0.065722760200719738 -0.052253177456942877 0 -0.055978059279945473 -0.056388284161067823 0 -0.061428605263776047 -0.046553119166432878 0 -0.049741921456861897 -0.048697412542500033 0 -0.061428605263776047 -0.046553119166432878 0 -0.055132092173872667 -0.033226800447327051 0 -0.049741921456861897 -0.048697412542500033 0 -0.055132092173872667 -0.033226800447327051 0 -0.032367863380537598 -0.044965144957206583 0 -0.055132092173872667 -0.033226800447327051 0 -0.032367863380537598 -0.044965144957206583 0 -0.055132092173872667 -0.033226800447327051 0 -0.032367863380537598 -0.044965144957206583 0 -0.031233838643279398 -0.031193199633022049 0 -0.049741921456861897 -0.048697412542500033 0 -0.032367863380537598 -0.044965144957206583 0 -0.041230103293456458 -0.058058117591144771 0 -0.032367863380537598 -0.044965144957206583 0 -0.041230103293456458 -0.058058117591144771 0 -0.026902341230915561 -0.060374551747501753 0 -0.05822397002114936 -0.01402224463886402 0 -0.057836245250817257 0.0062936453779614283 0 -0.044352522143416888 0.0050416822031405977 0 -0.05822397002114936 -0.01402224463886402 0 -0.037926632337863607 -0.0068783069258408786 0 -0.05822397002114936 -0.01402224463886402 0 -0.068462160169621672 0.0025537029525893409 0 -0.057836245250817257 0.0062936453779614283 0 -0.055132092173872667 -0.033226800447327051 0 -0.05822397002114936 -0.01402224463886402 0 -0.036243114184870161 -0.018923029155399909 0 -0.055132092173872667 -0.033226800447327051 0 -0.036243114184870161 -0.018923029155399909 0 -0.031233838643279398 -0.031193199633022049 0 -0.055132092173872667 -0.033226800447327051 0 -0.036243114184870161 -0.018923029155399909 0 -0.05822397002114936 -0.01402224463886402 0 -0.036243114184870161 -0.018923029155399909 0 -0.037926632337863607 -0.0068783069258408786 0 -0.05822397002114936 -0.01402224463886402 0 -0.037926632337863607 -0.0068783069258408786 0 -0.044352522143416888 0.0050416822031405977 0 -0.036243114184870161 -0.018923029155399909 0 -0.037926632337863607 -0.0068783069258408786 0 -0.029121832422534862 -0.0067169982391169078 0 -0.037926632337863607 -0.0068783069258408786 0 -0.029539197120254941 -0.00051038393964639519 0 -0.029121832422534862 -0.0067169982391169078 0 -0.037926632337863607 -0.0068783069258408786 0 -0.029539197120254941 -0.00051038393964639519 0 -0.03614709390981162 0.0015378833132510439 0 -0.037926632337863607 -0.0068783069258408786 0 -0.03614709390981162 0.0015378833132510439 0 -0.044352522143416888 0.0050416822031405977 0 -0.036243114184870161 -0.018923029155399909 0 -0.017354136195868258 -0.0046192578634720229 0 -0.01819617019275287 -0.0061732580868559192 0 -0.036243114184870161 -0.018923029155399909 0 -0.017354136195868258 -0.0046192578634720229 0 -0.029121832422534862 -0.0067169982391169078 0 -0.036243114184870161 -0.018923029155399909 0 -0.01819617019275287 -0.0061732580868559192 0 -0.019637671972121611 -0.02148729346067638 0 -0.036243114184870161 -0.018923029155399909 0 -0.017354136195868258 -0.0046192578634720229 0 -0.017354136195868258 -0.0046192578634720229 0 -0.01819617019275287 -0.0061732580868559192 0 -0.013500839782477779 -0.0058155532537883976 0 -0.017354136195868258 -0.0046192578634720229 0 -0.01819617019275287 -0.0061732580868559192 0 -0.017354136195868258 -0.0046192578634720229 0 -0.024546082273817361 -0.00265401331122534 0 -0.02112675760807068 0.0030512678310729521 0 -0.024546082273817361 -0.00265401331122534 0 -0.029539197120254941 -0.00051038393964639519 0 -0.02112675760807068 0.0030512678310729521 0 -0.017354136195868258 -0.0046192578634720229 0 -0.024546082273817361 -0.00265401331122534 0 -0.029121832422534862 -0.0067169982391169078 0 -0.024546082273817361 -0.00265401331122534 0 -0.029539197120254941 -0.00051038393964639519 0 -0.029121832422534862 -0.0067169982391169078 0 -0.01819617019275287 -0.0061732580868559192 0 -0.019637671972121611 -0.02148729346067638 0 -0.011008321991883009 -0.01057962122923565 0 -0.036243114184870161 -0.018923029155399909 0 -0.019637671972121611 -0.02148729346067638 0 -0.031233838643279398 -0.031193199633022049 0 -0.019637671972121611 -0.02148729346067638 0 -0.031233838643279398 -0.031193199633022049 0 -0.016064986363794779 -0.036441041599790329 0 -0.0077215053668332834 -0.022860670268973711 0 -0.00118246574067416 -0.01324232368796026 0 0.0015263381015913891 -0.033415212413580753 0 -0.0077215053668332834 -0.022860670268973711 0 -0.016064986363794779 -0.036441041599790329 0 0.0015263381015913891 -0.033415212413580753 0 -0.019637671972121611 -0.02148729346067638 0 -0.0077215053668332834 -0.022860670268973711 0 -0.016064986363794779 -0.036441041599790329 0 -0.019637671972121611 -0.02148729346067638 0 -0.0077215053668332834 -0.022860670268973711 0 -0.011008321991883009 -0.01057962122923565 0 -0.011008321991883009 -0.01057962122923565 0 -0.00118246574067416 -0.01324232368796026 0 -0.0072764121498596901 -0.0036325873431357339 0 -0.0077215053668332834 -0.022860670268973711 0 -0.011008321991883009 -0.01057962122923565 0 -0.00118246574067416 -0.01324232368796026 0 -0.00118246574067416 -0.01324232368796026 0 -0.0072764121498596901 -0.0036325873431357339 0 0.0012074066645448821 -0.00065723147797176382 0 -0.0072764121498596901 -0.0036325873431357339 0 -0.013500839782477779 -0.0058155532537883976 0 -0.013607688627124061 -0.00178224205395049 0 -0.011008321991883009 -0.01057962122923565 0 -0.0072764121498596901 -0.0036325873431357339 0 -0.013500839782477779 -0.0058155532537883976 0 -0.01819617019275287 -0.0061732580868559192 0 -0.011008321991883009 -0.01057962122923565 0 -0.013500839782477779 -0.0058155532537883976 0 -0.017354136195868258 -0.0046192578634720229 0 -0.013500839782477779 -0.0058155532537883976 0 -0.013607688627124061 -0.00178224205395049 0 -0.017354136195868258 -0.0046192578634720229 0 -0.013607688627124061 -0.00178224205395049 0 -0.032367863380537598 -0.044965144957206583 0 -0.0096036345872028556 -0.056703489467087059 0 -0.032367863380537598 -0.044965144957206583 0 -0.026902341230915561 -0.060374551747501753 0 -0.0096036345872028556 -0.056703489467087059 0 -0.032367863380537598 -0.044965144957206583 0 -0.031233838643279398 -0.031193199633022049 0 -0.016064986363794779 -0.036441041599790329 0 -0.032367863380537598 -0.044965144957206583 0 -0.016064986363794779 -0.036441041599790329 0 -0.0096036345872028556 -0.056703489467087059 0 -0.0096036345872028556 -0.056703489467087059 0 0.0015263381015913891 -0.033415212413580753 0 -0.016064986363794779 -0.036441041599790329 0 -0.0096036345872028556 -0.056703489467087059 0 0.0015263381015913891 -0.033415212413580753 0 -0.0096036345872028556 -0.056703489467087059 0 0.0015263381015913891 -0.033415212413580753 0 0.007298405735321048 -0.051477207310420908 0 -0.0096036345872028556 -0.056703489467087059 0 0.0052181775422467033 -0.064346337314722044 0 -0.0096036345872028556 -0.056703489467087059 0 -0.0043762627118289626 -0.071729097412358583 0 0.0052181775422467033 -0.064346337314722044 0 -0.0043762627118289626 -0.071729097412358583 0 -0.0092607301227374331 -0.088572496961274561 0 -0.01646375475339092 -0.071057556949349329 0 -0.0096036345872028556 -0.056703489467087059 0 -0.01646375475339092 -0.071057556949349329 0 -0.0096036345872028556 -0.056703489467087059 0 -0.0043762627118289626 -0.071729097412358583 0 -0.01646375475339092 -0.071057556949349329 0 -0.0092607301227374331 -0.088572496961274561 0 -0.00044729776891663488 -0.1011528385718463 0 0.0042106568376920582 -0.081118225430045127 0 -0.0043762627118289626 -0.071729097412358583 0 -0.0092607301227374331 -0.088572496961274561 0 0.0042106568376920582 -0.081118225430045127 0 -0.0092607301227374331 -0.088572496961274561 0 -0.037642160748979789 -0.094071739377162955 0 -0.0092607301227374331 -0.088572496961274561 0 -0.023323874919582349 -0.085411624431610003 0 -0.01646375475339092 -0.071057556949349329 0 -0.0092607301227374331 -0.088572496961274561 0 -0.023323874919582349 -0.085411624431610003 0 -0.037642160748979789 -0.094071739377162955 0 -0.023323874919582349 -0.085411624431610003 0 -0.01646375475339092 -0.071057556949349329 0 -0.023323874919582349 -0.085411624431610003 0 -0.01646375475339092 -0.071057556949349329 0 -0.034846350139989962 -0.07108844977272101 0 -0.026902341230915561 -0.060374551747501753 0 -0.01646375475339092 -0.071057556949349329 0 -0.034846350139989962 -0.07108844977272101 0 -0.026902341230915561 -0.060374551747501753 0 -0.0096036345872028556 -0.056703489467087059 0 -0.01646375475339092 -0.071057556949349329 0 -0.041230103293456458 -0.058058117591144771 0 -0.026902341230915561 -0.060374551747501753 0 -0.034846350139989962 -0.07108844977272101 0 -0.041230103293456458 -0.058058117591144771 0 -0.034846350139989962 -0.07108844977272101 0 -0.049479852383656611 -0.067543566470139038 0 -0.034846350139989962 -0.07108844977272101 0 -0.048784805137481749 -0.081200653853927454 0 -0.049479852383656611 -0.067543566470139038 0 -0.023323874919582349 -0.085411624431610003 0 -0.034846350139989962 -0.07108844977272101 0 -0.036149297736508462 -0.082943116858855345 0 -0.023323874919582349 -0.085411624431610003 0 -0.036149297736508462 -0.082943116858855345 0 -0.037642160748979789 -0.094071739377162955 0 -0.036149297736508462 -0.082943116858855345 0 -0.048784805137481749 -0.081200653853927454 0 -0.037642160748979789 -0.094071739377162955 0 -0.034846350139989962 -0.07108844977272101 0 -0.036149297736508462 -0.082943116858855345 0 -0.048784805137481749 -0.081200653853927454 0 -0.063732237529271596 -0.080733089011810297 0 -0.066023591375222151 -0.09957098179305135 0 -0.048784805137481749 -0.081200653853927454 0 -0.066023591375222151 -0.09957098179305135 0 -0.048784805137481749 -0.081200653853927454 0 -0.037642160748979789 -0.094071739377162955 0 -0.063732237529271596 -0.080733089011810297 0 -0.048784805137481749 -0.081200653853927454 0 -0.058000192015007383 -0.073011667883306972 0 -0.055978059279945473 -0.056388284161067823 0 -0.060830035872249492 -0.064558057335980773 0 -0.049479852383656611 -0.067543566470139038 0 -0.058000192015007383 -0.073011667883306972 0 -0.060830035872249492 -0.064558057335980773 0 -0.049479852383656611 -0.067543566470139038 0 -0.067174029152377468 -0.071022972744677337 0 -0.058000192015007383 -0.073011667883306972 0 -0.060830035872249492 -0.064558057335980773 0 -0.048784805137481749 -0.081200653853927454 0 -0.058000192015007383 -0.073011667883306972 0 -0.049479852383656611 -0.067543566470139038 0 -0.069466171350113709 -0.1135628440840601 0 -0.054384952187449757 -0.110609208962567 0 -0.059238207921678762 -0.13024384051707169 0 -0.054384952187449757 -0.110609208962567 0 -0.059238207921678762 -0.13024384051707169 0 -0.032945469352336033 -0.1293562392835419 0 -0.066023591375222151 -0.09957098179305135 0 -0.054384952187449757 -0.110609208962567 0 -0.037642160748979789 -0.094071739377162955 0 -0.066023591375222151 -0.09957098179305135 0 -0.037642160748979789 -0.094071739377162955 0 -0.054384952187449757 -0.110609208962567 0 -0.037642160748979789 -0.094071739377162955 0 -0.035661083064217503 -0.11124856921529409 0 -0.054384952187449757 -0.110609208962567 0 -0.032945469352336033 -0.1293562392835419 0 -0.054384952187449757 -0.110609208962567 0 -0.035661083064217503 -0.11124856921529409 0 -0.032945469352336033 -0.1293562392835419 0 -0.01767174996810443 -0.1109570892379047 0 -0.012892303975098539 -0.12786221844410239 0 -0.032945469352336033 -0.1293562392835419 0 -0.035661083064217503 -0.11124856921529409 0 -0.01767174996810443 -0.1109570892379047 0 -0.032945469352336033 -0.1293562392835419 0 -0.0092607301227374331 -0.088572496961274561 0 -0.037642160748979789 -0.094071739377162955 0 -0.01767174996810443 -0.1109570892379047 0 -0.037642160748979789 -0.094071739377162955 0 -0.035661083064217503 -0.11124856921529409 0 -0.01767174996810443 -0.1109570892379047 0 -0.01767174996810443 -0.1109570892379047 0 -0.00044729776891663488 -0.1011528385718463 0 0.005085065621477718 -0.1151057880332567 0 -0.0092607301227374331 -0.088572496961274561 0 -0.01767174996810443 -0.1109570892379047 0 -0.00044729776891663488 -0.1011528385718463 0 -0.01767174996810443 -0.1109570892379047 0 -0.012892303975098539 -0.12786221844410239 0 0.005085065621477718 -0.1151057880332567 0 -0.012892303975098539 -0.12786221844410239 0 0.0027021066240326768 -0.1317064378292063 0 0.005085065621477718 -0.1151057880332567 0 -0.011505986517222349 -0.14810326960451681 0 -0.033736789854580403 -0.16402697950055581 0 -0.032945469352336033 -0.1293562392835419 0 -0.012892303975098539 -0.12786221844410239 0 -0.011505986517222349 -0.14810326960451681 0 0.0027021066240326768 -0.1317064378292063 0 -0.011505986517222349 -0.14810326960451681 0 -0.032945469352336033 -0.1293562392835419 0 -0.012892303975098539 -0.12786221844410239 0 -0.011505986517222349 -0.14810326960451681 0 -0.032945469352336033 -0.1293562392835419 0 -0.011505986517222349 -0.14810326960451681 0 0.009933496317892726 -0.16685029992549011 0 -0.011505986517222349 -0.14810326960451681 0 -0.0085976242789068957 -0.177408956520272 0 0.009933496317892726 -0.16685029992549011 0 -0.0085976242789068957 -0.177408956520272 0 -0.003739977245034012 -0.19168309442994089 0 -0.02712874487570623 -0.18796761311505439 0 -0.0085976242789068957 -0.177408956520272 0 -0.003739977245034012 -0.19168309442994089 0 0.0034571977838801569 -0.17702496179755631 0 -0.0085976242789068957 -0.177408956520272 0 -0.02712874487570623 -0.18796761311505439 0 -0.0085976242789068957 -0.177408956520272 0 -0.033736789854580403 -0.16402697950055581 0 -0.02712874487570623 -0.18796761311505439 0 -0.011505986517222349 -0.14810326960451681 0 -0.0085976242789068957 -0.177408956520272 0 -0.033736789854580403 -0.16402697950055581 0 -0.033736789854580403 -0.16402697950055581 0 -0.041678182321736049 -0.18065303021324261 0 -0.02712874487570623 -0.18796761311505439 0 -0.033736789854580403 -0.16402697950055581 0 -0.041678182321736049 -0.18065303021324261 0 -0.060187329084152079 -0.17209125852752319 0 -0.041678182321736049 -0.18065303021324261 0 -0.060187329084152079 -0.17209125852752319 0 -0.045659865472505487 -0.198526269709837 0 -0.060187329084152079 -0.17209125852752319 0 -0.045659865472505487 -0.198526269709837 0 -0.033736789854580403 -0.16402697950055581 0 -0.060187329084152079 -0.17209125852752319 0 -0.051699405537506939 -0.14899167338562519 0 -0.060187329084152079 -0.17209125852752319 0 -0.051699405537506939 -0.14899167338562519 0 -0.072389231474787458 -0.1492400490994332 0 -0.051699405537506939 -0.14899167338562519 0 -0.059238207921678762 -0.13024384051707169 0 -0.072389231474787458 -0.1492400490994332 0 -0.033736789854580403 -0.16402697950055581 0 -0.051699405537506939 -0.14899167338562519 0 -0.032945469352336033 -0.1293562392835419 0 -0.051699405537506939 -0.14899167338562519 0 -0.059238207921678762 -0.13024384051707169 0 -0.032945469352336033 -0.1293562392835419 0 -0.025857267464119819 -0.25506418495113531 0 -0.02368513365757598 -0.23851275990414511 0 -0.036167443228362108 -0.24337299090061551 0 -0.01269776775011346 -0.25850600500130039 0 -0.02368513365757598 -0.23851275990414511 0 -0.01269776775011346 -0.25850600500130039 0 -0.02368513365757598 -0.23851275990414511 0 -0.01082738352359053 -0.24876902592697839 0 -0.02368513365757598 -0.23851275990414511 0 -0.0067432183097289999 -0.239968376336817 0 -0.0090267388034834407 -0.23007068799598671 0 -0.02368513365757598 -0.23851275990414511 0 -0.01082738352359053 -0.24876902592697839 0 -0.0067432183097289999 -0.239968376336817 0 -0.01082738352359053 -0.24876902592697839 0 -0.0029313858115674811 -0.24854412401401971 0 -0.0067432183097289999 -0.239968376336817 0 -0.0029313858115674811 -0.24854412401401971 0 -0.0067432183097289999 -0.239968376336817 0 0.0026199421412959989 -0.2430643023623929 0 -0.0067432183097289999 -0.239968376336817 0 0.0026199421412959989 -0.2430643023623929 0 0.0017465435191736189 -0.23378549097037141 0 -0.0067432183097289999 -0.239968376336817 0 -0.0090267388034834407 -0.23007068799598671 0 0.0017465435191736189 -0.23378549097037141 0 -0.0090267388034834407 -0.23007068799598671 0 -0.00080535468136348092 -0.21995366459000901 0 -0.01839049427805331 -0.2195873775130934 0 -0.0090267388034834407 -0.23007068799598671 0 -0.00080535468136348092 -0.21995366459000901 0 0.0017465435191736189 -0.23378549097037141 0 -0.02368513365757598 -0.23851275990414511 0 -0.0090267388034834407 -0.23007068799598671 0 -0.01839049427805331 -0.2195873775130934 0 -0.02368513365757598 -0.23851275990414511 0 -0.01839049427805331 -0.2195873775130934 0 -0.034672499565036527 -0.2185195148069887 0 -0.02368513365757598 -0.23851275990414511 0 -0.034672499565036527 -0.2185195148069887 0 -0.01839049427805331 -0.2195873775130934 0 -0.027127261386640289 -0.20489204062456881 0 -0.034672499565036527 -0.2185195148069887 0 -0.01839049427805331 -0.2195873775130934 0 -0.027127261386640289 -0.20489204062456881 0 -0.01084996336714465 -0.20584666152463099 0 -0.00080535468136348092 -0.21995366459000901 0 -0.01839049427805331 -0.2195873775130934 0 -0.01084996336714465 -0.20584666152463099 0 -0.00080535468136348092 -0.21995366459000901 0 -0.01084996336714465 -0.20584666152463099 0 0.01016515501406726 -0.20926501301563591 0 -0.01084996336714465 -0.20584666152463099 0 -0.003739977245034012 -0.19168309442994089 0 0.01016515501406726 -0.20926501301563591 0 -0.01084996336714465 -0.20584666152463099 0 -0.003739977245034012 -0.19168309442994089 0 -0.02712874487570623 -0.18796761311505439 0 -0.027127261386640289 -0.20489204062456881 0 -0.01084996336714465 -0.20584666152463099 0 -0.02712874487570623 -0.18796761311505439 0 -0.041678182321736049 -0.18065303021324261 0 -0.02712874487570623 -0.18796761311505439 0 -0.045659865472505487 -0.198526269709837 0 -0.02712874487570623 -0.18796761311505439 0 -0.045659865472505487 -0.198526269709837 0 -0.027127261386640289 -0.20489204062456881 0 -0.02712874487570623 -0.18796761311505439 0 -0.045659865472505487 -0.198526269709837 0 -0.045659865472505487 -0.198526269709837 0 -0.067682806497079445 -0.21107449474949169 0 -0.062708331551170268 -0.19442045911658551 0 -0.060187329084152079 -0.17209125852752319 0 -0.045659865472505487 -0.198526269709837 0 -0.062708331551170268 -0.19442045911658551 0 -0.045659865472505487 -0.198526269709837 0 -0.067682806497079445 -0.21107449474949169 0 -0.045659865472505487 -0.198526269709837 0 -0.054546183461555722 -0.22015285450131489 0 -0.067682806497079445 -0.21107449474949169 0 -0.045659865472505487 -0.198526269709837 0 -0.034672499565036527 -0.2185195148069887 0 -0.054546183461555722 -0.22015285450131489 0 -0.045659865472505487 -0.198526269709837 0 -0.034672499565036527 -0.2185195148069887 0 -0.027127261386640289 -0.20489204062456881 0 -0.045659865472505487 -0.198526269709837 0 -0.034672499565036527 -0.2185195148069887 0 -0.034672499565036527 -0.2185195148069887 0 -0.044145410485190079 -0.23242073182379891 0 -0.054546183461555722 -0.22015285450131489 0 -0.02368513365757598 -0.23851275990414511 0 -0.034672499565036527 -0.2185195148069887 0 -0.044145410485190079 -0.23242073182379891 0 -0.044145410485190079 -0.23242073182379891 0 -0.054546183461555722 -0.22015285450131489 0 -0.061280333386656921 -0.23284462843810469 0 -0.061280333386656921 -0.23284462843810469 0 -0.050191684441297867 -0.2485850187836515 0 -0.071591358857016049 -0.2429226102204386 0 -0.050191684441297867 -0.2485850187836515 0 -0.071591358857016049 -0.2429226102204386 0 -0.056939497423126581 -0.24878681181634871 0 -0.050191684441297867 -0.2485850187836515 0 -0.071591358857016049 -0.2429226102204386 0 -0.044145410485190079 -0.23242073182379891 0 -0.061280333386656921 -0.23284462843810469 0 -0.050191684441297867 -0.2485850187836515 0 -0.041398382443623198 -0.25192549838374201 0 -0.056939497423126581 -0.24878681181634871 0 -0.050191684441297867 -0.2485850187836515 0 -0.044145410485190079 -0.23242073182379891 0 -0.050191684441297867 -0.2485850187836515 0 -0.036167443228362108 -0.24337299090061551 0 -0.02368513365757598 -0.23851275990414511 0 -0.044145410485190079 -0.23242073182379891 0 -0.036167443228362108 -0.24337299090061551 0 -0.025857267464119819 -0.25506418495113531 0 -0.050191684441297867 -0.2485850187836515 0 -0.036167443228362108 -0.24337299090061551 0 -0.097628444613881649 -0.25834262822693399 0 -0.087470553331264578 -0.24262075389877999 0 -0.077955776651182085 -0.24454236002529731 0 -0.087470553331264578 -0.24262075389877999 0 -0.087928467376508473 -0.23859976953689591 0 -0.1005617376665941 -0.23997685579502359 0 -0.087928467376508473 -0.23859976953689591 0 -0.07453604668454375 -0.2421434382925548 0 -0.07383618536286593 -0.22753148747966839 0 -0.087928467376508473 -0.23859976953689591 0 -0.07453604668454375 -0.2421434382925548 0 -0.087928467376508473 -0.23859976953689591 0 -0.077955776651182085 -0.24454236002529731 0 -0.07453604668454375 -0.2421434382925548 0 -0.087470553331264578 -0.24262075389877999 0 -0.087928467376508473 -0.23859976953689591 0 -0.077955776651182085 -0.24454236002529731 0 -0.087470553331264578 -0.24262075389877999 0 -0.077955776651182085 -0.24454236002529731 0 -0.056939497423126581 -0.24878681181634871 0 -0.077955776651182085 -0.24454236002529731 0 -0.071591358857016049 -0.2429226102204386 0 -0.056939497423126581 -0.24878681181634871 0 -0.077955776651182085 -0.24454236002529731 0 -0.077955776651182085 -0.24454236002529731 0 -0.071591358857016049 -0.2429226102204386 0 -0.07453604668454375 -0.2421434382925548 0 -0.077955776651182085 -0.24454236002529731 0 -0.07453604668454375 -0.2421434382925548 0 -0.071591358857016049 -0.2429226102204386 0 -0.07453604668454375 -0.2421434382925548 0 -0.056939497423126581 -0.24878681181634871 0 -0.071591358857016049 -0.2429226102204386 0 -0.061280333386656921 -0.23284462843810469 0 -0.071591358857016049 -0.2429226102204386 0 -0.07453604668454375 -0.2421434382925548 0 -0.061280333386656921 -0.23284462843810469 0 -0.07453604668454375 -0.2421434382925548 0 -0.07383618536286593 -0.22753148747966839 0 -0.089705747521653334 -0.22362271978914661 0 -0.067682806497079445 -0.21107449474949169 0 -0.054546183461555722 -0.22015285450131489 0 -0.061280333386656921 -0.23284462843810469 0 -0.07383618536286593 -0.22753148747966839 0 -0.054546183461555722 -0.22015285450131489 0 -0.07383618536286593 -0.22753148747966839 0 -0.067682806497079445 -0.21107449474949169 0 -0.061280333386656921 -0.23284462843810469 0 -0.07453604668454375 -0.2421434382925548 0 -0.07383618536286593 -0.22753148747966839 0 -0.087928467376508473 -0.23859976953689591 0 -0.07383618536286593 -0.22753148747966839 0 -0.089705747521653334 -0.22362271978914661 0 -0.087928467376508473 -0.23859976953689591 0 -0.089705747521653334 -0.22362271978914661 0 -0.1005617376665941 -0.23997685579502359 0 -0.089705747521653334 -0.22362271978914661 0 -0.067682806497079445 -0.21107449474949169 0 -0.089705747521653334 -0.22362271978914661 0 -0.084027466008495671 -0.20735524824550181 0 -0.09921486728828334 -0.20109800384388701 0 -0.089705747521653334 -0.22362271978914661 0 -0.084027466008495671 -0.20735524824550181 0 -0.067682806497079445 -0.21107449474949169 0 -0.084027466008495671 -0.20735524824550181 0 -0.067682806497079445 -0.21107449474949169 0 -0.079506442726966622 -0.19362577459948219 0 -0.067682806497079445 -0.21107449474949169 0 -0.062708331551170268 -0.19442045911658551 0 -0.079506442726966622 -0.19362577459948219 0 -0.079506442726966622 -0.19362577459948219 0 -0.09921486728828334 -0.20109800384388701 0 -0.089369030920126963 -0.1732707743578942 0 -0.084027466008495671 -0.20735524824550181 0 -0.079506442726966622 -0.19362577459948219 0 -0.09921486728828334 -0.20109800384388701 0 -0.09921486728828334 -0.20109800384388701 0 -0.1156293974943295 -0.1822747327150937 0 -0.1210853022939376 -0.205467400633562 0 -0.1156293974943295 -0.1822747327150937 0 -0.13505851963374399 -0.18906788910329131 0 -0.09921486728828334 -0.20109800384388701 0 -0.1210853022939376 -0.205467400633562 0 -0.1156293974943295 -0.1822747327150937 0 -0.1210853022939376 -0.205467400633562 0 -0.10755849924533691 -0.2178899443088799 0 -0.11989889803527461 -0.22145143588075511 0 -0.1210853022939376 -0.205467400633562 0 -0.11989889803527461 -0.22145143588075511 0 -0.13086176299679239 -0.21746526838305219 0 -0.089705747521653334 -0.22362271978914661 0 -0.09921486728828334 -0.20109800384388701 0 -0.10755849924533691 -0.2178899443088799 0 -0.09921486728828334 -0.20109800384388701 0 -0.1210853022939376 -0.205467400633562 0 -0.10755849924533691 -0.2178899443088799 0 -0.089705747521653334 -0.22362271978914661 0 -0.11172868854622731 -0.23617094482880149 0 -0.1005617376665941 -0.23997685579502359 0 -0.089705747521653334 -0.22362271978914661 0 -0.11172868854622731 -0.23617094482880149 0 -0.089705747521653334 -0.22362271978914661 0 -0.10755849924533691 -0.2178899443088799 0 -0.11172868854622731 -0.23617094482880149 0 -0.11989889803527461 -0.22145143588075511 0 -0.11172868854622731 -0.23617094482880149 0 -0.127825895831608 -0.22987551408160201 0 -0.10755849924533691 -0.2178899443088799 0 -0.11989889803527461 -0.22145143588075511 0 -0.11172868854622731 -0.23617094482880149 0 -0.13218950310710981 -0.25272660122947088 0 -0.1218823470606431 -0.24640061544388489 0 -0.1098930818979398 -0.24798588601512411 0 -0.11172868854622731 -0.23617094482880149 0 -0.13375162957080131 -0.24871916986845621 0 -0.11172868854622731 -0.23617094482880149 0 -0.1218823470606431 -0.24640061544388489 0 -0.13375162957080131 -0.24871916986845621 0 -0.11172868854622731 -0.23617094482880149 0 -0.13375162957080131 -0.24871916986845621 0 -0.127825895831608 -0.22987551408160201 0 -0.11172868854622731 -0.23617094482880149 0 -0.1218823470606431 -0.24640061544388489 0 -0.1098930818979398 -0.24798588601512411 0 -0.097628444613881649 -0.25834262822693399 0 -0.087470553331264578 -0.24262075389877999 0 -0.1098930818979398 -0.24798588601512411 0 -0.087470553331264578 -0.24262075389877999 0 -0.1098930818979398 -0.24798588601512411 0 -0.1005617376665941 -0.23997685579502359 0 -0.087470553331264578 -0.24262075389877999 0 -0.1098930818979398 -0.24798588601512411 0 -0.11172868854622731 -0.23617094482880149 0 -0.1098930818979398 -0.24798588601512411 0 -0.1005617376665941 -0.23997685579502359 0 -0.087470553331264578 -0.24262075389877999 0 -0.1005617376665941 -0.23997685579502359 0 -0.072389231474787458 -0.1492400490994332 0 -0.089369030920126963 -0.1732707743578942 0 -0.096011965921864201 -0.14265464397282879 0 -0.077516787342341589 -0.1242022911324857 0 -0.093262550211769629 -0.1231040070079162 0 -0.096011965921864201 -0.14265464397282879 0 -0.077516787342341589 -0.1242022911324857 0 -0.072389231474787458 -0.1492400490994332 0 -0.096011965921864201 -0.14265464397282879 0 -0.077516787342341589 -0.1242022911324857 0 -0.059238207921678762 -0.13024384051707169 0 -0.072389231474787458 -0.1492400490994332 0 -0.060187329084152079 -0.17209125852752319 0 -0.072389231474787458 -0.1492400490994332 0 -0.089369030920126963 -0.1732707743578942 0 -0.060187329084152079 -0.17209125852752319 0 -0.079506442726966622 -0.19362577459948219 0 -0.089369030920126963 -0.1732707743578942 0 -0.060187329084152079 -0.17209125852752319 0 -0.062708331551170268 -0.19442045911658551 0 -0.079506442726966622 -0.19362577459948219 0 -0.089369030920126963 -0.1732707743578942 0 -0.1107512355661594 -0.16096683979900789 0 -0.096011965921864201 -0.14265464397282879 0 -0.09921486728828334 -0.20109800384388701 0 -0.089369030920126963 -0.1732707743578942 0 -0.1156293974943295 -0.1822747327150937 0 -0.089369030920126963 -0.1732707743578942 0 -0.1156293974943295 -0.1822747327150937 0 -0.1107512355661594 -0.16096683979900789 0 -0.1156293974943295 -0.1822747327150937 0 -0.13204392770037571 -0.1634514615863005 0 -0.1156293974943295 -0.1822747327150937 0 -0.1107512355661594 -0.16096683979900789 0 -0.13204392770037571 -0.1634514615863005 0 -0.1107512355661594 -0.16096683979900789 0 -0.12070185579410091 -0.1431825863629223 0 -0.13204392770037571 -0.1634514615863005 0 -0.1107512355661594 -0.16096683979900789 0 -0.12070185579410091 -0.1431825863629223 0 -0.096011965921864201 -0.14265464397282879 0 -0.1071147179002416 -0.1244919901550422 0 -0.12070185579410091 -0.1431825863629223 0 -0.096011965921864201 -0.14265464397282879 0 -0.093262550211769629 -0.1231040070079162 0 -0.1071147179002416 -0.1244919901550422 0 -0.096011965921864201 -0.14265464397282879 0 -0.1071147179002416 -0.1244919901550422 0 -0.12070185579410091 -0.1431825863629223 0 -0.1306137014228527 -0.1212095633787966 0 -0.12070185579410091 -0.1431825863629223 0 -0.14845845790642179 -0.14462819045750719 0 -0.1306137014228527 -0.1212095633787966 0 -0.14845845790642179 -0.14462819045750719 0 -0.1306137014228527 -0.1212095633787966 0 -0.15036797716661271 -0.14243845987679379 0 -0.14845845790642179 -0.14462819045750719 0 -0.1306137014228527 -0.1212095633787966 0 -0.15406265534163929 -0.1294064941378926 0 -0.15036797716661271 -0.14243845987679379 0 -0.1306137014228527 -0.1212095633787966 0 -0.15406265534163929 -0.1294064941378926 0 -0.15036797716661271 -0.14243845987679379 0 -0.1564494690737798 -0.13971242061594299 0 -0.1543278084257422 -0.1453912472931165 0 -0.14845845790642179 -0.14462819045750719 0 -0.15894149653025619 -0.15184230729274609 0 -0.15519343748037609 -0.14309809199123349 0 -0.15036797716661271 -0.14243845987679379 0 -0.1564494690737798 -0.13971242061594299 0 -0.1543278084257422 -0.1453912472931165 0 -0.15519343748037609 -0.14309809199123349 0 -0.15036797716661271 -0.14243845987679379 0 -0.1543278084257422 -0.1453912472931165 0 -0.15036797716661271 -0.14243845987679379 0 -0.14845845790642179 -0.14462819045750719 0 -0.15036797716661271 -0.14243845987679379 0 -0.14845845790642179 -0.14462819045750719 0 -0.12070185579410091 -0.1431825863629223 0 -0.14845845790642179 -0.14462819045750719 0 -0.13204392770037571 -0.1634514615863005 0 -0.14845845790642179 -0.14462819045750719 0 -0.13204392770037571 -0.1634514615863005 0 -0.13204392770037571 -0.1634514615863005 0 -0.1475860696211248 -0.17640031700015249 0 -0.13505851963374399 -0.18906788910329131 0 -0.1156293974943295 -0.1822747327150937 0 -0.13204392770037571 -0.1634514615863005 0 -0.13505851963374399 -0.18906788910329131 0 -0.1475860696211248 -0.17640031700015249 0 -0.1655722477793394 -0.1670875310098065 0 -0.15496537504316019 -0.19429807729602311 0 -0.1475860696211248 -0.17640031700015249 0 -0.13505851963374399 -0.18906788910329131 0 -0.15496537504316019 -0.19429807729602311 0 -0.1475860696211248 -0.17640031700015249 0 -0.14862352044039201 -0.16347018067920821 0 -0.1655722477793394 -0.1670875310098065 0 -0.14845845790642179 -0.14462819045750719 0 -0.13204392770037571 -0.1634514615863005 0 -0.14862352044039201 -0.16347018067920821 0 -0.14845845790642179 -0.14462819045750719 0 -0.14862352044039201 -0.16347018067920821 0 -0.1655722477793394 -0.1670875310098065 0 -0.13204392770037571 -0.1634514615863005 0 -0.1475860696211248 -0.17640031700015249 0 -0.14862352044039201 -0.16347018067920821 0 -0.1655722477793394 -0.1670875310098065 0 -0.1716614177265566 -0.15146656102038991 0 -0.1655722477793394 -0.1670875310098065 0 -0.15894149653025619 -0.15184230729274609 0 -0.1716614177265566 -0.15146656102038991 0 -0.1655722477793394 -0.1670875310098065 0 -0.17557921295501691 -0.18022020591375351 0 -0.1689483943248192 -0.19264195369377959 0 -0.1655722477793394 -0.1670875310098065 0 -0.15496537504316019 -0.19429807729602311 0 -0.1689483943248192 -0.19264195369377959 0 -0.1655722477793394 -0.1670875310098065 0 -0.15496537504316019 -0.19429807729602311 0 -0.1655722477793394 -0.1670875310098065 0 -0.17557921295501691 -0.18022020591375351 0 -0.17557921295501691 -0.18022020591375351 0 -0.18239484980351819 -0.16464781923938721 0 -0.1907059301477185 -0.18468107337543721 0 -0.1655722477793394 -0.1670875310098065 0 -0.17557921295501691 -0.18022020591375351 0 -0.18239484980351819 -0.16464781923938721 0 -0.1655722477793394 -0.1670875310098065 0 -0.18239484980351819 -0.16464781923938721 0 -0.1716614177265566 -0.15146656102038991 0 -0.18239484980351819 -0.16464781923938721 0 -0.1716614177265566 -0.15146656102038991 0 -0.1894311146879058 -0.1465309504005988 0 -0.17775058767377289 -0.13584559103097291 0 -0.1716614177265566 -0.15146656102038991 0 -0.1894311146879058 -0.1465309504005988 0 -0.17775058767377289 -0.13584559103097291 0 -0.1716614177265566 -0.15146656102038991 0 -0.17775058767377289 -0.13584559103097291 0 -0.1894311146879058 -0.1465309504005988 0 -0.17775058767377289 -0.13584559103097291 0 -0.19823449762692411 -0.13229999761030051 0 -0.18534812722118199 -0.1163550958908785 0 -0.17775058767377289 -0.13584559103097291 0 -0.18534812722118199 -0.1163550958908785 0 -0.15406265534163929 -0.1294064941378926 0 -0.16394560233522651 -0.1386698702264933 0 -0.15606779039194271 -0.1160101434681408 0 -0.17775058767377289 -0.13584559103097291 0 -0.16394560233522651 -0.1386698702264933 0 -0.15606779039194271 -0.1160101434681408 0 -0.17775058767377289 -0.13584559103097291 0 -0.15606779039194271 -0.1160101434681408 0 -0.15406265534163929 -0.1294064941378926 0 -0.16394560233522651 -0.1386698702264933 0 -0.1564494690737798 -0.13971242061594299 0 -0.16394560233522651 -0.1386698702264933 0 -0.1564494690737798 -0.13971242061594299 0 -0.15962849525536979 -0.1448502401790808 0 -0.14845845790642179 -0.14462819045750719 0 -0.1655722477793394 -0.1670875310098065 0 -0.14845845790642179 -0.14462819045750719 0 -0.1655722477793394 -0.1670875310098065 0 -0.15894149653025619 -0.15184230729274609 0 -0.15519343748037609 -0.14309809199123349 0 -0.1564494690737798 -0.13971242061594299 0 -0.15962849525536979 -0.1448502401790808 0 -0.1543278084257422 -0.1453912472931165 0 -0.15519343748037609 -0.14309809199123349 0 -0.15962849525536979 -0.1448502401790808 0 -0.1543278084257422 -0.1453912472931165 0 -0.15962849525536979 -0.1448502401790808 0 -0.15894149653025619 -0.15184230729274609 0 -0.15962849525536979 -0.1448502401790808 0 -0.15894149653025619 -0.15184230729274609 0 -0.1716614177265566 -0.15146656102038991 0 -0.17775058767377289 -0.13584559103097291 0 -0.16394560233522651 -0.1386698702264933 0 -0.1716614177265566 -0.15146656102038991 0 -0.16394560233522651 -0.1386698702264933 0 -0.15962849525536979 -0.1448502401790808 0 -0.1716614177265566 -0.15146656102038991 0 -0.1534429259631987 -0.25724555178864622 0 -0.15289321433053751 -0.246830478479277 0 -0.1378886282313006 -0.2381062402767252 0 -0.1534429259631987 -0.25724555178864622 0 -0.1378886282313006 -0.2381062402767252 0 -0.15348527020851541 -0.23913552791147211 0 -0.1378886282313006 -0.2381062402767252 0 -0.15430752157141919 -0.22794821467022949 0 -0.15289321433053751 -0.246830478479277 0 -0.15348527020851541 -0.23913552791147211 0 -0.1601832428566283 -0.24550858739866141 0 -0.15289321433053751 -0.246830478479277 0 -0.15348527020851541 -0.23913552791147211 0 -0.1378886282313006 -0.2381062402767252 0 -0.1459019403517107 -0.25564217047089421 0 -0.13375162957080131 -0.24871916986845621 0 -0.1378886282313006 -0.2381062402767252 0 -0.13375162957080131 -0.24871916986845621 0 -0.1378886282313006 -0.2381062402767252 0 -0.127825895831608 -0.22987551408160201 0 -0.13375162957080131 -0.24871916986845621 0 -0.1378886282313006 -0.2381062402767252 0 -0.13218950310710981 -0.25272660122947088 0 -0.1218823470606431 -0.24640061544388489 0 -0.13375162957080131 -0.24871916986845621 0 -0.127825895831608 -0.22987551408160201 0 -0.14435850230698141 -0.22150862358223991 0 -0.13086176299679239 -0.21746526838305219 0 -0.1378886282313006 -0.2381062402767252 0 -0.127825895831608 -0.22987551408160201 0 -0.14435850230698141 -0.22150862358223991 0 -0.11989889803527461 -0.22145143588075511 0 -0.127825895831608 -0.22987551408160201 0 -0.13086176299679239 -0.21746526838305219 0 -0.1378886282313006 -0.2381062402767252 0 -0.14435850230698141 -0.22150862358223991 0 -0.14435850230698141 -0.22150862358223991 0 -0.15430752157141919 -0.22794821467022949 0 -0.16410544360365359 -0.21493654602220469 0 -0.1378886282313006 -0.2381062402767252 0 -0.14435850230698141 -0.22150862358223991 0 -0.15430752157141919 -0.22794821467022949 0 -0.14435850230698141 -0.22150862358223991 0 -0.15496537504316019 -0.19429807729602311 0 -0.14435850230698141 -0.22150862358223991 0 -0.1373527607074172 -0.20563907323320921 0 -0.15496537504316019 -0.19429807729602311 0 -0.14435850230698141 -0.22150862358223991 0 -0.15496537504316019 -0.19429807729602311 0 -0.16410544360365359 -0.21493654602220469 0 -0.14435850230698141 -0.22150862358223991 0 -0.1373527607074172 -0.20563907323320921 0 -0.13086176299679239 -0.21746526838305219 0 -0.1210853022939376 -0.205467400633562 0 -0.1373527607074172 -0.20563907323320921 0 -0.13086176299679239 -0.21746526838305219 0 -0.1210853022939376 -0.205467400633562 0 -0.1373527607074172 -0.20563907323320921 0 -0.13505851963374399 -0.18906788910329131 0 -0.1373527607074172 -0.20563907323320921 0 -0.13505851963374399 -0.18906788910329131 0 -0.15496537504316019 -0.19429807729602311 0 -0.1689483943248192 -0.19264195369377959 0 -0.17994482166635981 -0.2014366202218163 0 -0.16410544360365359 -0.21493654602220469 0 -0.15496537504316019 -0.19429807729602311 0 -0.1689483943248192 -0.19264195369377959 0 -0.16410544360365359 -0.21493654602220469 0 -0.17557921295501691 -0.18022020591375351 0 -0.1689483943248192 -0.19264195369377959 0 -0.17994482166635981 -0.2014366202218163 0 -0.17557921295501691 -0.18022020591375351 0 -0.17994482166635981 -0.2014366202218163 0 -0.1907059301477185 -0.18468107337543721 0 -0.17994482166635981 -0.2014366202218163 0 -0.1784102433228649 -0.21681777692650089 0 -0.16410544360365359 -0.21493654602220469 0 -0.17994482166635981 -0.2014366202218163 0 -0.18904495760185211 -0.20873870471059999 0 -0.19252771524915421 -0.19930647688205899 0 -0.17994482166635981 -0.2014366202218163 0 -0.1784102433228649 -0.21681777692650089 0 -0.18904495760185211 -0.20873870471059999 0 -0.1784102433228649 -0.21681777692650089 0 -0.19175951728552271 -0.21959172261586679 0 -0.18904495760185211 -0.20873870471059999 0 -0.15430752157141919 -0.22794821467022949 0 -0.16410544360365359 -0.21493654602220469 0 -0.16877954452522659 -0.2255120540677526 0 -0.15430752157141919 -0.22794821467022949 0 -0.16877954452522659 -0.2255120540677526 0 -0.16324537569009509 -0.2357306359809743 0 -0.15348527020851541 -0.23913552791147211 0 -0.15430752157141919 -0.22794821467022949 0 -0.16324537569009509 -0.2357306359809743 0 -0.16877954452522659 -0.2255120540677526 0 -0.17781387366555559 -0.23090770197000129 0 -0.16324537569009509 -0.2357306359809743 0 -0.1784102433228649 -0.21681777692650089 0 -0.16410544360365359 -0.21493654602220469 0 -0.16877954452522659 -0.2255120540677526 0 -0.1784102433228649 -0.21681777692650089 0 -0.16877954452522659 -0.2255120540677526 0 -0.17781387366555559 -0.23090770197000129 0 -0.1784102433228649 -0.21681777692650089 0 -0.17781387366555559 -0.23090770197000129 0 -0.19175951728552271 -0.21959172261586679 0 -0.17781387366555559 -0.23090770197000129 0 -0.1805311654956796 -0.2411950136452527 0 -0.19410287643929239 -0.23312434657521411 0 -0.17781387366555559 -0.23090770197000129 0 -0.1805311654956796 -0.2411950136452527 0 -0.16955513552828311 -0.24305067226283769 0 -0.17679077873490559 -0.25046109420941731 0 -0.1805311654956796 -0.2411950136452527 0 -0.18863044441395099 -0.24733650333174401 0 -0.17679077873490559 -0.25046109420941731 0 -0.1805311654956796 -0.2411950136452527 0 -0.16955513552828311 -0.24305067226283769 0 -0.16709258238786229 -0.25188408856254202 0 -0.17679077873490559 -0.25046109420941731 0 -0.16955513552828311 -0.24305067226283769 0 -0.16709258238786229 -0.25188408856254202 0 -0.16955513552828311 -0.24305067226283769 0 -0.1601832428566283 -0.24550858739866141 0 -0.17781387366555559 -0.23090770197000129 0 -0.16955513552828311 -0.24305067226283769 0 -0.16324537569009509 -0.2357306359809743 0 -0.16955513552828311 -0.24305067226283769 0 -0.16324537569009509 -0.2357306359809743 0 -0.1601832428566283 -0.24550858739866141 0 -0.15348527020851541 -0.23913552791147211 0 -0.16324537569009509 -0.2357306359809743 0 -0.1601832428566283 -0.24550858739866141 0 -0.1593809120407062 -0.25278805690175971 0 -0.15289321433053751 -0.246830478479277 0 -0.1601832428566283 -0.24550858739866141 0 -0.20565562739327201 -0.24334207984173631 0 -0.19410287643929239 -0.23312434657521411 0 -0.21201774175915139 -0.2290986139018284 0 -0.21472073189145299 -0.25725591714607071 0 -0.20565562739327201 -0.24334207984173631 0 -0.22837296648480071 -0.23789375384220129 0 -0.20565562739327201 -0.24334207984173631 0 -0.21201774175915139 -0.2290986139018284 0 -0.22837296648480071 -0.23789375384220129 0 -0.20565562739327201 -0.24334207984173631 0 -0.18863044441395099 -0.24733650333174401 0 -0.19410287643929239 -0.23312434657521411 0 -0.1805311654956796 -0.2411950136452527 0 -0.18863044441395099 -0.24733650333174401 0 -0.19410287643929239 -0.23312434657521411 0 -0.17781387366555559 -0.23090770197000129 0 -0.19410287643929239 -0.23312434657521411 0 -0.19175951728552271 -0.21959172261586679 0 -0.19410287643929239 -0.23312434657521411 0 -0.19175951728552271 -0.21959172261586679 0 -0.20443040571370949 -0.21985141578154491 0 -0.21201774175915139 -0.2290986139018284 0 -0.20443040571370949 -0.21985141578154491 0 -0.22630383013383959 -0.21240708539258099 0 -0.19410287643929239 -0.23312434657521411 0 -0.21201774175915139 -0.2290986139018284 0 -0.20443040571370949 -0.21985141578154491 0 -0.20157622681128409 -0.2075672839719423 0 -0.21557055542943429 -0.1904257004922347 0 -0.22630383013383959 -0.21240708539258099 0 -0.20157622681128409 -0.2075672839719423 0 -0.22630383013383959 -0.21240708539258099 0 -0.20443040571370949 -0.21985141578154491 0 -0.20157622681128409 -0.2075672839719423 0 -0.22630383013383959 -0.21240708539258099 0 -0.19175951728552271 -0.21959172261586679 0 -0.20443040571370949 -0.21985141578154491 0 -0.20157622681128409 -0.2075672839719423 0 -0.19175951728552271 -0.21959172261586679 0 -0.20157622681128409 -0.2075672839719423 0 -0.19175951728552271 -0.21959172261586679 0 -0.18904495760185211 -0.20873870471059999 0 -0.20157622681128409 -0.2075672839719423 0 -0.18904495760185211 -0.20873870471059999 0 -0.20157622681128409 -0.2075672839719423 0 -0.19252771524915421 -0.19930647688205899 0 -0.17994482166635981 -0.2014366202218163 0 -0.19252771524915421 -0.19930647688205899 0 -0.1907059301477185 -0.18468107337543721 0 -0.20157622681128409 -0.2075672839719423 0 -0.19252771524915421 -0.19930647688205899 0 -0.20187756758401409 -0.19506767240709361 0 -0.19252771524915421 -0.19930647688205899 0 -0.20187756758401409 -0.19506767240709361 0 -0.1907059301477185 -0.18468107337543721 0 -0.20157622681128409 -0.2075672839719423 0 -0.21557055542943429 -0.1904257004922347 0 -0.20187756758401409 -0.19506767240709361 0 -0.21557055542943429 -0.1904257004922347 0 -0.2038146335316797 -0.1820121315948606 0 -0.20157622681128409 -0.2075672839719423 0 -0.20187756758401409 -0.19506767240709361 0 -0.21557055542943429 -0.1904257004922347 0 -0.21557055542943429 -0.1904257004922347 0 -0.23533053747689989 -0.1962925907305976 0 -0.22630383013383959 -0.21240708539258099 0 -0.23533053747689989 -0.1962925907305976 0 -0.25103143345639523 -0.21724688681321891 0 -0.25418198431724581 -0.18809916394242601 0 -0.22630383013383959 -0.21240708539258099 0 -0.25103143345639523 -0.21724688681321891 0 -0.23533053747689989 -0.1962925907305976 0 -0.22630383013383959 -0.21240708539258099 0 -0.25103143345639523 -0.21724688681321891 0 -0.21201774175915139 -0.2290986139018284 0 -0.22630383013383959 -0.21240708539258099 0 -0.22837296648480071 -0.23789375384220129 0 -0.22630383013383959 -0.21240708539258099 0 -0.22837296648480071 -0.23789375384220129 0 -0.25103143345639523 -0.21724688681321891 0 -0.22837296648480071 -0.23789375384220129 0 -0.25431856302814809 -0.24833495949118861 0 -0.25103143345639523 -0.21724688681321891 0 -0.2335542019388327 -0.26090262277066528 0 -0.22837296648480071 -0.23789375384220129 0 -0.25431856302814809 -0.24833495949118861 0 -0.20708483324238849 -0.15128624944667929 0 -0.22647357207813959 -0.15205360930679629 0 -0.2195633859389316 -0.1340578990397249 0 -0.20708483324238849 -0.15128624944667929 0 -0.19823449762692411 -0.13229999761030051 0 -0.2195633859389316 -0.1340578990397249 0 -0.19823449762692411 -0.13229999761030051 0 -0.2195633859389316 -0.1340578990397249 0 -0.21022893699736381 -0.1097241998529486 0 -0.17775058767377289 -0.13584559103097291 0 -0.19823449762692411 -0.13229999761030051 0 -0.1894311146879058 -0.1465309504005988 0 -0.20708483324238849 -0.15128624944667929 0 -0.1894311146879058 -0.1465309504005988 0 -0.19351686899232889 -0.15854259719770419 0 -0.20708483324238849 -0.15128624944667929 0 -0.19823449762692411 -0.13229999761030051 0 -0.1894311146879058 -0.1465309504005988 0 -0.20708483324238849 -0.15128624944667929 0 -0.19351686899232889 -0.15854259719770419 0 -0.19880271024428661 -0.17007658736909009 0 -0.18239484980351819 -0.16464781923938721 0 -0.1894311146879058 -0.1465309504005988 0 -0.19351686899232889 -0.15854259719770419 0 -0.18239484980351819 -0.16464781923938721 0 -0.19351686899232889 -0.15854259719770419 0 -0.19880271024428661 -0.17007658736909009 0 -0.18239484980351819 -0.16464781923938721 0 -0.19880271024428661 -0.17007658736909009 0 -0.1907059301477185 -0.18468107337543721 0 -0.19880271024428661 -0.17007658736909009 0 -0.1907059301477185 -0.18468107337543721 0 -0.2038146335316797 -0.1820121315948606 0 -0.20187756758401409 -0.19506767240709361 0 -0.1907059301477185 -0.18468107337543721 0 -0.2038146335316797 -0.1820121315948606 0 -0.21557055542943429 -0.1904257004922347 0 -0.2038146335316797 -0.1820121315948606 0 -0.21355186476225221 -0.16985639920369799 0 -0.19880271024428661 -0.17007658736909009 0 -0.2038146335316797 -0.1820121315948606 0 -0.21355186476225221 -0.16985639920369799 0 -0.20708483324238849 -0.15128624944667929 0 -0.21355186476225221 -0.16985639920369799 0 -0.22647357207813959 -0.15205360930679629 0 -0.20708483324238849 -0.15128624944667929 0 -0.19880271024428661 -0.17007658736909009 0 -0.21355186476225221 -0.16985639920369799 0 -0.22956488404758479 -0.1732841170125273 0 -0.2435592126657353 -0.1561425335328199 0 -0.22647357207813959 -0.15205360930679629 0 -0.21355186476225221 -0.16985639920369799 0 -0.22956488404758479 -0.1732841170125273 0 -0.22647357207813959 -0.15205360930679629 0 -0.21557055542943429 -0.1904257004922347 0 -0.21355186476225221 -0.16985639920369799 0 -0.22956488404758479 -0.1732841170125273 0 -0.21557055542943429 -0.1904257004922347 0 -0.22956488404758479 -0.1732841170125273 0 -0.21557055542943429 -0.1904257004922347 0 -0.23533053747689989 -0.1962925907305976 0 -0.22956488404758479 -0.1732841170125273 0 -0.23533053747689989 -0.1962925907305976 0 -0.22956488404758479 -0.1732841170125273 0 -0.25418198431724581 -0.18809916394242601 0 -0.22956488404758479 -0.1732841170125273 0 -0.25418198431724581 -0.18809916394242601 0 -0.2565438833259911 -0.1687602707777138 0 -0.22956488404758479 -0.1732841170125273 0 -0.2435592126657353 -0.1561425335328199 0 -0.22956488404758479 -0.1732841170125273 0 -0.2435592126657353 -0.1561425335328199 0 -0.2565438833259911 -0.1687602707777138 0 -0.2435592126657353 -0.1561425335328199 0 -0.22647357207813959 -0.15205360930679629 0 -0.2432602079730701 -0.13485583854350039 0 -0.22647357207813959 -0.15205360930679629 0 -0.2195633859389316 -0.1340578990397249 0 -0.2432602079730701 -0.13485583854350039 0 -0.2195633859389316 -0.1340578990397249 0 -0.2432602079730701 -0.13485583854350039 0 -0.23065476516460279 -0.11957242830579699 0 -0.2432602079730701 -0.13485583854350039 0 -0.2499653418643101 -0.1102460646797562 0 -0.23065476516460279 -0.11957242830579699 0 -0.2499653418643101 -0.1102460646797562 0 -0.2308399038819596 -0.1034577205422559 0 -0.23065476516460279 -0.11957242830579699 0 -0.2308399038819596 -0.1034577205422559 0 -0.25308440776240432 -0.086371671251396109 0 -0.2499653418643101 -0.1102460646797562 0 -0.2308399038819596 -0.1034577205422559 0 -0.25308440776240432 -0.086371671251396109 0 -0.2308399038819596 -0.1034577205422559 0 -0.21022893699736381 -0.1097241998529486 0 -0.21520721362926831 -0.098298511723915558 0 -0.2308399038819596 -0.1034577205422559 0 -0.22013457808717909 -0.089221868029860679 0 -0.21520721362926831 -0.098298511723915558 0 -0.2308399038819596 -0.1034577205422559 0 -0.23065476516460279 -0.11957242830579699 0 -0.21022893699736381 -0.1097241998529486 0 -0.2195633859389316 -0.1340578990397249 0 -0.23065476516460279 -0.11957242830579699 0 -0.21022893699736381 -0.1097241998529486 0 -0.2335598957907816 -0.079883889973887123 0 -0.24475965461883589 -0.059498385283178377 0 -0.2582325144520296 -0.070050845257802419 0 -0.2335598957907816 -0.079883889973887123 0 -0.2582325144520296 -0.070050845257802419 0 -0.25308440776240432 -0.086371671251396109 0 -0.2308399038819596 -0.1034577205422559 0 -0.2335598957907816 -0.079883889973887123 0 -0.25308440776240432 -0.086371671251396109 0 -0.2308399038819596 -0.1034577205422559 0 -0.22013457808717909 -0.089221868029860679 0 -0.2335598957907816 -0.079883889973887123 0 -0.22013457808717909 -0.089221868029860679 0 -0.2335598957907816 -0.079883889973887123 0 -0.21963876375789801 -0.077814354495200549 0 -0.2335598957907816 -0.079883889973887123 0 -0.21595644614104051 -0.065738508165203102 0 -0.24475965461883589 -0.059498385283178377 0 -0.21595644614104051 -0.065738508165203102 0 -0.24475965461883589 -0.059498385283178377 0 -0.2335598957907816 -0.079883889973887123 0 -0.21963876375789801 -0.077814354495200549 0 -0.21595644614104051 -0.065738508165203102 0 -0.20438945881064449 -0.068244458930106389 0 -0.21100771399754009 -0.086966924160961745 0 -0.21595644614104051 -0.065738508165203102 0 -0.21100771399754009 -0.086966924160961745 0 -0.20438945881064449 -0.068244458930106389 0 -0.21595644614104051 -0.065738508165203102 0 -0.21100771399754009 -0.086966924160961745 0 -0.21963876375789801 -0.077814354495200549 0 -0.21595644614104051 -0.065738508165203102 0 -0.21100771399754009 -0.086966924160961745 0 -0.20438945881064449 -0.068244458930106389 0 -0.21595644614104051 -0.065738508165203102 0 -0.20438945881064449 -0.068244458930106389 0 -0.21595644614104051 -0.065738508165203102 0 -0.20711132549122371 -0.057203435059411119 0 -0.20438945881064449 -0.068244458930106389 0 -0.21100771399754009 -0.086966924160961745 0 -0.19851231957361129 -0.085310821531315487 0 -0.22013457808717909 -0.089221868029860679 0 -0.21963876375789801 -0.077814354495200549 0 -0.21100771399754009 -0.086966924160961745 0 -0.22013457808717909 -0.089221868029860679 0 -0.21100771399754009 -0.086966924160961745 0 -0.21520721362926831 -0.098298511723915558 0 -0.21100771399754009 -0.086966924160961745 0 -0.19851231957361129 -0.085310821531315487 0 -0.20550431009004061 -0.095676697317907802 0 -0.21100771399754009 -0.086966924160961745 0 -0.21520721362926831 -0.098298511723915558 0 -0.20550431009004061 -0.095676697317907802 0 -0.19851231957361129 -0.085310821531315487 0 -0.18118326058104209 -0.08825419183970401 0 -0.18409944718507371 -0.07264022497537044 0 -0.19851231957361129 -0.085310821531315487 0 -0.19294566676858971 -0.096864600750783431 0 -0.18118326058104209 -0.08825419183970401 0 -0.19851231957361129 -0.085310821531315487 0 -0.20550431009004061 -0.095676697317907802 0 -0.19294566676858971 -0.096864600750783431 0 -0.20438945881064449 -0.068244458930106389 0 -0.19851231957361129 -0.085310821531315487 0 -0.18409944718507371 -0.07264022497537044 0 -0.20438945881064449 -0.068244458930106389 0 -0.18409944718507371 -0.07264022497537044 0 -0.18769526278089041 -0.057829612445021099 0 -0.20438945881064449 -0.068244458930106389 0 -0.18409944718507371 -0.07264022497537044 0 -0.21022893699736381 -0.1097241998529486 0 -0.21520721362926831 -0.098298511723915558 0 -0.20550431009004061 -0.095676697317907802 0 -0.21022893699736381 -0.1097241998529486 0 -0.20550431009004061 -0.095676697317907802 0 -0.19294566676858971 -0.096864600750783431 0 -0.19294566676858971 -0.096864600750783431 0 -0.18534812722118199 -0.1163550958908785 0 -0.21022893699736381 -0.1097241998529486 0 -0.19294566676858971 -0.096864600750783431 0 -0.18534812722118199 -0.1163550958908785 0 -0.19823449762692411 -0.13229999761030051 0 -0.21022893699736381 -0.1097241998529486 0 -0.18534812722118199 -0.1163550958908785 0 -0.18534812722118199 -0.1163550958908785 0 -0.17423934197139679 -0.1017815859784342 0 -0.15606779039194271 -0.1160101434681408 0 -0.17775058767377289 -0.13584559103097291 0 -0.18534812722118199 -0.1163550958908785 0 -0.15606779039194271 -0.1160101434681408 0 -0.16057304666404501 -0.10079887419961479 0 -0.17423934197139679 -0.1017815859784342 0 -0.15606779039194271 -0.1160101434681408 0 -0.16057304666404501 -0.10079887419961479 0 -0.16746185343044401 -0.091445336260546128 0 -0.1570966781871318 -0.090327755750333361 0 -0.16057304666404501 -0.10079887419961479 0 -0.17423934197139679 -0.1017815859784342 0 -0.16746185343044401 -0.091445336260546128 0 -0.17423934197139679 -0.1017815859784342 0 -0.18118326058104209 -0.08825419183970401 0 -0.16746185343044401 -0.091445336260546128 0 -0.19294566676858971 -0.096864600750783431 0 -0.18534812722118199 -0.1163550958908785 0 -0.17423934197139679 -0.1017815859784342 0 -0.19294566676858971 -0.096864600750783431 0 -0.17423934197139679 -0.1017815859784342 0 -0.18118326058104209 -0.08825419183970401 0 -0.18118326058104209 -0.08825419183970401 0 -0.18409944718507371 -0.07264022497537044 0 -0.16915717098214109 -0.081397787743409861 0 -0.18118326058104209 -0.08825419183970401 0 -0.16746185343044401 -0.091445336260546128 0 -0.16915717098214109 -0.081397787743409861 0 -0.18409944718507371 -0.07264022497537044 0 -0.1702117591297739 -0.06777753321031553 0 -0.16380943555950259 -0.077035991020633382 0 -0.18409944718507371 -0.07264022497537044 0 -0.16380943555950259 -0.077035991020633382 0 -0.16915717098214109 -0.081397787743409861 0 -0.18409944718507371 -0.07264022497537044 0 -0.17187825396406881 -0.057945450019426657 0 -0.18769526278089041 -0.057829612445021099 0 -0.18409944718507371 -0.07264022497537044 0 -0.16380943555950259 -0.077035991020633382 0 -0.18409944718507371 -0.07264022497537044 0 -0.1702117591297739 -0.06777753321031553 0 -0.17187825396406881 -0.057945450019426657 0 -0.16380943555950259 -0.077035991020633382 0 -0.16105989981045041 -0.063488466825831633 0 -0.14595160177326619 -0.062470528310013429 0 -0.1702117591297739 -0.06777753321031553 0 -0.16105989981045041 -0.063488466825831633 0 -0.17187825396406881 -0.057945450019426657 0 -0.1702117591297739 -0.06777753321031553 0 -0.16380943555950259 -0.077035991020633382 0 -0.16105989981045041 -0.063488466825831633 0 -0.16380943555950259 -0.077035991020633382 0 -0.16109871639751261 -0.084134952385501949 0 -0.14796844382834351 -0.080467891152587012 0 -0.16746185343044401 -0.091445336260546128 0 -0.16915717098214109 -0.081397787743409861 0 -0.16109871639751261 -0.084134952385501949 0 -0.16380943555950259 -0.077035991020633382 0 -0.16915717098214109 -0.081397787743409861 0 -0.16109871639751261 -0.084134952385501949 0 -0.16380943555950259 -0.077035991020633382 0 -0.16915717098214109 -0.081397787743409861 0 -0.16746185343044401 -0.091445336260546128 0 -0.16109871639751261 -0.084134952385501949 0 -0.1570966781871318 -0.090327755750333361 0 -0.16380943555950259 -0.077035991020633382 0 -0.14796844382834351 -0.080467891152587012 0 -0.14796844382834351 -0.080467891152587012 0 -0.13497135686491851 -0.078315161523928284 0 -0.1484932433812913 -0.094043062253026791 0 -0.1570966781871318 -0.090327755750333361 0 -0.14796844382834351 -0.080467891152587012 0 -0.1484932433812913 -0.094043062253026791 0 -0.16109871639751261 -0.084134952385501949 0 -0.1570966781871318 -0.090327755750333361 0 -0.14796844382834351 -0.080467891152587012 0 -0.16380943555950259 -0.077035991020633382 0 -0.14796844382834351 -0.080467891152587012 0 -0.14595160177326619 -0.062470528310013429 0 -0.16380943555950259 -0.077035991020633382 0 -0.14595160177326619 -0.062470528310013429 0 -0.14796844382834351 -0.080467891152587012 0 -0.13497135686491851 -0.078315161523928284 0 -0.14595160177326619 -0.062470528310013429 0 -0.1158705629695205 -0.060236298698018297 0 -0.13497135686491851 -0.078315161523928284 0 -0.1158705629695205 -0.060236298698018297 0 -0.13497135686491851 -0.078315161523928284 0 -0.13122182239868371 -0.062231763532838429 0 -0.13497135686491851 -0.078315161523928284 0 -0.13122182239868371 -0.062231763532838429 0 -0.14595160177326619 -0.062470528310013429 0 -0.112702195828283 -0.076339248342475546 0 -0.13497135686491851 -0.078315161523928284 0 -0.13438499311011279 -0.096174695905308166 0 -0.13497135686491851 -0.078315161523928284 0 -0.13438499311011279 -0.096174695905308166 0 -0.1484932433812913 -0.094043062253026791 0 -0.11276894493928399 -0.097790936300085646 0 -0.13438499311011279 -0.096174695905308166 0 -0.1306137014228527 -0.1212095633787966 0 -0.13438499311011279 -0.096174695905308166 0 -0.1306137014228527 -0.1212095633787966 0 -0.15606779039194271 -0.1160101434681408 0 -0.15406265534163929 -0.1294064941378926 0 -0.1306137014228527 -0.1212095633787966 0 -0.15606779039194271 -0.1160101434681408 0 -0.13438499311011279 -0.096174695905308166 0 -0.15606779039194271 -0.1160101434681408 0 -0.1484932433812913 -0.094043062253026791 0 -0.16057304666404501 -0.10079887419961479 0 -0.15606779039194271 -0.1160101434681408 0 -0.1484932433812913 -0.094043062253026791 0 -0.13438499311011279 -0.096174695905308166 0 -0.15606779039194271 -0.1160101434681408 0 -0.16057304666404501 -0.10079887419961479 0 -0.1570966781871318 -0.090327755750333361 0 -0.1484932433812913 -0.094043062253026791 0 -0.14513665439653431 -0.02122229521611602 0 -0.15148395360685291 -0.031475856168514699 0 -0.16129500549156001 -0.024264335985147129 0 -0.14513665439653431 -0.02122229521611602 0 -0.1346415055917565 -0.031432898451717602 0 -0.15148395360685291 -0.031475856168514699 0 -0.14513665439653431 -0.02122229521611602 0 -0.15327979458335059 -0.01391829646419882 0 -0.16129500549156001 -0.024264335985147129 0 -0.1412848112475209 -0.008091449167619497 0 -0.15773416148281841 -0.0035868741371463562 0 -0.14801408494475049 0.0031182785745780331 0 -0.15327979458335059 -0.01391829646419882 0 -0.1412848112475209 -0.008091449167619497 0 -0.15773416148281841 -0.0035868741371463562 0 -0.14513665439653431 -0.02122229521611602 0 -0.15327979458335059 -0.01391829646419882 0 -0.1412848112475209 -0.008091449167619497 0 -0.1236693299605585 -0.0137973575501921 0 -0.1412848112475209 -0.008091449167619497 0 -0.12735709500343681 0.004015926865657337 0 -0.1412848112475209 -0.008091449167619497 0 -0.12735709500343681 0.004015926865657337 0 -0.14801408494475049 0.0031182785745780331 0 -0.1236693299605585 -0.0137973575501921 0 -0.1412848112475209 -0.008091449167619497 0 -0.13426109495296229 -0.02049569832685658 0 -0.1236693299605585 -0.0137973575501921 0 -0.1221370268088495 -0.025998648103035 0 -0.13426109495296229 -0.02049569832685658 0 -0.14513665439653431 -0.02122229521611602 0 -0.1412848112475209 -0.008091449167619497 0 -0.13426109495296229 -0.02049569832685658 0 -0.14513665439653431 -0.02122229521611602 0 -0.13426109495296229 -0.02049569832685658 0 -0.1346415055917565 -0.031432898451717602 0 -0.1221370268088495 -0.025998648103035 0 -0.12530131535501859 -0.034952786400489197 0 -0.1346415055917565 -0.031432898451717602 0 -0.1221370268088495 -0.025998648103035 0 -0.13426109495296229 -0.02049569832685658 0 -0.1346415055917565 -0.031432898451717602 0 -0.12530131535501859 -0.034952786400489197 0 -0.1346415055917565 -0.031432898451717602 0 -0.12809376798702951 -0.047905065599393698 0 -0.1346415055917565 -0.031432898451717602 0 -0.12809376798702951 -0.047905065599393698 0 -0.14629371500633531 -0.042796653234188263 0 -0.12809376798702951 -0.047905065599393698 0 -0.14595160177326619 -0.062470528310013429 0 -0.12809376798702951 -0.047905065599393698 0 -0.14595160177326619 -0.062470528310013429 0 -0.14629371500633531 -0.042796653234188263 0 -0.13122182239868371 -0.062231763532838429 0 -0.12809376798702951 -0.047905065599393698 0 -0.14595160177326619 -0.062470528310013429 0 -0.1158705629695205 -0.060236298698018297 0 -0.13122182239868371 -0.062231763532838429 0 -0.12809376798702951 -0.047905065599393698 0 -0.14595160177326619 -0.062470528310013429 0 -0.14629371500633531 -0.042796653234188263 0 -0.15696853651444401 -0.052603520026387289 0 -0.16105989981045041 -0.063488466825831633 0 -0.14595160177326619 -0.062470528310013429 0 -0.15696853651444401 -0.052603520026387289 0 -0.15148395360685291 -0.031475856168514699 0 -0.14629371500633531 -0.042796653234188263 0 -0.16402488563849801 -0.041062174760887443 0 -0.1346415055917565 -0.031432898451717602 0 -0.15148395360685291 -0.031475856168514699 0 -0.14629371500633531 -0.042796653234188263 0 -0.14629371500633531 -0.042796653234188263 0 -0.16402488563849801 -0.041062174760887443 0 -0.15696853651444401 -0.052603520026387289 0 -0.15148395360685291 -0.031475856168514699 0 -0.16402488563849801 -0.041062174760887443 0 -0.16129500549156001 -0.024264335985147129 0 -0.16402488563849801 -0.041062174760887443 0 -0.17409393016306191 -0.030370879776367592 0 -0.16129500549156001 -0.024264335985147129 0 -0.16402488563849801 -0.041062174760887443 0 -0.15696853651444401 -0.052603520026387289 0 -0.17187825396406881 -0.057945450019426657 0 -0.16105989981045041 -0.063488466825831633 0 -0.15696853651444401 -0.052603520026387289 0 -0.17187825396406881 -0.057945450019426657 0 -0.16402488563849801 -0.041062174760887443 0 -0.17187825396406881 -0.057945450019426657 0 -0.18133558272394029 -0.043618149437272283 0 -0.17187825396406881 -0.057945450019426657 0 -0.18133558272394029 -0.043618149437272283 0 -0.18769526278089041 -0.057829612445021099 0 -0.18133558272394029 -0.043618149437272283 0 -0.17409393016306191 -0.030370879776367592 0 -0.18915768363079971 -0.025155098795753519 0 -0.16402488563849801 -0.041062174760887443 0 -0.18133558272394029 -0.043618149437272283 0 -0.17409393016306191 -0.030370879776367592 0 -0.17409393016306191 -0.030370879776367592 0 -0.17549551533112251 -0.014893414490097231 0 -0.18915768363079971 -0.025155098795753519 0 -0.16129500549156001 -0.024264335985147129 0 -0.16350931143073591 -0.01273440345064396 0 -0.17549551533112251 -0.014893414490097231 0 -0.17409393016306191 -0.030370879776367592 0 -0.16129500549156001 -0.024264335985147129 0 -0.17549551533112251 -0.014893414490097231 0 -0.15327979458335059 -0.01391829646419882 0 -0.16129500549156001 -0.024264335985147129 0 -0.16350931143073591 -0.01273440345064396 0 -0.15773416148281841 -0.0035868741371463562 0 -0.16716832075785379 -0.0032078365625175 0 -0.1619193683370386 0.0066468078375689294 0 -0.15773416148281841 -0.0035868741371463562 0 -0.16350931143073591 -0.01273440345064396 0 -0.16716832075785379 -0.0032078365625175 0 -0.15327979458335059 -0.01391829646419882 0 -0.15773416148281841 -0.0035868741371463562 0 -0.16350931143073591 -0.01273440345064396 0 -0.16350931143073591 -0.01273440345064396 0 -0.16716832075785379 -0.0032078365625175 0 -0.17549551533112251 -0.014893414490097231 0 -0.17549551533112251 -0.014893414490097231 0 -0.18154179604087481 -0.0036104187285780349 0 -0.18915768363079971 -0.025155098795753519 0 -0.18154179604087481 -0.0036104187285780349 0 -0.18915768363079971 -0.025155098795753519 0 -0.17549551533112251 -0.014893414490097231 0 -0.17584419881677341 0.0071523107965592754 0 -0.17549551533112251 -0.014893414490097231 0 -0.18154179604087481 -0.0036104187285780349 0 -0.17584419881677341 0.0071523107965592754 0 -0.16716832075785379 -0.0032078365625175 0 -0.17549551533112251 -0.014893414490097231 0 -0.17584419881677341 0.0071523107965592754 0 -0.18154179604087481 -0.0036104187285780349 0 -0.19066530249761049 -0.0041303576494283751 0 -0.18915768363079971 -0.025155098795753519 0 -0.18154179604087481 -0.0036104187285780349 0 -0.19066530249761049 -0.0041303576494283751 0 -0.18717715497560061 0.0062623078557712403 0 -0.19066530249761049 -0.0041303576494283751 0 -0.1989264366345522 -0.0080023544535597537 0 -0.18915768363079971 -0.025155098795753519 0 -0.19066530249761049 -0.0041303576494283751 0 -0.1989264366345522 -0.0080023544535597537 0 -0.1965234412062255 0.0098537758749781944 0 -0.1989264366345522 -0.0080023544535597537 0 -0.2007918169376324 -0.0191738513677071 0 -0.20680177871376751 -0.0119671669755851 0 -0.18915768363079971 -0.025155098795753519 0 -0.2007918169376324 -0.0191738513677071 0 -0.21013076049929519 -0.028334228638799381 0 -0.1989264366345522 -0.0080023544535597537 0 -0.18915768363079971 -0.025155098795753519 0 -0.2007918169376324 -0.0191738513677071 0 -0.2007918169376324 -0.0191738513677071 0 -0.21013076049929519 -0.028334228638799381 0 -0.20680177871376751 -0.0119671669755851 0 -0.21013076049929519 -0.028334228638799381 0 -0.21702438745170211 -0.0043907958627755336 0 -0.21921501925093501 -0.017985606360015789 0 -0.21013076049929519 -0.028334228638799381 0 -0.21702438745170211 -0.0043907958627755336 0 -0.21013076049929519 -0.028334228638799381 0 -0.22271521407306469 -0.037269361340154371 0 -0.21921501925093501 -0.017985606360015789 0 -0.21013076049929519 -0.028334228638799381 0 -0.21702438745170211 -0.0043907958627755336 0 -0.20680177871376751 -0.0119671669755851 0 -0.1989264366345522 -0.0080023544535597537 0 -0.20680177871376751 -0.0119671669755851 0 -0.20713549204565579 6.5395444916274768e-05 0 -0.21702438745170211 -0.0043907958627755336 0 -0.20680177871376751 -0.0119671669755851 0 -0.20713549204565579 6.5395444916274768e-05 0 -0.20438945881064449 -0.068244458930106389 0 -0.1967735712207245 -0.046699778862929052 0 -0.20438945881064449 -0.068244458930106389 0 -0.18769526278089041 -0.057829612445021099 0 -0.1967735712207245 -0.046699778862929052 0 -0.20438945881064449 -0.068244458930106389 0 -0.1967735712207245 -0.046699778862929052 0 -0.20711132549122371 -0.057203435059411119 0 -0.18133558272394029 -0.043618149437272283 0 -0.18769526278089041 -0.057829612445021099 0 -0.1967735712207245 -0.046699778862929052 0 -0.18133558272394029 -0.043618149437272283 0 -0.18915768363079971 -0.025155098795753519 0 -0.1967735712207245 -0.046699778862929052 0 -0.18915768363079971 -0.025155098795753519 0 -0.1967735712207245 -0.046699778862929052 0 -0.18915768363079971 -0.025155098795753519 0 -0.21013076049929519 -0.028334228638799381 0 -0.1967735712207245 -0.046699778862929052 0 -0.21013076049929519 -0.028334228638799381 0 -0.21132582579248671 -0.048130994279405613 0 -0.22271521407306469 -0.037269361340154371 0 -0.21013076049929519 -0.028334228638799381 0 -0.1967735712207245 -0.046699778862929052 0 -0.21132582579248671 -0.048130994279405613 0 -0.21595644614104051 -0.065738508165203102 0 -0.21132582579248671 -0.048130994279405613 0 -0.22271521407306469 -0.037269361340154371 0 -0.21595644614104051 -0.065738508165203102 0 -0.21132582579248671 -0.048130994279405613 0 -0.20711132549122371 -0.057203435059411119 0 -0.1967735712207245 -0.046699778862929052 0 -0.21132582579248671 -0.048130994279405613 0 -0.20711132549122371 -0.057203435059411119 0 -0.21595644614104051 -0.065738508165203102 0 -0.2284172135094342 -0.053659916570315727 0 -0.24475965461883589 -0.059498385283178377 0 -0.21595644614104051 -0.065738508165203102 0 -0.2284172135094342 -0.053659916570315727 0 -0.22271521407306469 -0.037269361340154371 0 -0.21595644614104051 -0.065738508165203102 0 -0.22271521407306469 -0.037269361340154371 0 -0.2284172135094342 -0.053659916570315727 0 -0.22271521407306469 -0.037269361340154371 0 -0.23903543051913109 -0.043198085603962481 0 -0.22271521407306469 -0.037269361340154371 0 -0.23903543051913109 -0.043198085603962481 0 -0.24161885061771041 -0.026720350447010301 0 -0.23903543051913109 -0.043198085603962481 0 -0.24161885061771041 -0.026720350447010301 0 -0.25766621977661042 -0.038842414379153638 0 -0.23903543051913109 -0.043198085603962481 0 -0.24475965461883589 -0.059498385283178377 0 -0.25766621977661042 -0.038842414379153638 0 -0.2284172135094342 -0.053659916570315727 0 -0.23903543051913109 -0.043198085603962481 0 -0.24475965461883589 -0.059498385283178377 0 -0.22947398200509031 -0.0088002145151058891 0 -0.22867745033346079 0.0038692188645070222 0 -0.2401015516947359 0.00075261550232862703 0 -0.21702438745170211 -0.0043907958627755336 0 -0.22947398200509031 -0.0088002145151058891 0 -0.22867745033346079 0.0038692188645070222 0 -0.21702438745170211 -0.0043907958627755336 0 -0.22947398200509031 -0.0088002145151058891 0 -0.21921501925093501 -0.017985606360015789 0 -0.22271521407306469 -0.037269361340154371 0 -0.22947398200509031 -0.0088002145151058891 0 -0.21921501925093501 -0.017985606360015789 0 -0.22271521407306469 -0.037269361340154371 0 -0.22947398200509031 -0.0088002145151058891 0 -0.22271521407306469 -0.037269361340154371 0 -0.22947398200509031 -0.0088002145151058891 0 -0.24161885061771041 -0.026720350447010301 0 -0.22947398200509031 -0.0088002145151058891 0 -0.24161885061771041 -0.026720350447010301 0 -0.2437457614006571 -0.011962382738850049 0 -0.24161885061771041 -0.026720350447010301 0 -0.2437457614006571 -0.011962382738850049 0 -0.2598032925822476 -0.0188915667982569 0 -0.22947398200509031 -0.0088002145151058891 0 -0.2437457614006571 -0.011962382738850049 0 -0.2401015516947359 0.00075261550232862703 0 -0.2437457614006571 -0.011962382738850049 0 -0.25267499080189931 -0.0034516002120552492 0 -0.2401015516947359 0.00075261550232862703 0 -0.25267499080189931 -0.0034516002120552492 0 -0.2598032925822476 -0.0188915667982569 0 -0.26909988492935111 -0.0018655285383734981 0 -0.2437457614006571 -0.011962382738850049 0 -0.25267499080189931 -0.0034516002120552492 0 -0.2598032925822476 -0.0188915667982569 0 -0.2598032925822476 -0.0188915667982569 0 -0.27267419604841259 -0.026924212746328481 0 -0.25766621977661042 -0.038842414379153638 0 -0.24161885061771041 -0.026720350447010301 0 -0.2598032925822476 -0.0188915667982569 0 -0.25766621977661042 -0.038842414379153638 0 -0.2598032925822476 -0.0188915667982569 0 -0.27267419604841259 -0.026924212746328481 0 -0.27804425228895369 -0.016131696666228459 0 -0.27267419604841259 -0.026924212746328481 0 -0.27804425228895369 -0.016131696666228459 0 -0.28378415359151371 -0.031280105512012511 0 -0.27804425228895369 -0.016131696666228459 0 -0.26909988492935111 -0.0018655285383734981 0 -0.2917254884257266 -0.0017566381736345419 0 -0.2598032925822476 -0.0188915667982569 0 -0.27804425228895369 -0.016131696666228459 0 -0.26909988492935111 -0.0018655285383734981 0 -0.27804425228895369 -0.016131696666228459 0 -0.2917254884257266 -0.0017566381736345419 0 -0.2928870998243559 -0.020527937726781 0 -0.27804425228895369 -0.016131696666228459 0 -0.2928870998243559 -0.020527937726781 0 -0.28378415359151371 -0.031280105512012511 0 -0.2928870998243559 -0.020527937726781 0 -0.29943422057661201 -0.032203920876667472 0 -0.28378415359151371 -0.031280105512012511 0 -0.2928870998243559 -0.020527937726781 0 -0.31144738423897378 -0.02126732740536201 0 -0.29943422057661201 -0.032203920876667472 0 -0.31144738423897378 -0.02126732740536201 0 -0.31110423911055801 -0.035316851109560482 0 -0.29943422057661201 -0.032203920876667472 0 -0.2917254884257266 -0.0017566381736345419 0 -0.31144738423897378 -0.02126732740536201 0 -0.31177688145040278 0.0050359958776742568 0 -0.2917254884257266 -0.0017566381736345419 0 -0.2928870998243559 -0.020527937726781 0 -0.31144738423897378 -0.02126732740536201 0 -0.2917254884257266 -0.0017566381736345419 0 -0.31144738423897378 -0.02126732740536201 0 -0.30323190850646392 -0.052883144282766713 0 -0.3023660715744253 -0.047018139519123002 0 -0.29757341552329353 -0.05219957266967655 0 -0.29931176789370939 -0.061629941742321552 0 -0.30659897303184058 -0.057135789817405573 0 -0.30728911182784302 -0.064893595009923935 0 -0.30323190850646392 -0.052883144282766713 0 -0.29931176789370939 -0.061629941742321552 0 -0.30659897303184058 -0.057135789817405573 0 -0.30323190850646392 -0.052883144282766713 0 -0.29757341552329353 -0.05219957266967655 0 -0.29931176789370939 -0.061629941742321552 0 -0.30659897303184058 -0.057135789817405573 0 -0.30728911182784302 -0.064893595009923935 0 -0.31405483352543062 -0.056831087900065053 0 -0.30323190850646392 -0.052883144282766713 0 -0.3023660715744253 -0.047018139519123002 0 -0.31025625293594222 -0.050033124508212908 0 -0.30659897303184058 -0.057135789817405573 0 -0.31025625293594222 -0.050033124508212908 0 -0.31405483352543062 -0.056831087900065053 0 -0.30323190850646392 -0.052883144282766713 0 -0.30659897303184058 -0.057135789817405573 0 -0.31025625293594222 -0.050033124508212908 0 -0.3023660715744253 -0.047018139519123002 0 -0.31110423911055801 -0.035316851109560482 0 -0.29943422057661201 -0.032203920876667472 0 -0.3023660715744253 -0.047018139519123002 0 -0.29943422057661201 -0.032203920876667472 0 -0.29166722635019171 -0.038853801873014321 0 -0.29943422057661201 -0.032203920876667472 0 -0.29166722635019171 -0.038853801873014321 0 -0.28378415359151371 -0.031280105512012511 0 -0.3023660715744253 -0.047018139519123002 0 -0.29166722635019171 -0.038853801873014321 0 -0.28390051605192418 -0.042754285685484159 0 -0.29166722635019171 -0.038853801873014321 0 -0.28378415359151371 -0.031280105512012511 0 -0.28390051605192418 -0.042754285685484159 0 -0.3023660715744253 -0.047018139519123002 0 -0.28390051605192418 -0.042754285685484159 0 -0.27356286309663053 -0.053258262401150697 0 -0.3023660715744253 -0.047018139519123002 0 -0.27356286309663053 -0.053258262401150697 0 -0.29757341552329353 -0.05219957266967655 0 -0.27356286309663053 -0.053258262401150697 0 -0.27532891164284878 -0.069285621960536392 0 -0.29757341552329353 -0.05219957266967655 0 -0.27532891164284878 -0.069285621960536392 0 -0.3023660715744253 -0.047018139519123002 0 -0.29757341552329353 -0.05219957266967655 0 -0.27356286309663053 -0.053258262401150697 0 -0.29757341552329353 -0.05219957266967655 0 -0.29931176789370939 -0.061629941742321552 0 -0.27532891164284878 -0.069285621960536392 0 -0.27267419604841259 -0.026924212746328481 0 -0.27375437843427658 -0.039043607324579933 0 -0.25766621977661042 -0.038842414379153638 0 -0.27356286309663053 -0.053258262401150697 0 -0.27375437843427658 -0.039043607324579933 0 -0.25766621977661042 -0.038842414379153638 0 -0.28378415359151371 -0.031280105512012511 0 -0.28390051605192418 -0.042754285685484159 0 -0.27375437843427658 -0.039043607324579933 0 -0.27267419604841259 -0.026924212746328481 0 -0.28378415359151371 -0.031280105512012511 0 -0.27375437843427658 -0.039043607324579933 0 -0.28390051605192418 -0.042754285685484159 0 -0.27356286309663053 -0.053258262401150697 0 -0.27375437843427658 -0.039043607324579933 0 -0.24475965461883589 -0.059498385283178377 0 -0.27356286309663053 -0.053258262401150697 0 -0.2582325144520296 -0.070050845257802419 0 -0.24475965461883589 -0.059498385283178377 0 -0.27356286309663053 -0.053258262401150697 0 -0.24475965461883589 -0.059498385283178377 0 -0.27356286309663053 -0.053258262401150697 0 -0.25766621977661042 -0.038842414379153638 0 -0.2582325144520296 -0.070050845257802419 0 -0.25308440776240432 -0.086371671251396109 0 -0.27532891164284878 -0.069285621960536392 0 -0.25308440776240432 -0.086371671251396109 0 -0.27532891164284878 -0.069285621960536392 0 -0.25308440776240432 -0.086371671251396109 0 -0.27361062541114611 -0.085405998149086934 0 -0.26907394573302829 -0.10103393024372311 0 -0.27361062541114611 -0.085405998149086934 0 -0.26907394573302829 -0.10103393024372311 0 -0.28494676303449051 -0.09097811142482605 0 -0.25308440776240432 -0.086371671251396109 0 -0.27361062541114611 -0.085405998149086934 0 -0.27532891164284878 -0.069285621960536392 0 -0.27356286309663053 -0.053258262401150697 0 -0.2582325144520296 -0.070050845257802419 0 -0.27532891164284878 -0.069285621960536392 0 -0.27361062541114611 -0.085405998149086934 0 -0.27532891164284878 -0.069285621960536392 0 -0.28561909888295839 -0.079360655864953042 0 -0.2432602079730701 -0.13485583854350039 0 -0.2499653418643101 -0.1102460646797562 0 -0.26490928006600228 -0.12397715003998409 0 -0.2499653418643101 -0.1102460646797562 0 -0.26490928006600228 -0.12397715003998409 0 -0.26907394573302829 -0.10103393024372311 0 -0.2499653418643101 -0.1102460646797562 0 -0.25308440776240432 -0.086371671251396109 0 -0.26907394573302829 -0.10103393024372311 0 -0.26907394573302829 -0.10103393024372311 0 -0.28789548083438649 -0.11161882002010511 0 -0.28494676303449051 -0.09097811142482605 0 -0.26490928006600228 -0.12397715003998409 0 -0.28789548083438649 -0.11161882002010511 0 -0.28428672055728371 -0.13281235115180859 0 -0.26490928006600228 -0.12397715003998409 0 -0.26907394573302829 -0.10103393024372311 0 -0.28789548083438649 -0.11161882002010511 0 -0.28789548083438649 -0.11161882002010511 0 -0.28428672055728371 -0.13281235115180859 0 -0.30877835781368662 -0.12931532841693749 0 -0.28789548083438649 -0.11161882002010511 0 -0.29765529442092259 -0.094840601490837839 0 -0.28494676303449051 -0.09097811142482605 0 -0.30761934067920371 -0.1042503242997595 0 -0.29765529442092259 -0.094840601490837839 0 -0.30832877355579341 -0.086934752854072747 0 -0.30761934067920371 -0.1042503242997595 0 -0.30832877355579341 -0.086934752854072747 0 -0.31968159473222052 -0.091584555267719248 0 -0.28789548083438649 -0.11161882002010511 0 -0.30761934067920371 -0.1042503242997595 0 -0.29765529442092259 -0.094840601490837839 0 -0.28789548083438649 -0.11161882002010511 0 -0.30761934067920371 -0.1042503242997595 0 -0.30877835781368662 -0.12931532841693749 0 -0.29931176789370939 -0.061629941742321552 0 -0.27532891164284878 -0.069285621960536392 0 -0.29568251685582603 -0.071589435967753134 0 -0.27532891164284878 -0.069285621960536392 0 -0.29568251685582603 -0.071589435967753134 0 -0.28561909888295839 -0.079360655864953042 0 -0.29568251685582603 -0.071589435967753134 0 -0.28561909888295839 -0.079360655864953042 0 -0.29849490204505058 -0.081938345925378783 0 -0.27361062541114611 -0.085405998149086934 0 -0.28561909888295839 -0.079360655864953042 0 -0.28494676303449051 -0.09097811142482605 0 -0.29765529442092259 -0.094840601490837839 0 -0.28494676303449051 -0.09097811142482605 0 -0.29849490204505058 -0.081938345925378783 0 -0.28561909888295839 -0.079360655864953042 0 -0.28494676303449051 -0.09097811142482605 0 -0.29849490204505058 -0.081938345925378783 0 -0.29849490204505058 -0.081938345925378783 0 -0.30832877355579341 -0.086934752854072747 0 -0.3066986514807607 -0.074546990101646726 0 -0.29765529442092259 -0.094840601490837839 0 -0.29849490204505058 -0.081938345925378783 0 -0.30832877355579341 -0.086934752854072747 0 -0.30832877355579341 -0.086934752854072747 0 -0.3066986514807607 -0.074546990101646726 0 -0.31636087034116728 -0.076704125898778439 0 -0.3066986514807607 -0.074546990101646726 0 -0.31411021802290889 -0.069356746280106005 0 -0.31636087034116728 -0.076704125898778439 0 -0.29568251685582603 -0.071589435967753134 0 -0.29849490204505058 -0.081938345925378783 0 -0.3066986514807607 -0.074546990101646726 0 -0.29568251685582603 -0.071589435967753134 0 -0.3066986514807607 -0.074546990101646726 0 -0.30728911182784302 -0.064893595009923935 0 -0.29931176789370939 -0.061629941742321552 0 -0.29568251685582603 -0.071589435967753134 0 -0.30728911182784302 -0.064893595009923935 0 -0.3066986514807607 -0.074546990101646726 0 -0.30728911182784302 -0.064893595009923935 0 -0.31411021802290889 -0.069356746280106005 0 -0.30728911182784302 -0.064893595009923935 0 -0.31630436981946819 -0.062936971351065629 0 -0.31411021802290889 -0.069356746280106005 0 -0.31630436981946819 -0.062936971351065629 0 -0.31411021802290889 -0.069356746280106005 0 -0.32389808664530562 -0.067702049039115322 0 -0.31630436981946819 -0.062936971351065629 0 -0.32389808664530562 -0.067702049039115322 0 -0.32481687078849097 -0.058022226865728103 0 -0.32389808664530562 -0.067702049039115322 0 -0.3259684841043719 -0.075020057435826168 0 -0.31636087034116728 -0.076704125898778439 0 -0.31411021802290889 -0.069356746280106005 0 -0.32389808664530562 -0.067702049039115322 0 -0.31636087034116728 -0.076704125898778439 0 -0.30832877355579341 -0.086934752854072747 0 -0.32608803180755441 -0.084321365842938284 0 -0.30832877355579341 -0.086934752854072747 0 -0.31968159473222052 -0.091584555267719248 0 -0.32608803180755441 -0.084321365842938284 0 -0.30832877355579341 -0.086934752854072747 0 -0.31636087034116728 -0.076704125898778439 0 -0.32608803180755441 -0.084321365842938284 0 -0.31968159473222052 -0.091584555267719248 0 -0.32608803180755441 -0.084321365842938284 0 -0.3259684841043719 -0.075020057435826168 0 -0.31636087034116728 -0.076704125898778439 0 -0.32608803180755441 -0.084321365842938284 0 -0.31968159473222052 -0.091584555267719248 0 -0.32608803180755441 -0.084321365842938284 0 -0.34030971713070318 -0.087052614945596102 0 -0.32608803180755441 -0.084321365842938284 0 -0.34030971713070318 -0.087052614945596102 0 -0.34745734249292459 -0.081176736816750444 0 -0.32608803180755441 -0.084321365842938284 0 -0.33752694762346008 -0.07135268896247253 0 -0.34745734249292459 -0.081176736816750444 0 -0.32608803180755441 -0.084321365842938284 0 -0.34745734249292459 -0.081176736816750444 0 -0.33752694762346008 -0.07135268896247253 0 -0.3489658634393657 -0.058384012082006782 0 -0.33645864726091979 -0.05858208772264157 0 -0.33752694762346008 -0.07135268896247253 0 -0.3489658634393657 -0.058384012082006782 0 -0.32389808664530562 -0.067702049039115322 0 -0.33752694762346008 -0.07135268896247253 0 -0.33645864726091979 -0.05858208772264157 0 -0.3259684841043719 -0.075020057435826168 0 -0.32608803180755441 -0.084321365842938284 0 -0.33752694762346008 -0.07135268896247253 0 -0.32608803180755441 -0.084321365842938284 0 -0.33752694762346008 -0.07135268896247253 0 -0.32389808664530562 -0.067702049039115322 0 -0.3259684841043719 -0.075020057435826168 0 -0.33752694762346008 -0.07135268896247253 0 -0.32454403747219479 -0.1081839716812668 0 -0.30877835781368662 -0.12931532841693749 0 -0.30761934067920371 -0.1042503242997595 0 -0.32454403747219479 -0.1081839716812668 0 -0.30877835781368662 -0.12931532841693749 0 -0.32454403747219479 -0.1081839716812668 0 -0.33570809008837621 -0.11845594114356341 0 -0.30877835781368662 -0.12931532841693749 0 -0.30761934067920371 -0.1042503242997595 0 -0.31968159473222052 -0.091584555267719248 0 -0.32454403747219479 -0.1081839716812668 0 -0.34030971713070318 -0.087052614945596102 0 -0.32454403747219479 -0.1081839716812668 0 -0.34278855512837281 -0.1049294584887832 0 -0.31968159473222052 -0.091584555267719248 0 -0.34030971713070318 -0.087052614945596102 0 -0.32454403747219479 -0.1081839716812668 0 -0.34030971713070318 -0.087052614945596102 0 -0.32454403747219479 -0.1081839716812668 0 -0.32454403747219479 -0.1081839716812668 0 -0.34278855512837281 -0.1049294584887832 0 -0.33570809008837621 -0.11845594114356341 0 -0.33570809008837621 -0.11845594114356341 0 -0.35404294059136687 -0.1217835462641018 0 -0.33688620478323589 -0.13358080389391511 0 -0.34278855512837281 -0.1049294584887832 0 -0.35404294059136687 -0.1217835462641018 0 -0.35932798989652742 -0.1047455147758234 0 -0.34278855512837281 -0.1049294584887832 0 -0.33570809008837621 -0.11845594114356341 0 -0.35404294059136687 -0.1217835462641018 0 -0.34278855512837281 -0.1049294584887832 0 -0.35932798989652742 -0.1047455147758234 0 -0.35079718399447979 -0.093651592615473511 0 -0.34030971713070318 -0.087052614945596102 0 -0.34278855512837281 -0.1049294584887832 0 -0.35079718399447979 -0.093651592615473511 0 -0.35932798989652742 -0.1047455147758234 0 -0.35079718399447979 -0.093651592615473511 0 -0.36132419909701757 -0.091459041133748031 0 -0.35932798989652742 -0.1047455147758234 0 -0.37367929427193591 -0.1014825750548952 0 -0.37212838853434238 -0.11808059788504249 0 -0.35932798989652742 -0.1047455147758234 0 -0.37367929427193591 -0.1014825750548952 0 -0.36132419909701757 -0.091459041133748031 0 -0.35404294059136687 -0.1217835462641018 0 -0.37212838853434238 -0.11808059788504249 0 -0.37028068739271691 -0.13083580994494901 0 -0.35404294059136687 -0.1217835462641018 0 -0.35932798989652742 -0.1047455147758234 0 -0.37212838853434238 -0.11808059788504249 0 -0.35069420168351129 -0.07223638641294812 0 -0.34745734249292459 -0.081176736816750444 0 -0.36882665317829499 -0.078032107790563188 0 -0.36882665317829499 -0.078032107790563188 0 -0.3489658634393657 -0.058384012082006782 0 -0.35069420168351129 -0.07223638641294812 0 -0.36882665317829499 -0.078032107790563188 0 -0.3489658634393657 -0.058384012082006782 0 -0.33752694762346008 -0.07135268896247253 0 -0.35069420168351129 -0.07223638641294812 0 -0.3489658634393657 -0.058384012082006782 0 -0.33752694762346008 -0.07135268896247253 0 -0.35069420168351129 -0.07223638641294812 0 -0.34745734249292459 -0.081176736816750444 0 -0.34745734249292459 -0.081176736816750444 0 -0.36882665317829499 -0.078032107790563188 0 -0.34745734249292459 -0.081176736816750444 0 -0.36132419909701757 -0.091459041133748031 0 -0.36882665317829499 -0.078032107790563188 0 -0.34030971713070318 -0.087052614945596102 0 -0.34745734249292459 -0.081176736816750444 0 -0.35079718399447979 -0.093651592615473511 0 -0.34745734249292459 -0.081176736816750444 0 -0.35079718399447979 -0.093651592615473511 0 -0.36132419909701757 -0.091459041133748031 0 -0.37367929427193591 -0.1014825750548952 0 -0.36132419909701757 -0.091459041133748031 0 -0.36882665317829499 -0.078032107790563188 0 -0.36882665317829499 -0.078032107790563188 0 -0.36862349457690058 -0.057461967220355487 0 -0.3489658634393657 -0.058384012082006782 0 -0.36882665317829499 -0.078032107790563188 0 -0.36862349457690058 -0.057461967220355487 0 -0.37947166312044489 -0.067272628224985004 0 -0.36862349457690058 -0.057461967220355487 0 -0.3489658634393657 -0.058384012082006782 0 -0.36066681755822472 -0.045118253717945672 0 -0.36862349457690058 -0.057461967220355487 0 -0.37355784227175309 -0.045246792894939887 0 -0.3815482533063424 -0.052412606119804542 0 -0.36862349457690058 -0.057461967220355487 0 -0.36066681755822472 -0.045118253717945672 0 -0.37355784227175309 -0.045246792894939887 0 -0.3489658634393657 -0.058384012082006782 0 -0.36066681755822472 -0.045118253717945672 0 -0.3489658634393657 -0.058384012082006782 0 -0.34511111307690212 -0.046137334811030092 0 -0.36066681755822472 -0.045118253717945672 0 -0.35304062521722218 -0.036039659744318157 0 -0.3553139768507978 -0.023567241021099371 0 -0.33371347875736079 -0.040226824134751989 0 -0.34511111307690212 -0.046137334811030092 0 -0.35304062521722218 -0.036039659744318157 0 -0.33371347875736079 -0.040226824134751989 0 -0.34511111307690212 -0.046137334811030092 0 -0.35304062521722218 -0.036039659744318157 0 -0.36066681755822472 -0.045118253717945672 0 -0.36066681755822472 -0.045118253717945672 0 -0.37236777167708351 -0.031852495353884333 0 -0.35304062521722218 -0.036039659744318157 0 -0.37236777167708351 -0.031852495353884333 0 -0.35304062521722218 -0.036039659744318157 0 -0.36066681755822472 -0.045118253717945672 0 -0.37236777167708351 -0.031852495353884333 0 -0.36066681755822472 -0.045118253717945672 0 -0.37355784227175309 -0.045246792894939887 0 -0.37236777167708351 -0.031852495353884333 0 -0.37236777167708351 -0.031852495353884333 0 -0.3739022591900184 -0.02415390189740213 0 -0.36770044175442279 -0.02036669541201027 0 -0.37236777167708351 -0.031852495353884333 0 -0.36770044175442279 -0.02036669541201027 0 -0.3553139768507978 -0.023567241021099371 0 -0.36770044175442279 -0.02036669541201027 0 -0.35847393927256738 -0.010652033510738681 0 -0.38297625517291389 -0.017448943304264108 0 -0.35304062521722218 -0.036039659744318157 0 -0.37236777167708351 -0.031852495353884333 0 -0.3553139768507978 -0.023567241021099371 0 -0.3739022591900184 -0.02415390189740213 0 -0.36770044175442279 -0.02036669541201027 0 -0.38297625517291389 -0.017448943304264108 0 -0.36770044175442279 -0.02036669541201027 0 -0.35847393927256738 -0.010652033510738681 0 -0.3553139768507978 -0.023567241021099371 0 -0.35847393927256738 -0.010652033510738681 0 -0.38297625517291389 -0.017448943304264108 0 -0.37278444596104371 -0.0079457960458173115 0 -0.35847393927256738 -0.010652033510738681 0 -0.38297625517291389 -0.017448943304264108 0 -0.37474494217865062 -0.0022388935110706832 0 -0.37278444596104371 -0.0079457960458173115 0 -0.36307869926690151 -0.00068504054922277494 0 -0.37278444596104371 -0.0079457960458173115 0 -0.36307869926690151 -0.00068504054922277494 0 -0.35847393927256738 -0.010652033510738681 0 -0.36307869926690151 -0.00068504054922277494 0 -0.34718119132474479 -0.01384164818341615 0 -0.36064890389212972 0.0125435277679194 0 -0.36307869926690151 -0.00068504054922277494 0 -0.35847393927256738 -0.010652033510738681 0 -0.34718119132474479 -0.01384164818341615 0 -0.34718119132474479 -0.01384164818341615 0 -0.36064890389212972 0.0125435277679194 0 -0.34718119132474479 -0.01384164818341615 0 -0.3553139768507978 -0.023567241021099371 0 -0.33371347875736079 -0.040226824134751989 0 -0.35847393927256738 -0.010652033510738681 0 -0.34718119132474479 -0.01384164818341615 0 -0.3553139768507978 -0.023567241021099371 0 -0.34718119132474479 -0.01384164818341615 0 -0.33035884889608558 -0.02420969997450095 0 -0.33371347875736079 -0.040226824134751989 0 -0.34718119132474479 -0.01384164818341615 0 -0.33371347875736079 -0.040226824134751989 0 -0.34718119132474479 -0.01384164818341615 0 -0.32828291010712762 -0.0049346835118845543 0 -0.34055428987364128 0.0059527955302196532 0 -0.34718119132474479 -0.01384164818341615 0 -0.33035884889608558 -0.02420969997450095 0 -0.32828291010712762 -0.0049346835118845543 0 -0.31144738423897378 -0.02126732740536201 0 -0.32828291010712762 -0.0049346835118845543 0 -0.31177688145040278 0.0050359958776742568 0 -0.31144738423897378 -0.02126732740536201 0 -0.33116928005221918 -0.040778016637091109 0 -0.31144738423897378 -0.02126732740536201 0 -0.33035884889608558 -0.02420969997450095 0 -0.32828291010712762 -0.0049346835118845543 0 -0.31144738423897378 -0.02126732740536201 0 -0.33035884889608558 -0.02420969997450095 0 -0.33116928005221918 -0.040778016637091109 0 -0.3023660715744253 -0.047018139519123002 0 -0.31110423911055801 -0.035316851109560482 0 -0.33116928005221918 -0.040778016637091109 0 -0.3023660715744253 -0.047018139519123002 0 -0.31025625293594222 -0.050033124508212908 0 -0.33116928005221918 -0.040778016637091109 0 -0.3023660715744253 -0.047018139519123002 0 -0.33116928005221918 -0.040778016637091109 0 -0.31144738423897378 -0.02126732740536201 0 -0.31110423911055801 -0.035316851109560482 0 -0.33116928005221918 -0.040778016637091109 0 -0.31025625293594222 -0.050033124508212908 0 -0.31770057673851387 -0.05020147555903863 0 -0.33116928005221918 -0.040778016637091109 0 -0.31025625293594222 -0.050033124508212908 0 -0.31770057673851387 -0.05020147555903863 0 -0.31405483352543062 -0.056831087900065053 0 -0.31770057673851387 -0.05020147555903863 0 -0.31405483352543062 -0.056831087900065053 0 -0.31936567051967829 -0.054711673150449433 0 -0.31630436981946819 -0.062936971351065629 0 -0.31936567051967829 -0.054711673150449433 0 -0.32481687078849097 -0.058022226865728103 0 -0.30728911182784302 -0.064893595009923935 0 -0.31630436981946819 -0.062936971351065629 0 -0.31405483352543062 -0.056831087900065053 0 -0.31630436981946819 -0.062936971351065629 0 -0.31405483352543062 -0.056831087900065053 0 -0.31936567051967829 -0.054711673150449433 0 -0.31770057673851387 -0.05020147555903863 0 -0.32448711316898249 -0.050622394842538963 0 -0.33116928005221918 -0.040778016637091109 0 -0.31936567051967829 -0.054711673150449433 0 -0.32481687078849097 -0.058022226865728103 0 -0.32448711316898249 -0.050622394842538963 0 -0.31770057673851387 -0.05020147555903863 0 -0.31936567051967829 -0.054711673150449433 0 -0.32448711316898249 -0.050622394842538963 0 -0.32481687078849097 -0.058022226865728103 0 -0.32770904195502032 -0.053173566283506987 0 -0.32448711316898249 -0.050622394842538963 0 -0.32770904195502032 -0.053173566283506987 0 -0.32448711316898249 -0.050622394842538963 0 -0.32972533979495861 -0.048040159006195682 0 -0.3489658634393657 -0.058384012082006782 0 -0.34511111307690212 -0.046137334811030092 0 -0.3326728772282519 -0.042265511425067279 0 -0.32972533979495861 -0.048040159006195682 0 -0.33645864726091979 -0.05858208772264157 0 -0.3326728772282519 -0.042265511425067279 0 -0.3489658634393657 -0.058384012082006782 0 -0.3326728772282519 -0.042265511425067279 0 -0.32770904195502032 -0.053173566283506987 0 -0.32972533979495861 -0.048040159006195682 0 -0.33645864726091979 -0.05858208772264157 0 -0.3489658634393657 -0.058384012082006782 0 -0.33645864726091979 -0.05858208772264157 0 -0.3326728772282519 -0.042265511425067279 0 -0.32389808664530562 -0.067702049039115322 0 -0.32481687078849097 -0.058022226865728103 0 -0.33645864726091979 -0.05858208772264157 0 -0.32481687078849097 -0.058022226865728103 0 -0.32770904195502032 -0.053173566283506987 0 -0.33645864726091979 -0.05858208772264157 0 -0.34511111307690212 -0.046137334811030092 0 -0.33371347875736079 -0.040226824134751989 0 -0.3326728772282519 -0.042265511425067279 0 -0.33035884889608558 -0.02420969997450095 0 -0.33116928005221918 -0.040778016637091109 0 -0.33371347875736079 -0.040226824134751989 0 -0.35304062521722218 -0.036039659744318157 0 -0.33371347875736079 -0.040226824134751989 0 -0.32448711316898249 -0.050622394842538963 0 -0.32972533979495861 -0.048040159006195682 0 -0.33116928005221918 -0.040778016637091109 0 -0.33116928005221918 -0.040778016637091109 0 -0.3326728772282519 -0.042265511425067279 0 -0.32972533979495861 -0.048040159006195682 0 -0.3326728772282519 -0.042265511425067279 0 -0.32972533979495861 -0.048040159006195682 0 -0.33116928005221918 -0.040778016637091109 0 -0.3326728772282519 -0.042265511425067279 0 -0.33116928005221918 -0.040778016637091109 0 -0.33371347875736079 -0.040226824134751989 0 -0.33116928005221918 -0.040778016637091109 0 -0.33371347875736079 -0.040226824134751989 0 -0.3326728772282519 -0.042265511425067279 0 -0.33371347875736079 -0.040226824134751989 0 -0.3326728772282519 -0.042265511425067279 0 -0.2907170577323625 -0.25177677077710309 0 -0.30853150187083839 -0.25429835417001312 0 -0.30748271917561598 -0.2431056607245809 0 -0.30748271917561598 -0.2431056607245809 0 -0.3004866401015065 -0.2269264896544945 0 -0.32066485276457768 -0.2334308190911655 0 -0.2907170577323625 -0.25177677077710309 0 -0.30748271917561598 -0.2431056607245809 0 -0.3004866401015065 -0.2269264896544945 0 -0.30853150187083839 -0.25429835417001312 0 -0.30748271917561598 -0.2431056607245809 0 -0.32023222063025569 -0.2489608815952247 0 -0.3004866401015065 -0.2269264896544945 0 -0.27575903677895092 -0.22208668823385669 0 -0.3004866401015065 -0.2269264896544945 0 -0.27309361240676189 -0.24179026653703889 0 -0.27575903677895092 -0.22208668823385669 0 -0.3004866401015065 -0.2269264896544945 0 -0.27575903677895092 -0.22208668823385669 0 -0.29482007196541532 -0.2089319155152673 0 -0.2907170577323625 -0.25177677077710309 0 -0.3004866401015065 -0.2269264896544945 0 -0.27309361240676189 -0.24179026653703889 0 -0.27309361240676189 -0.24179026653703889 0 -0.25431856302814809 -0.24833495949118861 0 -0.25103143345639523 -0.21724688681321891 0 -0.27575903677895092 -0.22208668823385669 0 -0.25103143345639523 -0.21724688681321891 0 -0.27309361240676189 -0.24179026653703889 0 -0.27575903677895092 -0.22208668823385669 0 -0.25103143345639523 -0.21724688681321891 0 -0.27575903677895092 -0.22208668823385669 0 -0.25103143345639523 -0.21724688681321891 0 -0.27708552823660842 -0.19790031786117671 0 -0.25103143345639523 -0.21724688681321891 0 -0.25418198431724581 -0.18809916394242601 0 -0.27708552823660842 -0.19790031786117671 0 -0.27708552823660842 -0.19790031786117671 0 -0.29482007196541532 -0.2089319155152673 0 -0.30195969341908391 -0.19078830755985379 0 -0.29482007196541532 -0.2089319155152673 0 -0.30195969341908391 -0.19078830755985379 0 -0.32674672588845421 -0.2120308859258328 0 -0.3004866401015065 -0.2269264896544945 0 -0.29482007196541532 -0.2089319155152673 0 -0.32674672588845421 -0.2120308859258328 0 -0.27575903677895092 -0.22208668823385669 0 -0.27708552823660842 -0.19790031786117671 0 -0.29482007196541532 -0.2089319155152673 0 -0.30195969341908391 -0.19078830755985379 0 -0.30674796742087651 -0.1684647150882764 0 -0.32123008678095788 -0.18729232698745699 0 -0.30674796742087651 -0.1684647150882764 0 -0.2930126781551784 -0.15044668515260809 0 -0.3206808779707625 -0.15110047818677941 0 -0.27724699849667023 -0.17157804188827869 0 -0.2930126781551784 -0.15044668515260809 0 -0.30674796742087651 -0.1684647150882764 0 -0.27724699849667023 -0.17157804188827869 0 -0.2930126781551784 -0.15044668515260809 0 -0.27708552823660842 -0.19790031786117671 0 -0.30195969341908391 -0.19078830755985379 0 -0.27724699849667023 -0.17157804188827869 0 -0.30195969341908391 -0.19078830755985379 0 -0.30674796742087651 -0.1684647150882764 0 -0.27724699849667023 -0.17157804188827869 0 -0.25418198431724581 -0.18809916394242601 0 -0.27708552823660842 -0.19790031786117671 0 -0.27724699849667023 -0.17157804188827869 0 -0.25418198431724581 -0.18809916394242601 0 -0.2565438833259911 -0.1687602707777138 0 -0.27724699849667023 -0.17157804188827869 0 -0.2435592126657353 -0.1561425335328199 0 -0.2565438833259911 -0.1687602707777138 0 -0.26683780591716472 -0.14870377212940841 0 -0.27724699849667023 -0.17157804188827869 0 -0.26683780591716472 -0.14870377212940841 0 -0.2930126781551784 -0.15044668515260809 0 -0.2565438833259911 -0.1687602707777138 0 -0.27724699849667023 -0.17157804188827869 0 -0.26683780591716472 -0.14870377212940841 0 -0.2435592126657353 -0.1561425335328199 0 -0.2432602079730701 -0.13485583854350039 0 -0.26683780591716472 -0.14870377212940841 0 -0.2432602079730701 -0.13485583854350039 0 -0.26490928006600228 -0.12397715003998409 0 -0.26683780591716472 -0.14870377212940841 0 -0.26490928006600228 -0.12397715003998409 0 -0.26683780591716472 -0.14870377212940841 0 -0.28428672055728371 -0.13281235115180859 0 -0.28428672055728371 -0.13281235115180859 0 -0.2930126781551784 -0.15044668515260809 0 -0.30877835781368662 -0.12931532841693749 0 -0.26683780591716472 -0.14870377212940841 0 -0.28428672055728371 -0.13281235115180859 0 -0.2930126781551784 -0.15044668515260809 0 -0.2930126781551784 -0.15044668515260809 0 -0.30877835781368662 -0.12931532841693749 0 -0.3206808779707625 -0.15110047818677941 0 -0.2930126781551784 -0.15044668515260809 0 -0.30877835781368662 -0.12931532841693749 0 -0.33570809008837621 -0.11845594114356341 0 -0.30877835781368662 -0.12931532841693749 0 -0.33688620478323589 -0.13358080389391511 0 -0.30877835781368662 -0.12931532841693749 0 -0.3206808779707625 -0.15110047818677941 0 -0.33688620478323589 -0.13358080389391511 0 -0.3206808779707625 -0.15110047818677941 0 -0.33688620478323589 -0.13358080389391511 0 -0.34399943231138669 -0.15408109000358611 0 -0.33688620478323589 -0.13358080389391511 0 -0.35929992868189681 -0.1386942596847188 0 -0.35404294059136687 -0.1217835462641018 0 -0.33688620478323589 -0.13358080389391511 0 -0.35929992868189681 -0.1386942596847188 0 -0.35404294059136687 -0.1217835462641018 0 -0.35929992868189681 -0.1386942596847188 0 -0.37028068739271691 -0.13083580994494901 0 -0.35929992868189681 -0.1386942596847188 0 -0.37028068739271691 -0.13083580994494901 0 -0.3804539816512269 -0.14482329966991631 0 -0.35929992868189681 -0.1386942596847188 0 -0.3804539816512269 -0.14482329966991631 0 -0.35929992868189681 -0.1386942596847188 0 -0.3655172116091886 -0.15688196674787641 0 -0.3804539816512269 -0.14482329966991631 0 -0.3655172116091886 -0.15688196674787641 0 -0.3804539816512269 -0.14482329966991631 0 -0.3655172116091886 -0.15688196674787641 0 -0.37839901512320262 -0.15996290040625341 0 -0.3804539816512269 -0.14482329966991631 0 -0.33688620478323589 -0.13358080389391511 0 -0.35929992868189681 -0.1386942596847188 0 -0.34399943231138669 -0.15408109000358611 0 -0.35929992868189681 -0.1386942596847188 0 -0.34399943231138669 -0.15408109000358611 0 -0.3655172116091886 -0.15688196674787641 0 -0.34399943231138669 -0.15408109000358611 0 -0.35323542112630057 -0.1671812377988513 0 -0.3655172116091886 -0.15688196674787641 0 -0.3655172116091886 -0.15688196674787641 0 -0.37378547386561772 -0.17392500984250869 0 -0.37839901512320262 -0.15996290040625341 0 -0.35323542112630057 -0.1671812377988513 0 -0.3655172116091886 -0.15688196674787641 0 -0.37378547386561772 -0.17392500984250869 0 -0.37378547386561772 -0.17392500984250869 0 -0.35240556330307887 -0.18479875362473361 0 -0.36895563931783232 -0.19259611207654981 0 -0.35323542112630057 -0.1671812377988513 0 -0.37378547386561772 -0.17392500984250869 0 -0.35240556330307887 -0.18479875362473361 0 -0.35323542112630057 -0.1671812377988513 0 -0.35240556330307887 -0.18479875362473361 0 -0.33400288196205857 -0.17193246321376471 0 -0.35240556330307887 -0.18479875362473361 0 -0.33400288196205857 -0.17193246321376471 0 -0.33669316521431608 -0.19324526314955739 0 -0.33400288196205857 -0.17193246321376471 0 -0.32123008678095788 -0.18729232698745699 0 -0.33669316521431608 -0.19324526314955739 0 -0.3206808779707625 -0.15110047818677941 0 -0.34399943231138669 -0.15408109000358611 0 -0.33400288196205857 -0.17193246321376471 0 -0.34399943231138669 -0.15408109000358611 0 -0.35323542112630057 -0.1671812377988513 0 -0.33400288196205857 -0.17193246321376471 0 -0.30674796742087651 -0.1684647150882764 0 -0.3206808779707625 -0.15110047818677941 0 -0.33400288196205857 -0.17193246321376471 0 -0.30674796742087651 -0.1684647150882764 0 -0.33400288196205857 -0.17193246321376471 0 -0.32123008678095788 -0.18729232698745699 0 -0.30195969341908391 -0.19078830755985379 0 -0.32123008678095788 -0.18729232698745699 0 -0.32674672588845421 -0.2120308859258328 0 -0.32674672588845421 -0.2120308859258328 0 -0.35024140450074381 -0.20994798342056251 0 -0.32674672588845421 -0.2120308859258328 0 -0.33669316521431608 -0.19324526314955739 0 -0.35024140450074381 -0.20994798342056251 0 -0.32674672588845421 -0.2120308859258328 0 -0.35024140450074381 -0.20994798342056251 0 -0.3377174746324717 -0.2284461722996495 0 -0.32123008678095788 -0.18729232698745699 0 -0.32674672588845421 -0.2120308859258328 0 -0.33669316521431608 -0.19324526314955739 0 -0.35240556330307887 -0.18479875362473361 0 -0.36895563931783232 -0.19259611207654981 0 -0.35024140450074381 -0.20994798342056251 0 -0.35240556330307887 -0.18479875362473361 0 -0.33669316521431608 -0.19324526314955739 0 -0.35024140450074381 -0.20994798342056251 0 -0.36895563931783232 -0.19259611207654981 0 -0.37373608311303341 -0.20786508091529229 0 -0.35024140450074381 -0.20994798342056251 0 -0.37373608311303341 -0.20786508091529229 0 -0.35024140450074381 -0.20994798342056251 0 -0.37373608311303341 -0.20786508091529229 0 -0.35024140450074381 -0.20994798342056251 0 -0.36602803805366552 -0.21914337572849349 0 -0.37373608311303341 -0.20786508091529229 0 -0.36602803805366552 -0.21914337572849349 0 -0.37785639846487218 -0.21906994256996459 0 -0.35024140450074381 -0.20994798342056251 0 -0.357966965356528 -0.23170644806675769 0 -0.3377174746324717 -0.2284461722996495 0 -0.35024140450074381 -0.20994798342056251 0 -0.357966965356528 -0.23170644806675769 0 -0.36602803805366552 -0.21914337572849349 0 -0.357966965356528 -0.23170644806675769 0 -0.36602803805366552 -0.21914337572849349 0 -0.36983275924353248 -0.22875232439276311 0 -0.36602803805366552 -0.21914337572849349 0 -0.36983275924353248 -0.22875232439276311 0 -0.37785639846487218 -0.21906994256996459 0 -0.357966965356528 -0.23170644806675769 0 -0.36983275924353248 -0.22875232439276311 0 -0.37747963509906429 -0.24508953120583671 0 -0.35872453044413888 -0.25078889886649508 0 -0.357966965356528 -0.23170644806675769 0 -0.37747963509906429 -0.24508953120583671 0 -0.357966965356528 -0.23170644806675769 0 -0.34395992200845399 -0.24382677409400949 0 -0.3377174746324717 -0.2284461722996495 0 -0.35872453044413888 -0.25078889886649508 0 -0.357966965356528 -0.23170644806675769 0 -0.34395992200845399 -0.24382677409400949 0 -0.33345250408021371 -0.25331871279766999 0 -0.34395992200845399 -0.24382677409400949 0 -0.33132333615916232 -0.2411148243472106 0 -0.33345250408021371 -0.25331871279766999 0 -0.33132333615916232 -0.2411148243472106 0 -0.32023222063025569 -0.2489608815952247 0 -0.34395992200845399 -0.24382677409400949 0 -0.33132333615916232 -0.2411148243472106 0 -0.3377174746324717 -0.2284461722996495 0 -0.32674672588845421 -0.2120308859258328 0 -0.3377174746324717 -0.2284461722996495 0 -0.32066485276457768 -0.2334308190911655 0 -0.33132333615916232 -0.2411148243472106 0 -0.3377174746324717 -0.2284461722996495 0 -0.32066485276457768 -0.2334308190911655 0 -0.3004866401015065 -0.2269264896544945 0 -0.32674672588845421 -0.2120308859258328 0 -0.32066485276457768 -0.2334308190911655 0 -0.30748271917561598 -0.2431056607245809 0 -0.32066485276457768 -0.2334308190911655 0 -0.32023222063025569 -0.2489608815952247 0 -0.33132333615916232 -0.2411148243472106 0 -0.32066485276457768 -0.2334308190911655 0 -0.32023222063025569 -0.2489608815952247 0 -0.43445882011373449 -0.25478651907497341 0 -0.43806130733353449 -0.23541812032183559 0 -0.43445882011373449 -0.25478651907497341 0 -0.4258852610480256 -0.24284815888716721 0 -0.43806130733353449 -0.23541812032183559 0 -0.4258852610480256 -0.24284815888716721 0 -0.42538833238501789 -0.2333934851751748 0 -0.41698539980062188 -0.23875950084572559 0 -0.43445882011373449 -0.25478651907497341 0 -0.4258852610480256 -0.24284815888716721 0 -0.42335340856967768 -0.24893549408922019 0 -0.4258852610480256 -0.24284815888716721 0 -0.42538833238501789 -0.2333934851751748 0 -0.43806130733353449 -0.23541812032183559 0 -0.43091611572645672 -0.22699763907763329 0 -0.42538833238501789 -0.2333934851751748 0 -0.43806130733353449 -0.23541812032183559 0 -0.43091611572645672 -0.22699763907763329 0 -0.44166379455333399 -0.21604972156869759 0 -0.43806130733353449 -0.23541812032183559 0 -0.43091611572645672 -0.22699763907763329 0 -0.43133498143110582 -0.21921018883561361 0 -0.44166379455333399 -0.21604972156869759 0 -0.43133498143110582 -0.21921018883561361 0 -0.4232485836513401 -0.22477446532261011 0 -0.4232102070061276 -0.21869015764887889 0 -0.43091611572645672 -0.22699763907763329 0 -0.43133498143110582 -0.21921018883561361 0 -0.4232485836513401 -0.22477446532261011 0 -0.43091611572645672 -0.22699763907763329 0 -0.4232485836513401 -0.22477446532261011 0 -0.42538833238501789 -0.2333934851751748 0 -0.4232485836513401 -0.22477446532261011 0 -0.42538833238501789 -0.2333934851751748 0 -0.41731365953457839 -0.2310953018814938 0 -0.4232485836513401 -0.22477446532261011 0 -0.41731365953457839 -0.2310953018814938 0 -0.4121948509493269 -0.2247325638453028 0 -0.41731365953457839 -0.2310953018814938 0 -0.4080561583250083 -0.23272886934204159 0 -0.41698539980062188 -0.23875950084572559 0 -0.4232485836513401 -0.22477446532261011 0 -0.4121948509493269 -0.2247325638453028 0 -0.41685681033243982 -0.21746512418924929 0 -0.4232485836513401 -0.22477446532261011 0 -0.41685681033243982 -0.21746512418924929 0 -0.4232102070061276 -0.21869015764887889 0 -0.4121948509493269 -0.2247325638453028 0 -0.4080561583250083 -0.23272886934204159 0 -0.39971520205611372 -0.2221352637332015 0 -0.4121948509493269 -0.2247325638453028 0 -0.40807454407470489 -0.21592977391801271 0 -0.41685681033243982 -0.21746512418924929 0 -0.4121948509493269 -0.2247325638453028 0 -0.39971520205611372 -0.2221352637332015 0 -0.40807454407470489 -0.21592977391801271 0 -0.41731365953457839 -0.2310953018814938 0 -0.4121948509493269 -0.2247325638453028 0 -0.4080561583250083 -0.23272886934204159 0 -0.4080561583250083 -0.23272886934204159 0 -0.40983148527785651 -0.24118391776602099 0 -0.41698539980062188 -0.23875950084572559 0 -0.42538833238501789 -0.2333934851751748 0 -0.41731365953457839 -0.2310953018814938 0 -0.41698539980062188 -0.23875950084572559 0 -0.40983148527785651 -0.24118391776602099 0 -0.41698539980062188 -0.23875950084572559 0 -0.41627810448972868 -0.24641300060905449 0 -0.4258852610480256 -0.24284815888716721 0 -0.42335340856967768 -0.24893549408922019 0 -0.41627810448972868 -0.24641300060905449 0 -0.4258852610480256 -0.24284815888716721 0 -0.41698539980062188 -0.23875950084572559 0 -0.41627810448972868 -0.24641300060905449 0 -0.41679144862722167 -0.25169429778568547 0 -0.42335340856967768 -0.24893549408922019 0 -0.41627810448972868 -0.24641300060905449 0 -0.41385673751816382 -0.25312989710486528 0 -0.41627810448972868 -0.24641300060905449 0 -0.4086566941719203 -0.24778871483445111 0 -0.40983148527785651 -0.24118391776602099 0 -0.41627810448972868 -0.24641300060905449 0 -0.4086566941719203 -0.24778871483445111 0 -0.40282532782868952 -0.25224285689579767 0 -0.4086566941719203 -0.24778871483445111 0 -0.40022281387448849 -0.24084313907701979 0 -0.40983148527785651 -0.24118391776602099 0 -0.4086566941719203 -0.24778871483445111 0 -0.40022281387448849 -0.24084313907701979 0 -0.4080561583250083 -0.23272886934204159 0 -0.40983148527785651 -0.24118391776602099 0 -0.40022281387448849 -0.24084313907701979 0 -0.40022281387448849 -0.24084313907701979 0 -0.3903832871219331 -0.2411545733314838 0 -0.38772777019650018 -0.2315142496456449 0 -0.3938256931015453 -0.25037754026629511 0 -0.40022281387448849 -0.24084313907701979 0 -0.3903832871219331 -0.2411545733314838 0 -0.3938256931015453 -0.25037754026629511 0 -0.3903832871219331 -0.2411545733314838 0 -0.37747963509906429 -0.24508953120583671 0 -0.3903832871219331 -0.2411545733314838 0 -0.37747963509906429 -0.24508953120583671 0 -0.38772777019650018 -0.2315142496456449 0 -0.37747963509906429 -0.24508953120583671 0 -0.37785639846487218 -0.21906994256996459 0 -0.37747963509906429 -0.24508953120583671 0 -0.37785639846487218 -0.21906994256996459 0 -0.38772777019650018 -0.2315142496456449 0 -0.36983275924353248 -0.22875232439276311 0 -0.37747963509906429 -0.24508953120583671 0 -0.37785639846487218 -0.21906994256996459 0 -0.37785639846487218 -0.21906994256996459 0 -0.38772777019650018 -0.2315142496456449 0 -0.38790285805175961 -0.2167146319195192 0 -0.4080561583250083 -0.23272886934204159 0 -0.40022281387448849 -0.24084313907701979 0 -0.39971520205611372 -0.2221352637332015 0 -0.40022281387448849 -0.24084313907701979 0 -0.39971520205611372 -0.2221352637332015 0 -0.38772777019650018 -0.2315142496456449 0 -0.39971520205611372 -0.2221352637332015 0 -0.38790285805175961 -0.2167146319195192 0 -0.40022281387448849 -0.24084313907701979 0 -0.38772777019650018 -0.2315142496456449 0 -0.39971520205611372 -0.2221352637332015 0 -0.39971520205611372 -0.2221352637332015 0 -0.39723076172532301 -0.205782178410022 0 -0.40807454407470489 -0.21592977391801271 0 -0.39971520205611372 -0.2221352637332015 0 -0.39723076172532301 -0.205782178410022 0 -0.38790285805175961 -0.2167146319195192 0 -0.39723076172532301 -0.205782178410022 0 -0.41303892827123678 -0.21093405469715851 0 -0.40807454407470489 -0.21592977391801271 0 -0.37373608311303341 -0.20786508091529229 0 -0.39723076172532301 -0.205782178410022 0 -0.38370630256805799 -0.1971119561512929 0 -0.37373608311303341 -0.20786508091529229 0 -0.39723076172532301 -0.205782178410022 0 -0.38790285805175961 -0.2167146319195192 0 -0.37373608311303341 -0.20786508091529229 0 -0.39723076172532301 -0.205782178410022 0 -0.37373608311303341 -0.20786508091529229 0 -0.37785639846487218 -0.21906994256996459 0 -0.38790285805175961 -0.2167146319195192 0 -0.36895563931783232 -0.19259611207654981 0 -0.38370630256805799 -0.1971119561512929 0 -0.3831693110633177 -0.1873742460103984 0 -0.36895563931783232 -0.19259611207654981 0 -0.37373608311303341 -0.20786508091529229 0 -0.38370630256805799 -0.1971119561512929 0 -0.38370630256805799 -0.1971119561512929 0 -0.39543971762078378 -0.19194216334420211 0 -0.3831693110633177 -0.1873742460103984 0 -0.39723076172532301 -0.205782178410022 0 -0.38370630256805799 -0.1971119561512929 0 -0.39543971762078378 -0.19194216334420211 0 -0.39723076172532301 -0.205782178410022 0 -0.39543971762078378 -0.19194216334420211 0 -0.40534117689708921 -0.19634387975323889 0 -0.39543971762078378 -0.19194216334420211 0 -0.40534117689708921 -0.19634387975323889 0 -0.40730162077548249 -0.18407395049314179 0 -0.39723076172532301 -0.205782178410022 0 -0.40534117689708921 -0.19634387975323889 0 -0.42072544033761272 -0.20369927590475301 0 -0.42032122747045741 -0.1927313373696285 0 -0.42072544033761272 -0.20369927590475301 0 -0.40730162077548249 -0.18407395049314179 0 -0.42072544033761272 -0.20369927590475301 0 -0.40730162077548249 -0.18407395049314179 0 -0.40534117689708921 -0.19634387975323889 0 -0.42072544033761272 -0.20369927590475301 0 -0.40730162077548249 -0.18407395049314179 0 -0.39723076172532301 -0.205782178410022 0 -0.41303892827123678 -0.21093405469715851 0 -0.42072544033761272 -0.20369927590475301 0 -0.39723076172532301 -0.205782178410022 0 -0.42072544033761272 -0.20369927590475301 0 -0.41303892827123678 -0.21093405469715851 0 -0.40807454407470489 -0.21592977391801271 0 -0.41685681033243982 -0.21746512418924929 0 -0.41303892827123678 -0.21093405469715851 0 -0.41685681033243982 -0.21746512418924929 0 -0.42140045260962489 -0.21331085224804261 0 -0.41685681033243982 -0.21746512418924929 0 -0.42140045260962489 -0.21331085224804261 0 -0.4232102070061276 -0.21869015764887889 0 -0.41303892827123678 -0.21093405469715851 0 -0.42140045260962489 -0.21331085224804261 0 -0.42072544033761272 -0.20369927590475301 0 -0.42512182626149492 -0.2033095177213731 0 -0.43378961613155448 -0.20908682079381441 0 -0.44184138868315109 -0.20247798044170351 0 -0.42072544033761272 -0.20369927590475301 0 -0.42512182626149492 -0.2033095177213731 0 -0.43133498143110582 -0.21921018883561361 0 -0.42072544033761272 -0.20369927590475301 0 -0.42512182626149492 -0.2033095177213731 0 -0.43133498143110582 -0.21921018883561361 0 -0.42512182626149492 -0.2033095177213731 0 -0.43378961613155448 -0.20908682079381441 0 -0.43133498143110582 -0.21921018883561361 0 -0.42140045260962489 -0.21331085224804261 0 -0.4232102070061276 -0.21869015764887889 0 -0.43133498143110582 -0.21921018883561361 0 -0.42072544033761272 -0.20369927590475301 0 -0.43133498143110582 -0.21921018883561361 0 -0.42140045260962489 -0.21331085224804261 0 -0.42072544033761272 -0.20369927590475301 0 -0.43133498143110582 -0.21921018883561361 0 -0.43378961613155448 -0.20908682079381441 0 -0.44166379455333399 -0.21604972156869759 0 -0.42032122747045741 -0.1927313373696285 0 -0.44184138868315109 -0.20247798044170351 0 -0.42032122747045741 -0.1927313373696285 0 -0.43099962817645188 -0.18319011649723049 0 -0.43833565968517207 -0.19112957676178299 0 -0.42032122747045741 -0.1927313373696285 0 -0.42512182626149492 -0.2033095177213731 0 -0.44184138868315109 -0.20247798044170351 0 -0.42032122747045741 -0.1927313373696285 0 -0.43833565968517207 -0.19112957676178299 0 -0.44184138868315109 -0.20247798044170351 0 -0.42032122747045741 -0.1927313373696285 0 -0.42072544033761272 -0.20369927590475301 0 -0.42512182626149492 -0.2033095177213731 0 -0.42549584187692119 -0.17333418479170171 0 -0.43099962817645188 -0.18319011649723049 0 -0.41834400919125792 -0.18158621355319651 0 -0.42032122747045741 -0.1927313373696285 0 -0.43099962817645188 -0.18319011649723049 0 -0.41834400919125792 -0.18158621355319651 0 -0.43099962817645188 -0.18319011649723049 0 -0.43495901877196291 -0.17485617288990979 0 -0.44455133712372419 -0.18300714728765441 0 -0.42549584187692119 -0.17333418479170171 0 -0.43099962817645188 -0.18319011649723049 0 -0.43495901877196291 -0.17485617288990979 0 -0.42549584187692119 -0.17333418479170171 0 -0.43495901877196291 -0.17485617288990979 0 -0.43155613508544272 -0.1669321437644439 0 -0.43495901877196291 -0.17485617288990979 0 -0.43155613508544272 -0.1669321437644439 0 -0.44219215159727421 -0.16781727210851849 0 -0.43155613508544272 -0.1669321437644439 0 -0.43166640735559808 -0.1552039120346444 0 -0.44219215159727421 -0.16781727210851849 0 -0.43155613508544272 -0.1669321437644439 0 -0.4214232379976206 -0.16216052115063159 0 -0.43166640735559808 -0.1552039120346444 0 -0.42549584187692119 -0.17333418479170171 0 -0.43155613508544272 -0.1669321437644439 0 -0.4214232379976206 -0.16216052115063159 0 -0.42549584187692119 -0.17333418479170171 0 -0.4214232379976206 -0.16216052115063159 0 -0.41110577652129249 -0.1670682470007229 0 -0.4214232379976206 -0.16216052115063159 0 -0.41110577652129249 -0.1670682470007229 0 -0.40669002996807779 -0.1495058137550834 0 -0.41110577652129249 -0.1670682470007229 0 -0.41834400919125792 -0.18158621355319651 0 -0.40730162077548249 -0.18407395049314179 0 -0.42549584187692119 -0.17333418479170171 0 -0.41110577652129249 -0.1670682470007229 0 -0.41834400919125792 -0.18158621355319651 0 -0.42032122747045741 -0.1927313373696285 0 -0.41834400919125792 -0.18158621355319651 0 -0.40730162077548249 -0.18407395049314179 0 -0.39543971762078378 -0.19194216334420211 0 -0.40730162077548249 -0.18407395049314179 0 -0.39267839793348491 -0.17927693187167279 0 -0.40730162077548249 -0.18407395049314179 0 -0.39267839793348491 -0.17927693187167279 0 -0.39387780121335469 -0.16444862508152899 0 -0.40730162077548249 -0.18407395049314179 0 -0.39387780121335469 -0.16444862508152899 0 -0.37378547386561772 -0.17392500984250869 0 -0.36895563931783232 -0.19259611207654981 0 -0.3831693110633177 -0.1873742460103984 0 -0.37378547386561772 -0.17392500984250869 0 -0.39267839793348491 -0.17927693187167279 0 -0.3831693110633177 -0.1873742460103984 0 -0.37378547386561772 -0.17392500984250869 0 -0.39267839793348491 -0.17927693187167279 0 -0.39387780121335469 -0.16444862508152899 0 -0.39543971762078378 -0.19194216334420211 0 -0.39267839793348491 -0.17927693187167279 0 -0.3831693110633177 -0.1873742460103984 0 -0.37378547386561772 -0.17392500984250869 0 -0.37839901512320262 -0.15996290040625341 0 -0.39387780121335469 -0.16444862508152899 0 -0.37839901512320262 -0.15996290040625341 0 -0.39387780121335469 -0.16444862508152899 0 -0.3804539816512269 -0.14482329966991631 0 -0.41110577652129249 -0.1670682470007229 0 -0.39387780121335469 -0.16444862508152899 0 -0.40669002996807779 -0.1495058137550834 0 -0.41110577652129249 -0.1670682470007229 0 -0.40730162077548249 -0.18407395049314179 0 -0.39387780121335469 -0.16444862508152899 0 -0.39387780121335469 -0.16444862508152899 0 -0.3804539816512269 -0.14482329966991631 0 -0.40669002996807779 -0.1495058137550834 0 -0.3804539816512269 -0.14482329966991631 0 -0.39647179587780151 -0.13189450107720049 0 -0.40669002996807779 -0.1495058137550834 0 -0.3804539816512269 -0.14482329966991631 0 -0.40669002996807779 -0.1495058137550834 0 -0.39387780121335469 -0.16444862508152899 0 -0.3804539816512269 -0.14482329966991631 0 -0.3804539816512269 -0.14482329966991631 0 -0.38278168804071749 -0.12940228238898679 0 -0.39647179587780151 -0.13189450107720049 0 -0.3804539816512269 -0.14482329966991631 0 -0.39647179587780151 -0.13189450107720049 0 -0.37212838853434238 -0.11808059788504249 0 -0.37028068739271691 -0.13083580994494901 0 -0.38278168804071749 -0.12940228238898679 0 -0.37028068739271691 -0.13083580994494901 0 -0.3804539816512269 -0.14482329966991631 0 -0.38278168804071749 -0.12940228238898679 0 -0.38278168804071749 -0.12940228238898679 0 -0.39647179587780151 -0.13189450107720049 0 -0.39044023874876249 -0.11757149150947201 0 -0.39647179587780151 -0.13189450107720049 0 -0.40828286160401828 -0.1310364195873514 0 -0.40669002996807779 -0.1495058137550834 0 -0.39647179587780151 -0.13189450107720049 0 -0.40828286160401828 -0.1310364195873514 0 -0.41122993917504558 -0.1199812866788818 0 -0.39647179587780151 -0.13189450107720049 0 -0.41122993917504558 -0.1199812866788818 0 -0.40828286160401828 -0.1310364195873514 0 -0.41930562378398423 -0.12797048681614909 0 -0.41122993917504558 -0.1199812866788818 0 -0.41930562378398423 -0.12797048681614909 0 -0.41533589961201212 -0.13938201891822019 0 -0.4273858072007774 -0.14414008567558009 0 -0.40828286160401828 -0.1310364195873514 0 -0.41533589961201212 -0.13938201891822019 0 -0.40669002996807779 -0.1495058137550834 0 -0.40828286160401828 -0.1310364195873514 0 -0.41930562378398423 -0.12797048681614909 0 -0.41533589961201212 -0.13938201891822019 0 -0.40669002996807779 -0.1495058137550834 0 -0.43166640735559808 -0.1552039120346444 0 -0.4214232379976206 -0.16216052115063159 0 -0.40669002996807779 -0.1495058137550834 0 -0.43166640735559808 -0.1552039120346444 0 -0.41533589961201212 -0.13938201891822019 0 -0.40669002996807779 -0.1495058137550834 0 -0.4273858072007774 -0.14414008567558009 0 -0.40669002996807779 -0.1495058137550834 0 -0.4273858072007774 -0.14414008567558009 0 -0.43166640735559808 -0.1552039120346444 0 -0.43166640735559808 -0.1552039120346444 0 -0.43525592456887258 -0.14374997194848471 0 -0.44410307239699631 -0.15282998285397989 0 -0.4273858072007774 -0.14414008567558009 0 -0.43166640735559808 -0.1552039120346444 0 -0.43525592456887258 -0.14374997194848471 0 -0.41930562378398423 -0.12797048681614909 0 -0.43525592456887258 -0.14374997194848471 0 -0.41930562378398423 -0.12797048681614909 0 -0.4273858072007774 -0.14414008567558009 0 -0.43525592456887258 -0.14374997194848471 0 -0.41930562378398423 -0.12797048681614909 0 -0.4273858072007774 -0.14414008567558009 0 -0.41930562378398423 -0.12797048681614909 0 -0.43525592456887258 -0.14374997194848471 0 -0.43389101300267191 -0.13422730327376839 0 -0.41930562378398423 -0.12797048681614909 0 -0.43389101300267191 -0.13422730327376839 0 -0.4149348530849476 -0.1169905694289516 0 -0.43389101300267191 -0.13422730327376839 0 -0.4149348530849476 -0.1169905694289516 0 -0.43389101300267191 -0.13422730327376839 0 -0.43160182387889101 -0.1187955019330571 0 -0.44085253015216358 -0.1237950587173612 0 -0.43389101300267191 -0.13422730327376839 0 -0.44872577578551592 -0.13320174295465559 0 -0.452847172920396 -0.1514640371185853 0 -0.44872577578551592 -0.13320174295465559 0 -0.45896755277767909 -0.12575633132281341 0 -0.45000974795797011 -0.119430952696417 0 -0.44872577578551592 -0.13320174295465559 0 -0.45000974795797011 -0.119430952696417 0 -0.44085253015216358 -0.1237950587173612 0 -0.43389101300267191 -0.13422730327376839 0 -0.44872577578551592 -0.13320174295465559 0 -0.44085253015216358 -0.1237950587173612 0 -0.43525592456887258 -0.14374997194848471 0 -0.43389101300267191 -0.13422730327376839 0 -0.452847172920396 -0.1514640371185853 0 -0.43525592456887258 -0.14374997194848471 0 -0.44410307239699631 -0.15282998285397989 0 -0.452847172920396 -0.1514640371185853 0 -0.44872577578551592 -0.13320174295465559 0 -0.452847172920396 -0.1514640371185853 0 -0.456386085566235 -0.14096643446963419 0 -0.43389101300267191 -0.13422730327376839 0 -0.452847172920396 -0.1514640371185853 0 -0.44410307239699631 -0.15282998285397989 0 -0.452847172920396 -0.1514640371185853 0 -0.45664278474311831 -0.16090201031420531 0 -0.452847172920396 -0.1514640371185853 0 -0.456386085566235 -0.14096643446963419 0 -0.46738274896045578 -0.15003021006820461 0 -0.452847172920396 -0.1514640371185853 0 -0.46738274896045578 -0.15003021006820461 0 -0.45664278474311831 -0.16090201031420531 0 -0.456386085566235 -0.14096643446963419 0 -0.46738274896045578 -0.15003021006820461 0 -0.47200539146090159 -0.13839174763128981 0 -0.456386085566235 -0.14096643446963419 0 -0.47200539146090159 -0.13839174763128981 0 -0.47750202174635031 -0.1215216316744509 0 -0.456386085566235 -0.14096643446963419 0 -0.45896755277767909 -0.12575633132281341 0 -0.47750202174635031 -0.1215216316744509 0 -0.456386085566235 -0.14096643446963419 0 -0.47750202174635031 -0.1215216316744509 0 -0.44872577578551592 -0.13320174295465559 0 -0.456386085566235 -0.14096643446963419 0 -0.45896755277767909 -0.12575633132281341 0 -0.47200539146090159 -0.13839174763128981 0 -0.48675070957056549 -0.14104871431286931 0 -0.47750202174635031 -0.1215216316744509 0 -0.50000000000000011 -0.12648838757554831 0 -0.48675070957056549 -0.14104871431286931 0 -0.5 -0.15043640832747529 0 -0.50000000000000011 -0.12648838757554831 0 -0.48675070957056549 -0.14104871431286931 0 -0.47750202174635031 -0.1215216316744509 0 -0.48675070957056549 -0.14104871431286931 0 -0.5 -0.15043640832747529 0 -0.48062174440056549 -0.15969986187448909 0 -0.46738274896045578 -0.15003021006820461 0 -0.47200539146090159 -0.13839174763128981 0 -0.48675070957056549 -0.14104871431286931 0 -0.48675070957056549 -0.14104871431286931 0 -0.48062174440056549 -0.15969986187448909 0 -0.46738274896045578 -0.15003021006820461 0 -0.48675070957056549 -0.14104871431286931 0 -0.48062174440056549 -0.15969986187448909 0 -0.48062174440056549 -0.15969986187448909 0 -0.46548313673471758 -0.16971310035941381 0 -0.46753260370971428 -0.1600862956540782 0 -0.46738274896045578 -0.15003021006820461 0 -0.48062174440056549 -0.15969986187448909 0 -0.46753260370971428 -0.1600862956540782 0 -0.48062174440056549 -0.15969986187448909 0 -0.47449277923056221 -0.17835100943610771 0 -0.46548313673471758 -0.16971310035941381 0 -0.48062174440056549 -0.15969986187448909 0 -0.47449277923056221 -0.17835100943610771 0 -0.5 -0.15043640832747529 0 -0.48062174440056549 -0.15969986187448909 0 -0.49999999999999828 -0.17438442907940241 0 -0.48062174440056549 -0.15969986187448909 0 -0.49999999999999828 -0.17438442907940241 0 -0.47449277923056221 -0.17835100943610771 0 -0.49999999999999828 -0.17438442907940241 0 -0.47449277923056221 -0.17835100943610771 0 -0.49999999999999828 -0.17438442907940241 0 -0.47449277923056221 -0.17835100943610771 0 -0.48549376880548989 -0.19132810400505559 0 -0.47449277923056221 -0.17835100943610771 0 -0.46892716456320649 -0.19528781647494389 0 -0.47449277923056221 -0.17835100943610771 0 -0.45952205817714309 -0.18067907836188021 0 -0.46892716456320649 -0.19528781647494389 0 -0.45952205817714309 -0.18067907836188021 0 -0.46548313673471758 -0.16971310035941381 0 -0.45289664290439807 -0.17180374819378549 0 -0.47449277923056221 -0.17835100943610771 0 -0.45952205817714309 -0.18067907836188021 0 -0.47449277923056221 -0.17835100943610771 0 -0.45952205817714309 -0.18067907836188021 0 -0.46548313673471758 -0.16971310035941381 0 -0.46548313673471758 -0.16971310035941381 0 -0.46753260370971428 -0.1600862956540782 0 -0.45664278474311831 -0.16090201031420531 0 -0.46738274896045578 -0.15003021006820461 0 -0.46753260370971428 -0.1600862956540782 0 -0.45664278474311831 -0.16090201031420531 0 -0.46548313673471758 -0.16971310035941381 0 -0.45664278474311831 -0.16090201031420531 0 -0.45289664290439807 -0.17180374819378549 0 -0.45664278474311831 -0.16090201031420531 0 -0.45289664290439807 -0.17180374819378549 0 -0.44219215159727421 -0.16781727210851849 0 -0.43166640735559808 -0.1552039120346444 0 -0.45664278474311831 -0.16090201031420531 0 -0.44219215159727421 -0.16781727210851849 0 -0.43166640735559808 -0.1552039120346444 0 -0.45664278474311831 -0.16090201031420531 0 -0.43166640735559808 -0.1552039120346444 0 -0.44410307239699631 -0.15282998285397989 0 -0.45664278474311831 -0.16090201031420531 0 -0.43495901877196291 -0.17485617288990979 0 -0.44219215159727421 -0.16781727210851849 0 -0.44455133712372419 -0.18300714728765441 0 -0.43099962817645188 -0.18319011649723049 0 -0.44455133712372419 -0.18300714728765441 0 -0.43833565968517207 -0.19112957676178299 0 -0.45952205817714309 -0.18067907836188021 0 -0.44455133712372419 -0.18300714728765441 0 -0.45396471697207569 -0.194241302212698 0 -0.45952205817714309 -0.18067907836188021 0 -0.44455133712372419 -0.18300714728765441 0 -0.45952205817714309 -0.18067907836188021 0 -0.45289664290439807 -0.17180374819378549 0 -0.44455133712372419 -0.18300714728765441 0 -0.45289664290439807 -0.17180374819378549 0 -0.44219215159727421 -0.16781727210851849 0 -0.44455133712372419 -0.18300714728765441 0 -0.44455133712372419 -0.18300714728765441 0 -0.43833565968517207 -0.19112957676178299 0 -0.45396471697207569 -0.194241302212698 0 -0.43833565968517207 -0.19112957676178299 0 -0.44184138868315109 -0.20247798044170351 0 -0.45396471697207569 -0.194241302212698 0 -0.44184138868315109 -0.20247798044170351 0 -0.46336154989584488 -0.2122246235137781 0 -0.45396471697207569 -0.194241302212698 0 -0.44184138868315109 -0.20247798044170351 0 -0.46336154989584488 -0.2122246235137781 0 -0.45338394269579491 -0.2190794284651259 0 -0.43378961613155448 -0.20908682079381441 0 -0.44184138868315109 -0.20247798044170351 0 -0.44166379455333399 -0.21604972156869759 0 -0.44184138868315109 -0.20247798044170351 0 -0.44166379455333399 -0.21604972156869759 0 -0.45338394269579491 -0.2190794284651259 0 -0.44184138868315109 -0.20247798044170351 0 -0.46336154989584488 -0.2122246235137781 0 -0.46336154989584488 -0.2122246235137781 0 -0.46892716456320649 -0.19528781647494389 0 -0.46336154989584488 -0.2122246235137781 0 -0.45396471697207569 -0.194241302212698 0 -0.46892716456320649 -0.19528781647494389 0 -0.45952205817714309 -0.18067907836188021 0 -0.45396471697207569 -0.194241302212698 0 -0.46892716456320649 -0.19528781647494389 0 -0.47449277923056221 -0.17835100943610771 0 -0.46892716456320649 -0.19528781647494389 0 -0.48549376880548989 -0.19132810400505559 0 -0.46892716456320649 -0.19528781647494389 0 -0.48549376880548989 -0.19132810400505559 0 -0.47978640147694102 -0.20418872613165631 0 -0.5 -0.20182215567114031 0 -0.48549376880548989 -0.19132810400505559 0 -0.47978640147694102 -0.20418872613165631 0 -0.49999999999999828 -0.17438442907940241 0 -0.5 -0.20182215567114031 0 -0.48549376880548989 -0.19132810400505559 0 -0.5 -0.20182215567114031 0 -0.48114952412016337 -0.22028093099336349 0 -0.49893749834448198 -0.22833723847294871 0 -0.5 -0.20182215567114031 0 -0.47978640147694102 -0.20418872613165631 0 -0.48114952412016337 -0.22028093099336349 0 -0.46336154989584488 -0.2122246235137781 0 -0.48114952412016337 -0.22028093099336349 0 -0.46336154989584488 -0.2122246235137781 0 -0.47978640147694102 -0.20418872613165631 0 -0.48114952412016337 -0.22028093099336349 0 -0.46336154989584488 -0.2122246235137781 0 -0.46892716456320649 -0.19528781647494389 0 -0.47978640147694102 -0.20418872613165631 0 -0.46336154989584488 -0.2122246235137781 0 -0.48114952412016337 -0.22028093099336349 0 -0.46857810181099829 -0.22486784275082261 0 -0.48114952412016337 -0.22028093099336349 0 -0.48798868478634799 -0.231470988200419 0 -0.47142395938804471 -0.23802335247430181 0 -0.48114952412016337 -0.22028093099336349 0 -0.47142395938804471 -0.23802335247430181 0 -0.46857810181099829 -0.22486784275082261 0 -0.48114952412016337 -0.22028093099336349 0 -0.48798868478634799 -0.231470988200419 0 -0.49893749834448198 -0.22833723847294871 0 -0.48114952412016337 -0.22028093099336349 0 -0.49893749834448198 -0.22833723847294871 0 -0.48798868478634799 -0.231470988200419 0 -0.49893749834448198 -0.22833723847294871 0 -0.4875835208682564 -0.24248539692068891 0 -0.5 -0.25669760885461612 0 -0.49893749834448198 -0.22833723847294871 0 -0.4875835208682564 -0.24248539692068891 0 -0.48798868478634799 -0.231470988200419 0 -0.4875835208682564 -0.24248539692068891 0 -0.47142395938804471 -0.23802335247430181 0 -0.47878778985378329 -0.25835102983948688 0 -0.4875835208682564 -0.24248539692068891 0 -0.47142395938804471 -0.23802335247430181 0 -0.45662330498375908 -0.25656877445722759 0 -0.47142395938804471 -0.23802335247430181 0 -0.45034617445999431 -0.24335722649563979 0 -0.47142395938804471 -0.23802335247430181 0 -0.45735065046854989 -0.23051648340969341 0 -0.45034617445999431 -0.24335722649563979 0 -0.46336154989584488 -0.2122246235137781 0 -0.46857810181099829 -0.22486784275082261 0 -0.45735065046854989 -0.23051648340969341 0 -0.46336154989584488 -0.2122246235137781 0 -0.45735065046854989 -0.23051648340969341 0 -0.47142395938804471 -0.23802335247430181 0 -0.46857810181099829 -0.22486784275082261 0 -0.45735065046854989 -0.23051648340969341 0 -0.46336154989584488 -0.2122246235137781 0 -0.45338394269579491 -0.2190794284651259 0 -0.45735065046854989 -0.23051648340969341 0 -0.45338394269579491 -0.2190794284651259 0 -0.45735065046854989 -0.23051648340969341 0 -0.43806130733353449 -0.23541812032183559 0 -0.44166379455333399 -0.21604972156869759 0 -0.43806130733353449 -0.23541812032183559 0 -0.44166379455333399 -0.21604972156869759 0 -0.45338394269579491 -0.2190794284651259 0 -0.43806130733353449 -0.23541812032183559 0 -0.45735065046854989 -0.23051648340969341 0 -0.45034617445999431 -0.24335722649563979 0 -0.43806130733353449 -0.23541812032183559 0 -0.43445882011373449 -0.25478651907497341 0 -0.45034617445999431 -0.24335722649563979 0 -0.43806130733353449 -0.23541812032183559 0 -0.41324955929443102 -0.038374170610562031 0 -0.41005136228565903 -0.05540387285823338 0 -0.42435348212729052 -0.04457483879584373 0 -0.41324955929443102 -0.038374170610562031 0 -0.41005136228565903 -0.05540387285823338 0 -0.39900851660089293 -0.046429079601448257 0 -0.41324955929443102 -0.038374170610562031 0 -0.40747857107326091 -0.02424585309778798 0 -0.40045416304880688 -0.034240371911693122 0 -0.41005136228565903 -0.05540387285823338 0 -0.4246600563061857 -0.059067830999859447 0 -0.41422906440869389 -0.068128229862373102 0 -0.41005136228565903 -0.05540387285823338 0 -0.4246600563061857 -0.059067830999859447 0 -0.42435348212729052 -0.04457483879584373 0 -0.4246600563061857 -0.059067830999859447 0 -0.42435348212729052 -0.04457483879584373 0 -0.43957367317472601 -0.045089571971719818 0 -0.4246600563061857 -0.059067830999859447 0 -0.43957367317472601 -0.045089571971719818 0 -0.44544580640037118 -0.056213229689383748 0 -0.41324955929443102 -0.038374170610562031 0 -0.42435348212729052 -0.04457483879584373 0 -0.42981912379901888 -0.030443092666165631 0 -0.42435348212729052 -0.04457483879584373 0 -0.42981912379901888 -0.030443092666165631 0 -0.43957367317472601 -0.045089571971719818 0 -0.41302196833726168 -0.01226972299954816 0 -0.4392085005598273 -0.024676348383282701 0 -0.42659341977192161 -0.010103830507352861 0 -0.41302196833726168 -0.01226972299954816 0 -0.4392085005598273 -0.024676348383282701 0 -0.42981912379901888 -0.030443092666165631 0 -0.41673372021425997 -0.022240754673565791 0 -0.4392085005598273 -0.024676348383282701 0 -0.41302196833726168 -0.01226972299954816 0 -0.41673372021425997 -0.022240754673565791 0 -0.4392085005598273 -0.024676348383282701 0 -0.43741768347029059 -0.01288367903972009 0 -0.42659341977192161 -0.010103830507352861 0 -0.4392085005598273 -0.024676348383282701 0 -0.4441818909265971 -0.00998157505946092 0 -0.42578104856505677 0.0031949168855625672 0 -0.43741768347029059 -0.01288367903972009 0 -0.4441818909265971 -0.00998157505946092 0 -0.42578104856505677 0.0031949168855625672 0 -0.43741768347029059 -0.01288367903972009 0 -0.42659341977192161 -0.010103830507352861 0 -0.42578104856505677 0.0031949168855625672 0 -0.43741768347029059 -0.01288367903972009 0 -0.42578104856505677 0.0031949168855625672 0 -0.42659341977192161 -0.010103830507352861 0 -0.41753789792717189 -0.0038843189997757009 0 -0.42578104856505677 0.0031949168855625672 0 -0.42659341977192161 -0.010103830507352861 0 -0.41753789792717189 -0.0038843189997757009 0 -0.41302196833726168 -0.01226972299954816 0 -0.41753789792717189 -0.0038843189997757009 0 -0.41302196833726168 -0.01226972299954816 0 -0.40771050441737638 -0.0035262849216432719 0 -0.41753789792717189 -0.0038843189997757009 0 -0.40771050441737638 -0.0035262849216432719 0 -0.41105156913745711 0.0034129409419674369 0 -0.42981912379901888 -0.030443092666165631 0 -0.40747857107326091 -0.02424585309778798 0 -0.41324955929443102 -0.038374170610562031 0 -0.42981912379901888 -0.030443092666165631 0 -0.40747857107326091 -0.02424585309778798 0 -0.42981912379901888 -0.030443092666165631 0 -0.41673372021425997 -0.022240754673565791 0 -0.40747857107326091 -0.02424585309778798 0 -0.41302196833726168 -0.01226972299954816 0 -0.41673372021425997 -0.022240754673565791 0 -0.40747857107326091 -0.02424585309778798 0 -0.41673372021425997 -0.022240754673565791 0 -0.40747857107326091 -0.02424585309778798 0 -0.40747857107326091 -0.02424585309778798 0 -0.38992317137517202 -0.02804917422583518 0 -0.40747857107326091 -0.02424585309778798 0 -0.38992317137517202 -0.02804917422583518 0 -0.38297625517291389 -0.017448943304264108 0 -0.40747857107326091 -0.02424585309778798 0 -0.38992317137517202 -0.02804917422583518 0 -0.40045416304880688 -0.034240371911693122 0 -0.40747857107326091 -0.02424585309778798 0 -0.39567459441968961 -0.012635194689989219 0 -0.38297625517291389 -0.017448943304264108 0 -0.40747857107326091 -0.02424585309778798 0 -0.38297625517291389 -0.017448943304264108 0 -0.41302196833726168 -0.01226972299954816 0 -0.40747857107326091 -0.02424585309778798 0 -0.39567459441968961 -0.012635194689989219 0 -0.41302196833726168 -0.01226972299954816 0 -0.40771050441737638 -0.0035262849216432719 0 -0.38683543611469601 0.0001369023841863784 0 -0.41302196833726168 -0.01226972299954816 0 -0.39567459441968961 -0.012635194689989219 0 -0.38683543611469601 0.0001369023841863784 0 -0.41302196833726168 -0.01226972299954816 0 -0.38683543611469601 0.0001369023841863784 0 -0.40771050441737638 -0.0035262849216432719 0 -0.38683543611469601 0.0001369023841863784 0 -0.40226596945639398 0.0014711925349297271 0 -0.39567459441968961 -0.012635194689989219 0 -0.38502252263107412 -0.0084426060797158468 0 -0.38683543611469601 0.0001369023841863784 0 -0.39567459441968961 -0.012635194689989219 0 -0.38502252263107412 -0.0084426060797158468 0 -0.38297625517291389 -0.017448943304264108 0 -0.38502252263107412 -0.0084426060797158468 0 -0.38009964520605882 -0.0090403485437739461 0 -0.38297625517291389 -0.017448943304264108 0 -0.37278444596104371 -0.0079457960458173115 0 -0.38009964520605882 -0.0090403485437739461 0 -0.38297625517291389 -0.017448943304264108 0 -0.37474494217865062 -0.0022388935110706832 0 -0.38502252263107412 -0.0084426060797158468 0 -0.38683543611469601 0.0001369023841863784 0 -0.37474494217865062 -0.0022388935110706832 0 -0.38502252263107412 -0.0084426060797158468 0 -0.38009964520605882 -0.0090403485437739461 0 -0.37474494217865062 -0.0022388935110706832 0 -0.37278444596104371 -0.0079457960458173115 0 -0.38009964520605882 -0.0090403485437739461 0 -0.37236777167708351 -0.031852495353884333 0 -0.38992317137517202 -0.02804917422583518 0 -0.37990921189048049 -0.023302515363219579 0 -0.37236777167708351 -0.031852495353884333 0 -0.38992317137517202 -0.02804917422583518 0 -0.38992317137517202 -0.02804917422583518 0 -0.38297625517291389 -0.017448943304264108 0 -0.37990921189048049 -0.023302515363219579 0 -0.3739022591900184 -0.02415390189740213 0 -0.38297625517291389 -0.017448943304264108 0 -0.37990921189048049 -0.023302515363219579 0 -0.37236777167708351 -0.031852495353884333 0 -0.3739022591900184 -0.02415390189740213 0 -0.37990921189048049 -0.023302515363219579 0 -0.37236777167708351 -0.031852495353884333 0 -0.37990921189048049 -0.023302515363219579 0 -0.38458287424021398 -0.039388642062709187 0 -0.39900851660089293 -0.046429079601448257 0 -0.3815482533063424 -0.052412606119804542 0 -0.37355784227175309 -0.045246792894939887 0 -0.37236777167708351 -0.031852495353884333 0 -0.38458287424021398 -0.039388642062709187 0 -0.37236777167708351 -0.031852495353884333 0 -0.38992317137517202 -0.02804917422583518 0 -0.38458287424021398 -0.039388642062709187 0 -0.37355784227175309 -0.045246792894939887 0 -0.38458287424021398 -0.039388642062709187 0 -0.3815482533063424 -0.052412606119804542 0 -0.38458287424021398 -0.039388642062709187 0 -0.39900851660089293 -0.046429079601448257 0 -0.40045416304880688 -0.034240371911693122 0 -0.38992317137517202 -0.02804917422583518 0 -0.38458287424021398 -0.039388642062709187 0 -0.40045416304880688 -0.034240371911693122 0 -0.41324955929443102 -0.038374170610562031 0 -0.39900851660089293 -0.046429079601448257 0 -0.40045416304880688 -0.034240371911693122 0 -0.39900851660089293 -0.046429079601448257 0 -0.39626447370361728 -0.06091275685647668 0 -0.3815482533063424 -0.052412606119804542 0 -0.41005136228565903 -0.05540387285823338 0 -0.39626447370361728 -0.06091275685647668 0 -0.40517181862379281 -0.066558370858305557 0 -0.41005136228565903 -0.05540387285823338 0 -0.39900851660089293 -0.046429079601448257 0 -0.39626447370361728 -0.06091275685647668 0 -0.36862349457690058 -0.057461967220355487 0 -0.3815482533063424 -0.052412606119804542 0 -0.37947166312044489 -0.067272628224985004 0 -0.3815482533063424 -0.052412606119804542 0 -0.37947166312044489 -0.067272628224985004 0 -0.39260231949431601 -0.074533368335879327 0 -0.36882665317829499 -0.078032107790563188 0 -0.39260231949431601 -0.074533368335879327 0 -0.39626447370361728 -0.06091275685647668 0 -0.3815482533063424 -0.052412606119804542 0 -0.39260231949431601 -0.074533368335879327 0 -0.3815482533063424 -0.052412606119804542 0 -0.39260231949431601 -0.074533368335879327 0 -0.36882665317829499 -0.078032107790563188 0 -0.37947166312044489 -0.067272628224985004 0 -0.39260231949431601 -0.074533368335879327 0 -0.36882665317829499 -0.078032107790563188 0 -0.39260231949431601 -0.074533368335879327 0 -0.39002829617667018 -0.099006697234722524 0 -0.36882665317829499 -0.078032107790563188 0 -0.39002829617667018 -0.099006697234722524 0 -0.37367929427193591 -0.1014825750548952 0 -0.36882665317829499 -0.078032107790563188 0 -0.39002829617667018 -0.099006697234722524 0 -0.39260231949431601 -0.074533368335879327 0 -0.39002829617667018 -0.099006697234722524 0 -0.39510370691593599 -0.098958215311000047 0 -0.39260231949431601 -0.074533368335879327 0 -0.40274583300482147 -0.094831984843681591 0 -0.39260231949431601 -0.074533368335879327 0 -0.39510370691593599 -0.098958215311000047 0 -0.40274583300482147 -0.094831984843681591 0 -0.40361170428446441 -0.083317353290434007 0 -0.39260231949431601 -0.074533368335879327 0 -0.40274583300482147 -0.094831984843681591 0 -0.40361170428446441 -0.083317353290434007 0 -0.39867569396630093 -0.073639632925658519 0 -0.40696916935602839 -0.074517235882718885 0 -0.39867569396630093 -0.073639632925658519 0 -0.40517181862379281 -0.066558370858305557 0 -0.40696916935602839 -0.074517235882718885 0 -0.39626447370361728 -0.06091275685647668 0 -0.39867569396630093 -0.073639632925658519 0 -0.40517181862379281 -0.066558370858305557 0 -0.39626447370361728 -0.06091275685647668 0 -0.39867569396630093 -0.073639632925658519 0 -0.39260231949431601 -0.074533368335879327 0 -0.40361170428446441 -0.083317353290434007 0 -0.39867569396630093 -0.073639632925658519 0 -0.39260231949431601 -0.074533368335879327 0 -0.39867569396630093 -0.073639632925658519 0 -0.39260231949431601 -0.074533368335879327 0 -0.37212838853434238 -0.11808059788504249 0 -0.38278168804071749 -0.12940228238898679 0 -0.39044023874876249 -0.11757149150947201 0 -0.37367929427193591 -0.1014825750548952 0 -0.37212838853434238 -0.11808059788504249 0 -0.39044023874876249 -0.11757149150947201 0 -0.37367929427193591 -0.1014825750548952 0 -0.39044023874876249 -0.11757149150947201 0 -0.39002829617667018 -0.099006697234722524 0 -0.39510370691593599 -0.098958215311000047 0 -0.40274583300482147 -0.094831984843681591 0 -0.41288934651532883 -0.11513060135148299 0 -0.39002829617667018 -0.099006697234722524 0 -0.39510370691593599 -0.098958215311000047 0 -0.41122993917504558 -0.1199812866788818 0 -0.39510370691593599 -0.098958215311000047 0 -0.41288934651532883 -0.11513060135148299 0 -0.39647179587780151 -0.13189450107720049 0 -0.39044023874876249 -0.11757149150947201 0 -0.41122993917504558 -0.1199812866788818 0 -0.39002829617667018 -0.099006697234722524 0 -0.41122993917504558 -0.1199812866788818 0 -0.39044023874876249 -0.11757149150947201 0 -0.39002829617667018 -0.099006697234722524 0 -0.41122993917504558 -0.1199812866788818 0 -0.39510370691593599 -0.098958215311000047 0 -0.41122993917504558 -0.1199812866788818 0 -0.41288934651532883 -0.11513060135148299 0 -0.41930562378398423 -0.12797048681614909 0 -0.41122993917504558 -0.1199812866788818 0 -0.4149348530849476 -0.1169905694289516 0 -0.41930562378398423 -0.12797048681614909 0 -0.41122993917504558 -0.1199812866788818 0 -0.41930562378398423 -0.12797048681614909 0 -0.4149348530849476 -0.1169905694289516 0 -0.41122993917504558 -0.1199812866788818 0 -0.41288934651532883 -0.11513060135148299 0 -0.4149348530849476 -0.1169905694289516 0 -0.41122993917504558 -0.1199812866788818 0 -0.4149348530849476 -0.1169905694289516 0 -0.41288934651532883 -0.11513060135148299 0 -0.4149348530849476 -0.1169905694289516 0 -0.41288934651532883 -0.11513060135148299 0 -0.4149348530849476 -0.1169905694289516 0 -0.41458672172207622 -0.10427776634057311 0 -0.40274583300482147 -0.094831984843681591 0 -0.41288934651532883 -0.11513060135148299 0 -0.4149348530849476 -0.1169905694289516 0 -0.41458672172207622 -0.10427776634057311 0 -0.43059848591229039 -0.1043464168163742 0 -0.40274583300482147 -0.094831984843681591 0 -0.41288934651532883 -0.11513060135148299 0 -0.41458672172207622 -0.10427776634057311 0 -0.41458672172207622 -0.10427776634057311 0 -0.41348552386521947 -0.090840815536544176 0 -0.43025813067654672 -0.08737754853092726 0 -0.40274583300482147 -0.094831984843681591 0 -0.41458672172207622 -0.10427776634057311 0 -0.41348552386521947 -0.090840815536544176 0 -0.43059848591229039 -0.1043464168163742 0 -0.43025813067654672 -0.08737754853092726 0 -0.44626211873963212 -0.091702264203795431 0 -0.41458672172207622 -0.10427776634057311 0 -0.43059848591229039 -0.1043464168163742 0 -0.43025813067654672 -0.08737754853092726 0 -0.41458672172207622 -0.10427776634057311 0 -0.43025813067654672 -0.08737754853092726 0 -0.4149348530849476 -0.1169905694289516 0 -0.43059848591229039 -0.1043464168163742 0 -0.43160182387889101 -0.1187955019330571 0 -0.4149348530849476 -0.1169905694289516 0 -0.43059848591229039 -0.1043464168163742 0 -0.43389101300267191 -0.13422730327376839 0 -0.4149348530849476 -0.1169905694289516 0 -0.43160182387889101 -0.1187955019330571 0 -0.43059848591229039 -0.1043464168163742 0 -0.43160182387889101 -0.1187955019330571 0 -0.44003429013576911 -0.11331979272890801 0 -0.43160182387889101 -0.1187955019330571 0 -0.44085253015216358 -0.1237950587173612 0 -0.44003429013576911 -0.11331979272890801 0 -0.41422906440869389 -0.068128229862373102 0 -0.41539885585273961 -0.080089681603359497 0 -0.42594434486026628 -0.073522222089585226 0 -0.4246600563061857 -0.059067830999859447 0 -0.41422906440869389 -0.068128229862373102 0 -0.42594434486026628 -0.073522222089585226 0 -0.41005136228565903 -0.05540387285823338 0 -0.40517181862379281 -0.066558370858305557 0 -0.41422906440869389 -0.068128229862373102 0 -0.40517181862379281 -0.066558370858305557 0 -0.41422906440869389 -0.068128229862373102 0 -0.40696916935602839 -0.074517235882718885 0 -0.41422906440869389 -0.068128229862373102 0 -0.40696916935602839 -0.074517235882718885 0 -0.41539885585273961 -0.080089681603359497 0 -0.41348552386521947 -0.090840815536544176 0 -0.41539885585273961 -0.080089681603359497 0 -0.43025813067654672 -0.08737754853092726 0 -0.40361170428446441 -0.083317353290434007 0 -0.41348552386521947 -0.090840815536544176 0 -0.41539885585273961 -0.080089681603359497 0 -0.40361170428446441 -0.083317353290434007 0 -0.40696916935602839 -0.074517235882718885 0 -0.41539885585273961 -0.080089681603359497 0 -0.40361170428446441 -0.083317353290434007 0 -0.40274583300482147 -0.094831984843681591 0 -0.41348552386521947 -0.090840815536544176 0 -0.41539885585273961 -0.080089681603359497 0 -0.43025813067654672 -0.08737754853092726 0 -0.42594434486026628 -0.073522222089585226 0 -0.4246600563061857 -0.059067830999859447 0 -0.44592953963101739 -0.07047733072128165 0 -0.43025813067654672 -0.08737754853092726 0 -0.42594434486026628 -0.073522222089585226 0 -0.44592953963101739 -0.07047733072128165 0 -0.4246600563061857 -0.059067830999859447 0 -0.42594434486026628 -0.073522222089585226 0 -0.44592953963101739 -0.07047733072128165 0 -0.44592953963101739 -0.07047733072128165 0 -0.45893666683642192 -0.056450303318209168 0 -0.44592953963101739 -0.07047733072128165 0 -0.44626211873963212 -0.091702264203795431 0 -0.46192575156697407 -0.079058111591217034 0 -0.43025813067654672 -0.08737754853092726 0 -0.44592953963101739 -0.07047733072128165 0 -0.43025813067654672 -0.08737754853092726 0 -0.44592953963101739 -0.07047733072128165 0 -0.44626211873963212 -0.091702264203795431 0 -0.44626211873963212 -0.091702264203795431 0 -0.46631049206888459 -0.091444160656324658 0 -0.46192575156697407 -0.079058111591217034 0 -0.44626211873963212 -0.091702264203795431 0 -0.46192575156697407 -0.079058111591217034 0 -0.46631049206888459 -0.091444160656324658 0 -0.46192575156697407 -0.079058111591217034 0 -0.47702460168979111 -0.087157524427869615 0 -0.44592953963101739 -0.07047733072128165 0 -0.46192575156697407 -0.079058111591217034 0 -0.45893666683642192 -0.056450303318209168 0 -0.46192575156697407 -0.079058111591217034 0 -0.47491389520024407 -0.068573693827893439 0 -0.45893666683642192 -0.056450303318209168 0 -0.46192575156697407 -0.079058111591217034 0 -0.47491389520024407 -0.068573693827893439 0 -0.44592953963101739 -0.07047733072128165 0 -0.46192575156697407 -0.079058111591217034 0 -0.45000974795797011 -0.119430952696417 0 -0.44085253015216358 -0.1237950587173612 0 -0.44003429013576911 -0.11331979272890801 0 -0.45000974795797011 -0.119430952696417 0 -0.44003429013576911 -0.11331979272890801 0 -0.44926481423485548 -0.10476542824413421 0 -0.43059848591229039 -0.1043464168163742 0 -0.44626211873963212 -0.091702264203795431 0 -0.43059848591229039 -0.1043464168163742 0 -0.44626211873963212 -0.091702264203795431 0 -0.44926481423485548 -0.10476542824413421 0 -0.43059848591229039 -0.1043464168163742 0 -0.44003429013576911 -0.11331979272890801 0 -0.44926481423485548 -0.10476542824413421 0 -0.44626211873963212 -0.091702264203795431 0 -0.44926481423485548 -0.10476542824413421 0 -0.46153012095291662 -0.1019472767233552 0 -0.44626211873963212 -0.091702264203795431 0 -0.46631049206888459 -0.091444160656324658 0 -0.46153012095291662 -0.1019472767233552 0 -0.46631049206888459 -0.091444160656324658 0 -0.46153012095291662 -0.1019472767233552 0 -0.4710589232177344 -0.098453604121520433 0 -0.46153012095291662 -0.1019472767233552 0 -0.46221413283232399 -0.11366089481890911 0 -0.47430793409480421 -0.10627177682285049 0 -0.44926481423485548 -0.10476542824413421 0 -0.46153012095291662 -0.1019472767233552 0 -0.46221413283232399 -0.11366089481890911 0 -0.45896755277767909 -0.12575633132281341 0 -0.46221413283232399 -0.11366089481890911 0 -0.47750202174635031 -0.1215216316744509 0 -0.45000974795797011 -0.119430952696417 0 -0.44926481423485548 -0.10476542824413421 0 -0.46221413283232399 -0.11366089481890911 0 -0.45896755277767909 -0.12575633132281341 0 -0.45000974795797011 -0.119430952696417 0 -0.46221413283232399 -0.11366089481890911 0 -0.47750202174635031 -0.1215216316744509 0 -0.47430793409480421 -0.10627177682285049 0 -0.48673501487359588 -0.1010237797652184 0 -0.46221413283232399 -0.11366089481890911 0 -0.47750202174635031 -0.1215216316744509 0 -0.47430793409480421 -0.10627177682285049 0 -0.47430793409480421 -0.10627177682285049 0 -0.47745372589702628 -0.099742000537211661 0 -0.48673501487359588 -0.1010237797652184 0 -0.46153012095291662 -0.1019472767233552 0 -0.47430793409480421 -0.10627177682285049 0 -0.4710589232177344 -0.098453604121520433 0 -0.46631049206888459 -0.091444160656324658 0 -0.4710589232177344 -0.098453604121520433 0 -0.47771303140197108 -0.093218841439257433 0 -0.47430793409480421 -0.10627177682285049 0 -0.4710589232177344 -0.098453604121520433 0 -0.47745372589702628 -0.099742000537211661 0 -0.4710589232177344 -0.098453604121520433 0 -0.47745372589702628 -0.099742000537211661 0 -0.47771303140197108 -0.093218841439257433 0 -0.47745372589702628 -0.099742000537211661 0 -0.48673501487359588 -0.1010237797652184 0 -0.47771303140197108 -0.093218841439257433 0 -0.48673501487359588 -0.1010237797652184 0 -0.47771303140197108 -0.093218841439257433 0 -0.47702460168979111 -0.087157524427869615 0 -0.47750202174635031 -0.1215216316744509 0 -0.48673501487359588 -0.1010237797652184 0 -0.4986179579264654 -0.1020768288792674 0 -0.48673501487359588 -0.1010237797652184 0 -0.49842317329231273 -0.098636270432611556 0 -0.47702460168979111 -0.087157524427869615 0 -0.48673501487359588 -0.1010237797652184 0 -0.49842317329231273 -0.098636270432611556 0 -0.4986179579264654 -0.1020768288792674 0 -0.49999999999999939 -0.099482120969144883 0 -0.49842317329231273 -0.098636270432611556 0 -0.4986179579264654 -0.1020768288792674 0 -0.49842317329231273 -0.098636270432611556 0 -0.4986179579264654 -0.1020768288792674 0 -0.49999999999999939 -0.099482120969144883 0 -0.49842317329231273 -0.098636270432611556 0 -0.50000000000000011 -0.12648838757554831 0 -0.47750202174635031 -0.1215216316744509 0 -0.4986179579264654 -0.1020768288792674 0 -0.47750202174635031 -0.1215216316744509 0 -0.4986179579264654 -0.1020768288792674 0 -0.47491389520024407 -0.068573693827893439 0 -0.47702460168979111 -0.087157524427869615 0 -0.4847984782487687 -0.075944598732494498 0 -0.47491389520024407 -0.068573693827893439 0 -0.47702460168979111 -0.087157524427869615 0 -0.47967839073812912 -0.064727650616396362 0 -0.4847984782487687 -0.075944598732494498 0 -0.48794163871831331 -0.064119883023254248 0 -0.47967839073812912 -0.064727650616396362 0 -0.47491389520024407 -0.068573693827893439 0 -0.4847984782487687 -0.075944598732494498 0 -0.47967839073812912 -0.064727650616396362 0 -0.47491389520024407 -0.068573693827893439 0 -0.46192575156697407 -0.079058111591217034 0 -0.47702460168979111 -0.087157524427869615 0 -0.46192575156697407 -0.079058111591217034 0 -0.47491389520024407 -0.068573693827893439 0 -0.47702460168979111 -0.087157524427869615 0 -0.46631049206888459 -0.091444160656324658 0 -0.47771303140197108 -0.093218841439257433 0 -0.47702460168979111 -0.087157524427869615 0 -0.47771303140197108 -0.093218841439257433 0 -0.47702460168979111 -0.087157524427869615 0 -0.49842317329231273 -0.098636270432611556 0 -0.49712708577170861 -0.075742961183477536 0 -0.4847984782487687 -0.075944598732494498 0 -0.49999999999999939 -0.099482120969144883 0 -0.49842317329231273 -0.098636270432611556 0 -0.5 -0.078030389970551228 0 -0.49842317329231273 -0.098636270432611556 0 -0.49712708577170861 -0.075742961183477536 0 -0.49842317329231273 -0.098636270432611556 0 -0.5 -0.078030389970551228 0 -0.49712708577170861 -0.075742961183477536 0 -0.49842317329231273 -0.098636270432611556 0 -0.47702460168979111 -0.087157524427869615 0 -0.4847984782487687 -0.075944598732494498 0 -0.49842317329231273 -0.098636270432611556 0 -0.47702460168979111 -0.087157524427869615 0 -0.5 -0.078030389970551228 0 -0.49712708577170861 -0.075742961183477536 0 -0.49999999999999928 -0.056578658971957581 0 -0.49712708577170861 -0.075742961183477536 0 -0.49583099825110311 -0.052849651934343489 0 -0.49712708577170861 -0.075742961183477536 0 -0.48794163871831331 -0.064119883023254248 0 -0.49583099825110311 -0.052849651934343489 0 -0.49712708577170861 -0.075742961183477536 0 -0.4847984782487687 -0.075944598732494498 0 -0.48794163871831331 -0.064119883023254248 0 -0.49712708577170861 -0.075742961183477536 0 -0.49999999999999928 -0.056578658971957581 0 -0.49583099825110311 -0.052849651934343489 0 -0.49583099825110311 -0.052849651934343489 0 -0.47748890114140963 -0.036443372127734748 0 -0.48227324058185622 -0.051334552649559453 0 -0.49999999999999928 -0.056578658971957581 0 -0.49583099825110311 -0.052849651934343489 0 -0.49999999999999928 -0.056578658971957581 0 -0.50000000000000144 -0.053559852644015388 0 -0.49583099825110311 -0.052849651934343489 0 -0.48794163871831331 -0.064119883023254248 0 -0.49583099825110311 -0.052849651934343489 0 -0.48227324058185622 -0.051334552649559453 0 -0.50000000000000144 -0.053559852644015388 0 -0.49583099825110311 -0.052849651934343489 0 -0.48598145264485831 -0.02728491224803695 0 -0.49583099825110311 -0.052849651934343489 0 -0.47748890114140963 -0.036443372127734748 0 -0.48598145264485831 -0.02728491224803695 0 -0.50000000000000144 -0.053559852644015388 0 -0.48598145264485831 -0.02728491224803695 0 -0.50000000000000144 -0.053559852644015388 0 -0.48598145264485831 -0.02728491224803695 0 -0.5 -0.025161366008633609 0 -0.49583099825110311 -0.052849651934343489 0 -0.47748890114140963 -0.036443372127734748 0 -0.47748890114140963 -0.036443372127734748 0 -0.48598145264485831 -0.02728491224803695 0 -0.47748890114140963 -0.036443372127734748 0 -0.47194379404182718 -0.042423275915137587 0 -0.48227324058185622 -0.051334552649559453 0 -0.47748890114140963 -0.036443372127734748 0 -0.47194379404182718 -0.042423275915137587 0 -0.47748890114140963 -0.036443372127734748 0 -0.47194379404182718 -0.042423275915137587 0 -0.47056077858213702 -0.03024644074295027 0 -0.47194379404182718 -0.042423275915137587 0 -0.46539503278239303 -0.037082973767017267 0 -0.47056077858213702 -0.03024644074295027 0 -0.47194379404182718 -0.042423275915137587 0 -0.47056077858213702 -0.03024644074295027 0 -0.47748890114140963 -0.036443372127734748 0 -0.47056077858213702 -0.03024644074295027 0 -0.47748890114140963 -0.036443372127734748 0 -0.47056077858213702 -0.03024644074295027 0 -0.47745882259212458 -0.028728106929589409 0 -0.47967839073812912 -0.064727650616396362 0 -0.47491389520024407 -0.068573693827893439 0 -0.47194379404182718 -0.042423275915137587 0 -0.47967839073812912 -0.064727650616396362 0 -0.47194379404182718 -0.042423275915137587 0 -0.48227324058185622 -0.051334552649559453 0 -0.47491389520024407 -0.068573693827893439 0 -0.47194379404182718 -0.042423275915137587 0 -0.47967839073812912 -0.064727650616396362 0 -0.48794163871831331 -0.064119883023254248 0 -0.48227324058185622 -0.051334552649559453 0 -0.47491389520024407 -0.068573693827893439 0 -0.47194379404182718 -0.042423275915137587 0 -0.45893666683642192 -0.056450303318209168 0 -0.45893666683642192 -0.056450303318209168 0 -0.45743491846808387 -0.04563500224908737 0 -0.44544580640037118 -0.056213229689383748 0 -0.47194379404182718 -0.042423275915137587 0 -0.45893666683642192 -0.056450303318209168 0 -0.45743491846808387 -0.04563500224908737 0 -0.47194379404182718 -0.042423275915137587 0 -0.45893666683642192 -0.056450303318209168 0 -0.46539503278239303 -0.037082973767017267 0 -0.44890774518284438 -0.02927164544362729 0 -0.46539503278239303 -0.037082973767017267 0 -0.45215967652477718 -0.036640332234541717 0 -0.44890774518284438 -0.02927164544362729 0 -0.46539503278239303 -0.037082973767017267 0 -0.44890774518284438 -0.02927164544362729 0 -0.46189821575704781 -0.02986243911986371 0 -0.47194379404182718 -0.042423275915137587 0 -0.46539503278239303 -0.037082973767017267 0 -0.45743491846808387 -0.04563500224908737 0 -0.46539503278239303 -0.037082973767017267 0 -0.46189821575704781 -0.02986243911986371 0 -0.47056077858213702 -0.03024644074295027 0 -0.46539503278239303 -0.037082973767017267 0 -0.45743491846808387 -0.04563500224908737 0 -0.45215967652477718 -0.036640332234541717 0 -0.42981912379901888 -0.030443092666165631 0 -0.45215967652477718 -0.036640332234541717 0 -0.45743491846808387 -0.04563500224908737 0 -0.45215967652477718 -0.036640332234541717 0 -0.43957367317472601 -0.045089571971719818 0 -0.42981912379901888 -0.030443092666165631 0 -0.45215967652477718 -0.036640332234541717 0 -0.43957367317472601 -0.045089571971719818 0 -0.45743491846808387 -0.04563500224908737 0 -0.43957367317472601 -0.045089571971719818 0 -0.44544580640037118 -0.056213229689383748 0 -0.4246600563061857 -0.059067830999859447 0 -0.44592953963101739 -0.07047733072128165 0 -0.44544580640037118 -0.056213229689383748 0 -0.44592953963101739 -0.07047733072128165 0 -0.45893666683642192 -0.056450303318209168 0 -0.44544580640037118 -0.056213229689383748 0 -0.4441818909265971 -0.00998157505946092 0 -0.45588653083934588 0.00041698580085632909 0 -0.44737850259376799 0.0077656591989471307 0 -0.4441818909265971 -0.00998157505946092 0 -0.4570262928383732 -0.018140378997512391 0 -0.45633913854906122 -0.0094275687658610888 0 -0.4441818909265971 -0.00998157505946092 0 -0.45633913854906122 -0.0094275687658610888 0 -0.45588653083934588 0.00041698580085632909 0 -0.43741768347029059 -0.01288367903972009 0 -0.4441818909265971 -0.00998157505946092 0 -0.44890774518284438 -0.02927164544362729 0 -0.42981912379901888 -0.030443092666165631 0 -0.45215967652477718 -0.036640332234541717 0 -0.4392085005598273 -0.024676348383282701 0 -0.4441818909265971 -0.00998157505946092 0 -0.44890774518284438 -0.02927164544362729 0 -0.46258273328813732 -0.023158067004484729 0 -0.43741768347029059 -0.01288367903972009 0 -0.44890774518284438 -0.02927164544362729 0 -0.43741768347029059 -0.01288367903972009 0 -0.4392085005598273 -0.024676348383282701 0 -0.44890774518284438 -0.02927164544362729 0 -0.4392085005598273 -0.024676348383282701 0 -0.44890774518284438 -0.02927164544362729 0 -0.45215967652477718 -0.036640332234541717 0 -0.4392085005598273 -0.024676348383282701 0 -0.44890774518284438 -0.02927164544362729 0 -0.4441818909265971 -0.00998157505946092 0 -0.46258273328813732 -0.023158067004484729 0 -0.46258273328813732 -0.023158067004484729 0 -0.46826183959192841 -0.01000530680732737 0 -0.47056077858213702 -0.03024644074295027 0 -0.4441818909265971 -0.00998157505946092 0 -0.4570262928383732 -0.018140378997512391 0 -0.46258273328813732 -0.023158067004484729 0 -0.4570262928383732 -0.018140378997512391 0 -0.46258273328813732 -0.023158067004484729 0 -0.44890774518284438 -0.02927164544362729 0 -0.46189821575704781 -0.02986243911986371 0 -0.46258273328813732 -0.023158067004484729 0 -0.46258273328813732 -0.023158067004484729 0 -0.47056077858213702 -0.03024644074295027 0 -0.46189821575704781 -0.02986243911986371 0 -0.46258273328813732 -0.023158067004484729 0 -0.47056077858213702 -0.03024644074295027 0 -0.4570262928383732 -0.018140378997512391 0 -0.46258273328813732 -0.023158067004484729 0 -0.46826183959192841 -0.01000530680732737 0 -0.4570262928383732 -0.018140378997512391 0 -0.46826183959192841 -0.01000530680732737 0 -0.45633913854906122 -0.0094275687658610888 0 -0.46826183959192841 -0.01000530680732737 0 -0.45633913854906122 -0.0094275687658610888 0 -0.45588653083934588 0.00041698580085632909 0 -0.46826183959192841 -0.01000530680732737 0 -0.47597217662329228 -0.0085245425598697612 0 -0.4659629006017233 0.010235827128295859 0 -0.46826183959192841 -0.01000530680732737 0 -0.47597217662329228 -0.0085245425598697612 0 -0.47580415800009379 -0.02093770259963601 0 -0.47597217662329228 -0.0085245425598697612 0 -0.48922725890134677 -0.010453537226696331 0 -0.48082517856277007 0.001845263919603602 0 -0.47597217662329228 -0.0085245425598697612 0 -0.47580415800009379 -0.02093770259963601 0 -0.48598145264485831 -0.02728491224803695 0 -0.47597217662329228 -0.0085245425598697612 0 -0.48598145264485831 -0.02728491224803695 0 -0.46826183959192841 -0.01000530680732737 0 -0.47056077858213702 -0.03024644074295027 0 -0.47580415800009379 -0.02093770259963601 0 -0.47597217662329228 -0.0085245425598697612 0 -0.48598145264485831 -0.02728491224803695 0 -0.4893389393206713 -0.02366416211133009 0 -0.46826183959192841 -0.01000530680732737 0 -0.47056077858213702 -0.03024644074295027 0 -0.47056077858213702 -0.03024644074295027 0 -0.47580415800009379 -0.02093770259963601 0 -0.47745882259212458 -0.028728106929589409 0 -0.47580415800009379 -0.02093770259963601 0 -0.47745882259212458 -0.028728106929589409 0 -0.48598145264485831 -0.02728491224803695 0 -0.47748890114140963 -0.036443372127734748 0 -0.47745882259212458 -0.028728106929589409 0 -0.48598145264485831 -0.02728491224803695 0 -0.48598145264485831 -0.02728491224803695 0 -0.4893389393206713 -0.02366416211133009 0 -0.5 -0.025161366008633609 0 -0.48598145264485831 -0.02728491224803695 0 -0.4893389393206713 -0.02366416211133009 0 -0.4893389393206713 -0.02366416211133009 0 -0.5 -0.025161366008633609 0 -0.48922725890134677 -0.010453537226696331 0 -0.48922725890134677 -0.010453537226696331 0 -0.5 0.0032371206267481911 0 -0.48082517856277007 0.001845263919603602 0 -0.5 -0.025161366008633609 0 -0.48922725890134677 -0.010453537226696331 0 -0.5 0.0032371206267481911 0 -0.47597217662329228 -0.0085245425598697612 0 -0.4893389393206713 -0.02366416211133009 0 -0.48922725890134677 -0.010453537226696331 0 -0.5 0.0032371206267481911 0 -0.48596576445654982 0.01457961489688041 0 -0.48082517856277007 0.001845263919603602 0 -0.48596576445654982 0.01457961489688041 0 -0.47541999506787802 0.025418180444172121 0 -0.5 0.031635607262129987 0 -0.5 0.0032371206267481911 0 -0.48596576445654982 0.01457961489688041 0 -0.5 0.031635607262129987 0 -0.48596576445654982 0.01457961489688041 0 -0.47541999506787802 0.025418180444172121 0 -0.47401658579892991 0.013489912392399149 0 -0.47541999506787802 0.025418180444172121 0 -0.46963945276383978 0.01793989872667965 0 -0.47401658579892991 0.013489912392399149 0 -0.47597217662329228 -0.0085245425598697612 0 -0.48082517856277007 0.001845263919603602 0 -0.4659629006017233 0.010235827128295859 0 -0.47401658579892991 0.013489912392399149 0 -0.48082517856277007 0.001845263919603602 0 -0.4659629006017233 0.010235827128295859 0 -0.46963945276383978 0.01793989872667965 0 -0.47401658579892991 0.013489912392399149 0 -0.4659629006017233 0.010235827128295859 0 -0.47597217662329228 -0.0085245425598697612 0 -0.4659629006017233 0.010235827128295859 0 -0.48596576445654982 0.01457961489688041 0 -0.47401658579892991 0.013489912392399149 0 -0.48082517856277007 0.001845263919603602 0 -0.5 0.060034093897511798 0 -0.47816362815030861 0.043832779932641487 0 -0.48068047186290208 0.063626500276227002 0 -0.47541999506787802 0.025418180444172121 0 -0.5 0.031635607262129987 0 -0.47816362815030861 0.043832779932641487 0 -0.5 0.060034093897511798 0 -0.5 0.031635607262129987 0 -0.47816362815030861 0.043832779932641487 0 -0.47541999506787802 0.025418180444172121 0 -0.47816362815030861 0.043832779932641487 0 -0.46442391639916691 0.036471327701905212 0 -0.47816362815030861 0.043832779932641487 0 -0.46119618507356652 0.049359273152949731 0 -0.48068047186290208 0.063626500276227002 0 -0.46119618507356652 0.049359273152949731 0 -0.46103932749027238 0.064238871702306077 0 -0.48068047186290208 0.063626500276227002 0 -0.46119618507356652 0.049359273152949731 0 -0.44286953411296898 0.045255716157198693 0 -0.46103932749027238 0.064238871702306077 0 -0.47816362815030861 0.043832779932641487 0 -0.46119618507356652 0.049359273152949731 0 -0.46442391639916691 0.036471327701905212 0 -0.46119618507356652 0.049359273152949731 0 -0.46442391639916691 0.036471327701905212 0 -0.45082509298125129 0.038608595210277222 0 -0.46442391639916691 0.036471327701905212 0 -0.45082509298125129 0.038608595210277222 0 -0.4583939967914884 0.024422211169287101 0 -0.45082509298125129 0.038608595210277222 0 -0.4583939967914884 0.024422211169287101 0 -0.46119618507356652 0.049359273152949731 0 -0.45082509298125129 0.038608595210277222 0 -0.44286953411296898 0.045255716157198693 0 -0.45082509298125129 0.038608595210277222 0 -0.4405409619944019 0.035432846457562263 0 -0.4458839614772655 0.023387518650519249 0 -0.45082509298125129 0.038608595210277222 0 -0.4405409619944019 0.035432846457562263 0 -0.44286953411296898 0.045255716157198693 0 -0.4405409619944019 0.035432846457562263 0 -0.44286953411296898 0.045255716157198693 0 -0.43229092530358848 0.04451632412921195 0 -0.44286953411296898 0.045255716157198693 0 -0.44282721760043869 0.062046251170956107 0 -0.46103932749027238 0.064238871702306077 0 -0.44286953411296898 0.045255716157198693 0 -0.44282721760043869 0.062046251170956107 0 -0.43188097302969042 0.056955122555226501 0 -0.44286953411296898 0.045255716157198693 0 -0.46103932749027238 0.064238871702306077 0 -0.46826183959192841 -0.01000530680732737 0 -0.45588653083934588 0.00041698580085632909 0 -0.4659629006017233 0.010235827128295859 0 -0.46826183959192841 -0.01000530680732737 0 -0.4659629006017233 0.010235827128295859 0 -0.45609316173783881 0.014082317838893479 0 -0.45588653083934588 0.00041698580085632909 0 -0.4659629006017233 0.010235827128295859 0 -0.46963945276383978 0.01793989872667965 0 -0.4659629006017233 0.010235827128295859 0 -0.4583939967914884 0.024422211169287101 0 -0.4659629006017233 0.010235827128295859 0 -0.4583939967914884 0.024422211169287101 0 -0.47541999506787802 0.025418180444172121 0 -0.46963945276383978 0.01793989872667965 0 -0.4583939967914884 0.024422211169287101 0 -0.47541999506787802 0.025418180444172121 0 -0.46442391639916691 0.036471327701905212 0 -0.4583939967914884 0.024422211169287101 0 -0.45609316173783881 0.014082317838893479 0 -0.4659629006017233 0.010235827128295859 0 -0.4583939967914884 0.024422211169287101 0 -0.45609316173783881 0.014082317838893479 0 -0.4583939967914884 0.024422211169287101 0 -0.4458839614772655 0.023387518650519249 0 -0.45082509298125129 0.038608595210277222 0 -0.4583939967914884 0.024422211169287101 0 -0.4458839614772655 0.023387518650519249 0 -0.4405409619944019 0.035432846457562263 0 -0.4458839614772655 0.023387518650519249 0 -0.43566193494816191 0.02574822372494872 0 -0.4458839614772655 0.023387518650519249 0 -0.4359559447540089 0.01018896392150693 0 -0.43566193494816191 0.02574822372494872 0 -0.4441818909265971 -0.00998157505946092 0 -0.44737850259376799 0.0077656591989471307 0 -0.4359559447540089 0.01018896392150693 0 -0.4458839614772655 0.023387518650519249 0 -0.44737850259376799 0.0077656591989471307 0 -0.4359559447540089 0.01018896392150693 0 -0.45609316173783881 0.014082317838893479 0 -0.4458839614772655 0.023387518650519249 0 -0.44737850259376799 0.0077656591989471307 0 -0.45609316173783881 0.014082317838893479 0 -0.45588653083934588 0.00041698580085632909 0 -0.44737850259376799 0.0077656591989471307 0 -0.4441818909265971 -0.00998157505946092 0 -0.4359559447540089 0.01018896392150693 0 -0.42578104856505677 0.0031949168855625672 0 -0.42578104856505677 0.0031949168855625672 0 -0.41622595309658328 0.016397403714119251 0 -0.42870406893849561 0.019163111370922251 0 -0.4359559447540089 0.01018896392150693 0 -0.42578104856505677 0.0031949168855625672 0 -0.42870406893849561 0.019163111370922251 0 -0.41753789792717189 -0.0038843189997757009 0 -0.42578104856505677 0.0031949168855625672 0 -0.41105156913745711 0.0034129409419674369 0 -0.42578104856505677 0.0031949168855625672 0 -0.40852807671777941 0.0155494406680463 0 -0.41622595309658328 0.016397403714119251 0 -0.42578104856505677 0.0031949168855625672 0 -0.40852807671777941 0.0155494406680463 0 -0.41105156913745711 0.0034129409419674369 0 -0.42578104856505677 0.0031949168855625672 0 -0.40852807671777941 0.0155494406680463 0 -0.42578104856505677 0.0031949168855625672 0 -0.41622595309658328 0.016397403714119251 0 -0.40852807671777941 0.0155494406680463 0 -0.41105156913745711 0.0034129409419674369 0 -0.40262572535869262 0.0089097845909437267 0 -0.40771050441737638 -0.0035262849216432719 0 -0.41105156913745711 0.0034129409419674369 0 -0.40226596945639398 0.0014711925349297271 0 -0.40667085762811028 0.029599890542676258 0 -0.41622595309658328 0.016397403714119251 0 -0.42870406893849561 0.019163111370922251 0 -0.40667085762811028 0.029599890542676258 0 -0.42870406893849561 0.019163111370922251 0 -0.40667085762811028 0.029599890542676258 0 -0.41990433555607742 0.03061685230769556 0 -0.42870406893849561 0.019163111370922251 0 -0.40852807671777941 0.0155494406680463 0 -0.40667085762811028 0.029599890542676258 0 -0.41622595309658328 0.016397403714119251 0 -0.40667085762811028 0.029599890542676258 0 -0.41622595309658328 0.016397403714119251 0 -0.41990433555607742 0.03061685230769556 0 -0.4284463216954002 0.029357354603554459 0 -0.42870406893849561 0.019163111370922251 0 -0.4359559447540089 0.01018896392150693 0 -0.42870406893849561 0.019163111370922251 0 -0.43566193494816191 0.02574822372494872 0 -0.4284463216954002 0.029357354603554459 0 -0.42870406893849561 0.019163111370922251 0 -0.43566193494816191 0.02574822372494872 0 -0.4284463216954002 0.029357354603554459 0 -0.43566193494816191 0.02574822372494872 0 -0.43264023121812112 0.033917661463996759 0 -0.4405409619944019 0.035432846457562263 0 -0.43264023121812112 0.033917661463996759 0 -0.43229092530358848 0.04451632412921195 0 -0.43264023121812112 0.033917661463996759 0 -0.43229092530358848 0.04451632412921195 0 -0.42532103781614489 0.037340924150209003 0 -0.4405409619944019 0.035432846457562263 0 -0.43566193494816191 0.02574822372494872 0 -0.43264023121812112 0.033917661463996759 0 -0.43229092530358848 0.04451632412921195 0 -0.42532103781614489 0.037340924150209003 0 -0.42042490988599091 0.046091327469671317 0 -0.4284463216954002 0.029357354603554459 0 -0.43264023121812112 0.033917661463996759 0 -0.42532103781614489 0.037340924150209003 0 -0.41990433555607742 0.03061685230769556 0 -0.4284463216954002 0.029357354603554459 0 -0.42532103781614489 0.037340924150209003 0 -0.43229092530358848 0.04451632412921195 0 -0.43188097302969042 0.056955122555226501 0 -0.42585725303016408 0.051510102087770737 0 -0.44286953411296898 0.045255716157198693 0 -0.43229092530358848 0.04451632412921195 0 -0.43188097302969042 0.056955122555226501 0 -0.43229092530358848 0.04451632412921195 0 -0.42585725303016408 0.051510102087770737 0 -0.42042490988599091 0.046091327469671317 0 -0.43188097302969042 0.056955122555226501 0 -0.41883220390138681 0.058477634196973202 0 -0.43131469147834472 0.070632617455275076 0 -0.43188097302969042 0.056955122555226501 0 -0.42585725303016408 0.051510102087770737 0 -0.41883220390138681 0.058477634196973202 0 -0.41883220390138681 0.058477634196973202 0 -0.40840220717331749 0.048304634434869917 0 -0.39985653820026013 0.060860810446949978 0 -0.42585725303016408 0.051510102087770737 0 -0.41883220390138681 0.058477634196973202 0 -0.42042490988599091 0.046091327469671317 0 -0.41883220390138681 0.058477634196973202 0 -0.40840220717331749 0.048304634434869917 0 -0.42042490988599091 0.046091327469671317 0 -0.41990433555607742 0.03061685230769556 0 -0.42532103781614489 0.037340924150209003 0 -0.4122967326089878 0.037821593301397609 0 -0.42532103781614489 0.037340924150209003 0 -0.42042490988599091 0.046091327469671317 0 -0.4122967326089878 0.037821593301397609 0 -0.40840220717331749 0.048304634434869917 0 -0.4122967326089878 0.037821593301397609 0 -0.40579981868685489 0.041495006097714962 0 -0.40840220717331749 0.048304634434869917 0 -0.42042490988599091 0.046091327469671317 0 -0.4122967326089878 0.037821593301397609 0 -0.4122967326089878 0.037821593301397609 0 -0.40278544391907911 0.034968452634622761 0 -0.40579981868685489 0.041495006097714962 0 -0.40667085762811028 0.029599890542676258 0 -0.4122967326089878 0.037821593301397609 0 -0.40278544391907911 0.034968452634622761 0 -0.40667085762811028 0.029599890542676258 0 -0.41990433555607742 0.03061685230769556 0 -0.4122967326089878 0.037821593301397609 0 -0.40667085762811028 0.029599890542676258 0 -0.40278544391907911 0.034968452634622761 0 -0.40667085762811028 0.029599890542676258 0 -0.38856614517843069 0.038175802748282091 0 -0.40667085762811028 0.029599890542676258 0 -0.38856614517843069 0.038175802748282091 0 -0.39127510487050182 0.027903964450529759 0 -0.40667085762811028 0.029599890542676258 0 -0.40278544391907911 0.034968452634622761 0 -0.38856614517843069 0.038175802748282091 0 -0.40278544391907911 0.034968452634622761 0 -0.40579981868685489 0.041495006097714962 0 -0.3977250587697031 0.045015474274426849 0 -0.40840220717331749 0.048304634434869917 0 -0.40579981868685489 0.041495006097714962 0 -0.3977250587697031 0.045015474274426849 0 -0.40278544391907911 0.034968452634622761 0 -0.3977250587697031 0.045015474274426849 0 -0.38856614517843069 0.038175802748282091 0 -0.40840220717331749 0.048304634434869917 0 -0.3977250587697031 0.045015474274426849 0 -0.39985653820026013 0.060860810446949978 0 -0.3977250587697031 0.045015474274426849 0 -0.39985653820026013 0.060860810446949978 0 -0.38472691017257071 0.052921849058569698 0 -0.39985653820026013 0.060860810446949978 0 -0.38472691017257071 0.052921849058569698 0 -0.38510762700538009 0.066428587654483159 0 -0.38472691017257071 0.052921849058569698 0 -0.37046143272875132 0.04675171495388801 0 -0.37000681959492809 0.05831264468359916 0 -0.38472691017257071 0.052921849058569698 0 -0.38510762700538009 0.066428587654483159 0 -0.37000681959492809 0.05831264468359916 0 -0.38856614517843069 0.038175802748282091 0 -0.37871402691879819 0.03757115751491092 0 -0.37046143272875132 0.04675171495388801 0 -0.38856614517843069 0.038175802748282091 0 -0.37046143272875132 0.04675171495388801 0 -0.38472691017257071 0.052921849058569698 0 -0.38856614517843069 0.038175802748282091 0 -0.37046143272875132 0.04675171495388801 0 -0.38856614517843069 0.038175802748282091 0 -0.38315308642314733 0.033917821982192238 0 -0.39127510487050182 0.027903964450529759 0 -0.38856614517843069 0.038175802748282091 0 -0.38315308642314733 0.033917821982192238 0 -0.37871402691879819 0.03757115751491092 0 -0.3977250587697031 0.045015474274426849 0 -0.38472691017257071 0.052921849058569698 0 -0.38856614517843069 0.038175802748282091 0 -0.37871402691879819 0.03757115751491092 0 -0.3764786745208083 0.032098692741998169 0 -0.37046143272875132 0.04675171495388801 0 -0.38315308642314733 0.033917821982192238 0 -0.3764786745208083 0.032098692741998169 0 -0.38155727091044611 0.028316364585127811 0 -0.38315308642314733 0.033917821982192238 0 -0.37871402691879819 0.03757115751491092 0 -0.3764786745208083 0.032098692741998169 0 -0.3764786745208083 0.032098692741998169 0 -0.38155727091044611 0.028316364585127811 0 -0.37960108001976323 0.022263106047543741 0 -0.37960108001976323 0.022263106047543741 0 -0.37998819155715241 0.0057865511937031933 0 -0.37123175334181557 0.027162262264614271 0 -0.3764786745208083 0.032098692741998169 0 -0.37960108001976323 0.022263106047543741 0 -0.37123175334181557 0.027162262264614271 0 -0.38155727091044611 0.028316364585127811 0 -0.38533699425949169 0.022674384769296389 0 -0.37960108001976323 0.022263106047543741 0 -0.38155727091044611 0.028316364585127811 0 -0.38533699425949169 0.022674384769296389 0 -0.39127510487050182 0.027903964450529759 0 -0.38315308642314733 0.033917821982192238 0 -0.38155727091044611 0.028316364585127811 0 -0.39127510487050182 0.027903964450529759 0 -0.39054146691731162 0.018060194648231769 0 -0.38533699425949169 0.022674384769296389 0 -0.39127510487050182 0.027903964450529759 0 -0.38533699425949169 0.022674384769296389 0 -0.3837100485794358 0.01682829411504885 0 -0.37960108001976323 0.022263106047543741 0 -0.39054146691731162 0.018060194648231769 0 -0.38533699425949169 0.022674384769296389 0 -0.3837100485794358 0.01682829411504885 0 -0.3837100485794358 0.01682829411504885 0 -0.37960108001976323 0.022263106047543741 0 -0.37998819155715241 0.0057865511937031933 0 -0.37998819155715241 0.0057865511937031933 0 -0.38683543611469601 0.0001369023841863784 0 -0.36064890389212972 0.0125435277679194 0 -0.37998819155715241 0.0057865511937031933 0 -0.38683543611469601 0.0001369023841863784 0 -0.38901012294298121 0.0062908016400105649 0 -0.38683543611469601 0.0001369023841863784 0 -0.38901012294298121 0.0062908016400105649 0 -0.39501457079486157 0.0055715078560810288 0 -0.37998819155715241 0.0057865511937031933 0 -0.38901012294298121 0.0062908016400105649 0 -0.38744744785130802 0.01185902438546781 0 -0.3837100485794358 0.01682829411504885 0 -0.37998819155715241 0.0057865511937031933 0 -0.38744744785130802 0.01185902438546781 0 -0.38901012294298121 0.0062908016400105649 0 -0.38744744785130802 0.01185902438546781 0 -0.39422738021243581 0.01127211946813913 0 -0.39054146691731162 0.018060194648231769 0 -0.3837100485794358 0.01682829411504885 0 -0.38744744785130802 0.01185902438546781 0 -0.39054146691731162 0.018060194648231769 0 -0.39422738021243581 0.01127211946813913 0 -0.39743955081534421 0.016339100765178138 0 -0.39054146691731162 0.018060194648231769 0 -0.38744744785130802 0.01185902438546781 0 -0.39422738021243581 0.01127211946813913 0 -0.39422738021243581 0.01127211946813913 0 -0.39501457079486157 0.0055715078560810288 0 -0.40262572535869262 0.0089097845909437267 0 -0.39422738021243581 0.01127211946813913 0 -0.40262572535869262 0.0089097845909437267 0 -0.39743955081534421 0.016339100765178138 0 -0.38683543611469601 0.0001369023841863784 0 -0.39501457079486157 0.0055715078560810288 0 -0.40226596945639398 0.0014711925349297271 0 -0.38901012294298121 0.0062908016400105649 0 -0.39422738021243581 0.01127211946813913 0 -0.39501457079486157 0.0055715078560810288 0 -0.41105156913745711 0.0034129409419674369 0 -0.40226596945639398 0.0014711925349297271 0 -0.40262572535869262 0.0089097845909437267 0 -0.39501457079486157 0.0055715078560810288 0 -0.40226596945639398 0.0014711925349297271 0 -0.40262572535869262 0.0089097845909437267 0 -0.40852807671777941 0.0155494406680463 0 -0.40262572535869262 0.0089097845909437267 0 -0.39743955081534421 0.016339100765178138 0 -0.40852807671777941 0.0155494406680463 0 -0.39127510487050182 0.027903964450529759 0 -0.40852807671777941 0.0155494406680463 0 -0.40667085762811028 0.029599890542676258 0 -0.39127510487050182 0.027903964450529759 0 -0.40852807671777941 0.0155494406680463 0 -0.39127510487050182 0.027903964450529759 0 -0.39743955081534421 0.016339100765178138 0 -0.39054146691731162 0.018060194648231769 0 -0.39127510487050182 0.027903964450529759 0 -0.39743955081534421 0.016339100765178138 0 -0.39792088922733271 0.1160922105611595 0 -0.40104213778508202 0.092866093853817611 0 -0.41467909406405851 0.1139188519362445 0 -0.39792088922733271 0.1160922105611595 0 -0.3782625711058698 0.101617738696854 0 -0.40104213778508202 0.092866093853817611 0 -0.3782625711058698 0.101617738696854 0 -0.38372255811484618 0.13025780258704611 0 -0.3782625711058698 0.101617738696854 0 -0.38372255811484618 0.13025780258704611 0 -0.36747352968705388 0.12273486311700831 0 -0.39792088922733271 0.1160922105611595 0 -0.3782625711058698 0.101617738696854 0 -0.38372255811484618 0.13025780258704611 0 -0.39792088922733271 0.1160922105611595 0 -0.3782625711058698 0.101617738696854 0 -0.3782625711058698 0.101617738696854 0 -0.40104213778508202 0.092866093853817611 0 -0.37470600383380392 0.082961959162170973 0 -0.39520328107527708 0.075997639864115257 0 -0.40104213778508202 0.092866093853817611 0 -0.37470600383380392 0.082961959162170973 0 -0.3782625711058698 0.101617738696854 0 -0.37470600383380392 0.082961959162170973 0 -0.40104213778508202 0.092866093853817611 0 -0.37470600383380392 0.082961959162170973 0 -0.38510762700538009 0.066428587654483159 0 -0.37000681959492809 0.05831264468359916 0 -0.37470600383380392 0.082961959162170973 0 -0.38510762700538009 0.066428587654483159 0 -0.39520328107527708 0.075997639864115257 0 -0.37470600383380392 0.082961959162170973 0 -0.39985653820026013 0.060860810446949978 0 -0.39520328107527708 0.075997639864115257 0 -0.41322693425173768 0.074694678089132868 0 -0.39985653820026013 0.060860810446949978 0 -0.38510762700538009 0.066428587654483159 0 -0.39520328107527708 0.075997639864115257 0 -0.39520328107527708 0.075997639864115257 0 -0.40104213778508202 0.092866093853817611 0 -0.41322693425173768 0.074694678089132868 0 -0.40104213778508202 0.092866093853817611 0 -0.41322693425173768 0.074694678089132868 0 -0.42957324029363853 0.085693113452461764 0 -0.41883220390138681 0.058477634196973202 0 -0.41322693425173768 0.074694678089132868 0 -0.43131469147834472 0.070632617455275076 0 -0.41883220390138681 0.058477634196973202 0 -0.39985653820026013 0.060860810446949978 0 -0.41322693425173768 0.074694678089132868 0 -0.43131469147834472 0.070632617455275076 0 -0.42957324029363853 0.085693113452461764 0 -0.4470315618909167 0.073148927984774167 0 -0.41322693425173768 0.074694678089132868 0 -0.43131469147834472 0.070632617455275076 0 -0.42957324029363853 0.085693113452461764 0 -0.44282721760043869 0.062046251170956107 0 -0.43188097302969042 0.056955122555226501 0 -0.43131469147834472 0.070632617455275076 0 -0.42957324029363853 0.085693113452461764 0 -0.42737827173636012 0.1027702285454639 0 -0.44343173260412461 0.097571970950778963 0 -0.40104213778508202 0.092866093853817611 0 -0.42737827173636012 0.1027702285454639 0 -0.41467909406405851 0.1139188519362445 0 -0.40104213778508202 0.092866093853817611 0 -0.42737827173636012 0.1027702285454639 0 -0.40104213778508202 0.092866093853817611 0 -0.42957324029363853 0.085693113452461764 0 -0.42737827173636012 0.1027702285454639 0 -0.39792088922733271 0.1160922105611595 0 -0.41467909406405851 0.1139188519362445 0 -0.417579207348795 0.13056668242546571 0 -0.39792088922733271 0.1160922105611595 0 -0.417579207348795 0.13056668242546571 0 -0.41467909406405851 0.1139188519362445 0 -0.42608096723388439 0.1205091241492761 0 -0.417579207348795 0.13056668242546571 0 -0.42737827173636012 0.1027702285454639 0 -0.41467909406405851 0.1139188519362445 0 -0.42608096723388439 0.1205091241492761 0 -0.42737827173636012 0.1027702285454639 0 -0.42608096723388439 0.1205091241492761 0 -0.43826405507869293 0.1195835460605416 0 -0.42608096723388439 0.1205091241492761 0 -0.43826405507869293 0.1195835460605416 0 -0.43293323699752101 0.1317554923945817 0 -0.43826405507869293 0.1195835460605416 0 -0.45371440568763749 0.1126743632371118 0 -0.44901593584904892 0.12912088192892021 0 -0.42737827173636012 0.1027702285454639 0 -0.43826405507869293 0.1195835460605416 0 -0.45371440568763749 0.1126743632371118 0 -0.4523882543875366 0.10983005993361 0 -0.45371440568763749 0.1126743632371118 0 -0.42737827173636012 0.1027702285454639 0 -0.4523882543875366 0.10983005993361 0 -0.44343173260412461 0.097571970950778963 0 -0.42737827173636012 0.1027702285454639 0 -0.4523882543875366 0.10983005993361 0 -0.45371440568763749 0.1126743632371118 0 -0.42737827173636012 0.1027702285454639 0 -0.45371440568763749 0.1126743632371118 0 -0.44343173260412461 0.097571970950778963 0 -0.45084974973894648 0.096020795281878568 0 -0.45306155814551219 0.1028275296158008 0 -0.44343173260412461 0.097571970950778963 0 -0.45084974973894648 0.096020795281878568 0 -0.44733932132275389 0.088290098875458828 0 -0.4523882543875366 0.10983005993361 0 -0.44343173260412461 0.097571970950778963 0 -0.45306155814551219 0.1028275296158008 0 -0.4523882543875366 0.10983005993361 0 -0.45306155814551219 0.1028275296158008 0 -0.45661100561120399 0.109540819014999 0 -0.45306155814551219 0.1028275296158008 0 -0.46084618436187341 0.10490351706993729 0 -0.45661100561120399 0.109540819014999 0 -0.45306155814551219 0.1028275296158008 0 -0.46084618436187341 0.10490351706993729 0 -0.45799439118323759 0.099220837031069903 0 -0.46084618436187341 0.10490351706993729 0 -0.4635407771028337 0.1124237257980706 0 -0.45661100561120399 0.109540819014999 0 -0.45799439118323759 0.099220837031069903 0 -0.46723244863383712 0.097971273043108306 0 -0.45594156200913483 0.091684632610025046 0 -0.45084974973894648 0.096020795281878568 0 -0.45799439118323759 0.099220837031069903 0 -0.45594156200913483 0.091684632610025046 0 -0.45084974973894648 0.096020795281878568 0 -0.45306155814551219 0.1028275296158008 0 -0.45799439118323759 0.099220837031069903 0 -0.46084618436187341 0.10490351706993729 0 -0.45799439118323759 0.099220837031069903 0 -0.46723244863383712 0.097971273043108306 0 -0.46084618436187341 0.10490351706993729 0 -0.46723244863383712 0.097971273043108306 0 -0.46686982756835349 0.1074114054382402 0 -0.46084618436187341 0.10490351706993729 0 -0.46686982756835349 0.1074114054382402 0 -0.4635407771028337 0.1124237257980706 0 -0.45371440568763749 0.1126743632371118 0 -0.46425598871103851 0.13528374379222011 0 -0.4635407771028337 0.1124237257980706 0 -0.45674497769142258 0.1138140594952527 0 -0.46958882025875243 0.12035793204680111 0 -0.46686982756835349 0.1074114054382402 0 -0.4635407771028337 0.1124237257980706 0 -0.47044075898603932 0.11380610730348489 0 -0.4635407771028337 0.1124237257980706 0 -0.46958882025875243 0.12035793204680111 0 -0.47044075898603932 0.11380610730348489 0 -0.45674497769142258 0.1138140594952527 0 -0.45371440568763749 0.1126743632371118 0 -0.46425598871103851 0.13528374379222011 0 -0.45674497769142258 0.1138140594952527 0 -0.46958882025875243 0.12035793204680111 0 -0.46425598871103851 0.13528374379222011 0 -0.4523882543875366 0.10983005993361 0 -0.45661100561120399 0.109540819014999 0 -0.45371440568763749 0.1126743632371118 0 -0.45674497769142258 0.1138140594952527 0 -0.45661100561120399 0.109540819014999 0 -0.45371440568763749 0.1126743632371118 0 -0.45674497769142258 0.1138140594952527 0 -0.45371440568763749 0.1126743632371118 0 -0.4635407771028337 0.1124237257980706 0 -0.45674497769142258 0.1138140594952527 0 -0.45661100561120399 0.109540819014999 0 -0.44282721760043869 0.062046251170956107 0 -0.4470315618909167 0.073148927984774167 0 -0.46103932749027238 0.064238871702306077 0 -0.44282721760043869 0.062046251170956107 0 -0.43131469147834472 0.070632617455275076 0 -0.4470315618909167 0.073148927984774167 0 -0.42957324029363853 0.085693113452461764 0 -0.44343173260412461 0.097571970950778963 0 -0.44733932132275389 0.088290098875458828 0 -0.42957324029363853 0.085693113452461764 0 -0.4470315618909167 0.073148927984774167 0 -0.44733932132275389 0.088290098875458828 0 -0.4470315618909167 0.073148927984774167 0 -0.44733932132275389 0.088290098875458828 0 -0.46047789149500767 0.082617330138573752 0 -0.45084974973894648 0.096020795281878568 0 -0.44733932132275389 0.088290098875458828 0 -0.45594156200913483 0.091684632610025046 0 -0.44733932132275389 0.088290098875458828 0 -0.45594156200913483 0.091684632610025046 0 -0.46047789149500767 0.082617330138573752 0 -0.46723244863383712 0.097971273043108306 0 -0.45594156200913483 0.091684632610025046 0 -0.46047789149500767 0.082617330138573752 0 -0.46047789149500767 0.082617330138573752 0 -0.46103932749027238 0.064238871702306077 0 -0.47920912086757578 0.083222027247413538 0 -0.4470315618909167 0.073148927984774167 0 -0.46047789149500767 0.082617330138573752 0 -0.46103932749027238 0.064238871702306077 0 -0.46103932749027238 0.064238871702306077 0 -0.48068047186290208 0.063626500276227002 0 -0.47920912086757578 0.083222027247413538 0 -0.46103932749027238 0.064238871702306077 0 -0.47920912086757578 0.083222027247413538 0 -0.46723244863383712 0.097971273043108306 0 -0.46047789149500767 0.082617330138573752 0 -0.47920912086757578 0.083222027247413538 0 -0.48068047186290208 0.063626500276227002 0 -0.47920912086757578 0.083222027247413538 0 -0.5 0.088432580532893601 0 -0.47920912086757578 0.083222027247413538 0 -0.49737891424487929 0.102205182792521 0 -0.47920912086757578 0.083222027247413538 0 -0.5 0.088432580532893601 0 -0.49737891424487929 0.102205182792521 0 -0.5 0.060034093897511798 0 -0.48068047186290208 0.063626500276227002 0 -0.5 0.088432580532893601 0 -0.47827810320487629 0.116675775998883 0 -0.48837893466537508 0.1117690854599766 0 -0.4842723158563047 0.1301441798928954 0 -0.47827810320487629 0.116675775998883 0 -0.47512549980118862 0.10796659812409699 0 -0.48837893466537508 0.1117690854599766 0 -0.47827810320487629 0.116675775998883 0 -0.46958882025875243 0.12035793204680111 0 -0.4842723158563047 0.1301441798928954 0 -0.47827810320487629 0.116675775998883 0 -0.47044075898603932 0.11380610730348489 0 -0.47512549980118862 0.10796659812409699 0 -0.46686982756835349 0.1074114054382402 0 -0.47044075898603932 0.11380610730348489 0 -0.47512549980118862 0.10796659812409699 0 -0.47827810320487629 0.116675775998883 0 -0.46958882025875243 0.12035793204680111 0 -0.47044075898603932 0.11380610730348489 0 -0.46723244863383712 0.097971273043108306 0 -0.47512549980118862 0.10796659812409699 0 -0.48162445158666772 0.1005823670901454 0 -0.46723244863383712 0.097971273043108306 0 -0.47920912086757578 0.083222027247413538 0 -0.48162445158666772 0.1005823670901454 0 -0.46723244863383712 0.097971273043108306 0 -0.46686982756835349 0.1074114054382402 0 -0.47512549980118862 0.10796659812409699 0 -0.47512549980118862 0.10796659812409699 0 -0.48162445158666772 0.1005823670901454 0 -0.48837893466537508 0.1117690854599766 0 -0.48162445158666772 0.1005823670901454 0 -0.49737891424487929 0.102205182792521 0 -0.48837893466537508 0.1117690854599766 0 -0.47920912086757578 0.083222027247413538 0 -0.48162445158666772 0.1005823670901454 0 -0.49737891424487929 0.102205182792521 0 -0.5 0.088432580532893601 0 -0.49737891424487929 0.102205182792521 0 -0.5 0.1168310671682755 0 -0.49737891424487929 0.102205182792521 0 -0.5 0.1168310671682755 0 -0.48837893466537508 0.1117690854599766 0 -0.5 0.1168310671682755 0 -0.48837893466537508 0.1117690854599766 0 -0.4842723158563047 0.1301441798928954 0 -0.5 0.1168310671682755 0 -0.4842723158563047 0.1301441798928954 0 -0.5 0.14522955380365729 0 -0.46958882025875243 0.12035793204680111 0 -0.4842723158563047 0.1301441798928954 0 -0.46425598871103851 0.13528374379222011 0 -0.4842723158563047 0.1301441798928954 0 -0.47479757173443998 0.15789312434732811 0 -0.46425598871103851 0.13528374379222011 0 -0.47479757173443998 0.15789312434732811 0 -0.46425598871103851 0.13528374379222011 0 -0.4842723158563047 0.1301441798928954 0 -0.5 0.14522955380365729 0 -0.47479757173443998 0.15789312434732811 0 -0.5 0.14522955380365729 0 -0.49999999999999972 0.17362804043903909 0 -0.47479757173443998 0.15789312434732811 0 -0.49999999999999972 0.17362804043903909 0 -0.47479757173443998 0.15789312434732811 0 -0.49999999999999972 0.17362804043903909 0 -0.49200992699072321 0.1743962810239672 0 -0.47479757173443998 0.15789312434732811 0 -0.48341269367675271 0.17637066895233999 0 -0.49170634683837577 0.1941587336203292 0 -0.49368671912131301 0.1828531969182482 0 -0.49999999999999972 0.17362804043903909 0 -0.5 0.19278741936367841 0 -0.49368671912131301 0.1828531969182482 0 -0.48341269367675271 0.17637066895233999 0 -0.49170634683837577 0.1941587336203292 0 -0.49368671912131301 0.1828531969182482 0 -0.49999999999999972 0.17362804043903909 0 -0.49200992699072321 0.1743962810239672 0 -0.49200992699072321 0.1743962810239672 0 -0.48341269367675271 0.17637066895233999 0 -0.49368671912131301 0.1828531969182482 0 -0.49200992699072321 0.1743962810239672 0 -0.48341269367675271 0.17637066895233999 0 -0.48341269367675271 0.17637066895233999 0 -0.45591042926964898 0.18268667049205081 0 -0.47274380268756999 0.19288508587190861 0 -0.48341269367675271 0.17637066895233999 0 -0.45591042926964898 0.18268667049205081 0 -0.49200992699072321 0.1743962810239672 0 -0.48341269367675271 0.17637066895233999 0 -0.47479757173443998 0.15789312434732811 0 -0.48341269367675271 0.17637066895233999 0 -0.47479757173443998 0.15789312434732811 0 -0.48341269367675271 0.17637066895233999 0 -0.47479757173443998 0.15789312434732811 0 -0.45723956394668003 0.16387676974864759 0 -0.48341269367675271 0.17637066895233999 0 -0.45723956394668003 0.16387676974864759 0 -0.45591042926964898 0.18268667049205081 0 -0.45591042926964898 0.18268667049205081 0 -0.43992511097516529 0.17411109905454999 0 -0.4284081648625454 0.1890026720317621 0 -0.45591042926964898 0.18268667049205081 0 -0.4284081648625454 0.1890026720317621 0 -0.45723956394668003 0.16387676974864759 0 -0.45591042926964898 0.18268667049205081 0 -0.43992511097516529 0.17411109905454999 0 -0.45723956394668003 0.16387676974864759 0 -0.43992511097516529 0.17411109905454999 0 -0.43892522612619872 0.15930650560997939 0 -0.43892522612619872 0.15930650560997939 0 -0.43796764784210812 0.14528805014891141 0 -0.45386540436598038 0.14482430837095511 0 -0.45723956394668003 0.16387676974864759 0 -0.43892522612619872 0.15930650560997939 0 -0.45386540436598038 0.14482430837095511 0 -0.45386540436598038 0.14482430837095511 0 -0.43293323699752101 0.1317554923945817 0 -0.43826405507869293 0.1195835460605416 0 -0.44901593584904892 0.12912088192892021 0 -0.43293323699752101 0.1317554923945817 0 -0.43796764784210812 0.14528805014891141 0 -0.45386540436598038 0.14482430837095511 0 -0.43293323699752101 0.1317554923945817 0 -0.44901593584904892 0.12912088192892021 0 -0.45386540436598038 0.14482430837095511 0 -0.43293323699752101 0.1317554923945817 0 -0.45371440568763749 0.1126743632371118 0 -0.44901593584904892 0.12912088192892021 0 -0.46425598871103851 0.13528374379222011 0 -0.44901593584904892 0.12912088192892021 0 -0.46425598871103851 0.13528374379222011 0 -0.45386540436598038 0.14482430837095511 0 -0.47479757173443998 0.15789312434732811 0 -0.45723956394668003 0.16387676974864759 0 -0.45386540436598038 0.14482430837095511 0 -0.47479757173443998 0.15789312434732811 0 -0.46425598871103851 0.13528374379222011 0 -0.45386540436598038 0.14482430837095511 0 -0.47479757173443998 0.15789312434732811 0 -0.45386540436598038 0.14482430837095511 0 -0.48226153920099157 0.23766317590200001 0 -0.47864167104372218 0.246590621409366 0 -0.48932095354102823 0.25454658797793611 0 -0.47315400564016008 0.2364435414805684 0 -0.47864167104372218 0.246590621409366 0 -0.46938038244821267 0.25133041049185839 0 -0.47315400564016008 0.2364435414805684 0 -0.48226153920099157 0.23766317590200001 0 -0.47864167104372218 0.246590621409366 0 -0.49106398183666961 0.22759324404760359 0 -0.48932095354102823 0.25454658797793611 0 -0.5 0.23810140997737081 0 -0.49106398183666961 0.22759324404760359 0 -0.48932095354102823 0.25454658797793611 0 -0.48226153920099157 0.23766317590200001 0 -0.49106398183666961 0.22759324404760359 0 -0.48932095354102823 0.25454658797793611 0 -0.5 0.23810140997737081 0 -0.49106398183666961 0.22759324404760359 0 -0.50000000000000022 0.21194679828831781 0 -0.49106398183666961 0.22759324404760359 0 -0.47912708394337772 0.2231418845945258 0 -0.48726644121087642 0.21298690825741631 0 -0.48226153920099157 0.23766317590200001 0 -0.49106398183666961 0.22759324404760359 0 -0.47912708394337772 0.2231418845945258 0 -0.47315400564016008 0.2364435414805684 0 -0.48226153920099157 0.23766317590200001 0 -0.47912708394337772 0.2231418845945258 0 -0.47315400564016008 0.2364435414805684 0 -0.47912708394337772 0.2231418845945258 0 -0.46764368341616458 0.22415830119077751 0 -0.47912708394337772 0.2231418845945258 0 -0.47360767850491831 0.20951316246361981 0 -0.46764368341616458 0.22415830119077751 0 -0.47360767850491831 0.20951316246361981 0 -0.48726644121087642 0.21298690825741631 0 -0.49170634683837577 0.1941587336203292 0 -0.47912708394337772 0.2231418845945258 0 -0.47360767850491831 0.20951316246361981 0 -0.48726644121087642 0.21298690825741631 0 -0.49106398183666961 0.22759324404760359 0 -0.50000000000000022 0.21194679828831781 0 -0.48726644121087642 0.21298690825741631 0 -0.50000000000000022 0.21194679828831781 0 -0.48726644121087642 0.21298690825741631 0 -0.49170634683837577 0.1941587336203292 0 -0.50000000000000022 0.21194679828831781 0 -0.49170634683837577 0.1941587336203292 0 -0.50000000000000022 0.21194679828831781 0 -0.5 0.19278741936367841 0 -0.49170634683837577 0.1941587336203292 0 -0.49368671912131301 0.1828531969182482 0 -0.5 0.19278741936367841 0 -0.49170634683837577 0.1941587336203292 0 -0.48341269367675271 0.17637066895233999 0 -0.49170634683837577 0.1941587336203292 0 -0.47274380268756999 0.19288508587190861 0 -0.47360767850491831 0.20951316246361981 0 -0.49170634683837577 0.1941587336203292 0 -0.47274380268756999 0.19288508587190861 0 -0.47360767850491831 0.20951316246361981 0 -0.47274380268756999 0.19288508587190861 0 -0.45820261548712909 0.20353130823034371 0 -0.45591042926964898 0.18268667049205081 0 -0.47274380268756999 0.19288508587190861 0 -0.45820261548712909 0.20353130823034371 0 -0.45591042926964898 0.18268667049205081 0 -0.43516662619925378 0.20614333559983469 0 -0.4284081648625454 0.1890026720317621 0 -0.45591042926964898 0.18268667049205081 0 -0.45820261548712909 0.20353130823034371 0 -0.43516662619925378 0.20614333559983469 0 -0.44192508753596349 0.22328399916790689 0 -0.43516662619925378 0.20614333559983469 0 -0.45032248765871591 0.2151961798839368 0 -0.44192508753596349 0.22328399916790689 0 -0.43516662619925378 0.20614333559983469 0 -0.45032248765871591 0.2151961798839368 0 -0.45820261548712909 0.20353130823034371 0 -0.43516662619925378 0.20614333559983469 0 -0.45032248765871591 0.2151961798839368 0 -0.46109406183397039 0.21551848415653921 0 -0.45620465585954723 0.2251951411450015 0 -0.45032248765871591 0.2151961798839368 0 -0.45820261548712909 0.20353130823034371 0 -0.46109406183397039 0.21551848415653921 0 -0.47360767850491831 0.20951316246361981 0 -0.45820261548712909 0.20353130823034371 0 -0.46109406183397039 0.21551848415653921 0 -0.47360767850491831 0.20951316246361981 0 -0.46109406183397039 0.21551848415653921 0 -0.46764368341616458 0.22415830119077751 0 -0.47315400564016008 0.2364435414805684 0 -0.46764368341616458 0.22415830119077751 0 -0.45925329591452863 0.2407771106774913 0 -0.46764368341616458 0.22415830119077751 0 -0.45620465585954723 0.2251951411450015 0 -0.45925329591452863 0.2407771106774913 0 -0.46109406183397039 0.21551848415653921 0 -0.46764368341616458 0.22415830119077751 0 -0.45620465585954723 0.2251951411450015 0 -0.45032248765871591 0.2151961798839368 0 -0.45620465585954723 0.2251951411450015 0 -0.44192508753596349 0.22328399916790689 0 -0.44192508753596349 0.22328399916790689 0 -0.44062222049055039 0.24203477259657111 0 -0.43146145522804691 0.2313120115293863 0 -0.45620465585954723 0.2251951411450015 0 -0.44062222049055039 0.24203477259657111 0 -0.45620465585954723 0.2251951411450015 0 -0.44192508753596349 0.22328399916790689 0 -0.44062222049055039 0.24203477259657111 0 -0.44062222049055039 0.24203477259657111 0 -0.45046339488490522 0.249057113070103 0 -0.44442574262614493 0.25832327296872359 0 -0.44062222049055039 0.24203477259657111 0 -0.45046339488490522 0.249057113070103 0 -0.45925329591452863 0.2407771106774913 0 -0.45620465585954723 0.2251951411450015 0 -0.44062222049055039 0.24203477259657111 0 -0.45925329591452863 0.2407771106774913 0 -0.45046339488490522 0.249057113070103 0 -0.45925329591452863 0.2407771106774913 0 -0.45807104112411212 0.25534721177055669 0 -0.45925329591452863 0.2407771106774913 0 -0.46938038244821267 0.25133041049185839 0 -0.45807104112411212 0.25534721177055669 0 -0.47315400564016008 0.2364435414805684 0 -0.45925329591452863 0.2407771106774913 0 -0.46938038244821267 0.25133041049185839 0 -0.4198454647722451 0.23985190764030939 0 -0.40081965837488509 0.24074316727492401 0 -0.40585136056822319 0.25674789398696107 0 -0.4198454647722451 0.23985190764030939 0 -0.405480724964072 0.22581663549259839 0 -0.40081965837488509 0.24074316727492401 0 -0.44062222049055039 0.24203477259657111 0 -0.4198454647722451 0.23985190764030939 0 -0.42503978512155383 0.25887440404814072 0 -0.44062222049055039 0.24203477259657111 0 -0.4198454647722451 0.23985190764030939 0 -0.43146145522804691 0.2313120115293863 0 -0.4198454647722451 0.23985190764030939 0 -0.43146145522804691 0.2313120115293863 0 -0.42370673975344808 0.22056464269113771 0 -0.44192508753596349 0.22328399916790689 0 -0.43146145522804691 0.2313120115293863 0 -0.42370673975344808 0.22056464269113771 0 -0.4198454647722451 0.23985190764030939 0 -0.42370673975344808 0.22056464269113771 0 -0.405480724964072 0.22581663549259839 0 -0.42370673975344808 0.22056464269113771 0 -0.40708390191205951 0.20882890034131879 0 -0.405480724964072 0.22581663549259839 0 -0.42370673975344808 0.22056464269113771 0 -0.40708390191205951 0.20882890034131879 0 -0.42107335870595469 0.2022269477122331 0 -0.44192508753596349 0.22328399916790689 0 -0.42370673975344808 0.22056464269113771 0 -0.43516662619925378 0.20614333559983469 0 -0.42370673975344808 0.22056464269113771 0 -0.43516662619925378 0.20614333559983469 0 -0.42107335870595469 0.2022269477122331 0 -0.43516662619925378 0.20614333559983469 0 -0.4284081648625454 0.1890026720317621 0 -0.42107335870595469 0.2022269477122331 0 -0.43516662619925378 0.20614333559983469 0 -0.4284081648625454 0.1890026720317621 0 -0.4284081648625454 0.1890026720317621 0 -0.40915969581062839 0.19342315750049971 0 -0.4284081648625454 0.1890026720317621 0 -0.42107335870595469 0.2022269477122331 0 -0.40915969581062839 0.19342315750049971 0 -0.40708390191205951 0.20882890034131879 0 -0.42107335870595469 0.2022269477122331 0 -0.40915969581062839 0.19342315750049971 0 -0.40708390191205951 0.20882890034131879 0 -0.40915969581062839 0.19342315750049971 0 -0.38991122675871148 0.19784364296923759 0 -0.40915969581062839 0.19342315750049971 0 -0.38991122675871148 0.19784364296923759 0 -0.40915969581062839 0.19342315750049971 0 -0.38991122675871148 0.19784364296923759 0 -0.39569501158598158 0.17813944679546001 0 -0.39158905321283283 0.2136173787495643 0 -0.38435338999826391 0.22831720607051781 0 -0.36414166766971379 0.2074649771098355 0 -0.38991122675871148 0.19784364296923759 0 -0.39158905321283283 0.2136173787495643 0 -0.36414166766971379 0.2074649771098355 0 -0.40708390191205951 0.20882890034131879 0 -0.39158905321283283 0.2136173787495643 0 -0.405480724964072 0.22581663549259839 0 -0.40708390191205951 0.20882890034131879 0 -0.38991122675871148 0.19784364296923759 0 -0.39158905321283283 0.2136173787495643 0 -0.405480724964072 0.22581663549259839 0 -0.38435338999826391 0.22831720607051781 0 -0.40081965837488509 0.24074316727492401 0 -0.39158905321283283 0.2136173787495643 0 -0.405480724964072 0.22581663549259839 0 -0.38435338999826391 0.22831720607051781 0 -0.37619177155740557 0.24036243622333081 0 -0.38790582398472923 0.24962922847932231 0 -0.36318679658289171 0.25196182354824148 0 -0.38435338999826391 0.22831720607051781 0 -0.37619177155740557 0.24036243622333081 0 -0.38790582398472923 0.24962922847932231 0 -0.38435338999826391 0.22831720607051781 0 -0.38790582398472923 0.24962922847932231 0 -0.40081965837488509 0.24074316727492401 0 -0.38790582398472923 0.24962922847932231 0 -0.40081965837488509 0.24074316727492401 0 -0.40585136056822319 0.25674789398696107 0 -0.40926453963391513 0.14045102348790381 0 -0.42614672387873248 0.14526589422012931 0 -0.41883635224822963 0.16472684775983329 0 -0.40926453963391513 0.14045102348790381 0 -0.41883635224822963 0.16472684775983329 0 -0.40926453963391513 0.14045102348790381 0 -0.41883635224822963 0.16472684775983329 0 -0.40029434983296169 0.15790366282291429 0 -0.40926453963391513 0.14045102348790381 0 -0.417579207348795 0.13056668242546571 0 -0.40026410281127539 0.13237877311027449 0 -0.40926453963391513 0.14045102348790381 0 -0.417579207348795 0.13056668242546571 0 -0.42614672387873248 0.14526589422012931 0 -0.417579207348795 0.13056668242546571 0 -0.43293323699752101 0.1317554923945817 0 -0.42614672387873248 0.14526589422012931 0 -0.42608096723388439 0.1205091241492761 0 -0.417579207348795 0.13056668242546571 0 -0.43293323699752101 0.1317554923945817 0 -0.43796764784210812 0.14528805014891141 0 -0.43293323699752101 0.1317554923945817 0 -0.42614672387873248 0.14526589422012931 0 -0.43892522612619872 0.15930650560997939 0 -0.43796764784210812 0.14528805014891141 0 -0.42614672387873248 0.14526589422012931 0 -0.43892522612619872 0.15930650560997939 0 -0.42614672387873248 0.14526589422012931 0 -0.41883635224822963 0.16472684775983329 0 -0.43992511097516529 0.17411109905454999 0 -0.43892522612619872 0.15930650560997939 0 -0.41883635224822963 0.16472684775983329 0 -0.4284081648625454 0.1890026720317621 0 -0.41883635224822963 0.16472684775983329 0 -0.43992511097516529 0.17411109905454999 0 -0.4284081648625454 0.1890026720317621 0 -0.41883635224822963 0.16472684775983329 0 -0.40915969581062839 0.19342315750049971 0 -0.41883635224822963 0.16472684775983329 0 -0.39569501158598158 0.17813944679546001 0 -0.4284081648625454 0.1890026720317621 0 -0.40915969581062839 0.19342315750049971 0 -0.41883635224822963 0.16472684775983329 0 -0.40029434983296169 0.15790366282291429 0 -0.39569501158598158 0.17813944679546001 0 -0.38484252596519369 0.16167484958157691 0 -0.41883635224822963 0.16472684775983329 0 -0.40029434983296169 0.15790366282291429 0 -0.39569501158598158 0.17813944679546001 0 -0.39569501158598158 0.17813944679546001 0 -0.38484252596519369 0.16167484958157691 0 -0.36525228834216061 0.17922160577889321 0 -0.38991122675871148 0.19784364296923759 0 -0.39569501158598158 0.17813944679546001 0 -0.36525228834216061 0.17922160577889321 0 -0.39283331973148827 0.14452614648979731 0 -0.38372255811484618 0.13025780258704611 0 -0.36636290901460722 0.1509782344479508 0 -0.38484252596519369 0.16167484958157691 0 -0.39283331973148827 0.14452614648979731 0 -0.36636290901460722 0.1509782344479508 0 -0.40029434983296169 0.15790366282291429 0 -0.38484252596519369 0.16167484958157691 0 -0.39283331973148827 0.14452614648979731 0 -0.40926453963391513 0.14045102348790381 0 -0.40029434983296169 0.15790366282291429 0 -0.39283331973148827 0.14452614648979731 0 -0.39283331973148827 0.14452614648979731 0 -0.40026410281127539 0.13237877311027449 0 -0.38372255811484618 0.13025780258704611 0 -0.39792088922733271 0.1160922105611595 0 -0.417579207348795 0.13056668242546571 0 -0.40026410281127539 0.13237877311027449 0 -0.39792088922733271 0.1160922105611595 0 -0.40026410281127539 0.13237877311027449 0 -0.38372255811484618 0.13025780258704611 0 -0.40926453963391513 0.14045102348790381 0 -0.39283331973148827 0.14452614648979731 0 -0.40026410281127539 0.13237877311027449 0 -0.38372255811484618 0.13025780258704611 0 -0.36636290901460722 0.1509782344479508 0 -0.36747352968705388 0.12273486311700831 0 -0.36636290901460722 0.1509782344479508 0 -0.36747352968705388 0.12273486311700831 0 -0.35528769071996391 0.12689780186549679 0 -0.36636290901460722 0.1509782344479508 0 -0.36747352968705388 0.12273486311700831 0 -0.35528769071996391 0.12689780186549679 0 -0.33512599087492562 0.1447950320020088 0 -0.35528769071996391 0.12689780186549679 0 -0.35168351666373848 0.14314256241625531 0 -0.33512599087492562 0.1447950320020088 0 -0.35528769071996391 0.12689780186549679 0 -0.33512599087492562 0.1447950320020088 0 -0.34115039425197219 0.12498493974687711 0 -0.35528769071996391 0.12689780186549679 0 -0.35168351666373848 0.14314256241625531 0 -0.36636290901460722 0.1509782344479508 0 -0.35168351666373848 0.14314256241625531 0 -0.36636290901460722 0.1509782344479508 0 -0.34333519974196419 0.16612441953572921 0 -0.38484252596519369 0.16167484958157691 0 -0.36636290901460722 0.1509782344479508 0 -0.36525228834216061 0.17922160577889321 0 -0.36636290901460722 0.1509782344479508 0 -0.36525228834216061 0.17922160577889321 0 -0.36525228834216061 0.17922160577889321 0 -0.34333519974196419 0.16612441953572921 0 -0.34654591437965571 0.19533490523866279 0 -0.36636290901460722 0.1509782344479508 0 -0.36525228834216061 0.17922160577889321 0 -0.34333519974196419 0.16612441953572921 0 -0.34333519974196419 0.16612441953572921 0 -0.31496429102988749 0.16269226213852109 0 -0.33512599087492562 0.1447950320020088 0 -0.34333519974196419 0.16612441953572921 0 -0.34654591437965571 0.19533490523866279 0 -0.32412519241006588 0.1878495682783011 0 -0.31496429102988749 0.16269226213852109 0 -0.32412519241006588 0.1878495682783011 0 -0.34333519974196419 0.16612441953572921 0 -0.31496429102988749 0.16269226213852109 0 -0.32412519241006588 0.1878495682783011 0 -0.31303823693556859 0.17707572181323081 0 -0.31496429102988749 0.16269226213852109 0 -0.32412519241006588 0.1878495682783011 0 -0.31303823693556859 0.17707572181323081 0 -0.32412519241006588 0.1878495682783011 0 -0.3108046026399135 0.18379038091696129 0 -0.31496429102988749 0.16269226213852109 0 -0.31353256245119709 0.1587605055712967 0 -0.31354631638020197 0.13395604467094269 0 -0.33512599087492562 0.1447950320020088 0 -0.3122891553291075 0.14635758184588041 0 -0.31353256245119709 0.1587605055712967 0 -0.33512599087492562 0.1447950320020088 0 -0.3122891553291075 0.14635758184588041 0 -0.31496429102988749 0.16269226213852109 0 -0.31353256245119709 0.1587605055712967 0 -0.33512599087492562 0.1447950320020088 0 -0.31496429102988749 0.16269226213852109 0 -0.33512599087492562 0.1447950320020088 0 -0.31354631638020197 0.13395604467094269 0 -0.32917568526667751 0.12578156900391591 0 -0.33512599087492562 0.1447950320020088 0 -0.31354631638020197 0.13395604467094269 0 -0.32917568526667751 0.12578156900391591 0 -0.32114709127587232 0.11611322513389059 0 -0.32917568526667751 0.12578156900391591 0 -0.33512599087492562 0.1447950320020088 0 -0.34115039425197219 0.12498493974687711 0 -0.35168351666373848 0.14314256241625531 0 -0.34333519974196419 0.16612441953572921 0 -0.33512599087492562 0.1447950320020088 0 -0.36303104699726713 0.23570834844077809 0 -0.34244699517042121 0.23816418055786151 0 -0.36318679658289171 0.25196182354824148 0 -0.34244699517042121 0.23816418055786151 0 -0.36318679658289171 0.25196182354824148 0 -0.33952374355129727 0.25899057541505788 0 -0.37619177155740557 0.24036243622333081 0 -0.36303104699726713 0.23570834844077809 0 -0.36318679658289171 0.25196182354824148 0 -0.38435338999826391 0.22831720607051781 0 -0.37619177155740557 0.24036243622333081 0 -0.36303104699726713 0.23570834844077809 0 -0.38435338999826391 0.22831720607051781 0 -0.36303104699726713 0.23570834844077809 0 -0.36414166766971379 0.2074649771098355 0 -0.36303104699726713 0.23570834844077809 0 -0.36414166766971379 0.2074649771098355 0 -0.36303104699726713 0.23570834844077809 0 -0.35084793517488477 0.2210857468323085 0 -0.34244699517042121 0.23816418055786151 0 -0.36303104699726713 0.23570834844077809 0 -0.35084793517488477 0.2210857468323085 0 -0.36414166766971379 0.2074649771098355 0 -0.35084793517488477 0.2210857468323085 0 -0.36414166766971379 0.2074649771098355 0 -0.34654591437965571 0.19533490523866279 0 -0.36525228834216061 0.17922160577889321 0 -0.36414166766971379 0.2074649771098355 0 -0.38991122675871148 0.19784364296923759 0 -0.36525228834216061 0.17922160577889321 0 -0.36414166766971379 0.2074649771098355 0 -0.36525228834216061 0.17922160577889321 0 -0.36414166766971379 0.2074649771098355 0 -0.34654591437965571 0.19533490523866279 0 -0.32412519241006588 0.1878495682783011 0 -0.33328609379024349 0.2130068744180813 0 -0.34654591437965571 0.19533490523866279 0 -0.32412519241006588 0.1878495682783011 0 -0.33328609379024349 0.2130068744180813 0 -0.32412519241006588 0.1878495682783011 0 -0.33328609379024349 0.2130068744180813 0 -0.31080006153106382 0.20197173666100501 0 -0.32412519241006588 0.1878495682783011 0 -0.31080006153106382 0.20197173666100501 0 -0.3108046026399135 0.18379038091696129 0 -0.33328609379024349 0.2130068744180813 0 -0.31873218963182409 0.22654972870499029 0 -0.31080006153106382 0.20197173666100501 0 -0.35084793517488477 0.2210857468323085 0 -0.34654591437965571 0.19533490523866279 0 -0.33328609379024349 0.2130068744180813 0 -0.35084793517488477 0.2210857468323085 0 -0.33328609379024349 0.2130068744180813 0 -0.34244699517042121 0.23816418055786151 0 -0.33328609379024349 0.2130068744180813 0 -0.34244699517042121 0.23816418055786151 0 -0.33328609379024349 0.2130068744180813 0 -0.31873218963182409 0.22654972870499029 0 -0.34244699517042121 0.23816418055786151 0 -0.31873218963182409 0.22654972870499029 0 -0.32200613725511351 0.24850726385495631 0 -0.34244699517042121 0.23816418055786151 0 -0.31873218963182409 0.22654972870499029 0 -0.32200613725511351 0.24850726385495631 0 -0.30672251365844311 0.23743048015470111 0 -0.32200613725511351 0.24850726385495631 0 -0.34244699517042121 0.23816418055786151 0 -0.33952374355129727 0.25899057541505788 0 -0.29125564533142001 0.24067530578368901 0 -0.30672251365844311 0.23743048015470111 0 -0.30640548876467488 0.25787073169030861 0 -0.32200613725511351 0.24850726385495631 0 -0.30672251365844311 0.23743048015470111 0 -0.30640548876467488 0.25787073169030861 0 -0.29125564533142001 0.24067530578368901 0 -0.30672251365844311 0.23743048015470111 0 -0.29521310730918271 0.21354937073956171 0 -0.31873218963182409 0.22654972870499029 0 -0.30672251365844311 0.23743048015470111 0 -0.29521310730918271 0.21354937073956171 0 -0.29125564533142001 0.24067530578368901 0 -0.29521310730918271 0.21354937073956171 0 -0.29125564533142001 0.24067530578368901 0 -0.29521310730918271 0.21354937073956171 0 -0.27258595833473342 0.22149207507906341 0 -0.29521310730918271 0.21354937073956171 0 -0.28878760701375322 0.1984352968903606 0 -0.27490594785389072 0.20112241201531189 0 -0.31873218963182409 0.22654972870499029 0 -0.29521310730918271 0.21354937073956171 0 -0.31080006153106382 0.20197173666100501 0 -0.29521310730918271 0.21354937073956171 0 -0.29917056928694541 0.1864234356954344 0 -0.29521310730918271 0.21354937073956171 0 -0.31080006153106382 0.20197173666100501 0 -0.29917056928694541 0.1864234356954344 0 -0.31080006153106382 0.20197173666100501 0 -0.3108046026399135 0.18379038091696129 0 -0.29917056928694541 0.1864234356954344 0 -0.28878760701375322 0.1984352968903606 0 -0.29917056928694541 0.1864234356954344 0 -0.28955343229492791 0.1852490896997587 0 -0.29521310730918271 0.21354937073956171 0 -0.28878760701375322 0.1984352968903606 0 -0.29917056928694541 0.1864234356954344 0 -0.28878760701375322 0.1984352968903606 0 -0.27938784373491388 0.18917199981814359 0 -0.28955343229492791 0.1852490896997587 0 -0.27938784373491388 0.18917199981814359 0 -0.27490594785389072 0.20112241201531189 0 -0.26439180367967152 0.18225540552070321 0 -0.28878760701375322 0.1984352968903606 0 -0.27938784373491388 0.18917199981814359 0 -0.27490594785389072 0.20112241201531189 0 -0.27490594785389072 0.20112241201531189 0 -0.25370102580463139 0.2052288024824625 0 -0.26439180367967152 0.18225540552070321 0 -0.25370102580463139 0.2052288024824625 0 -0.26439180367967152 0.18225540552070321 0 -0.23359887481107691 0.1809086922627815 0 -0.27490594785389072 0.20112241201531189 0 -0.25370102580463139 0.2052288024824625 0 -0.27258595833473342 0.22149207507906341 0 -0.29521310730918271 0.21354937073956171 0 -0.27490594785389072 0.20112241201531189 0 -0.27258595833473342 0.22149207507906341 0 -0.29125564533142001 0.24067530578368901 0 -0.27258595833473342 0.22149207507906341 0 -0.26834113505385238 0.23837358332174549 0 -0.27258595833473342 0.22149207507906341 0 -0.25272375818517617 0.22994970808158929 0 -0.26834113505385238 0.23837358332174549 0 -0.25370102580463139 0.2052288024824625 0 -0.27258595833473342 0.22149207507906341 0 -0.25272375818517617 0.22994970808158929 0 -0.25272375818517617 0.22994970808158929 0 -0.25621817608628389 0.2460965770837312 0 -0.26834113505385238 0.23837358332174549 0 -0.25621817608628389 0.2460965770837312 0 -0.26834113505385238 0.23837358332174549 0 -0.26892213733164849 0.25365425058065472 0 -0.29125564533142001 0.24067530578368901 0 -0.26834113505385238 0.23837358332174549 0 -0.26892213733164849 0.25365425058065472 0 -0.29370567785695612 0.15770531643225719 0 -0.28412418886142132 0.16518528890623771 0 -0.28065913062351988 0.14575155473079041 0 -0.30159211447790629 0.14759241864651959 0 -0.29370567785695612 0.15770531643225719 0 -0.28065913062351988 0.14575155473079041 0 -0.29682817834931757 0.13068013418198679 0 -0.30159211447790629 0.14759241864651959 0 -0.28065913062351988 0.14575155473079041 0 -0.29682817834931757 0.13068013418198679 0 -0.28065913062351988 0.14575155473079041 0 -0.28285123447775751 0.1183560919224374 0 -0.31354631638020197 0.13395604467094269 0 -0.29682817834931757 0.13068013418198679 0 -0.30159211447790629 0.14759241864651959 0 -0.31354631638020197 0.13395604467094269 0 -0.3122891553291075 0.14635758184588041 0 -0.30159211447790629 0.14759241864651959 0 -0.31353256245119709 0.1587605055712967 0 -0.3122891553291075 0.14635758184588041 0 -0.30159211447790629 0.14759241864651959 0 -0.31496429102988749 0.16269226213852109 0 -0.31353256245119709 0.1587605055712967 0 -0.30488677357152572 0.1641353808659653 0 -0.30159211447790629 0.14759241864651959 0 -0.30488677357152572 0.1641353808659653 0 -0.29370567785695612 0.15770531643225719 0 -0.31353256245119709 0.1587605055712967 0 -0.30159211447790629 0.14759241864651959 0 -0.30488677357152572 0.1641353808659653 0 -0.31496429102988749 0.16269226213852109 0 -0.30225886166240762 0.17397067591913981 0 -0.31303823693556859 0.17707572181323081 0 -0.31496429102988749 0.16269226213852109 0 -0.30225886166240762 0.17397067591913981 0 -0.31496429102988749 0.16269226213852109 0 -0.30488677357152572 0.1641353808659653 0 -0.30225886166240762 0.17397067591913981 0 -0.30488677357152572 0.1641353808659653 0 -0.30225886166240762 0.17397067591913981 0 -0.29597535979189887 0.1670989905046398 0 -0.30488677357152572 0.1641353808659653 0 -0.29370567785695612 0.15770531643225719 0 -0.29597535979189887 0.1670989905046398 0 -0.31303823693556859 0.17707572181323081 0 -0.3108046026399135 0.18379038091696129 0 -0.30225886166240762 0.17397067591913981 0 -0.30225886166240762 0.17397067591913981 0 -0.29917056928694541 0.1864234356954344 0 -0.28955343229492791 0.1852490896997587 0 -0.3108046026399135 0.18379038091696129 0 -0.30225886166240762 0.17397067591913981 0 -0.29917056928694541 0.1864234356954344 0 -0.30225886166240762 0.17397067591913981 0 -0.28955343229492791 0.1852490896997587 0 -0.30225886166240762 0.17397067591913981 0 -0.28955343229492791 0.1852490896997587 0 -0.29024545837739651 0.173916500811098 0 -0.28955343229492791 0.1852490896997587 0 -0.29024545837739651 0.173916500811098 0 -0.27889874324695868 0.17762520371433099 0 -0.29024545837739651 0.173916500811098 0 -0.28412418886142132 0.16518528890623771 0 -0.27889874324695868 0.17762520371433099 0 -0.27938784373491388 0.18917199981814359 0 -0.28955343229492791 0.1852490896997587 0 -0.27889874324695868 0.17762520371433099 0 -0.29370567785695612 0.15770531643225719 0 -0.29597535979189887 0.1670989905046398 0 -0.28412418886142132 0.16518528890623771 0 -0.30225886166240762 0.17397067591913981 0 -0.29024545837739651 0.173916500811098 0 -0.29597535979189887 0.1670989905046398 0 -0.29024545837739651 0.173916500811098 0 -0.29597535979189887 0.1670989905046398 0 -0.28412418886142132 0.16518528890623771 0 -0.28412418886142132 0.16518528890623771 0 -0.26844272787379447 0.16268744982768751 0 -0.27889874324695868 0.17762520371433099 0 -0.28412418886142132 0.16518528890623771 0 -0.26844272787379447 0.16268744982768751 0 -0.28065913062351988 0.14575155473079041 0 -0.26844272787379447 0.16268744982768751 0 -0.27889874324695868 0.17762520371433099 0 -0.26439180367967152 0.18225540552070321 0 -0.27938784373491388 0.18917199981814359 0 -0.27889874324695868 0.17762520371433099 0 -0.26439180367967152 0.18225540552070321 0 -0.26844272787379447 0.16268744982768751 0 -0.26439180367967152 0.18225540552070321 0 -0.247018622616726 0.15992587597476091 0 -0.26844272787379447 0.16268744982768751 0 -0.25846103874104392 0.14702121199507179 0 -0.247018622616726 0.15992587597476091 0 -0.26844272787379447 0.16268744982768751 0 -0.25846103874104392 0.14702121199507179 0 -0.28065913062351988 0.14575155473079041 0 -0.25846103874104392 0.14702121199507179 0 -0.28065913062351988 0.14575155473079041 0 -0.25922316449870308 0.12628093809151891 0 -0.28065913062351988 0.14575155473079041 0 -0.25922316449870308 0.12628093809151891 0 -0.28285123447775751 0.1183560919224374 0 -0.25846103874104392 0.14702121199507179 0 -0.25922316449870308 0.12628093809151891 0 -0.2369615480924761 0.1404602413506009 0 -0.25922316449870308 0.12628093809151891 0 -0.25136603029008331 0.1103208693098497 0 -0.26687835675477128 0.1014348965859585 0 -0.25136603029008331 0.1103208693098497 0 -0.26687835675477128 0.1014348965859585 0 -0.24377998071086901 0.096378574065869249 0 -0.26687835675477128 0.1014348965859585 0 -0.28737892951993471 0.098967158637655914 0 -0.27569457229827071 0.081243623470509244 0 -0.26687835675477128 0.1014348965859585 0 -0.28285123447775751 0.1183560919224374 0 -0.28737892951993471 0.098967158637655914 0 -0.25922316449870308 0.12628093809151891 0 -0.26687835675477128 0.1014348965859585 0 -0.28285123447775751 0.1183560919224374 0 -0.29682817834931757 0.13068013418198679 0 -0.28285123447775751 0.1183560919224374 0 -0.30549209578720232 0.10774456093924389 0 -0.28285123447775751 0.1183560919224374 0 -0.28737892951993471 0.098967158637655914 0 -0.30549209578720232 0.10774456093924389 0 -0.28737892951993471 0.098967158637655914 0 -0.30549209578720232 0.10774456093924389 0 -0.29743787519420251 0.08153307720754506 0 -0.30549209578720232 0.10774456093924389 0 -0.29743787519420251 0.08153307720754506 0 -0.31354631638020197 0.13395604467094269 0 -0.29682817834931757 0.13068013418198679 0 -0.30549209578720232 0.10774456093924389 0 -0.31354631638020197 0.13395604467094269 0 -0.30549209578720232 0.10774456093924389 0 -0.29926204670725021 0.066629363318123747 0 -0.30931237829482389 0.073252958087475881 0 -0.31697319293959142 0.061410437985649477 0 -0.29926204670725021 0.066629363318123747 0 -0.30931237829482389 0.073252958087475881 0 -0.29743787519420251 0.08153307720754506 0 -0.30549209578720232 0.10774456093924389 0 -0.29743787519420251 0.08153307720754506 0 -0.31312795334666071 0.083579729522452809 0 -0.30931237829482389 0.073252958087475881 0 -0.29743787519420251 0.08153307720754506 0 -0.31312795334666071 0.083579729522452809 0 -0.28737892951993471 0.098967158637655914 0 -0.29743787519420251 0.08153307720754506 0 -0.27569457229827071 0.081243623470509244 0 -0.29743787519420251 0.08153307720754506 0 -0.28743776060402371 0.060458689408765323 0 -0.28938365460120269 0.05532159347584624 0 -0.29743787519420251 0.08153307720754506 0 -0.28938365460120269 0.05532159347584624 0 -0.29926204670725021 0.066629363318123747 0 -0.29743787519420251 0.08153307720754506 0 -0.28938365460120269 0.05532159347584624 0 -0.29743787519420251 0.08153307720754506 0 -0.27569457229827071 0.081243623470509244 0 -0.28743776060402371 0.060458689408765323 0 -0.27569457229827071 0.081243623470509244 0 -0.26257114212692878 0.06573449919026883 0 -0.28743776060402371 0.060458689408765323 0 -0.26257114212692878 0.06573449919026883 0 -0.28743776060402371 0.060458689408765323 0 -0.26687835675477128 0.1014348965859585 0 -0.25261226255175379 0.080423606239198905 0 -0.24377998071086901 0.096378574065869249 0 -0.26687835675477128 0.1014348965859585 0 -0.27569457229827071 0.081243623470509244 0 -0.25261226255175379 0.080423606239198905 0 -0.26257114212692878 0.06573449919026883 0 -0.23770452364983391 0.071010308971772351 0 -0.25261226255175379 0.080423606239198905 0 -0.26257114212692878 0.06573449919026883 0 -0.23770452364983391 0.071010308971772351 0 -0.27569457229827071 0.081243623470509244 0 -0.25261226255175379 0.080423606239198905 0 -0.26257114212692878 0.06573449919026883 0 -0.2522816967992324 0.037264740289820159 0 -0.27263172987273521 0.051913181220590639 0 -0.24906194248509719 0.058488871325365822 0 -0.26257114212692878 0.06573449919026883 0 -0.27263172987273521 0.051913181220590639 0 -0.24906194248509719 0.058488871325365822 0 -0.2522816967992324 0.037264740289820159 0 -0.2684979789729644 0.03593820420606865 0 -0.27263172987273521 0.051913181220590639 0 -0.2684979789729644 0.03593820420606865 0 -0.27263172987273521 0.051913181220590639 0 -0.28132943400820298 0.02911010974414751 0 -0.27263172987273521 0.051913181220590639 0 -0.28132943400820298 0.02911010974414751 0 -0.28938365460120269 0.05532159347584624 0 -0.26257114212692878 0.06573449919026883 0 -0.27263172987273521 0.051913181220590639 0 -0.28743776060402371 0.060458689408765323 0 -0.25267499080189931 -0.0034516002120552492 0 -0.26909988492935111 -0.0018655285383734981 0 -0.25157722050270093 0.012682655753942951 0 -0.26909988492935111 -0.0018655285383734981 0 -0.25157722050270093 0.012682655753942951 0 -0.27200359261247947 0.017754051058092819 0 -0.2522816967992324 0.037264740289820159 0 -0.25157722050270093 0.012682655753942951 0 -0.27200359261247947 0.017754051058092819 0 -0.2522816967992324 0.037264740289820159 0 -0.2684979789729644 0.03593820420606865 0 -0.27200359261247947 0.017754051058092819 0 -0.2522816967992324 0.037264740289820159 0 -0.27200359261247947 0.017754051058092819 0 -0.27200359261247947 0.017754051058092819 0 -0.28831373269731447 0.017122983851404761 0 -0.28132943400820298 0.02911010974414751 0 -0.2684979789729644 0.03593820420606865 0 -0.27200359261247947 0.017754051058092819 0 -0.28132943400820298 0.02911010974414751 0 -0.26909988492935111 -0.0018655285383734981 0 -0.2917254884257266 -0.0017566381736345419 0 -0.27200359261247947 0.017754051058092819 0 -0.2917254884257266 -0.0017566381736345419 0 -0.27200359261247947 0.017754051058092819 0 -0.28831373269731447 0.017122983851404761 0 -0.2917254884257266 -0.0017566381736345419 0 -0.28831373269731447 0.017122983851404761 0 -0.29997880334656019 0.01439552450637107 0 -0.2917254884257266 -0.0017566381736345419 0 -0.27200359261247947 0.017754051058092819 0 -0.28831373269731447 0.017122983851404761 0 -0.29656482898857922 0.02610767777843559 0 -0.29997880334656019 0.01439552450637107 0 -0.28831373269731447 0.017122983851404761 0 -0.28132943400820298 0.02911010974414751 0 -0.29656482898857922 0.02610767777843559 0 -0.28132943400820298 0.02911010974414751 0 -0.29656482898857922 0.02610767777843559 0 -0.29344050585463782 0.03493273697686209 0 -0.29656482898857922 0.02610767777843559 0 -0.31039051656375261 0.022327184027059441 0 -0.30541723396373921 0.038711125382435783 0 -0.31039051656375261 0.022327184027059441 0 -0.30541723396373921 0.038711125382435783 0 -0.32038394146944787 0.031620215762440292 0 -0.29656482898857922 0.02610767777843559 0 -0.31039051656375261 0.022327184027059441 0 -0.29997880334656019 0.01439552450637107 0 -0.31039051656375261 0.022327184027059441 0 -0.31177688145040278 0.0050359958776742568 0 -0.29997880334656019 0.01439552450637107 0 -0.2917254884257266 -0.0017566381736345419 0 -0.31177688145040278 0.0050359958776742568 0 -0.29997880334656019 0.01439552450637107 0 -0.27263172987273521 0.051913181220590639 0 -0.28743776060402371 0.060458689408765323 0 -0.28938365460120269 0.05532159347584624 0 -0.28938365460120269 0.05532159347584624 0 -0.29045052645802971 0.045802035002429492 0 -0.29738278035354182 0.050541329601553678 0 -0.28938365460120269 0.05532159347584624 0 -0.29738278035354182 0.050541329601553678 0 -0.29780899910201009 0.056562827273038227 0 -0.29926204670725021 0.066629363318123747 0 -0.28938365460120269 0.05532159347584624 0 -0.29780899910201009 0.056562827273038227 0 -0.28132943400820298 0.02911010974414751 0 -0.28938365460120269 0.05532159347584624 0 -0.29045052645802971 0.045802035002429492 0 -0.28132943400820298 0.02911010974414751 0 -0.28938365460120269 0.05532159347584624 0 -0.28132943400820298 0.02911010974414751 0 -0.29344050585463782 0.03493273697686209 0 -0.29045052645802971 0.045802035002429492 0 -0.29344050585463782 0.03493273697686209 0 -0.29045052645802971 0.045802035002429492 0 -0.30541723396373921 0.038711125382435783 0 -0.29045052645802971 0.045802035002429492 0 -0.30541723396373921 0.038711125382435783 0 -0.29738278035354182 0.050541329601553678 0 -0.29045052645802971 0.045802035002429492 0 -0.30541723396373921 0.038711125382435783 0 -0.29656482898857922 0.02610767777843559 0 -0.29344050585463782 0.03493273697686209 0 -0.30541723396373921 0.038711125382435783 0 -0.30541723396373921 0.038711125382435783 0 -0.30520751474604563 0.05375902269662923 0 -0.31780711793698518 0.045521831715634557 0 -0.29926204670725021 0.066629363318123747 0 -0.30520751474604563 0.05375902269662923 0 -0.31697319293959142 0.061410437985649477 0 -0.30541723396373921 0.038711125382435783 0 -0.30520751474604563 0.05375902269662923 0 -0.29738278035354182 0.050541329601553678 0 -0.30520751474604563 0.05375902269662923 0 -0.29738278035354182 0.050541329601553678 0 -0.29780899910201009 0.056562827273038227 0 -0.29926204670725021 0.066629363318123747 0 -0.30520751474604563 0.05375902269662923 0 -0.29780899910201009 0.056562827273038227 0 -0.32553678940662539 0.052415823907368687 0 -0.31780711793698518 0.045521831715634557 0 -0.33422422494732851 0.04449049745268327 0 -0.31697319293959142 0.061410437985649477 0 -0.32553678940662539 0.052415823907368687 0 -0.31780711793698518 0.045521831715634557 0 -0.30520751474604563 0.05375902269662923 0 -0.31697319293959142 0.061410437985649477 0 -0.31780711793698518 0.045521831715634557 0 -0.31697319293959142 0.061410437985649477 0 -0.32808937753058609 0.059947696530402161 0 -0.32553678940662539 0.052415823907368687 0 -0.31780711793698518 0.045521831715634557 0 -0.32038394146944787 0.031620215762440292 0 -0.33422422494732851 0.04449049745268327 0 -0.30541723396373921 0.038711125382435783 0 -0.31780711793698518 0.045521831715634557 0 -0.32038394146944787 0.031620215762440292 0 -0.30541723396373921 0.038711125382435783 0 -0.32038394146944787 0.031620215762440292 0 -0.32038394146944787 0.031620215762440292 0 -0.33422422494732851 0.04449049745268327 0 -0.33422422494732851 0.04449049745268327 0 -0.34051642268078958 0.02208187176518148 0 -0.34924074101412461 0.03711639968071382 0 -0.32038394146944787 0.031620215762440292 0 -0.33422422494732851 0.04449049745268327 0 -0.34051642268078958 0.02208187176518148 0 -0.33422422494732851 0.04449049745268327 0 -0.34715076893326918 0.04673829876922056 0 -0.34924074101412461 0.03711639968071382 0 -0.33422422494732851 0.04449049745268327 0 -0.34806450842520742 0.057360779142928031 0 -0.34715076893326918 0.04673829876922056 0 -0.33422422494732851 0.04449049745268327 0 -0.34806450842520742 0.057360779142928031 0 -0.33422422494732851 0.04449049745268327 0 -0.33482930480244999 0.055095026294593591 0 -0.34806450842520742 0.057360779142928031 0 -0.3407399656121517 0.06083029771636933 0 -0.33482930480244999 0.055095026294593591 0 -0.33440717105718593 0.063083878638897639 0 -0.3407399656121517 0.06083029771636933 0 -0.33482930480244999 0.055095026294593591 0 -0.34806450842520742 0.057360779142928031 0 -0.32808937753058609 0.059947696530402161 0 -0.33482930480244999 0.055095026294593591 0 -0.33440717105718593 0.063083878638897639 0 -0.32808937753058609 0.059947696530402161 0 -0.32553678940662539 0.052415823907368687 0 -0.33482930480244999 0.055095026294593591 0 -0.32553678940662539 0.052415823907368687 0 -0.33422422494732851 0.04449049745268327 0 -0.33482930480244999 0.055095026294593591 0 -0.31039051656375261 0.022327184027059441 0 -0.31177688145040278 0.0050359958776742568 0 -0.3261420213634148 0.01391490981329808 0 -0.32828291010712762 -0.0049346835118845543 0 -0.31177688145040278 0.0050359958776742568 0 -0.3261420213634148 0.01391490981329808 0 -0.31039051656375261 0.022327184027059441 0 -0.32038394146944787 0.031620215762440292 0 -0.3261420213634148 0.01391490981329808 0 -0.31039051656375261 0.022327184027059441 0 -0.32038394146944787 0.031620215762440292 0 -0.32038394146944787 0.031620215762440292 0 -0.34051642268078958 0.02208187176518148 0 -0.32038394146944787 0.031620215762440292 0 -0.3261420213634148 0.01391490981329808 0 -0.34051642268078958 0.02208187176518148 0 -0.3261420213634148 0.01391490981329808 0 -0.34051642268078958 0.02208187176518148 0 -0.34055428987364128 0.0059527955302196532 0 -0.32828291010712762 -0.0049346835118845543 0 -0.3261420213634148 0.01391490981329808 0 -0.34055428987364128 0.0059527955302196532 0 -0.34051642268078958 0.02208187176518148 0 -0.34055428987364128 0.0059527955302196532 0 -0.36064890389212972 0.0125435277679194 0 -0.34718119132474479 -0.01384164818341615 0 -0.34055428987364128 0.0059527955302196532 0 -0.36064890389212972 0.0125435277679194 0 -0.34051642268078958 0.02208187176518148 0 -0.36064890389212972 0.0125435277679194 0 -0.34051642268078958 0.02208187176518148 0 -0.35699945364537122 0.027147445145089769 0 -0.34924074101412461 0.03711639968071382 0 -0.34051642268078958 0.02208187176518148 0 -0.35699945364537122 0.027147445145089769 0 -0.36064890389212972 0.0125435277679194 0 -0.35699945364537122 0.027147445145089769 0 -0.36163302121541668 0.029781402687577421 0 -0.35940737946489582 0.035374977024224222 0 -0.37998819155715241 0.0057865511937031933 0 -0.36738966121720701 0.029980518529024301 0 -0.37123175334181557 0.027162262264614271 0 -0.37998819155715241 0.0057865511937031933 0 -0.36738966121720701 0.029980518529024301 0 -0.3645477689834325 0.020181962352102071 0 -0.37998819155715241 0.0057865511937031933 0 -0.36738966121720701 0.029980518529024301 0 -0.36273559053419291 0.026622670051971411 0 -0.36738966121720701 0.029980518529024301 0 -0.3645477689834325 0.020181962352102071 0 -0.35699945364537122 0.027147445145089769 0 -0.36163302121541668 0.029781402687577421 0 -0.36273559053419291 0.026622670051971411 0 -0.35699945364537122 0.027147445145089769 0 -0.36273559053419291 0.026622670051971411 0 -0.3645477689834325 0.020181962352102071 0 -0.36163302121541668 0.029781402687577421 0 -0.36273559053419291 0.026622670051971411 0 -0.36738966121720701 0.029980518529024301 0 -0.35699945364537122 0.027147445145089769 0 -0.3645477689834325 0.020181962352102071 0 -0.36064890389212972 0.0125435277679194 0 -0.3645477689834325 0.020181962352102071 0 -0.36064890389212972 0.0125435277679194 0 -0.37998819155715241 0.0057865511937031933 0 -0.3645477689834325 0.020181962352102071 0 -0.36064890389212972 0.0125435277679194 0 -0.38683543611469601 0.0001369023841863784 0 -0.36064890389212972 0.0125435277679194 0 -0.37474494217865062 -0.0022388935110706832 0 -0.38683543611469601 0.0001369023841863784 0 -0.36064890389212972 0.0125435277679194 0 -0.37474494217865062 -0.0022388935110706832 0 -0.36307869926690151 -0.00068504054922277494 0 -0.36064890389212972 0.0125435277679194 0 -0.35479113087726238 0.05417448586434577 0 -0.34715076893326918 0.04673829876922056 0 -0.35593663516940488 0.04278932274017315 0 -0.35479113087726238 0.05417448586434577 0 -0.35147867423579721 0.06053566178096708 0 -0.3622197730044176 0.060127746183944272 0 -0.35479113087726238 0.05417448586434577 0 -0.35147867423579721 0.06053566178096708 0 -0.35479113087726238 0.05417448586434577 0 -0.34806450842520742 0.057360779142928031 0 -0.35147867423579721 0.06053566178096708 0 -0.35479113087726238 0.05417448586434577 0 -0.34806450842520742 0.057360779142928031 0 -0.34806450842520742 0.057360779142928031 0 -0.35147867423579721 0.06053566178096708 0 -0.3447014191436914 0.063951910484466787 0 -0.34806450842520742 0.057360779142928031 0 -0.35147867423579721 0.06053566178096708 0 -0.3407399656121517 0.06083029771636933 0 -0.34806450842520742 0.057360779142928031 0 -0.3407399656121517 0.06083029771636933 0 -0.34806450842520742 0.057360779142928031 0 -0.3447014191436914 0.063951910484466787 0 -0.35479113087726238 0.05417448586434577 0 -0.34806450842520742 0.057360779142928031 0 -0.34715076893326918 0.04673829876922056 0 -0.34715076893326918 0.04673829876922056 0 -0.34924074101412461 0.03711639968071382 0 -0.35593663516940488 0.04278932274017315 0 -0.36738966121720701 0.029980518529024301 0 -0.35479113087726238 0.05417448586434577 0 -0.35593663516940488 0.04278932274017315 0 -0.35699945364537122 0.027147445145089769 0 -0.34924074101412461 0.03711639968071382 0 -0.35940737946489582 0.035374977024224222 0 -0.34924074101412461 0.03711639968071382 0 -0.35593663516940488 0.04278932274017315 0 -0.35940737946489582 0.035374977024224222 0 -0.36738966121720701 0.029980518529024301 0 -0.35479113087726238 0.05417448586434577 0 -0.36677646394688163 0.041367990420506082 0 -0.37123175334181557 0.027162262264614271 0 -0.37046143272875132 0.04675171495388801 0 -0.36738966121720701 0.029980518529024301 0 -0.35479113087726238 0.05417448586434577 0 -0.37123175334181557 0.027162262264614271 0 -0.36677646394688163 0.041367990420506082 0 -0.37046143272875132 0.04675171495388801 0 -0.3764786745208083 0.032098692741998169 0 -0.37123175334181557 0.027162262264614271 0 -0.37046143272875132 0.04675171495388801 0 -0.36163302121541668 0.029781402687577421 0 -0.36738966121720701 0.029980518529024301 0 -0.35940737946489582 0.035374977024224222 0 -0.36738966121720701 0.029980518529024301 0 -0.35593663516940488 0.04278932274017315 0 -0.35940737946489582 0.035374977024224222 0 -0.36738966121720701 0.029980518529024301 0 -0.37123175334181557 0.027162262264614271 0 -0.36677646394688163 0.041367990420506082 0 -0.36677646394688163 0.041367990420506082 0 -0.37046143272875132 0.04675171495388801 0 -0.36802302346639398 0.047906750352184523 0 -0.36677646394688163 0.041367990420506082 0 -0.36802302346639398 0.047906750352184523 0 -0.37046143272875132 0.04675171495388801 0 -0.37000681959492809 0.05831264468359916 0 -0.36802302346639398 0.047906750352184523 0 -0.37000681959492809 0.05831264468359916 0 -0.37046143272875132 0.04675171495388801 0 -0.36802302346639398 0.047906750352184523 0 -0.37000681959492809 0.05831264468359916 0 -0.37046143272875132 0.04675171495388801 0 -0.36802302346639398 0.047906750352184523 0 -0.35479113087726238 0.05417448586434577 0 -0.36802302346639398 0.047906750352184523 0 -0.35479113087726238 0.05417448586434577 0 -0.36802302346639398 0.047906750352184523 0 -0.3622197730044176 0.060127746183944272 0 -0.35479113087726238 0.05417448586434577 0 -0.36677646394688163 0.041367990420506082 0 -0.36802302346639398 0.047906750352184523 0 -0.36802302346639398 0.047906750352184523 0 -0.3622197730044176 0.060127746183944272 0 -0.37000681959492809 0.05831264468359916 0 -0.35147867423579721 0.06053566178096708 0 -0.36926886504626422 0.077079019973005369 0 -0.3622197730044176 0.060127746183944272 0 -0.37000681959492809 0.05831264468359916 0 -0.36926886504626422 0.077079019973005369 0 -0.37000681959492809 0.05831264468359916 0 -0.36926886504626422 0.077079019973005369 0 -0.37079498002478778 0.078498176574577722 0 -0.36926886504626422 0.077079019973005369 0 -0.34551673285671652 0.071984855543133663 0 -0.36912013352382872 0.080861301107253064 0 -0.37000681959492809 0.05831264468359916 0 -0.37079498002478778 0.078498176574577722 0 -0.37470600383380392 0.082961959162170973 0 -0.35147867423579721 0.06053566178096708 0 -0.3622197730044176 0.060127746183944272 0 -0.36926886504626422 0.077079019973005369 0 -0.37000681959492809 0.05831264468359916 0 -0.37470600383380392 0.082961959162170973 0 -0.37000681959492809 0.05831264468359916 0 -0.36926886504626422 0.077079019973005369 0 -0.36926886504626422 0.077079019973005369 0 -0.37079498002478778 0.078498176574577722 0 -0.34551673285671652 0.071984855543133663 0 -0.34763839367566191 0.079069075487607554 0 -0.36912013352382872 0.080861301107253064 0 -0.34551673285671652 0.071984855543133663 0 -0.36912013352382872 0.080861301107253064 0 -0.35147867423579721 0.06053566178096708 0 -0.36926886504626422 0.077079019973005369 0 -0.34551673285671652 0.071984855543133663 0 -0.34408269824063842 0.074738747125954852 0 -0.34763839367566191 0.079069075487607554 0 -0.34179116264722731 0.080399472229040897 0 -0.34408269824063842 0.074738747125954852 0 -0.34551673285671652 0.071984855543133663 0 -0.34763839367566191 0.079069075487607554 0 -0.34408269824063842 0.074738747125954852 0 -0.34551673285671652 0.071984855543133663 0 -0.35147867423579721 0.06053566178096708 0 -0.34551673285671652 0.071984855543133663 0 -0.3447014191436914 0.063951910484466787 0 -0.35147867423579721 0.06053566178096708 0 -0.34551673285671652 0.071984855543133663 0 -0.34763839367566191 0.079069075487607554 0 -0.36858415035949882 0.094491491786065696 0 -0.34763839367566191 0.079069075487607554 0 -0.36858415035949882 0.094491491786065696 0 -0.35198293914272999 0.094145145766245733 0 -0.34456144318064219 0.08667329674911145 0 -0.34763839367566191 0.079069075487607554 0 -0.35198293914272999 0.094145145766245733 0 -0.34456144318064219 0.08667329674911145 0 -0.35198293914272999 0.094145145766245733 0 -0.34431035454597703 0.093789606507308373 0 -0.34456144318064219 0.08667329674911145 0 -0.34763839367566191 0.079069075487607554 0 -0.34179116264722731 0.080399472229040897 0 -0.3782625711058698 0.101617738696854 0 -0.37470600383380392 0.082961959162170973 0 -0.36858415035949882 0.094491491786065696 0 -0.34763839367566191 0.079069075487607554 0 -0.36912013352382872 0.080861301107253064 0 -0.36858415035949882 0.094491491786065696 0 -0.36926886504626422 0.077079019973005369 0 -0.37079498002478778 0.078498176574577722 0 -0.36912013352382872 0.080861301107253064 0 -0.36926886504626422 0.077079019973005369 0 -0.36912013352382872 0.080861301107253064 0 -0.36912013352382872 0.080861301107253064 0 -0.37470600383380392 0.082961959162170973 0 -0.37079498002478778 0.078498176574577722 0 -0.36912013352382872 0.080861301107253064 0 -0.37470600383380392 0.082961959162170973 0 -0.36912013352382872 0.080861301107253064 0 -0.37470600383380392 0.082961959162170973 0 -0.36858415035949882 0.094491491786065696 0 -0.36912013352382872 0.080861301107253064 0 -0.36858415035949882 0.094491491786065696 0 -0.36858415035949882 0.094491491786065696 0 -0.36747352968705388 0.12273486311700831 0 -0.3782625711058698 0.101617738696854 0 -0.36858415035949882 0.094491491786065696 0 -0.36858415035949882 0.094491491786065696 0 -0.36006702585218792 0.10838608290929221 0 -0.35198293914272999 0.094145145766245733 0 -0.36858415035949882 0.094491491786065696 0 -0.36006702585218792 0.10838608290929221 0 -0.36747352968705388 0.12273486311700831 0 -0.3782625711058698 0.101617738696854 0 -0.36858415035949882 0.094491491786065696 0 -0.36747352968705388 0.12273486311700831 0 -0.36006702585218792 0.10838608290929221 0 -0.36747352968705388 0.12273486311700831 0 -0.35832203275528268 0.1183511860346923 0 -0.35528769071996391 0.12689780186549679 0 -0.36747352968705388 0.12273486311700831 0 -0.35832203275528268 0.1183511860346923 0 -0.35528769071996391 0.12689780186549679 0 -0.35832203275528268 0.1183511860346923 0 -0.35045988476192508 0.115385996246972 0 -0.36006702585218792 0.10838608290929221 0 -0.35832203275528268 0.1183511860346923 0 -0.35045988476192508 0.115385996246972 0 -0.35045988476192508 0.115385996246972 0 -0.34547580274860562 0.10394098399483009 0 -0.33570271963636877 0.11206429961599181 0 -0.35528769071996391 0.12689780186549679 0 -0.35045988476192508 0.115385996246972 0 -0.34115039425197219 0.12498493974687711 0 -0.36006702585218792 0.10838608290929221 0 -0.35198293914272999 0.094145145766245733 0 -0.34547580274860562 0.10394098399483009 0 -0.36006702585218792 0.10838608290929221 0 -0.35045988476192508 0.115385996246972 0 -0.34547580274860562 0.10394098399483009 0 -0.35198293914272999 0.094145145766245733 0 -0.34547580274860562 0.10394098399483009 0 -0.34431035454597703 0.093789606507308373 0 -0.34547580274860562 0.10394098399483009 0 -0.34431035454597703 0.093789606507308373 0 -0.335413749579693 0.097286071719103154 0 -0.34547580274860562 0.10394098399483009 0 -0.335413749579693 0.097286071719103154 0 -0.33570271963636877 0.11206429961599181 0 -0.335413749579693 0.097286071719103154 0 -0.33570271963636877 0.11206429961599181 0 -0.32444247844199348 0.1047035033472971 0 -0.35045988476192508 0.115385996246972 0 -0.34115039425197219 0.12498493974687711 0 -0.33570271963636877 0.11206429961599181 0 -0.32917568526667751 0.12578156900391591 0 -0.33570271963636877 0.11206429961599181 0 -0.32114709127587232 0.11611322513389059 0 -0.32917568526667751 0.12578156900391591 0 -0.34115039425197219 0.12498493974687711 0 -0.33570271963636877 0.11206429961599181 0 -0.31354631638020197 0.13395604467094269 0 -0.30549209578720232 0.10774456093924389 0 -0.32114709127587232 0.11611322513389059 0 -0.30549209578720232 0.10774456093924389 0 -0.32114709127587232 0.11611322513389059 0 -0.32444247844199348 0.1047035033472971 0 -0.33570271963636877 0.11206429961599181 0 -0.32114709127587232 0.11611322513389059 0 -0.32444247844199348 0.1047035033472971 0 -0.30549209578720232 0.10774456093924389 0 -0.32444247844199348 0.1047035033472971 0 -0.32445673593083119 0.090309359328255762 0 -0.30549209578720232 0.10774456093924389 0 -0.32445673593083119 0.090309359328255762 0 -0.31312795334666071 0.083579729522452809 0 -0.335413749579693 0.097286071719103154 0 -0.32444247844199348 0.1047035033472971 0 -0.32445673593083119 0.090309359328255762 0 -0.32445673593083119 0.090309359328255762 0 -0.3275606083710243 0.080211281293741998 0 -0.31312795334666071 0.083579729522452809 0 -0.3275606083710243 0.080211281293741998 0 -0.31312795334666071 0.083579729522452809 0 -0.31976082328641481 0.073112182403608325 0 -0.30931237829482389 0.073252958087475881 0 -0.31312795334666071 0.083579729522452809 0 -0.31976082328641481 0.073112182403608325 0 -0.30931237829482389 0.073252958087475881 0 -0.31697319293959142 0.061410437985649477 0 -0.31976082328641481 0.073112182403608325 0 -0.31697319293959142 0.061410437985649477 0 -0.31976082328641481 0.073112182403608325 0 -0.32886731949388731 0.069155273298144179 0 -0.31697319293959142 0.061410437985649477 0 -0.32808937753058609 0.059947696530402161 0 -0.32886731949388731 0.069155273298144179 0 -0.3275606083710243 0.080211281293741998 0 -0.31976082328641481 0.073112182403608325 0 -0.32886731949388731 0.069155273298144179 0 -0.32886731949388731 0.069155273298144179 0 -0.33770721458858299 0.069047958238937293 0 -0.336378655355973 0.076693290193422539 0 -0.3275606083710243 0.080211281293741998 0 -0.32886731949388731 0.069155273298144179 0 -0.336378655355973 0.076693290193422539 0 -0.33440717105718593 0.063083878638897639 0 -0.32886731949388731 0.069155273298144179 0 -0.33770721458858299 0.069047958238937293 0 -0.32808937753058609 0.059947696530402161 0 -0.33440717105718593 0.063083878638897639 0 -0.32886731949388731 0.069155273298144179 0 -0.3407399656121517 0.06083029771636933 0 -0.33440717105718593 0.063083878638897639 0 -0.33770721458858299 0.069047958238937293 0 -0.3407399656121517 0.06083029771636933 0 -0.3447014191436914 0.063951910484466787 0 -0.33770721458858299 0.069047958238937293 0 -0.34551673285671652 0.071984855543133663 0 -0.3447014191436914 0.063951910484466787 0 -0.33770721458858299 0.069047958238937293 0 -0.34408269824063842 0.074738747125954852 0 -0.33770721458858299 0.069047958238937293 0 -0.336378655355973 0.076693290193422539 0 -0.34408269824063842 0.074738747125954852 0 -0.34551673285671652 0.071984855543133663 0 -0.33770721458858299 0.069047958238937293 0 -0.34551673285671652 0.071984855543133663 0 -0.33770721458858299 0.069047958238937293 0 -0.34408269824063842 0.074738747125954852 0 -0.336378655355973 0.076693290193422539 0 -0.34179116264722731 0.080399472229040897 0 -0.336378655355973 0.076693290193422539 0 -0.34179116264722731 0.080399472229040897 0 -0.33708436589161489 0.085963183755354639 0 -0.34456144318064219 0.08667329674911145 0 -0.34179116264722731 0.080399472229040897 0 -0.33708436589161489 0.085963183755354639 0 -0.34456144318064219 0.08667329674911145 0 -0.34431035454597703 0.093789606507308373 0 -0.33708436589161489 0.085963183755354639 0 -0.34431035454597703 0.093789606507308373 0 -0.335413749579693 0.097286071719103154 0 -0.33708436589161489 0.085963183755354639 0 -0.335413749579693 0.097286071719103154 0 -0.32445673593083119 0.090309359328255762 0 -0.33708436589161489 0.085963183755354639 0 -0.32445673593083119 0.090309359328255762 0 -0.3275606083710243 0.080211281293741998 0 -0.33708436589161489 0.085963183755354639 0 -0.3275606083710243 0.080211281293741998 0 -0.336378655355973 0.076693290193422539 0 -0.33708436589161489 0.085963183755354639 0 -0.38891458820749281 0.47713565504117422 0 -0.42172655890518862 0.5 0 -0.3640375775585698 0.5 0 -0.38891458820749281 0.47713565504117422 0 -0.37103467036260362 0.45695891695805302 0 -0.36943712044780219 0.47475959506207249 0 -0.39694697642853649 0.45370639251272787 0 -0.37103467036260362 0.45695891695805302 0 -0.38891458820749281 0.47713565504117422 0 -0.39694697642853649 0.45370639251272787 0 -0.37103467036260362 0.45695891695805302 0 -0.38249991962136642 0.44345487931465249 0 -0.39694697642853649 0.45370639251272787 0 -0.37103467036260362 0.45695891695805302 0 -0.38249991962136642 0.44345487931465249 0 -0.39694697642853649 0.45370639251272787 0 -0.40464661760035381 0.43350824459614162 0 -0.38891458820749281 0.47713565504117422 0 -0.39694697642853649 0.45370639251272787 0 -0.41631826774707797 0.4711213942969617 0 -0.39694697642853649 0.45370639251272787 0 -0.42285928249446952 0.45045386806740279 0 -0.41631826774707797 0.4711213942969617 0 -0.42285928249446952 0.45045386806740279 0 -0.42501824733507809 0.43459816807542118 0 -0.40464661760035381 0.43350824459614162 0 -0.39694697642853649 0.45370639251272787 0 -0.42285928249446952 0.45045386806740279 0 -0.39694697642853649 0.45370639251272787 0 -0.42285928249446952 0.45045386806740279 0 -0.40464661760035381 0.43350824459614162 0 -0.42285928249446952 0.45045386806740279 0 -0.43521244088076849 0.46107148678855758 0 -0.44877158856040261 0.44720134362207808 0 -0.42285928249446952 0.45045386806740279 0 -0.44877158856040261 0.44720134362207808 0 -0.42285928249446952 0.45045386806740279 0 -0.43592409671607729 0.44045812782560079 0 -0.44877158856040261 0.44720134362207808 0 -0.42285928249446952 0.45045386806740279 0 -0.43592409671607729 0.44045812782560079 0 -0.42501824733507809 0.43459816807542118 0 -0.42285928249446952 0.45045386806740279 0 -0.43521244088076849 0.46107148678855758 0 -0.41631826774707797 0.4711213942969617 0 -0.41631826774707797 0.4711213942969617 0 -0.42172655890518862 0.5 0 -0.43935827984199688 0.47473889959161758 0 -0.43521244088076849 0.46107148678855758 0 -0.41631826774707797 0.4711213942969617 0 -0.43935827984199688 0.47473889959161758 0 -0.38891458820749281 0.47713565504117422 0 -0.41631826774707797 0.4711213942969617 0 -0.42172655890518862 0.5 0 -0.42172655890518862 0.5 0 -0.43935827984199688 0.47473889959161758 0 -0.47784082473980471 0.47626967285504462 0 -0.42172655890518862 0.5 0 -0.5 0.5 0 -0.47784082473980471 0.47626967285504462 0 -0.43935827984199688 0.47473889959161758 0 -0.47784082473980471 0.47626967285504462 0 -0.4487547857598953 0.46184192836472759 0 -0.5 0.5 0 -0.47784082473980471 0.47626967285504462 0 -0.49999999999999589 0.44077113011354369 0 -0.47784082473980471 0.47626967285504462 0 -0.47438579428019922 0.44398623686781052 0 -0.4627013265822788 0.4545376326069438 0 -0.47784082473980471 0.47626967285504462 0 -0.49999999999999589 0.44077113011354369 0 -0.47438579428019922 0.44398623686781052 0 -0.49999999999999589 0.44077113011354369 0 -0.47438579428019922 0.44398623686781052 0 -0.48180565015534738 0.42787197640755792 0 -0.49999999999999589 0.44077113011354369 0 -0.47438579428019922 0.44398623686781052 0 -0.47438579428019922 0.44398623686781052 0 -0.4627013265822788 0.4545376326069438 0 -0.44877158856040261 0.44720134362207808 0 -0.47438579428019922 0.44398623686781052 0 -0.44877158856040261 0.44720134362207808 0 -0.47438579428019922 0.44398623686781052 0 -0.44877158856040261 0.44720134362207808 0 -0.46289485375526918 0.43579199928955081 0 -0.44877158856040261 0.44720134362207808 0 -0.44878504691792248 0.43547483269414872 0 -0.46289485375526918 0.43579199928955081 0 -0.47784082473980471 0.47626967285504462 0 -0.4627013265822788 0.4545376326069438 0 -0.4487547857598953 0.46184192836472759 0 -0.4627013265822788 0.4545376326069438 0 -0.4487547857598953 0.46184192836472759 0 -0.44877158856040261 0.44720134362207808 0 -0.4487547857598953 0.46184192836472759 0 -0.44877158856040261 0.44720134362207808 0 -0.43521244088076849 0.46107148678855758 0 -0.4487547857598953 0.46184192836472759 0 -0.44877158856040261 0.44720134362207808 0 -0.43521244088076849 0.46107148678855758 0 -0.43935827984199688 0.47473889959161758 0 -0.4487547857598953 0.46184192836472759 0 -0.44877158856040261 0.44720134362207808 0 -0.44508566455651338 0.43839632914573512 0 -0.44878504691792248 0.43547483269414872 0 -0.44877158856040261 0.44720134362207808 0 -0.44878504691792248 0.43547483269414872 0 -0.43592409671607729 0.44045812782560079 0 -0.44877158856040261 0.44720134362207808 0 -0.44508566455651338 0.43839632914573512 0 -0.44531233658805403 0.42513554986162888 0 -0.44878504691792248 0.43547483269414872 0 -0.44880957839306629 0.41410011360809668 0 -0.44878504691792248 0.43547483269414872 0 -0.44880957839306629 0.41410011360809668 0 -0.43788570063392329 0.43164093021736671 0 -0.44531233658805403 0.42513554986162888 0 -0.44878504691792248 0.43547483269414872 0 -0.43592409671607729 0.44045812782560079 0 -0.44508566455651338 0.43839632914573512 0 -0.43788570063392329 0.43164093021736671 0 -0.44508566455651338 0.43839632914573512 0 -0.43788570063392329 0.43164093021736671 0 -0.44878504691792248 0.43547483269414872 0 -0.44508566455651338 0.43839632914573512 0 -0.44878504691792248 0.43547483269414872 0 -0.44531233658805403 0.42513554986162888 0 -0.44880957839306629 0.41410011360809668 0 -0.42391867717568832 0.41711337076656618 0 -0.44880957839306629 0.41410011360809668 0 -0.46585669794528167 0.42199291516666237 0 -0.4641229039382897 0.40091036417177778 0 -0.44878504691792248 0.43547483269414872 0 -0.46585669794528167 0.42199291516666237 0 -0.44878504691792248 0.43547483269414872 0 -0.44880957839306629 0.41410011360809668 0 -0.46585669794528167 0.42199291516666237 0 -0.44878504691792248 0.43547483269414872 0 -0.46585669794528167 0.42199291516666237 0 -0.46289485375526918 0.43579199928955081 0 -0.47438579428019922 0.44398623686781052 0 -0.46289485375526918 0.43579199928955081 0 -0.48180565015534738 0.42787197640755792 0 -0.46585669794528167 0.42199291516666237 0 -0.46289485375526918 0.43579199928955081 0 -0.48180565015534738 0.42787197640755792 0 -0.46585669794528167 0.42199291516666237 0 -0.48292834897264081 0.4085109976391762 0 -0.4641229039382897 0.40091036417177778 0 -0.46585669794528167 0.42199291516666237 0 -0.48292834897264081 0.4085109976391762 0 -0.46585669794528167 0.42199291516666237 0 -0.48180565015534738 0.42787197640755792 0 -0.48292834897264081 0.4085109976391762 0 -0.48292834897264081 0.4085109976391762 0 -0.5 0.41790010511261683 0 -0.5 0.39502908011169002 0 -0.48180565015534738 0.42787197640755792 0 -0.48292834897264081 0.4085109976391762 0 -0.5 0.41790010511261683 0 -0.49999999999999589 0.44077113011354369 0 -0.48180565015534738 0.42787197640755792 0 -0.5 0.41790010511261683 0 -0.48850556386005051 0.3766603246979251 0 -0.5 0.39502908011169002 0 -0.47832653283541199 0.38608194873200979 0 -0.48850556386005051 0.3766603246979251 0 -0.5 0.39502908011169002 0 -0.5 0.36887446842263683 0 -0.48292834897264081 0.4085109976391762 0 -0.5 0.39502908011169002 0 -0.47832653283541199 0.38608194873200979 0 -0.48292834897264081 0.4085109976391762 0 -0.5 0.39502908011169002 0 -0.48292834897264081 0.4085109976391762 0 -0.47832653283541199 0.38608194873200979 0 -0.4641229039382897 0.40091036417177778 0 -0.48850556386005051 0.3766603246979251 0 -0.47832653283541199 0.38608194873200979 0 -0.48259334700195489 0.36409898273387958 0 -0.47832653283541199 0.38608194873200979 0 -0.46059005399087027 0.38292215568240928 0 -0.4641229039382897 0.40091036417177778 0 -0.47832653283541199 0.38608194873200979 0 -0.46059005399087027 0.38292215568240928 0 -0.46572599417265398 0.36772482908493609 0 -0.44880957839306629 0.41410011360809668 0 -0.4641229039382897 0.40091036417177778 0 -0.44883410986820999 0.3927253945220448 0 -0.46059005399087027 0.38292215568240928 0 -0.4641229039382897 0.40091036417177778 0 -0.44883410986820999 0.3927253945220448 0 -0.44880957839306629 0.41410011360809668 0 -0.44883410986820999 0.3927253945220448 0 -0.43699833754743561 0.40294499431243458 0 -0.44880957839306629 0.41410011360809668 0 -0.44883410986820999 0.3927253945220448 0 -0.44883410986820999 0.3927253945220448 0 -0.43978391516082421 0.3912231797547942 0 -0.43699833754743561 0.40294499431243458 0 -0.44883410986820999 0.3927253945220448 0 -0.43978391516082421 0.3912231797547942 0 -0.44802713623065987 0.37645115623263098 0 -0.44883410986820999 0.3927253945220448 0 -0.44885864134335329 0.37135067543599282 0 -0.44883410986820999 0.3927253945220448 0 -0.44802713623065987 0.37645115623263098 0 -0.44885864134335329 0.37135067543599282 0 -0.43978391516082421 0.3912231797547942 0 -0.44802713623065987 0.37645115623263098 0 -0.42527607699699133 0.39277117395206662 0 -0.46059005399087027 0.38292215568240928 0 -0.44883410986820999 0.3927253945220448 0 -0.44885864134335329 0.37135067543599282 0 -0.44802713623065987 0.37645115623263098 0 -0.4250431626101242 0.37647010748543319 0 -0.42527607699699133 0.39277117395206662 0 -0.44802713623065987 0.37645115623263098 0 -0.42527607699699133 0.39277117395206662 0 -0.4250431626101242 0.37647010748543319 0 -0.4134887672477453 0.38574914578498593 0 -0.40122768387689522 0.38158953953487368 0 -0.4250431626101242 0.37647010748543319 0 -0.40122768387689522 0.38158953953487368 0 -0.4250431626101242 0.37647010748543319 0 -0.4134887672477453 0.38574914578498593 0 -0.42527607699699133 0.39277117395206662 0 -0.4250431626101242 0.37647010748543319 0 -0.40122768387689522 0.38158953953487368 0 -0.40086489287733429 0.37467411733839928 0 -0.4134887672477453 0.38574914578498593 0 -0.40798835104355652 0.39359067917546098 0 -0.40557429982823212 0.38794008425198068 0 -0.4134887672477453 0.38574914578498593 0 -0.40122768387689522 0.38158953953487368 0 -0.40557429982823212 0.38794008425198068 0 -0.40798835104355652 0.39359067917546098 0 -0.42527607699699133 0.39277117395206662 0 -0.40252501776332311 0.40909119167150271 0 -0.42527607699699133 0.39277117395206662 0 -0.40252501776332311 0.40909119167150271 0 -0.4134887672477453 0.38574914578498593 0 -0.40798835104355652 0.39359067917546098 0 -0.42527607699699133 0.39277117395206662 0 -0.42527607699699133 0.39277117395206662 0 -0.43699833754743561 0.40294499431243458 0 -0.42391867717568832 0.41711337076656618 0 -0.43978391516082421 0.3912231797547942 0 -0.42527607699699133 0.39277117395206662 0 -0.43699833754743561 0.40294499431243458 0 -0.44880957839306629 0.41410011360809668 0 -0.43699833754743561 0.40294499431243458 0 -0.42391867717568832 0.41711337076656618 0 -0.44531233658805403 0.42513554986162888 0 -0.42391867717568832 0.41711337076656618 0 -0.43788570063392329 0.43164093021736671 0 -0.44531233658805403 0.42513554986162888 0 -0.42391867717568832 0.41711337076656618 0 -0.43788570063392329 0.43164093021736671 0 -0.42391867717568832 0.41711337076656618 0 -0.42501824733507809 0.43459816807542118 0 -0.43592409671607729 0.44045812782560079 0 -0.43788570063392329 0.43164093021736671 0 -0.42501824733507809 0.43459816807542118 0 -0.42391867717568832 0.41711337076656618 0 -0.42501824733507809 0.43459816807542118 0 -0.40464661760035381 0.43350824459614162 0 -0.42527607699699133 0.39277117395206662 0 -0.42391867717568832 0.41711337076656618 0 -0.40252501776332311 0.40909119167150271 0 -0.42391867717568832 0.41711337076656618 0 -0.40252501776332311 0.40909119167150271 0 -0.40464661760035381 0.43350824459614162 0 -0.42391867717568832 0.41711337076656618 0 -0.40252501776332311 0.40909119167150271 0 -0.40252501776332311 0.40909119167150271 0 -0.37875820238401509 0.42613984176471847 0 -0.40252501776332311 0.40909119167150271 0 -0.40464661760035381 0.43350824459614162 0 -0.37875820238401509 0.42613984176471847 0 -0.38249991962136642 0.44345487931465249 0 -0.40464661760035381 0.43350824459614162 0 -0.37875820238401509 0.42613984176471847 0 -0.40252501776332311 0.40909119167150271 0 -0.37875820238401509 0.42613984176471847 0 -0.37769092578324193 0.39977892163450779 0 -0.37769092578324193 0.39977892163450779 0 -0.38963770449155072 0.39285491215608792 0 -0.37686086334024771 0.38257038446795849 0 -0.40252501776332311 0.40909119167150271 0 -0.37769092578324193 0.39977892163450779 0 -0.38963770449155072 0.39285491215608792 0 -0.40252501776332311 0.40909119167150271 0 -0.37769092578324193 0.39977892163450779 0 -0.37686086334024771 0.38257038446795849 0 -0.39363670834615189 0.38450398520198442 0 -0.40086489287733429 0.37467411733839928 0 -0.38963770449155072 0.39285491215608792 0 -0.37686086334024771 0.38257038446795849 0 -0.39363670834615189 0.38450398520198442 0 -0.37686086334024771 0.38257038446795849 0 -0.40086489287733429 0.37467411733839928 0 -0.37686086334024771 0.38257038446795849 0 -0.40086489287733429 0.37467411733839928 0 -0.39033592763893787 0.37070590072739279 0 -0.39363670834615189 0.38450398520198442 0 -0.40122768387689522 0.38158953953487368 0 -0.39959239714473138 0.39083097251260251 0 -0.38963770449155072 0.39285491215608792 0 -0.39363670834615189 0.38450398520198442 0 -0.39959239714473138 0.39083097251260251 0 -0.39363670834615189 0.38450398520198442 0 -0.40122768387689522 0.38158953953487368 0 -0.40086489287733429 0.37467411733839928 0 -0.40122768387689522 0.38158953953487368 0 -0.40557429982823212 0.38794008425198068 0 -0.39959239714473138 0.39083097251260251 0 -0.40798835104355652 0.39359067917546098 0 -0.40557429982823212 0.38794008425198068 0 -0.39959239714473138 0.39083097251260251 0 -0.40252501776332311 0.40909119167150271 0 -0.38963770449155072 0.39285491215608792 0 -0.39959239714473138 0.39083097251260251 0 -0.40798835104355652 0.39359067917546098 0 -0.40252501776332311 0.40909119167150271 0 -0.39959239714473138 0.39083097251260251 0 -0.3926828114571661 0.35541775914535301 0 -0.40105078960399698 0.34662517948293931 0 -0.40586906590548888 0.3393029225754271 0 -0.3926828114571661 0.35541775914535301 0 -0.39400561065841477 0.34382680172727831 0 -0.40586906590548888 0.3393029225754271 0 -0.3926828114571661 0.35541775914535301 0 -0.40586906590548888 0.3393029225754271 0 -0.3926828114571661 0.35541775914535301 0 -0.39969836615416421 0.35756427730283669 0 -0.39341808057325789 0.36431669671432632 0 -0.3926828114571661 0.35541775914535301 0 -0.40105078960399698 0.34662517948293931 0 -0.39969836615416421 0.35756427730283669 0 -0.3926828114571661 0.35541775914535301 0 -0.39400561065841477 0.34382680172727831 0 -0.38539473684528258 0.34837828204789067 0 -0.40105078960399698 0.34662517948293931 0 -0.40525205349158999 0.35429039595711992 0 -0.40888688292129022 0.34941903462410451 0 -0.40105078960399698 0.34662517948293931 0 -0.4080564418273247 0.34368885170405422 0 -0.40888688292129022 0.34941903462410451 0 -0.40105078960399698 0.34662517948293931 0 -0.40525205349158999 0.35429039595711992 0 -0.39969836615416421 0.35756427730283669 0 -0.40525205349158999 0.35429039595711992 0 -0.39969836615416421 0.35756427730283669 0 -0.40553625032349627 0.36037170931698131 0 -0.40553625032349627 0.36037170931698131 0 -0.40544017780568847 0.3661562974108753 0 -0.40025021147547779 0.36436392320030081 0 -0.40544017780568847 0.3661562974108753 0 -0.40025021147547779 0.36436392320030081 0 -0.397742957241214 0.36844985128713797 0 -0.39969836615416421 0.35756427730283669 0 -0.40553625032349627 0.36037170931698131 0 -0.40025021147547779 0.36436392320030081 0 -0.40544017780568847 0.3661562974108753 0 -0.40086489287733429 0.37467411733839928 0 -0.397742957241214 0.36844985128713797 0 -0.40086489287733429 0.37467411733839928 0 -0.397742957241214 0.36844985128713797 0 -0.39033592763893787 0.37070590072739279 0 -0.397742957241214 0.36844985128713797 0 -0.39341808057325789 0.36431669671432632 0 -0.39033592763893787 0.37070590072739279 0 -0.39969836615416421 0.35756427730283669 0 -0.40025021147547779 0.36436392320030081 0 -0.39341808057325789 0.36431669671432632 0 -0.40025021147547779 0.36436392320030081 0 -0.397742957241214 0.36844985128713797 0 -0.39341808057325789 0.36431669671432632 0 -0.3926828114571661 0.35541775914535301 0 -0.39341808057325789 0.36431669671432632 0 -0.37949655700884349 0.37153259571527891 0 -0.37949655700884349 0.37153259571527891 0 -0.37823932191431281 0.35548757599615399 0 -0.37024808467873749 0.36543132639488701 0 -0.3926828114571661 0.35541775914535301 0 -0.37949655700884349 0.37153259571527891 0 -0.37823932191431281 0.35548757599615399 0 -0.3926828114571661 0.35541775914535301 0 -0.37949655700884349 0.37153259571527891 0 -0.39341808057325789 0.36431669671432632 0 -0.39033592763893787 0.37070590072739279 0 -0.37949655700884349 0.37153259571527891 0 -0.37686086334024771 0.38257038446795849 0 -0.39033592763893787 0.37070590072739279 0 -0.37949655700884349 0.37153259571527891 0 -0.37823932191431281 0.35548757599615399 0 -0.38539473684528258 0.34837828204789067 0 -0.3787015959315434 0.33902802614693439 0 -0.3926828114571661 0.35541775914535301 0 -0.37823932191431281 0.35548757599615399 0 -0.38539473684528258 0.34837828204789067 0 -0.3787015959315434 0.33902802614693439 0 -0.37816355277066899 0.32985684687273281 0 -0.39158393304450312 0.32769252248945308 0 -0.39400561065841477 0.34382680172727831 0 -0.38539473684528258 0.34837828204789067 0 -0.3787015959315434 0.33902802614693439 0 -0.39158393304450312 0.32769252248945308 0 -0.37442838800096029 0.32044424157556423 0 -0.37816355277066899 0.32985684687273281 0 -0.39158393304450312 0.32769252248945308 0 -0.37442838800096029 0.32044424157556423 0 -0.38613629988198012 0.31665983269396758 0 -0.39158393304450312 0.32769252248945308 0 -0.37442838800096029 0.32044424157556423 0 -0.38613629988198012 0.31665983269396758 0 -0.37442838800096029 0.32044424157556423 0 -0.37415321332832258 0.31386652142517069 0 -0.39158393304450312 0.32769252248945308 0 -0.4039094095666334 0.320812311378052 0 -0.40925887999808552 0.33516025262174892 0 -0.38613629988198012 0.31665983269396758 0 -0.39830358576524327 0.31266849694114901 0 -0.39158393304450312 0.32769252248945308 0 -0.39830358576524327 0.31266849694114901 0 -0.39158393304450312 0.32769252248945308 0 -0.4039094095666334 0.320812311378052 0 -0.39830358576524327 0.31266849694114901 0 -0.4039094095666334 0.320812311378052 0 -0.40826549608127172 0.31275764886218971 0 -0.3787015959315434 0.33902802614693439 0 -0.40777024278950652 0.33697950655941222 0 -0.39158393304450312 0.32769252248945308 0 -0.40925887999808552 0.33516025262174892 0 -0.39158393304450312 0.32769252248945308 0 -0.40777024278950652 0.33697950655941222 0 -0.40925887999808552 0.33516025262174892 0 -0.3787015959315434 0.33902802614693439 0 -0.39158393304450312 0.32769252248945308 0 -0.40777024278950652 0.33697950655941222 0 -0.39400561065841477 0.34382680172727831 0 -0.3787015959315434 0.33902802614693439 0 -0.40777024278950652 0.33697950655941222 0 -0.39400561065841477 0.34382680172727831 0 -0.40586906590548888 0.3393029225754271 0 -0.40777024278950652 0.33697950655941222 0 -0.40105078960399698 0.34662517948293931 0 -0.40586906590548888 0.3393029225754271 0 -0.40105078960399698 0.34662517948293931 0 -0.40586906590548888 0.3393029225754271 0 -0.4080564418273247 0.34368885170405422 0 -0.4080564418273247 0.34368885170405422 0 -0.41125860555200922 0.34134685969384471 0 -0.40895905381070002 0.33957121871677393 0 -0.40586906590548888 0.3393029225754271 0 -0.4080564418273247 0.34368885170405422 0 -0.40895905381070002 0.33957121871677393 0 -0.4080564418273247 0.34368885170405422 0 -0.41125860555200922 0.34134685969384471 0 -0.41366919887348358 0.34576378073699821 0 -0.41125860555200922 0.34134685969384471 0 -0.41273643032526569 0.33662953043248711 0 -0.41433336845197538 0.3415594658204692 0 -0.41125860555200922 0.34134685969384471 0 -0.41433336845197538 0.3415594658204692 0 -0.41366919887348358 0.34576378073699821 0 -0.41125860555200922 0.34134685969384471 0 -0.41273643032526569 0.33662953043248711 0 -0.40895905381070002 0.33957121871677393 0 -0.41273643032526569 0.33662953043248711 0 -0.40777024278950652 0.33697950655941222 0 -0.41273643032526569 0.33662953043248711 0 -0.40895905381070002 0.33957121871677393 0 -0.40777024278950652 0.33697950655941222 0 -0.41273643032526569 0.33662953043248711 0 -0.40777024278950652 0.33697950655941222 0 -0.40925887999808552 0.33516025262174892 0 -0.40777024278950652 0.33697950655941222 0 -0.40925887999808552 0.33516025262174892 0 -0.40586906590548888 0.3393029225754271 0 -0.40895905381070002 0.33957121871677393 0 -0.40777024278950652 0.33697950655941222 0 -0.40586906590548888 0.3393029225754271 0 -0.40777024278950652 0.33697950655941222 0 -0.41273643032526569 0.33662953043248711 0 -0.40925887999808552 0.33516025262174892 0 -0.40925887999808552 0.33516025262174892 0 -0.42024067891477529 0.32173946694831868 0 -0.40925887999808552 0.33516025262174892 0 -0.42071708592719742 0.33131558094746122 0 -0.42024067891477529 0.32173946694831868 0 -0.41273643032526569 0.33662953043248711 0 -0.40925887999808552 0.33516025262174892 0 -0.42071708592719742 0.33131558094746122 0 -0.41273643032526569 0.33662953043248711 0 -0.4199209072431685 0.34318781838679219 0 -0.41433336845197538 0.3415594658204692 0 -0.4199209072431685 0.34318781838679219 0 -0.41433336845197538 0.3415594658204692 0 -0.41366919887348358 0.34576378073699821 0 -0.40925887999808552 0.33516025262174892 0 -0.41892768793075841 0.31754462100172592 0 -0.42141481873501418 0.31567829233095179 0 -0.40925887999808552 0.33516025262174892 0 -0.411263050936583 0.31954773430139438 0 -0.41892768793075841 0.31754462100172592 0 -0.40925887999808552 0.33516025262174892 0 -0.42141481873501418 0.31567829233095179 0 -0.40925887999808552 0.33516025262174892 0 -0.42024067891477529 0.32173946694831868 0 -0.42141481873501418 0.31567829233095179 0 -0.411263050936583 0.31954773430139438 0 -0.40826549608127172 0.31275764886218971 0 -0.41647318301620623 0.31168328686166002 0 -0.4039094095666334 0.320812311378052 0 -0.411263050936583 0.31954773430139438 0 -0.40826549608127172 0.31275764886218971 0 -0.4039094095666334 0.320812311378052 0 -0.40925887999808552 0.33516025262174892 0 -0.411263050936583 0.31954773430139438 0 -0.411263050936583 0.31954773430139438 0 -0.41892768793075841 0.31754462100172592 0 -0.41647318301620623 0.31168328686166002 0 -0.41892768793075841 0.31754462100172592 0 -0.42141481873501418 0.31567829233095179 0 -0.41892768793075841 0.31754462100172592 0 -0.42141481873501418 0.31567829233095179 0 -0.41647318301620623 0.31168328686166002 0 -0.42024067891477529 0.32173946694831868 0 -0.43790895006943947 0.32081412042189511 0 -0.43122247783146522 0.30831868127488848 0 -0.42024067891477529 0.32173946694831868 0 -0.42938605365092247 0.3272194948190838 0 -0.43790895006943947 0.32081412042189511 0 -0.42024067891477529 0.32173946694831868 0 -0.42141481873501418 0.31567829233095179 0 -0.43122247783146522 0.30831868127488848 0 -0.42024067891477529 0.32173946694831868 0 -0.43122247783146522 0.30831868127488848 0 -0.42071708592719742 0.33131558094746122 0 -0.42024067891477529 0.32173946694831868 0 -0.42938605365092247 0.3272194948190838 0 -0.42938605365092247 0.3272194948190838 0 -0.43674098495811231 0.33493788649063261 0 -0.43790895006943947 0.32081412042189511 0 -0.43790895006943947 0.32081412042189511 0 -0.4401847358662575 0.3127477530096977 0 -0.43122247783146522 0.30831868127488848 0 -0.41273643032526569 0.33662953043248711 0 -0.43674098495811231 0.33493788649063261 0 -0.42071708592719742 0.33131558094746122 0 -0.42938605365092247 0.3272194948190838 0 -0.43674098495811231 0.33493788649063261 0 -0.41273643032526569 0.33662953043248711 0 -0.4199209072431685 0.34318781838679219 0 -0.43385085243219867 0.34555045147446217 0 -0.41273643032526569 0.33662953043248711 0 -0.42071708592719742 0.33131558094746122 0 -0.43674098495811231 0.33493788649063261 0 -0.41273643032526569 0.33662953043248711 0 -0.43385085243219867 0.34555045147446217 0 -0.41273643032526569 0.33662953043248711 0 -0.43674098495811231 0.33493788649063261 0 -0.43385085243219867 0.34555045147446217 0 -0.43385085243219867 0.34555045147446217 0 -0.4302486007270056 0.35272204188882378 0 -0.42573384958437638 0.34916959158482058 0 -0.43385085243219867 0.34555045147446217 0 -0.43539550265875948 0.35741731211322858 0 -0.44110397924445488 0.35756373905142852 0 -0.43539550265875948 0.35741731211322858 0 -0.4302486007270056 0.35272204188882378 0 -0.42757171946388478 0.35850981688022993 0 -0.43385085243219867 0.34555045147446217 0 -0.43539550265875948 0.35741731211322858 0 -0.4302486007270056 0.35272204188882378 0 -0.4302486007270056 0.35272204188882378 0 -0.42480748600639012 0.35482075793933809 0 -0.42573384958437638 0.34916959158482058 0 -0.4302486007270056 0.35272204188882378 0 -0.42757171946388478 0.35850981688022993 0 -0.42480748600639012 0.35482075793933809 0 -0.42757171946388478 0.35850981688022993 0 -0.42480748600639012 0.35482075793933809 0 -0.42195212413097077 0.36043988011418487 0 -0.4199209072431685 0.34318781838679219 0 -0.43385085243219867 0.34555045147446217 0 -0.42573384958437638 0.34916959158482058 0 -0.42480748600639012 0.35482075793933809 0 -0.42573384958437638 0.34916959158482058 0 -0.41984140151311927 0.3495668882346864 0 -0.4199209072431685 0.34318781838679219 0 -0.42573384958437638 0.34916959158482058 0 -0.41984140151311927 0.3495668882346864 0 -0.4199209072431685 0.34318781838679219 0 -0.41984140151311927 0.3495668882346864 0 -0.41366919887348358 0.34576378073699821 0 -0.41984140151311927 0.3495668882346864 0 -0.41366919887348358 0.34576378073699821 0 -0.41404230344944593 0.35073751764187411 0 -0.42480748600639012 0.35482075793933809 0 -0.41984140151311927 0.3495668882346864 0 -0.41755863725870102 0.35684421707679032 0 -0.42480748600639012 0.35482075793933809 0 -0.41755863725870102 0.35684421707679032 0 -0.42195212413097077 0.36043988011418487 0 -0.41984140151311927 0.3495668882346864 0 -0.41755863725870102 0.35684421707679032 0 -0.41404230344944593 0.35073751764187411 0 -0.41755863725870102 0.35684421707679032 0 -0.41125051028190041 0.35540848222164118 0 -0.41404230344944593 0.35073751764187411 0 -0.41125051028190041 0.35540848222164118 0 -0.40888688292129022 0.34941903462410451 0 -0.41404230344944593 0.35073751764187411 0 -0.41755863725870102 0.35684421707679032 0 -0.41125051028190041 0.35540848222164118 0 -0.41142088061722581 0.36176204086772412 0 -0.40553625032349627 0.36037170931698131 0 -0.41125051028190041 0.35540848222164118 0 -0.41142088061722581 0.36176204086772412 0 -0.40525205349158999 0.35429039595711992 0 -0.40553625032349627 0.36037170931698131 0 -0.41125051028190041 0.35540848222164118 0 -0.40525205349158999 0.35429039595711992 0 -0.41125051028190041 0.35540848222164118 0 -0.40888688292129022 0.34941903462410451 0 -0.4080564418273247 0.34368885170405422 0 -0.40888688292129022 0.34941903462410451 0 -0.41366919887348358 0.34576378073699821 0 -0.40888688292129022 0.34941903462410451 0 -0.41366919887348358 0.34576378073699821 0 -0.41404230344944593 0.35073751764187411 0 -0.4250431626101242 0.37647010748543319 0 -0.40086489287733429 0.37467411733839928 0 -0.42486892241442098 0.36677785020884007 0 -0.40086489287733429 0.37467411733839928 0 -0.42486892241442098 0.36677785020884007 0 -0.40086489287733429 0.37467411733839928 0 -0.41378193274770297 0.36450427419225789 0 -0.42486892241442098 0.36677785020884007 0 -0.40544017780568847 0.3661562974108753 0 -0.40086489287733429 0.37467411733839928 0 -0.41378193274770297 0.36450427419225789 0 -0.40544017780568847 0.3661562974108753 0 -0.41142088061722581 0.36176204086772412 0 -0.41378193274770297 0.36450427419225789 0 -0.40553625032349627 0.36037170931698131 0 -0.40544017780568847 0.3661562974108753 0 -0.41142088061722581 0.36176204086772412 0 -0.41755863725870102 0.35684421707679032 0 -0.41378193274770297 0.36450427419225789 0 -0.42195212413097077 0.36043988011418487 0 -0.41378193274770297 0.36450427419225789 0 -0.42486892241442098 0.36677785020884007 0 -0.42195212413097077 0.36043988011418487 0 -0.41755863725870102 0.35684421707679032 0 -0.41142088061722581 0.36176204086772412 0 -0.41378193274770297 0.36450427419225789 0 -0.4250431626101242 0.37647010748543319 0 -0.44885864134335329 0.37135067543599282 0 -0.4250431626101242 0.37647010748543319 0 -0.42486892241442098 0.36677785020884007 0 -0.44885864134335329 0.37135067543599282 0 -0.42486892241442098 0.36677785020884007 0 -0.448872951951507 0.35888158307927881 0 -0.43539550265875948 0.35741731211322858 0 -0.42486892241442098 0.36677785020884007 0 -0.44110397924445488 0.35756373905142852 0 -0.43539550265875948 0.35741731211322858 0 -0.42757171946388478 0.35850981688022993 0 -0.42486892241442098 0.36677785020884007 0 -0.42757171946388478 0.35850981688022993 0 -0.42486892241442098 0.36677785020884007 0 -0.42195212413097077 0.36043988011418487 0 -0.42486892241442098 0.36677785020884007 0 -0.44885864134335329 0.37135067543599282 0 -0.448872951951507 0.35888158307927881 0 -0.44802713623065987 0.37645115623263098 0 -0.4250431626101242 0.37647010748543319 0 -0.44885864134335329 0.37135067543599282 0 -0.42486892241442098 0.36677785020884007 0 -0.44110397924445488 0.35756373905142852 0 -0.448872951951507 0.35888158307927881 0 -0.44885864134335329 0.37135067543599282 0 -0.448872951951507 0.35888158307927881 0 -0.44885864134335329 0.37135067543599282 0 -0.448872951951507 0.35888158307927881 0 -0.45634368000688869 0.36512471152292858 0 -0.43385085243219867 0.34555045147446217 0 -0.45496527453913199 0.35447137251643651 0 -0.44889299330712729 0.34242966823447613 0 -0.43385085243219867 0.34555045147446217 0 -0.45496527453913199 0.35447137251643651 0 -0.43385085243219867 0.34555045147446217 0 -0.44887533288597797 0.35680703170406669 0 -0.45496527453913199 0.35447137251643651 0 -0.43385085243219867 0.34555045147446217 0 -0.44110397924445488 0.35756373905142852 0 -0.44887533288597797 0.35680703170406669 0 -0.44110397924445488 0.35756373905142852 0 -0.44887533288597797 0.35680703170406669 0 -0.448872951951507 0.35888158307927881 0 -0.44887533288597797 0.35680703170406669 0 -0.448872951951507 0.35888158307927881 0 -0.44887533288597797 0.35680703170406669 0 -0.448872951951507 0.35888158307927881 0 -0.45496527453913199 0.35447137251643651 0 -0.448872951951507 0.35888158307927881 0 -0.45496527453913199 0.35447137251643651 0 -0.47186707529616939 0.3513175305497272 0 -0.448872951951507 0.35888158307927881 0 -0.47186707529616939 0.3513175305497272 0 -0.448872951951507 0.35888158307927881 0 -0.45634368000688869 0.36512471152292858 0 -0.47186707529616939 0.3513175305497272 0 -0.45911772068334677 0.34536620346235469 0 -0.45496527453913199 0.35447137251643651 0 -0.47186707529616939 0.3513175305497272 0 -0.45911772068334677 0.34536620346235469 0 -0.45496527453913199 0.35447137251643651 0 -0.44889299330712729 0.34242966823447613 0 -0.46572599417265398 0.36772482908493609 0 -0.45634368000688869 0.36512471152292858 0 -0.47186707529616939 0.3513175305497272 0 -0.46059005399087027 0.38292215568240928 0 -0.44885864134335329 0.37135067543599282 0 -0.46572599417265398 0.36772482908493609 0 -0.44885864134335329 0.37135067543599282 0 -0.46572599417265398 0.36772482908493609 0 -0.44885864134335329 0.37135067543599282 0 -0.46572599417265398 0.36772482908493609 0 -0.45634368000688869 0.36512471152292858 0 -0.47832653283541199 0.38608194873200979 0 -0.46572599417265398 0.36772482908493609 0 -0.48259334700195489 0.36409898273387958 0 -0.46572599417265398 0.36772482908493609 0 -0.48259334700195489 0.36409898273387958 0 -0.47186707529616939 0.3513175305497272 0 -0.46572599417265398 0.36772482908493609 0 -0.48259334700195489 0.36409898273387958 0 -0.47186707529616939 0.3513175305497272 0 -0.494861198640831 0.34375347802017348 0 -0.47186707529616939 0.3513175305497272 0 -0.48536711719674469 0.35339641184703091 0 -0.494861198640831 0.34375347802017348 0 -0.48259334700195489 0.36409898273387958 0 -0.47186707529616939 0.3513175305497272 0 -0.48536711719674469 0.35339641184703091 0 -0.48259334700195489 0.36409898273387958 0 -0.49214684784802371 0.35441565608434311 0 -0.48536711719674469 0.35339641184703091 0 -0.49214684784802371 0.35441565608434311 0 -0.5 0.36887446842263683 0 -0.5 0.34271985673358363 0 -0.49214684784802371 0.35441565608434311 0 -0.48536711719674469 0.35339641184703091 0 -0.494861198640831 0.34375347802017348 0 -0.49214684784802371 0.35441565608434311 0 -0.494861198640831 0.34375347802017348 0 -0.5 0.34271985673358363 0 -0.48850556386005051 0.3766603246979251 0 -0.48259334700195489 0.36409898273387958 0 -0.5 0.36887446842263683 0 -0.48259334700195489 0.36409898273387958 0 -0.49214684784802371 0.35441565608434311 0 -0.5 0.36887446842263683 0 -0.485708092488497 0.3189911195031831 0 -0.5 0.31656524504453032 0 -0.48475009422380527 0.3315545986069256 0 -0.485708092488497 0.3189911195031831 0 -0.5 0.31656524504453032 0 -0.48583489694974541 0.30845327583860088 0 -0.5 0.31656524504453032 0 -0.5 0.34271985673358363 0 -0.48475009422380527 0.3315545986069256 0 -0.494861198640831 0.34375347802017348 0 -0.5 0.34271985673358363 0 -0.48475009422380527 0.3315545986069256 0 -0.48475009422380527 0.3315545986069256 0 -0.46074553959095882 0.3332462425487791 0 -0.47186707529616939 0.3513175305497272 0 -0.494861198640831 0.34375347802017348 0 -0.48475009422380527 0.3315545986069256 0 -0.47186707529616939 0.3513175305497272 0 -0.48475009422380527 0.3315545986069256 0 -0.46074553959095882 0.3332462425487791 0 -0.48475009422380527 0.3315545986069256 0 -0.47224737878043732 0.31939135852267558 0 -0.46074553959095882 0.3332462425487791 0 -0.485708092488497 0.3189911195031831 0 -0.48475009422380527 0.3315545986069256 0 -0.47224737878043732 0.31939135852267558 0 -0.485708092488497 0.3189911195031831 0 -0.47224737878043732 0.31939135852267558 0 -0.48583489694974541 0.30845327583860088 0 -0.47224737878043732 0.31939135852267558 0 -0.46258830912673421 0.31343425170936878 0 -0.46074553959095882 0.3332462425487791 0 -0.46258830912673421 0.31343425170936878 0 -0.46074553959095882 0.3332462425487791 0 -0.45107709460752138 0.31557533431346357 0 -0.45911772068334677 0.34536620346235469 0 -0.47186707529616939 0.3513175305497272 0 -0.46074553959095882 0.3332462425487791 0 -0.45911772068334677 0.34536620346235469 0 -0.46074553959095882 0.3332462425487791 0 -0.44889299330712729 0.34242966823447613 0 -0.43674098495811231 0.33493788649063261 0 -0.46074553959095882 0.3332462425487791 0 -0.43674098495811231 0.33493788649063261 0 -0.46074553959095882 0.3332462425487791 0 -0.44889299330712729 0.34242966823447613 0 -0.43674098495811231 0.33493788649063261 0 -0.46074553959095882 0.3332462425487791 0 -0.43790895006943947 0.32081412042189511 0 -0.43674098495811231 0.33493788649063261 0 -0.43385085243219867 0.34555045147446217 0 -0.44889299330712729 0.34242966823447613 0 -0.46074553959095882 0.3332462425487791 0 -0.45107709460752138 0.31557533431346357 0 -0.43790895006943947 0.32081412042189511 0 -0.45107709460752138 0.31557533431346357 0 -0.43790895006943947 0.32081412042189511 0 -0.4401847358662575 0.3127477530096977 0 -0.44444415583193408 0.29216055381020578 0 -0.43122247783146522 0.30831868127488848 0 -0.44810052680614793 0.29565349026271098 0 -0.43122247783146522 0.30831868127488848 0 -0.44368336155109173 0.30649675881006838 0 -0.44810052680614793 0.29565349026271098 0 -0.43122247783146522 0.30831868127488848 0 -0.4401847358662575 0.3127477530096977 0 -0.44368336155109173 0.30649675881006838 0 -0.43122247783146522 0.30831868127488848 0 -0.44444415583193408 0.29216055381020578 0 -0.44810052680614793 0.29565349026271098 0 -0.43122247783146522 0.30831868127488848 0 -0.45107709460752138 0.31557533431346357 0 -0.4401847358662575 0.3127477530096977 0 -0.44368336155109173 0.30649675881006838 0 -0.44368336155109173 0.30649675881006838 0 -0.44996115485610377 0.3015940899144034 0 -0.4551770389262465 0.30483297142504889 0 -0.44368336155109173 0.30649675881006838 0 -0.44996115485610377 0.3015940899144034 0 -0.44810052680614793 0.29565349026271098 0 -0.45288369214092922 0.29939313915978533 0 -0.44996115485610377 0.3015940899144034 0 -0.44810052680614793 0.29565349026271098 0 -0.45288369214092922 0.29939313915978533 0 -0.44996115485610377 0.3015940899144034 0 -0.4551770389262465 0.30483297142504889 0 -0.45107709460752138 0.31557533431346357 0 -0.44368336155109173 0.30649675881006838 0 -0.4551770389262465 0.30483297142504889 0 -0.44702735364695217 0.27675533545947301 0 -0.43422108619098299 0.29621681389521232 0 -0.44444415583193408 0.29216055381020578 0 -0.44702735364695217 0.27675533545947301 0 -0.43422108619098299 0.29621681389521232 0 -0.44702735364695217 0.27675533545947301 0 -0.43274811138672559 0.28469846643612018 0 -0.43422108619098299 0.29621681389521232 0 -0.44810052680614793 0.29565349026271098 0 -0.4493542421043164 0.28919027156790111 0 -0.45395006383388498 0.28587005882998617 0 -0.44444415583193408 0.29216055381020578 0 -0.44810052680614793 0.29565349026271098 0 -0.4493542421043164 0.28919027156790111 0 -0.44444415583193408 0.29216055381020578 0 -0.4493542421043164 0.28919027156790111 0 -0.44702735364695217 0.27675533545947301 0 -0.4493542421043164 0.28919027156790111 0 -0.45395006383388498 0.28587005882998617 0 -0.44702735364695217 0.27675533545947301 0 -0.44810052680614793 0.29565349026271098 0 -0.45395006383388498 0.28587005882998617 0 -0.46497857578083068 0.28298829925053381 0 -0.44810052680614793 0.29565349026271098 0 -0.4593999708052337 0.29480301670676529 0 -0.46497857578083068 0.28298829925053381 0 -0.44810052680614793 0.29565349026271098 0 -0.46497857578083068 0.28298829925053381 0 -0.45288369214092922 0.29939313915978533 0 -0.44810052680614793 0.29565349026271098 0 -0.4593999708052337 0.29480301670676529 0 -0.4593999708052337 0.29480301670676529 0 -0.46827174088950307 0.29409138505043392 0 -0.46497857578083068 0.28298829925053381 0 -0.46258830912673421 0.31343425170936878 0 -0.45107709460752138 0.31557533431346357 0 -0.4551770389262465 0.30483297142504889 0 -0.45288369214092922 0.29939313915978533 0 -0.4593999708052337 0.29480301670676529 0 -0.4551770389262465 0.30483297142504889 0 -0.4593999708052337 0.29480301670676529 0 -0.4551770389262465 0.30483297142504889 0 -0.46625021185001803 0.30380681263807602 0 -0.4593999708052337 0.29480301670676529 0 -0.46827174088950307 0.29409138505043392 0 -0.46625021185001803 0.30380681263807602 0 -0.47224737878043732 0.31939135852267558 0 -0.46258830912673421 0.31343425170936878 0 -0.46625021185001803 0.30380681263807602 0 -0.46258830912673421 0.31343425170936878 0 -0.4551770389262465 0.30483297142504889 0 -0.46625021185001803 0.30380681263807602 0 -0.47551717359816043 0.30301602212345602 0 -0.4769183937012712 0.29196404103452073 0 -0.48583489694974541 0.30845327583860088 0 -0.47224737878043732 0.31939135852267558 0 -0.46625021185001803 0.30380681263807602 0 -0.47551717359816043 0.30301602212345602 0 -0.47224737878043732 0.31939135852267558 0 -0.47551717359816043 0.30301602212345602 0 -0.48583489694974541 0.30845327583860088 0 -0.46827174088950307 0.29409138505043392 0 -0.46625021185001803 0.30380681263807602 0 -0.47551717359816043 0.30301602212345602 0 -0.46827174088950307 0.29409138505043392 0 -0.46497857578083068 0.28298829925053381 0 -0.4769183937012712 0.29196404103452073 0 -0.4769183937012712 0.29196404103452073 0 -0.48757792524538679 0.2814999319082685 0 -0.48583489694974541 0.30845327583860088 0 -0.46827174088950307 0.29409138505043392 0 -0.47551717359816043 0.30301602212345602 0 -0.4769183937012712 0.29196404103452073 0 -0.46497857578083068 0.28298829925053381 0 -0.47783287987075052 0.28169384510791978 0 -0.4769183937012712 0.29196404103452073 0 -0.47783287987075052 0.28169384510791978 0 -0.4769183937012712 0.29196404103452073 0 -0.48757792524538679 0.2814999319082685 0 -0.5 0.29041063335547701 0 -0.48757792524538679 0.2814999319082685 0 -0.48583489694974541 0.30845327583860088 0 -0.48757792524538679 0.2814999319082685 0 -0.48583489694974541 0.30845327583860088 0 -0.5 0.31656524504453032 0 -0.5 0.29041063335547701 0 -0.48583489694974541 0.30845327583860088 0 -0.5 0.23810140997737081 0 -0.5 0.26425602166642381 0 -0.48932095354102823 0.25454658797793611 0 -0.48757792524538679 0.2814999319082685 0 -0.48932095354102823 0.25454658797793611 0 -0.48366697684514259 0.26703881783025729 0 -0.48757792524538679 0.2814999319082685 0 -0.5 0.26425602166642381 0 -0.48932095354102823 0.25454658797793611 0 -0.48757792524538679 0.2814999319082685 0 -0.48932095354102823 0.25454658797793611 0 -0.5 0.29041063335547701 0 -0.48757792524538679 0.2814999319082685 0 -0.5 0.26425602166642381 0 -0.46497857578083068 0.28298829925053381 0 -0.48185662475551339 0.27032310823835648 0 -0.46497857578083068 0.28298829925053381 0 -0.47783287987075052 0.28169384510791978 0 -0.48185662475551339 0.27032310823835648 0 -0.48366697684514259 0.26703881783025729 0 -0.45893043448094739 0.2699305570534084 0 -0.48757792524538679 0.2814999319082685 0 -0.48366697684514259 0.26703881783025729 0 -0.48185662475551339 0.27032310823835648 0 -0.48366697684514259 0.26703881783025729 0 -0.48185662475551339 0.27032310823835648 0 -0.47235815296560851 0.27257019559313889 0 -0.46497857578083068 0.28298829925053381 0 -0.48185662475551339 0.27032310823835648 0 -0.47235815296560851 0.27257019559313889 0 -0.48366697684514259 0.26703881783025729 0 -0.46959483388743167 0.25994315597580908 0 -0.45893043448094739 0.2699305570534084 0 -0.48366697684514259 0.26703881783025729 0 -0.47235815296560851 0.27257019559313889 0 -0.45893043448094739 0.2699305570534084 0 -0.47783287987075052 0.28169384510791978 0 -0.48757792524538679 0.2814999319082685 0 -0.48185662475551339 0.27032310823835648 0 -0.48932095354102823 0.25454658797793611 0 -0.48366697684514259 0.26703881783025729 0 -0.47792533453874358 0.25606878273296479 0 -0.48366697684514259 0.26703881783025729 0 -0.46959483388743167 0.25994315597580908 0 -0.47792533453874358 0.25606878273296479 0 -0.47864167104372218 0.246590621409366 0 -0.48932095354102823 0.25454658797793611 0 -0.47792533453874358 0.25606878273296479 0 -0.47864167104372218 0.246590621409366 0 -0.47792533453874358 0.25606878273296479 0 -0.46938038244821267 0.25133041049185839 0 -0.46959483388743167 0.25994315597580908 0 -0.47792533453874358 0.25606878273296479 0 -0.46938038244821267 0.25133041049185839 0 -0.46959483388743167 0.25994315597580908 0 -0.46938038244821267 0.25133041049185839 0 -0.45807104112411212 0.25534721177055669 0 -0.46959483388743167 0.25994315597580908 0 -0.45807104112411212 0.25534721177055669 0 -0.45893043448094739 0.2699305570534084 0 -0.45807104112411212 0.25534721177055669 0 -0.45893043448094739 0.2699305570534084 0 -0.44442574262614493 0.25832327296872359 0 -0.45395006383388498 0.28587005882998617 0 -0.46497857578083068 0.28298829925053381 0 -0.45893043448094739 0.2699305570534084 0 -0.45395006383388498 0.28587005882998617 0 -0.45893043448094739 0.2699305570534084 0 -0.44702735364695217 0.27675533545947301 0 -0.46497857578083068 0.28298829925053381 0 -0.47235815296560851 0.27257019559313889 0 -0.45893043448094739 0.2699305570534084 0 -0.45893043448094739 0.2699305570534084 0 -0.43419389211675241 0.27282229627655952 0 -0.45893043448094739 0.2699305570534084 0 -0.44442574262614493 0.25832327296872359 0 -0.43419389211675241 0.27282229627655952 0 -0.45893043448094739 0.2699305570534084 0 -0.44702735364695217 0.27675533545947301 0 -0.43419389211675241 0.27282229627655952 0 -0.44702735364695217 0.27675533545947301 0 -0.43419389211675241 0.27282229627655952 0 -0.43274811138672559 0.28469846643612018 0 -0.45046339488490522 0.249057113070103 0 -0.45807104112411212 0.25534721177055669 0 -0.44442574262614493 0.25832327296872359 0 -0.44062222049055039 0.24203477259657111 0 -0.44442574262614493 0.25832327296872359 0 -0.42503978512155383 0.25887440404814072 0 -0.44062222049055039 0.24203477259657111 0 -0.42503978512155383 0.25887440404814072 0 -0.44442574262614493 0.25832327296872359 0 -0.42503978512155383 0.25887440404814072 0 -0.43419389211675241 0.27282229627655952 0 -0.42503978512155383 0.25887440404814072 0 -0.40945734975255721 0.27571403549971041 0 -0.40585136056822319 0.25674789398696107 0 -0.4198454647722451 0.23985190764030939 0 -0.42503978512155383 0.25887440404814072 0 -0.40585136056822319 0.25674789398696107 0 -0.40945734975255721 0.27571403549971041 0 -0.43419389211675241 0.27282229627655952 0 -0.42503978512155383 0.25887440404814072 0 -0.40945734975255721 0.27571403549971041 0 -0.42503978512155383 0.25887440404814072 0 -0.40945734975255721 0.27571403549971041 0 -0.43419389211675241 0.27282229627655952 0 -0.40945734975255721 0.27571403549971041 0 -0.43419389211675241 0.27282229627655952 0 -0.4229835889384117 0.28415291652507912 0 -0.43419389211675241 0.27282229627655952 0 -0.43274811138672559 0.28469846643612018 0 -0.4229835889384117 0.28415291652507912 0 -0.43274811138672559 0.28469846643612018 0 -0.43422108619098299 0.29621681389521232 0 -0.42519236151645012 0.29288975242762622 0 -0.43274811138672559 0.28469846643612018 0 -0.42519236151645012 0.29288975242762622 0 -0.4229835889384117 0.28415291652507912 0 -0.42141481873501418 0.31567829233095179 0 -0.43422108619098299 0.29621681389521232 0 -0.42141481873501418 0.31567829233095179 0 -0.43422108619098299 0.29621681389521232 0 -0.42237726971740519 0.30236741203524931 0 -0.44444415583193408 0.29216055381020578 0 -0.43422108619098299 0.29621681389521232 0 -0.43122247783146522 0.30831868127488848 0 -0.42141481873501418 0.31567829233095179 0 -0.43422108619098299 0.29621681389521232 0 -0.43122247783146522 0.30831868127488848 0 -0.43422108619098299 0.29621681389521232 0 -0.42519236151645012 0.29288975242762622 0 -0.42237726971740519 0.30236741203524931 0 -0.42141481873501418 0.31567829233095179 0 -0.43122247783146522 0.30831868127488848 0 -0.42237726971740519 0.30236741203524931 0 -0.41647318301620623 0.31168328686166002 0 -0.40812109447663159 0.30329838776079099 0 -0.42141481873501418 0.31567829233095179 0 -0.42237726971740519 0.30236741203524931 0 -0.41647318301620623 0.31168328686166002 0 -0.42237726971740519 0.30236741203524931 0 -0.40812109447663159 0.30329838776079099 0 -0.41256551749876041 0.29129965580367562 0 -0.40826549608127172 0.31275764886218971 0 -0.41647318301620623 0.31168328686166002 0 -0.40812109447663159 0.30329838776079099 0 -0.40945734975255721 0.27571403549971041 0 -0.4229835889384117 0.28415291652507912 0 -0.41256551749876041 0.29129965580367562 0 -0.42519236151645012 0.29288975242762622 0 -0.4229835889384117 0.28415291652507912 0 -0.41256551749876041 0.29129965580367562 0 -0.42519236151645012 0.29288975242762622 0 -0.42237726971740519 0.30236741203524931 0 -0.41256551749876041 0.29129965580367562 0 -0.40945734975255721 0.27571403549971041 0 -0.39180528154043992 0.29479027846244049 0 -0.39350738277932218 0.27757861076756318 0 -0.40945734975255721 0.27571403549971041 0 -0.39180528154043992 0.29479027846244049 0 -0.40812109447663159 0.30329838776079099 0 -0.41256551749876041 0.29129965580367562 0 -0.39180528154043992 0.29479027846244049 0 -0.40945734975255721 0.27571403549971041 0 -0.41256551749876041 0.29129965580367562 0 -0.39180528154043992 0.29479027846244049 0 -0.38613629988198012 0.31665983269396758 0 -0.39830358576524327 0.31266849694114901 0 -0.39180528154043992 0.29479027846244049 0 -0.39830358576524327 0.31266849694114901 0 -0.40812109447663159 0.30329838776079099 0 -0.39180528154043992 0.29479027846244049 0 -0.39830358576524327 0.31266849694114901 0 -0.40826549608127172 0.31275764886218971 0 -0.40812109447663159 0.30329838776079099 0 -0.39180528154043992 0.29479027846244049 0 -0.37819889022761238 0.29924868842846319 0 -0.37415321332832258 0.31386652142517069 0 -0.38613629988198012 0.31665983269396758 0 -0.39180528154043992 0.29479027846244049 0 -0.37415321332832258 0.31386652142517069 0 -0.39180528154043992 0.29479027846244049 0 -0.37415321332832258 0.31386652142517069 0 -0.39180528154043992 0.29479027846244049 0 -0.37819889022761238 0.29924868842846319 0 -0.37870614451813112 0.28175948497688769 0 -0.39180528154043992 0.29479027846244049 0 -0.37870614451813112 0.28175948497688769 0 -0.39350738277932218 0.27757861076756318 0 -0.37870614451813112 0.28175948497688769 0 -0.37647038179830861 0.26645711442365799 0 -0.39350738277932218 0.27757861076756318 0 -0.37647038179830861 0.26645711442365799 0 -0.39336972403141229 0.26369738761855421 0 -0.39350738277932218 0.27757861076756318 0 -0.38790582398472923 0.24962922847932231 0 -0.37647038179830861 0.26645711442365799 0 -0.39336972403141229 0.26369738761855421 0 -0.38790582398472923 0.24962922847932231 0 -0.37647038179830861 0.26645711442365799 0 -0.36318679658289171 0.25196182354824148 0 -0.40945734975255721 0.27571403549971041 0 -0.40585136056822319 0.25674789398696107 0 -0.39336972403141229 0.26369738761855421 0 -0.38790582398472923 0.24962922847932231 0 -0.40585136056822319 0.25674789398696107 0 -0.39336972403141229 0.26369738761855421 0 -0.40945734975255721 0.27571403549971041 0 -0.39336972403141229 0.26369738761855421 0 -0.39350738277932218 0.27757861076756318 0 -0.40945734975255721 0.27571403549971041 0 -0.39350738277932218 0.27757861076756318 0 -0.35583614606747688 0.27501819518035592 0 -0.36318679658289171 0.25196182354824148 0 -0.33952374355129727 0.25899057541505788 0 -0.37647038179830861 0.26645711442365799 0 -0.35583614606747688 0.27501819518035592 0 -0.36318679658289171 0.25196182354824148 0 -0.37870614451813112 0.28175948497688769 0 -0.37647038179830861 0.26645711442365799 0 -0.35583614606747688 0.27501819518035592 0 -0.37819889022761238 0.29924868842846319 0 -0.37870614451813112 0.28175948497688769 0 -0.36775571630023218 0.2927315942663431 0 -0.37870614451813112 0.28175948497688769 0 -0.35583614606747688 0.27501819518035592 0 -0.36775571630023218 0.2927315942663431 0 -0.37819889022761238 0.29924868842846319 0 -0.36899777432263853 0.30469822459034263 0 -0.37415321332832258 0.31386652142517069 0 -0.36899777432263853 0.30469822459034263 0 -0.36272901898995358 0.31473918551029578 0 -0.37415321332832258 0.31386652142517069 0 -0.37819889022761238 0.29924868842846319 0 -0.36775571630023218 0.2927315942663431 0 -0.36899777432263853 0.30469822459034263 0 -0.36775571630023218 0.2927315942663431 0 -0.36899777432263853 0.30469822459034263 0 -0.35931620367806588 0.30475084950198522 0 -0.36775571630023218 0.2927315942663431 0 -0.35931620367806588 0.30475084950198522 0 -0.35261706249820868 0.29381533636168528 0 -0.36899777432263853 0.30469822459034263 0 -0.35931620367806588 0.30475084950198522 0 -0.36272901898995358 0.31473918551029578 0 -0.35931620367806588 0.30475084950198522 0 -0.35261706249820868 0.29381533636168528 0 -0.34344143829887858 0.30736403781452232 0 -0.35931620367806588 0.30475084950198522 0 -0.34344143829887858 0.30736403781452232 0 -0.35467675850453528 0.31743756764607989 0 -0.35931620367806588 0.30475084950198522 0 -0.35467675850453528 0.31743756764607989 0 -0.36272901898995358 0.31473918551029578 0 -0.35583614606747688 0.27501819518035592 0 -0.36775571630023218 0.2927315942663431 0 -0.35261706249820868 0.29381533636168528 0 -0.35583614606747688 0.27501819518035592 0 -0.35261706249820868 0.29381533636168528 0 -0.33673580814638959 0.28921200504521999 0 -0.35261706249820868 0.29381533636168528 0 -0.33673580814638959 0.28921200504521999 0 -0.34344143829887858 0.30736403781452232 0 -0.33673580814638959 0.28921200504521999 0 -0.32075162894010661 0.28280614760534989 0 -0.33379142081270979 0.2734424933293601 0 -0.34344143829887858 0.30736403781452232 0 -0.31699951866320542 0.30755322334125379 0 -0.34344143829887858 0.30736403781452232 0 -0.31699951866320542 0.30755322334125379 0 -0.33459812393413729 0.32207732583041709 0 -0.33673580814638959 0.28921200504521999 0 -0.34344143829887858 0.30736403781452232 0 -0.31699951866320542 0.30755322334125379 0 -0.33673580814638959 0.28921200504521999 0 -0.31699951866320542 0.30755322334125379 0 -0.32075162894010661 0.28280614760534989 0 -0.31699951866320542 0.30755322334125379 0 -0.32075162894010661 0.28280614760534989 0 -0.30493521127791462 0.28695781074044469 0 -0.32075162894010661 0.28280614760534989 0 -0.31931282352829687 0.26617321261290411 0 -0.33379142081270979 0.2734424933293601 0 -0.32075162894010661 0.28280614760534989 0 -0.31931282352829687 0.26617321261290411 0 -0.30493521127791462 0.28695781074044469 0 -0.35583614606747688 0.27501819518035592 0 -0.33673580814638959 0.28921200504521999 0 -0.33379142081270979 0.2734424933293601 0 -0.35583614606747688 0.27501819518035592 0 -0.33379142081270979 0.2734424933293601 0 -0.33952374355129727 0.25899057541505788 0 -0.31931282352829687 0.26617321261290411 0 -0.33379142081270979 0.2734424933293601 0 -0.33952374355129727 0.25899057541505788 0 -0.32200613725511351 0.24850726385495631 0 -0.31931282352829687 0.26617321261290411 0 -0.33952374355129727 0.25899057541505788 0 -0.32200613725511351 0.24850726385495631 0 -0.31931282352829687 0.26617321261290411 0 -0.30640548876467488 0.25787073169030861 0 -0.31931282352829687 0.26617321261290411 0 -0.30640548876467488 0.25787073169030861 0 -0.3010630097917536 0.27273037638764702 0 -0.31931282352829687 0.26617321261290411 0 -0.3010630097917536 0.27273037638764702 0 -0.30493521127791462 0.28695781074044469 0 -0.31931282352829687 0.26617321261290411 0 -0.30493521127791462 0.28695781074044469 0 -0.3010630097917536 0.27273037638764702 0 -0.29309283898050847 0.28048055459605348 0 -0.30493521127791462 0.28695781074044469 0 -0.3010630097917536 0.27273037638764702 0 -0.29309283898050847 0.28048055459605348 0 -0.28156868640737281 0.27216957229852412 0 -0.30640548876467488 0.25787073169030861 0 -0.3010630097917536 0.27273037638764702 0 -0.28156868640737281 0.27216957229852412 0 -0.30640548876467488 0.25787073169030861 0 -0.28156868640737281 0.27216957229852412 0 -0.28729818335365731 0.26780124082781631 0 -0.28156868640737281 0.27216957229852412 0 -0.28729818335365731 0.26780124082781631 0 -0.27880962639343299 0.26078065685839158 0 -0.29309283898050847 0.28048055459605348 0 -0.28156868640737281 0.27216957229852412 0 -0.28401529333418091 0.28255904946725641 0 -0.30640548876467488 0.25787073169030861 0 -0.28156868640737281 0.27216957229852412 0 -0.29125564533142001 0.24067530578368901 0 -0.30640548876467488 0.25787073169030861 0 -0.28729818335365731 0.26780124082781631 0 -0.29125564533142001 0.24067530578368901 0 -0.28729818335365731 0.26780124082781631 0 -0.27880962639343299 0.26078065685839158 0 -0.29125564533142001 0.24067530578368901 0 -0.28729818335365731 0.26780124082781631 0 -0.29125564533142001 0.24067530578368901 0 -0.26892213733164849 0.25365425058065472 0 -0.27880962639343299 0.26078065685839158 0 -0.26892213733164849 0.25365425058065472 0 -0.27880962639343299 0.26078065685839158 0 -0.26500347954306669 0.26960291480127369 0 -0.28156868640737281 0.27216957229852412 0 -0.25673188405007052 0.28646841290673969 0 -0.28156868640737281 0.27216957229852412 0 -0.26500347954306669 0.26960291480127369 0 -0.25673188405007052 0.28646841290673969 0 -0.28156868640737281 0.27216957229852412 0 -0.27880962639343299 0.26078065685839158 0 -0.26500347954306669 0.26960291480127369 0 -0.28156868640737281 0.27216957229852412 0 -0.27479408276187339 0.28687287199942368 0 -0.28401529333418091 0.28255904946725641 0 -0.26500347954306669 0.26960291480127369 0 -0.25265925142613249 0.26128234508680298 0 -0.25673188405007052 0.28646841290673969 0 -0.26892213733164849 0.25365425058065472 0 -0.26500347954306669 0.26960291480127369 0 -0.25265925142613249 0.26128234508680298 0 -0.25621817608628389 0.2460965770837312 0 -0.26892213733164849 0.25365425058065472 0 -0.25265925142613249 0.26128234508680298 0 -0.25505401324638421 0.30366623925853881 0 -0.26661761067819428 0.2958317928062858 0 -0.26721257633701828 0.30790943684761429 0 -0.25505401324638421 0.30366623925853881 0 -0.26721257633701828 0.30790943684761429 0 -0.25901197930261888 0.31383205914145501 0 -0.26721257633701828 0.30790943684761429 0 -0.25901197930261888 0.31383205914145501 0 -0.26528599585519008 0.31471464054907522 0 -0.25505401324638421 0.30366623925853881 0 -0.25901197930261888 0.31383205914145501 0 -0.24885494741763489 0.31718848033418301 0 -0.25505401324638421 0.30366623925853881 0 -0.25673188405007052 0.28646841290673969 0 -0.26661761067819428 0.2958317928062858 0 -0.26661761067819428 0.2958317928062858 0 -0.27573637841232751 0.29432500902679382 0 -0.27326763327687947 0.30016750757533939 0 -0.28156868640737281 0.27216957229852412 0 -0.25673188405007052 0.28646841290673969 0 -0.27479408276187339 0.28687287199942368 0 -0.26661761067819428 0.2958317928062858 0 -0.27479408276187339 0.28687287199942368 0 -0.27573637841232751 0.29432500902679382 0 -0.25673188405007052 0.28646841290673969 0 -0.26661761067819428 0.2958317928062858 0 -0.27479408276187339 0.28687287199942368 0 -0.27479408276187339 0.28687287199942368 0 -0.28401529333418091 0.28255904946725641 0 -0.28313816676434478 0.29069510378855717 0 -0.27479408276187339 0.28687287199942368 0 -0.27573637841232751 0.29432500902679382 0 -0.28313816676434478 0.29069510378855717 0 -0.27573637841232751 0.29432500902679382 0 -0.28086439858034518 0.29805776896436298 0 -0.28313816676434478 0.29069510378855717 0 -0.28086439858034518 0.29805776896436298 0 -0.27753065875984329 0.30327410754998058 0 -0.28274061889410179 0.30278083970340541 0 -0.27753065875984329 0.30327410754998058 0 -0.27514776209796898 0.30785266251660498 0 -0.28274061889410179 0.30278083970340541 0 -0.27753065875984329 0.30327410754998058 0 -0.27326763327687947 0.30016750757533939 0 -0.27348155140824082 0.30658246875079598 0 -0.28086439858034518 0.29805776896436298 0 -0.27753065875984329 0.30327410754998058 0 -0.27326763327687947 0.30016750757533939 0 -0.27573637841232751 0.29432500902679382 0 -0.28086439858034518 0.29805776896436298 0 -0.27326763327687947 0.30016750757533939 0 -0.26661761067819428 0.2958317928062858 0 -0.27326763327687947 0.30016750757533939 0 -0.26721257633701828 0.30790943684761429 0 -0.26721257633701828 0.30790943684761429 0 -0.27514776209796898 0.30785266251660498 0 -0.27123720609067609 0.3158529302113221 0 -0.26721257633701828 0.30790943684761429 0 -0.27348155140824082 0.30658246875079598 0 -0.27514776209796898 0.30785266251660498 0 -0.26721257633701828 0.30790943684761429 0 -0.27514776209796898 0.30785266251660498 0 -0.27326763327687947 0.30016750757533939 0 -0.26721257633701828 0.30790943684761429 0 -0.27348155140824082 0.30658246875079598 0 -0.27514776209796898 0.30785266251660498 0 -0.2851872012256097 0.31550597615259851 0 -0.27753065875984329 0.30327410754998058 0 -0.27348155140824082 0.30658246875079598 0 -0.27514776209796898 0.30785266251660498 0 -0.27348155140824082 0.30658246875079598 0 -0.27514776209796898 0.30785266251660498 0 -0.27514776209796898 0.30785266251660498 0 -0.2905575990275322 0.30774240886798532 0 -0.27514776209796898 0.30785266251660498 0 -0.2905575990275322 0.30774240886798532 0 -0.2851872012256097 0.31550597615259851 0 -0.2896026760048197 0.2969772506180926 0 -0.2905575990275322 0.30774240886798532 0 -0.30493521127791462 0.28695781074044469 0 -0.27514776209796898 0.30785266251660498 0 -0.28274061889410179 0.30278083970340541 0 -0.2905575990275322 0.30774240886798532 0 -0.2905575990275322 0.30774240886798532 0 -0.2851872012256097 0.31550597615259851 0 -0.28274061889410179 0.30278083970340541 0 -0.2896026760048197 0.2969772506180926 0 -0.2905575990275322 0.30774240886798532 0 -0.28086439858034518 0.29805776896436298 0 -0.28274061889410179 0.30278083970340541 0 -0.2896026760048197 0.2969772506180926 0 -0.28401529333418091 0.28255904946725641 0 -0.28313816676434478 0.29069510378855717 0 -0.29095683727235372 0.28753395384208091 0 -0.28086439858034518 0.29805776896436298 0 -0.2896026760048197 0.2969772506180926 0 -0.28313816676434478 0.29069510378855717 0 -0.2896026760048197 0.2969772506180926 0 -0.28313816676434478 0.29069510378855717 0 -0.29095683727235372 0.28753395384208091 0 -0.2896026760048197 0.2969772506180926 0 -0.29095683727235372 0.28753395384208091 0 -0.30493521127791462 0.28695781074044469 0 -0.29309283898050847 0.28048055459605348 0 -0.29095683727235372 0.28753395384208091 0 -0.30493521127791462 0.28695781074044469 0 -0.29309283898050847 0.28048055459605348 0 -0.28401529333418091 0.28255904946725641 0 -0.29095683727235372 0.28753395384208091 0 -0.31699951866320542 0.30755322334125379 0 -0.2905575990275322 0.30774240886798532 0 -0.30563014257680821 0.31779627416788381 0 -0.31699951866320542 0.30755322334125379 0 -0.2905575990275322 0.30774240886798532 0 -0.2905575990275322 0.30774240886798532 0 -0.30493521127791462 0.28695781074044469 0 -0.31699951866320542 0.30755322334125379 0 -0.2905575990275322 0.30774240886798532 0 -0.30493521127791462 0.28695781074044469 0 -0.30538608464820588 0.33090408634228141 0 -0.28942706780696309 0.31873813168532672 0 -0.30563014257680821 0.31779627416788381 0 -0.30538608464820588 0.33090408634228141 0 -0.31811651498789978 0.32488887006413791 0 -0.30563014257680821 0.31779627416788381 0 -0.30538608464820588 0.33090408634228141 0 -0.2937791937433501 0.31637108240395312 0 -0.30538608464820588 0.33090408634228141 0 -0.3017933608705089 0.344447887165377 0 -0.32134510148944728 0.34307004099923799 0 -0.30538608464820588 0.33090408634228141 0 -0.29093013722955491 0.33661105704622479 0 -0.3017933608705089 0.344447887165377 0 -0.30538608464820588 0.33090408634228141 0 -0.29093013722955491 0.33661105704622479 0 -0.2885751077852815 0.32830696870384862 0 -0.29093013722955491 0.33661105704622479 0 -0.28224162025157051 0.34582573333151501 0 -0.3017933608705089 0.344447887165377 0 -0.2885751077852815 0.32830696870384862 0 -0.28146834572906437 0.33465123959114113 0 -0.2790455690922089 0.3243844570517187 0 -0.29093013722955491 0.33661105704622479 0 -0.2885751077852815 0.32830696870384862 0 -0.28146834572906437 0.33465123959114113 0 -0.29093013722955491 0.33661105704622479 0 -0.28146834572906437 0.33465123959114113 0 -0.28224162025157051 0.34582573333151501 0 -0.30538608464820588 0.33090408634228141 0 -0.2885751077852815 0.32830696870384862 0 -0.28942706780696309 0.31873813168532672 0 -0.30538608464820588 0.33090408634228141 0 -0.28942706780696309 0.31873813168532672 0 -0.2937791937433501 0.31637108240395312 0 -0.28942706780696309 0.31873813168532672 0 -0.2937791937433501 0.31637108240395312 0 -0.2851872012256097 0.31550597615259851 0 -0.2905575990275322 0.30774240886798532 0 -0.30563014257680821 0.31779627416788381 0 -0.2937791937433501 0.31637108240395312 0 -0.2905575990275322 0.30774240886798532 0 -0.2937791937433501 0.31637108240395312 0 -0.2851872012256097 0.31550597615259851 0 -0.28942706780696309 0.31873813168532672 0 -0.2937791937433501 0.31637108240395312 0 -0.2885751077852815 0.32830696870384862 0 -0.28942706780696309 0.31873813168532672 0 -0.2790455690922089 0.3243844570517187 0 -0.28942706780696309 0.31873813168532672 0 -0.2790455690922089 0.3243844570517187 0 -0.2851872012256097 0.31550597615259851 0 -0.2790455690922089 0.3243844570517187 0 -0.28942706780696309 0.31873813168532672 0 -0.2851872012256097 0.31550597615259851 0 -0.2790455690922089 0.3243844570517187 0 -0.28942706780696309 0.31873813168532672 0 -0.2851872012256097 0.31550597615259851 0 -0.27514776209796898 0.30785266251660498 0 -0.2851872012256097 0.31550597615259851 0 -0.27699557949655113 0.31645322234696882 0 -0.2851872012256097 0.31550597615259851 0 -0.27699557949655113 0.31645322234696882 0 -0.2790455690922089 0.3243844570517187 0 -0.27514776209796898 0.30785266251660498 0 -0.27699557949655113 0.31645322234696882 0 -0.27123720609067609 0.3158529302113221 0 -0.27001263578126711 0.32263717043347712 0 -0.2790455690922089 0.3243844570517187 0 -0.25910260253645218 0.33523110656146687 0 -0.26721257633701828 0.30790943684761429 0 -0.27123720609067609 0.3158529302113221 0 -0.26528599585519008 0.31471464054907522 0 -0.27699557949655113 0.31645322234696882 0 -0.27123720609067609 0.3158529302113221 0 -0.27001263578126711 0.32263717043347712 0 -0.27123720609067609 0.3158529302113221 0 -0.26528599585519008 0.31471464054907522 0 -0.26368222169044719 0.32126413599590953 0 -0.27123720609067609 0.3158529302113221 0 -0.27001263578126711 0.32263717043347712 0 -0.26368222169044719 0.32126413599590953 0 -0.27699557949655113 0.31645322234696882 0 -0.27001263578126711 0.32263717043347712 0 -0.2790455690922089 0.3243844570517187 0 -0.2790455690922089 0.3243844570517187 0 -0.25910260253645218 0.33523110656146687 0 -0.2790455690922089 0.3243844570517187 0 -0.26824012707650141 0.34000504592112352 0 -0.28146834572906437 0.33465123959114113 0 -0.2790455690922089 0.3243844570517187 0 -0.26824012707650141 0.34000504592112352 0 -0.2790455690922089 0.3243844570517187 0 -0.26824012707650141 0.34000504592112352 0 -0.25910260253645218 0.33523110656146687 0 -0.28146834572906437 0.33465123959114113 0 -0.26824012707650141 0.34000504592112352 0 -0.28224162025157051 0.34582573333151501 0 -0.25910260253645218 0.33523110656146687 0 -0.25407523553642281 0.3497448278934856 0 -0.23915963598069589 0.34607775607121571 0 -0.25910260253645218 0.33523110656146687 0 -0.25407523553642281 0.3497448278934856 0 -0.26309588156361569 0.34576168367824162 0 -0.26824012707650141 0.34000504592112352 0 -0.25910260253645218 0.33523110656146687 0 -0.26309588156361569 0.34576168367824162 0 -0.25910260253645218 0.33523110656146687 0 -0.25451497659773847 0.32559442806853028 0 -0.24843663428782739 0.33758714710907461 0 -0.25451497659773847 0.32559442806853028 0 -0.25901197930261888 0.31383205914145501 0 -0.24885494741763489 0.31718848033418301 0 -0.25451497659773847 0.32559442806853028 0 -0.25901197930261888 0.31383205914145501 0 -0.26368222169044719 0.32126413599590953 0 -0.25901197930261888 0.31383205914145501 0 -0.26528599585519008 0.31471464054907522 0 -0.26368222169044719 0.32126413599590953 0 -0.27001263578126711 0.32263717043347712 0 -0.25910260253645218 0.33523110656146687 0 -0.26368222169044719 0.32126413599590953 0 -0.25910260253645218 0.33523110656146687 0 -0.25451497659773847 0.32559442806853028 0 -0.26368222169044719 0.32126413599590953 0 -0.26470209097228098 0.37140351159401941 0 -0.25562758441007077 0.36194187249828802 0 -0.266880351992417 0.3582272519812631 0 -0.26470209097228098 0.37140351159401941 0 -0.25213085833087667 0.37355178257669552 0 -0.25562758441007077 0.36194187249828802 0 -0.25213085833087667 0.37355178257669552 0 -0.25562758441007077 0.36194187249828802 0 -0.24329038266145239 0.36134909741814653 0 -0.25562758441007077 0.36194187249828802 0 -0.25407523553642281 0.3497448278934856 0 -0.24329038266145239 0.36134909741814653 0 -0.25407523553642281 0.3497448278934856 0 -0.26309588156361569 0.34576168367824162 0 -0.266880351992417 0.3582272519812631 0 -0.25562758441007077 0.36194187249828802 0 -0.25407523553642281 0.3497448278934856 0 -0.266880351992417 0.3582272519812631 0 -0.266880351992417 0.3582272519812631 0 -0.27640009279511962 0.35155878343443242 0 -0.28837447244510311 0.36628710188532532 0 -0.26309588156361569 0.34576168367824162 0 -0.266880351992417 0.3582272519812631 0 -0.27640009279511962 0.35155878343443242 0 -0.26824012707650141 0.34000504592112352 0 -0.26309588156361569 0.34576168367824162 0 -0.27640009279511962 0.35155878343443242 0 -0.26824012707650141 0.34000504592112352 0 -0.27640009279511962 0.35155878343443242 0 -0.28224162025157051 0.34582573333151501 0 -0.266880351992417 0.3582272519812631 0 -0.28837447244510311 0.36628710188532532 0 -0.266880351992417 0.3582272519812631 0 -0.28837447244510311 0.36628710188532532 0 -0.27747916353329311 0.37529003384729942 0 -0.26470209097228098 0.37140351159401941 0 -0.266880351992417 0.3582272519812631 0 -0.27747916353329311 0.37529003384729942 0 -0.28837447244510311 0.36628710188532532 0 -0.28714059247178902 0.37543321948423419 0 -0.27747916353329311 0.37529003384729942 0 -0.28837447244510311 0.36628710188532532 0 -0.28956810344150979 0.35324588380912608 0 -0.30292150033679799 0.36018321991941088 0 -0.28837447244510311 0.36628710188532532 0 -0.29874239202075642 0.37528196759933868 0 -0.28714059247178902 0.37543321948423419 0 -0.28224162025157051 0.34582573333151501 0 -0.3017933608705089 0.344447887165377 0 -0.28224162025157051 0.34582573333151501 0 -0.28956810344150979 0.35324588380912608 0 -0.3017933608705089 0.344447887165377 0 -0.27640009279511962 0.35155878343443242 0 -0.28224162025157051 0.34582573333151501 0 -0.28956810344150979 0.35324588380912608 0 -0.27640009279511962 0.35155878343443242 0 -0.28837447244510311 0.36628710188532532 0 -0.28956810344150979 0.35324588380912608 0 -0.3017933608705089 0.344447887165377 0 -0.31193410579265052 0.3536039280541286 0 -0.30292150033679799 0.36018321991941088 0 -0.28956810344150979 0.35324588380912608 0 -0.3017933608705089 0.344447887165377 0 -0.30292150033679799 0.36018321991941088 0 -0.3017933608705089 0.344447887165377 0 -0.32134510148944728 0.34307004099923799 0 -0.3017933608705089 0.344447887165377 0 -0.31193410579265052 0.3536039280541286 0 -0.32134510148944728 0.34307004099923799 0 -0.31193410579265052 0.3536039280541286 0 -0.30292150033679799 0.36018321991941088 0 -0.31340485972314069 0.36375751913665871 0 -0.28837447244510311 0.36628710188532532 0 -0.30292150033679799 0.36018321991941088 0 -0.30986859289778912 0.37434695178938759 0 -0.28837447244510311 0.36628710188532532 0 -0.30986859289778912 0.37434695178938759 0 -0.28837447244510311 0.36628710188532532 0 -0.30986859289778912 0.37434695178938759 0 -0.29874239202075642 0.37528196759933868 0 -0.30292150033679799 0.36018321991941088 0 -0.30986859289778912 0.37434695178938759 0 -0.31340485972314069 0.36375751913665871 0 -0.30986859289778912 0.37434695178938759 0 -0.31340485972314069 0.36375751913665871 0 -0.32167824364597858 0.36970754211250728 0 -0.31340485972314069 0.36375751913665871 0 -0.32243327870136801 0.35950699838777223 0 -0.32167824364597858 0.36970754211250728 0 -0.32243327870136801 0.35950699838777223 0 -0.32167824364597858 0.36970754211250728 0 -0.33132177355711989 0.36851943955526861 0 -0.32167824364597858 0.36970754211250728 0 -0.33132177355711989 0.36851943955526861 0 -0.33136271335047512 0.38240680169344993 0 -0.32243327870136801 0.35950699838777223 0 -0.33132177355711989 0.36851943955526861 0 -0.33989838930305449 0.35721367281084643 0 -0.33132177355711989 0.36851943955526861 0 -0.34304766554360439 0.37232322735168022 0 -0.33136271335047512 0.38240680169344993 0 -0.33132177355711989 0.36851943955526861 0 -0.34304766554360439 0.37232322735168022 0 -0.33989838930305449 0.35721367281084643 0 -0.33989838930305449 0.35721367281084643 0 -0.32134510148944728 0.34307004099923799 0 -0.33989838930305449 0.35721367281084643 0 -0.32134510148944728 0.34307004099923799 0 -0.3500233487104954 0.34104903357308669 0 -0.32243327870136801 0.35950699838777223 0 -0.33989838930305449 0.35721367281084643 0 -0.32134510148944728 0.34307004099923799 0 -0.31193410579265052 0.3536039280541286 0 -0.32243327870136801 0.35950699838777223 0 -0.32134510148944728 0.34307004099923799 0 -0.31193410579265052 0.3536039280541286 0 -0.31340485972314069 0.36375751913665871 0 -0.32243327870136801 0.35950699838777223 0 -0.30538608464820588 0.33090408634228141 0 -0.32134510148944728 0.34307004099923799 0 -0.30538608464820588 0.33090408634228141 0 -0.32134510148944728 0.34307004099923799 0 -0.31811651498789978 0.32488887006413791 0 -0.32134510148944728 0.34307004099923799 0 -0.31811651498789978 0.32488887006413791 0 -0.33459812393413729 0.32207732583041709 0 -0.31699951866320542 0.30755322334125379 0 -0.30563014257680821 0.31779627416788381 0 -0.31811651498789978 0.32488887006413791 0 -0.31699951866320542 0.30755322334125379 0 -0.31811651498789978 0.32488887006413791 0 -0.33459812393413729 0.32207732583041709 0 -0.32134510148944728 0.34307004099923799 0 -0.34342889555096417 0.33131534648734451 0 -0.3500233487104954 0.34104903357308669 0 -0.32134510148944728 0.34307004099923799 0 -0.33459812393413729 0.32207732583041709 0 -0.34342889555096417 0.33131534648734451 0 -0.32134510148944728 0.34307004099923799 0 -0.3500233487104954 0.34104903357308669 0 -0.3500233487104954 0.34104903357308669 0 -0.35650114511620551 0.33294276438790088 0 -0.36794029410566942 0.33226259727897972 0 -0.34342889555096417 0.33131534648734451 0 -0.3500233487104954 0.34104903357308669 0 -0.35650114511620551 0.33294276438790088 0 -0.33459812393413729 0.32207732583041709 0 -0.34342889555096417 0.33131534648734451 0 -0.35467675850453528 0.31743756764607989 0 -0.34344143829887858 0.30736403781452232 0 -0.33459812393413729 0.32207732583041709 0 -0.35467675850453528 0.31743756764607989 0 -0.35650114511620551 0.33294276438790088 0 -0.35467675850453528 0.31743756764607989 0 -0.36272901898995358 0.31473918551029578 0 -0.34342889555096417 0.33131534648734451 0 -0.35650114511620551 0.33294276438790088 0 -0.35467675850453528 0.31743756764607989 0 -0.35650114511620551 0.33294276438790088 0 -0.36272901898995358 0.31473918551029578 0 -0.37415321332832258 0.31386652142517069 0 -0.35650114511620551 0.33294276438790088 0 -0.37415321332832258 0.31386652142517069 0 -0.35650114511620551 0.33294276438790088 0 -0.37442838800096029 0.32044424157556423 0 -0.37415321332832258 0.31386652142517069 0 -0.37816355277066899 0.32985684687273281 0 -0.37442838800096029 0.32044424157556423 0 -0.36794029410566942 0.33226259727897972 0 -0.3787015959315434 0.33902802614693439 0 -0.3500233487104954 0.34104903357308669 0 -0.36794029410566942 0.33226259727897972 0 -0.35650114511620551 0.33294276438790088 0 -0.37442838800096029 0.32044424157556423 0 -0.36794029410566942 0.33226259727897972 0 -0.3787015959315434 0.33902802614693439 0 -0.3500233487104954 0.34104903357308669 0 -0.3787015959315434 0.33902802614693439 0 -0.37816355277066899 0.32985684687273281 0 -0.36794029410566942 0.33226259727897972 0 -0.3787015959315434 0.33902802614693439 0 -0.3500233487104954 0.34104903357308669 0 -0.36501658974902518 0.35367198233662939 0 -0.37823932191431281 0.35548757599615399 0 -0.3787015959315434 0.33902802614693439 0 -0.36501658974902518 0.35367198233662939 0 -0.37823932191431281 0.35548757599615399 0 -0.36501658974902518 0.35367198233662939 0 -0.37024808467873749 0.36543132639488701 0 -0.36501658974902518 0.35367198233662939 0 -0.37024808467873749 0.36543132639488701 0 -0.35845167711666143 0.37135730462245548 0 -0.37949655700884349 0.37153259571527891 0 -0.37024808467873749 0.36543132639488701 0 -0.36758280318953013 0.37627165255961892 0 -0.37024808467873749 0.36543132639488701 0 -0.35845167711666143 0.37135730462245548 0 -0.36758280318953013 0.37627165255961892 0 -0.36501658974902518 0.35367198233662939 0 -0.35845167711666143 0.37135730462245548 0 -0.35334750121980912 0.35582299833575448 0 -0.34304766554360439 0.37232322735168022 0 -0.33989838930305449 0.35721367281084643 0 -0.35845167711666143 0.37135730462245548 0 -0.33989838930305449 0.35721367281084643 0 -0.35845167711666143 0.37135730462245548 0 -0.35334750121980912 0.35582299833575448 0 -0.33989838930305449 0.35721367281084643 0 -0.35845167711666143 0.37135730462245548 0 -0.33989838930305449 0.35721367281084643 0 -0.3500233487104954 0.34104903357308669 0 -0.35334750121980912 0.35582299833575448 0 -0.3500233487104954 0.34104903357308669 0 -0.36501658974902518 0.35367198233662939 0 -0.35334750121980912 0.35582299833575448 0 -0.35285683380316007 0.39046665159751448 0 -0.36027192889352422 0.40897543894708011 0 -0.34270265381785459 0.40768080501023862 0 -0.34304766554360439 0.37232322735168022 0 -0.35845167711666143 0.37135730462245548 0 -0.35285683380316007 0.39046665159751448 0 -0.37686086334024771 0.38257038446795849 0 -0.35285683380316007 0.39046665159751448 0 -0.37686086334024771 0.38257038446795849 0 -0.35285683380316007 0.39046665159751448 0 -0.36758280318953013 0.37627165255961892 0 -0.35845167711666143 0.37135730462245548 0 -0.35285683380316007 0.39046665159751448 0 -0.36758280318953013 0.37627165255961892 0 -0.37686086334024771 0.38257038446795849 0 -0.37949655700884349 0.37153259571527891 0 -0.36758280318953013 0.37627165255961892 0 -0.37769092578324193 0.39977892163450779 0 -0.35285683380316007 0.39046665159751448 0 -0.37769092578324193 0.39977892163450779 0 -0.37686086334024771 0.38257038446795849 0 -0.35285683380316007 0.39046665159751448 0 -0.37769092578324193 0.39977892163450779 0 -0.35285683380316007 0.39046665159751448 0 -0.36027192889352422 0.40897543894708011 0 -0.37875820238401509 0.42613984176471847 0 -0.37769092578324193 0.39977892163450779 0 -0.36027192889352422 0.40897543894708011 0 -0.37875820238401509 0.42613984176471847 0 -0.36027192889352422 0.40897543894708011 0 -0.36048507512927641 0.42545129427310208 0 -0.37875820238401509 0.42613984176471847 0 -0.36048507512927641 0.42545129427310208 0 -0.35499138700470761 0.44318849185793469 0 -0.37875820238401509 0.42613984176471847 0 -0.35499138700470761 0.44318849185793469 0 -0.34691622899781399 0.42161541908905831 0 -0.33223168701086447 0.43660936806356893 0 -0.35499138700470761 0.44318849185793469 0 -0.36048507512927641 0.42545129427310208 0 -0.34691622899781399 0.42161541908905831 0 -0.35499138700470761 0.44318849185793469 0 -0.36027192889352422 0.40897543894708011 0 -0.34691622899781399 0.42161541908905831 0 -0.34270265381785459 0.40768080501023862 0 -0.36027192889352422 0.40897543894708011 0 -0.36048507512927641 0.42545129427310208 0 -0.34691622899781399 0.42161541908905831 0 -0.34270265381785459 0.40768080501023862 0 -0.32841174735063311 0.41773478988879181 0 -0.32505653004414181 0.39961172552874852 0 -0.34691622899781399 0.42161541908905831 0 -0.34270265381785459 0.40768080501023862 0 -0.32841174735063311 0.41773478988879181 0 -0.34691622899781399 0.42161541908905831 0 -0.32841174735063311 0.41773478988879181 0 -0.33223168701086447 0.43660936806356893 0 -0.32841174735063311 0.41773478988879181 0 -0.33223168701086447 0.43660936806356893 0 -0.31148998866141242 0.43181261152586448 0 -0.32841174735063311 0.41773478988879181 0 -0.31441363705571701 0.41408607272300291 0 -0.32505653004414181 0.39961172552874852 0 -0.32841174735063311 0.41773478988879181 0 -0.31441363705571701 0.41408607272300291 0 -0.31148998866141242 0.43181261152586448 0 -0.32505653004414181 0.39961172552874852 0 -0.31219235154091651 0.39185403334122892 0 -0.30619500853749271 0.39725637532293351 0 -0.32505653004414181 0.39961172552874852 0 -0.31778050989885959 0.38527433798844479 0 -0.31219235154091651 0.39185403334122892 0 -0.35285683380316007 0.39046665159751448 0 -0.32505653004414181 0.39961172552874852 0 -0.33136271335047512 0.38240680169344993 0 -0.35285683380316007 0.39046665159751448 0 -0.34270265381785459 0.40768080501023862 0 -0.32505653004414181 0.39961172552874852 0 -0.35285683380316007 0.39046665159751448 0 -0.32505653004414181 0.39961172552874852 0 -0.35285683380316007 0.39046665159751448 0 -0.33136271335047512 0.38240680169344993 0 -0.34304766554360439 0.37232322735168022 0 -0.35285683380316007 0.39046665159751448 0 -0.33136271335047512 0.38240680169344993 0 -0.30986859289778912 0.37434695178938759 0 -0.32167824364597858 0.36970754211250728 0 -0.33136271335047512 0.38240680169344993 0 -0.30986859289778912 0.37434695178938759 0 -0.33136271335047512 0.38240680169344993 0 -0.32505653004414181 0.39961172552874852 0 -0.33136271335047512 0.38240680169344993 0 -0.31778050989885959 0.38527433798844479 0 -0.30986859289778912 0.37434695178938759 0 -0.33136271335047512 0.38240680169344993 0 -0.31778050989885959 0.38527433798844479 0 -0.30986859289778912 0.37434695178938759 0 -0.31778050989885959 0.38527433798844479 0 -0.30574515252343709 0.38648905476423068 0 -0.30986859289778912 0.37434695178938759 0 -0.30574515252343709 0.38648905476423068 0 -0.29874239202075642 0.37528196759933868 0 -0.30574515252343709 0.38648905476423068 0 -0.29874239202075642 0.37528196759933868 0 -0.29146244090030071 0.40289140707507309 0 -0.31778050989885959 0.38527433798844479 0 -0.30574515252343709 0.38648905476423068 0 -0.31219235154091651 0.39185403334122892 0 -0.32505653004414181 0.39961172552874852 0 -0.30619500853749271 0.39725637532293351 0 -0.29725622628512233 0.40875679945997928 0 -0.32505653004414181 0.39961172552874852 0 -0.29725622628512233 0.40875679945997928 0 -0.30574515252343709 0.38648905476423068 0 -0.30619500853749271 0.39725637532293351 0 -0.29146244090030071 0.40289140707507309 0 -0.30574515252343709 0.38648905476423068 0 -0.31219235154091651 0.39185403334122892 0 -0.30619500853749271 0.39725637532293351 0 -0.30619500853749271 0.39725637532293351 0 -0.29146244090030071 0.40289140707507309 0 -0.29725622628512233 0.40875679945997928 0 -0.29146244090030071 0.40289140707507309 0 -0.2882496590958894 0.39023794275143442 0 -0.278827461574497 0.39790462172635238 0 -0.28396634188800352 0.38487377460497352 0 -0.2882496590958894 0.39023794275143442 0 -0.278827461574497 0.39790462172635238 0 -0.29146244090030071 0.40289140707507309 0 -0.278827461574497 0.39790462172635238 0 -0.27940045790464241 0.41220012044695847 0 -0.29874239202075642 0.37528196759933868 0 -0.29146244090030071 0.40289140707507309 0 -0.29874239202075642 0.37528196759933868 0 -0.29146244090030071 0.40289140707507309 0 -0.2882496590958894 0.39023794275143442 0 -0.29874239202075642 0.37528196759933868 0 -0.28396634188800352 0.38487377460497352 0 -0.28714059247178902 0.37543321948423419 0 -0.29874239202075642 0.37528196759933868 0 -0.28396634188800352 0.38487377460497352 0 -0.2882496590958894 0.39023794275143442 0 -0.28396634188800352 0.38487377460497352 0 -0.28714059247178902 0.37543321948423419 0 -0.27747916353329311 0.37529003384729942 0 -0.28396634188800352 0.38487377460497352 0 -0.27747916353329311 0.37529003384729942 0 -0.26775424033426293 0.38456849691175748 0 -0.28396634188800352 0.38487377460497352 0 -0.26775424033426293 0.38456849691175748 0 -0.278827461574497 0.39790462172635238 0 -0.26470209097228098 0.37140351159401941 0 -0.27747916353329311 0.37529003384729942 0 -0.26775424033426293 0.38456849691175748 0 -0.278827461574497 0.39790462172635238 0 -0.26298604578065232 0.3973558675440883 0 -0.2677584473194361 0.40899541659639099 0 -0.26775424033426293 0.38456849691175748 0 -0.278827461574497 0.39790462172635238 0 -0.26298604578065232 0.3973558675440883 0 -0.26298604578065232 0.3973558675440883 0 -0.25152819264859128 0.38883491631829081 0 -0.2490618870264745 0.40647588616764979 0 -0.26298604578065232 0.3973558675440883 0 -0.2677584473194361 0.40899541659639099 0 -0.2490618870264745 0.40647588616764979 0 -0.25213085833087667 0.37355178257669552 0 -0.26775424033426293 0.38456849691175748 0 -0.25152819264859128 0.38883491631829081 0 -0.26775424033426293 0.38456849691175748 0 -0.26298604578065232 0.3973558675440883 0 -0.25152819264859128 0.38883491631829081 0 -0.26470209097228098 0.37140351159401941 0 -0.25213085833087667 0.37355178257669552 0 -0.26775424033426293 0.38456849691175748 0 -0.2572482915111563 0.42152384209731297 0 -0.26330490497154813 0.43976041958731371 0 -0.24092688658692171 0.43286849171069308 0 -0.2572482915111563 0.42152384209731297 0 -0.27163392734069919 0.42205675226444578 0 -0.26330490497154813 0.43976041958731371 0 -0.2572482915111563 0.42152384209731297 0 -0.2677584473194361 0.40899541659639099 0 -0.2490618870264745 0.40647588616764979 0 -0.2572482915111563 0.42152384209731297 0 -0.2677584473194361 0.40899541659639099 0 -0.27163392734069919 0.42205675226444578 0 -0.27940045790464241 0.41220012044695847 0 -0.27163392734069919 0.42205675226444578 0 -0.28418248977984512 0.43050084655080739 0 -0.2677584473194361 0.40899541659639099 0 -0.27940045790464241 0.41220012044695847 0 -0.27163392734069919 0.42205675226444578 0 -0.278827461574497 0.39790462172635238 0 -0.2677584473194361 0.40899541659639099 0 -0.27940045790464241 0.41220012044695847 0 -0.27163392734069919 0.42205675226444578 0 -0.28418248977984512 0.43050084655080739 0 -0.26330490497154813 0.43976041958731371 0 -0.28418248977984512 0.43050084655080739 0 -0.29943060469912958 0.42576946359573847 0 -0.28981068171355151 0.44369098771903792 0 -0.29146244090030071 0.40289140707507309 0 -0.28418248977984512 0.43050084655080739 0 -0.29146244090030071 0.40289140707507309 0 -0.27940045790464241 0.41220012044695847 0 -0.28418248977984512 0.43050084655080739 0 -0.28418248977984512 0.43050084655080739 0 -0.29725622628512233 0.40875679945997928 0 -0.29943060469912958 0.42576946359573847 0 -0.29146244090030071 0.40289140707507309 0 -0.28418248977984512 0.43050084655080739 0 -0.29725622628512233 0.40875679945997928 0 -0.31441363705571701 0.41408607272300291 0 -0.32505653004414181 0.39961172552874852 0 -0.29725622628512233 0.40875679945997928 0 -0.31441363705571701 0.41408607272300291 0 -0.29725622628512233 0.40875679945997928 0 -0.29943060469912958 0.42576946359573847 0 -0.31441363705571701 0.41408607272300291 0 -0.29943060469912958 0.42576946359573847 0 -0.31148998866141242 0.43181261152586448 0 -0.29943060469912958 0.42576946359573847 0 -0.31148998866141242 0.43181261152586448 0 -0.28981068171355151 0.44369098771903792 0 -0.31148998866141242 0.43181261152586448 0 -0.30120616623050861 0.45239726712555162 0 -0.31718999816658727 0.45065056632578487 0 -0.31148998866141242 0.43181261152586448 0 -0.30120616623050861 0.45239726712555162 0 -0.31148998866141242 0.43181261152586448 0 -0.30120616623050861 0.45239726712555162 0 -0.28981068171355151 0.44369098771903792 0 -0.30120616623050861 0.45239726712555162 0 -0.29092234379960469 0.47298192272523881 0 -0.30745775624609217 0.47728579204436761 0 -0.30120616623050861 0.45239726712555162 0 -0.30745775624609217 0.47728579204436761 0 -0.31718999816658727 0.45065056632578487 0 -0.2852957606144535 0.45730244818253718 0 -0.28186649269177161 0.46567885888970018 0 -0.29092234379960469 0.47298192272523881 0 -0.30120616623050861 0.45239726712555162 0 -0.29092234379960469 0.47298192272523881 0 -0.30120616623050861 0.45239726712555162 0 -0.2852957606144535 0.45730244818253718 0 -0.29092234379960469 0.47298192272523881 0 -0.2852957606144535 0.45730244818253718 0 -0.28186649269177161 0.46567885888970018 0 -0.27690253865938408 0.45811028602654041 0 -0.28418248977984512 0.43050084655080739 0 -0.28981068171355151 0.44369098771903792 0 -0.27690253865938408 0.45811028602654041 0 -0.30120616623050861 0.45239726712555162 0 -0.2852957606144535 0.45730244818253718 0 -0.28981068171355151 0.44369098771903792 0 -0.2852957606144535 0.45730244818253718 0 -0.28981068171355151 0.44369098771903792 0 -0.27690253865938408 0.45811028602654041 0 -0.28418248977984512 0.43050084655080739 0 -0.27690253865938408 0.45811028602654041 0 -0.28418248977984512 0.43050084655080739 0 -0.27690253865938408 0.45811028602654041 0 -0.26330490497154813 0.43976041958731371 0 -0.2852957606144535 0.45730244818253718 0 -0.27690253865938408 0.45811028602654041 0 -0.28186649269177161 0.46567885888970018 0 -0.27690253865938408 0.45811028602654041 0 -0.27835780074514338 0.47366975871288508 0 -0.27690253865938408 0.45811028602654041 0 -0.25345677561811758 0.46036691342989022 0 -0.27690253865938408 0.45811028602654041 0 -0.25345677561811758 0.46036691342989022 0 -0.26590293397843329 0.47057525233348851 0 -0.25345677561811758 0.46036691342989022 0 -0.25315469521642581 0.4750486889203015 0 -0.26590293397843329 0.47057525233348851 0 -0.25345677561811758 0.46036691342989022 0 -0.26330490497154813 0.43976041958731371 0 -0.24129970279445639 0.44943490890582899 0 -0.27690253865938408 0.45811028602654041 0 -0.25345677561811758 0.46036691342989022 0 -0.26330490497154813 0.43976041958731371 0 -0.26169037092037989 0.4910190989046625 0 -0.25397816739109252 0.5 0 -0.27113802145370669 0.49283981386083792 0 -0.26169037092037989 0.4910190989046625 0 -0.25474868654415728 0.48692894813519849 0 -0.26689660829256312 0.48430763362261348 0 -0.26169037092037989 0.4910190989046625 0 -0.25397816739109252 0.5 0 -0.25474868654415728 0.48692894813519849 0 -0.25315469521642581 0.4750486889203015 0 -0.26689660829256312 0.48430763362261348 0 -0.25315469521642581 0.4750486889203015 0 -0.26689660829256312 0.48430763362261348 0 -0.26590293397843329 0.47057525233348851 0 -0.25474868654415728 0.48692894813519849 0 -0.25315469521642581 0.4750486889203015 0 -0.26689660829256312 0.48430763362261348 0 -0.27690253865938408 0.45811028602654041 0 -0.26590293397843329 0.47057525233348851 0 -0.26946370716205509 0.4860372782758946 0 -0.27690253865938408 0.45811028602654041 0 -0.26946370716205509 0.4860372782758946 0 -0.27690253865938408 0.45811028602654041 0 -0.27835780074514338 0.47366975871288508 0 -0.26946370716205509 0.4860372782758946 0 -0.26689660829256312 0.48430763362261348 0 -0.26590293397843329 0.47057525233348851 0 -0.26946370716205509 0.4860372782758946 0 -0.28186649269177161 0.46567885888970018 0 -0.27835780074514338 0.47366975871288508 0 -0.28298297564177088 0.4743823417855309 0 -0.27835780074514338 0.47366975871288508 0 -0.2798907507987049 0.48286402398659151 0 -0.28298297564177088 0.4743823417855309 0 -0.27835780074514338 0.47366975871288508 0 -0.2798907507987049 0.48286402398659151 0 -0.26946370716205509 0.4860372782758946 0 -0.26946370716205509 0.4860372782758946 0 -0.28063852136870049 0.49356657832492562 0 -0.26946370716205509 0.4860372782758946 0 -0.27113802145370669 0.49283981386083792 0 -0.28063852136870049 0.49356657832492562 0 -0.2798907507987049 0.48286402398659151 0 -0.26946370716205509 0.4860372782758946 0 -0.28063852136870049 0.49356657832492562 0 -0.25397816739109252 0.5 0 -0.27113802145370669 0.49283981386083792 0 -0.27742446875513049 0.50000000000000155 0 -0.26689660829256312 0.48430763362261348 0 -0.26946370716205509 0.4860372782758946 0 -0.27113802145370669 0.49283981386083792 0 -0.26169037092037989 0.4910190989046625 0 -0.26689660829256312 0.48430763362261348 0 -0.27113802145370669 0.49283981386083792 0 -0.26689660829256312 0.48430763362261348 0 -0.26946370716205509 0.4860372782758946 0 -0.27113802145370669 0.49283981386083792 0 -0.28063852136870049 0.49356657832492562 0 -0.27742446875513049 0.50000000000000155 0 -0.28063852136870049 0.49356657832492562 0 -0.27742446875513049 0.50000000000000155 0 -0.28063852136870049 0.49356657832492562 0 -0.27742446875513049 0.50000000000000155 0 -0.29018685806186229 0.50000000000000122 0 -0.28063852136870049 0.49356657832492562 0 -0.29018685806186229 0.50000000000000122 0 -0.29092234379960469 0.47298192272523881 0 -0.28063852136870049 0.49356657832492562 0 -0.29018685806186229 0.50000000000000122 0 -0.29018685806186229 0.50000000000000122 0 -0.29092234379960469 0.47298192272523881 0 -0.30745775624609217 0.47728579204436761 0 -0.28063852136870049 0.49356657832492562 0 -0.29092234379960469 0.47298192272523881 0 -0.2798907507987049 0.48286402398659151 0 -0.28063852136870049 0.49356657832492562 0 -0.29092234379960469 0.47298192272523881 0 -0.28186649269177161 0.46567885888970018 0 -0.28298297564177088 0.4743823417855309 0 -0.29092234379960469 0.47298192272523881 0 -0.2798907507987049 0.48286402398659151 0 -0.28298297564177088 0.4743823417855309 0 -0.29092234379960469 0.47298192272523881 0 -0.29018685806186229 0.50000000000000122 0 -0.30745775624609217 0.47728579204436761 0 -0.3640375775585698 0.5 0 -0.30745775624609217 0.47728579204436761 0 -0.33122457162539992 0.46023714195115112 0 -0.3640375775585698 0.5 0 -0.30745775624609217 0.47728579204436761 0 -0.33122457162539992 0.46023714195115112 0 -0.30745775624609217 0.47728579204436761 0 -0.31718999816658727 0.45065056632578487 0 -0.33122457162539992 0.46023714195115112 0 -0.33223168701086447 0.43660936806356893 0 -0.31148998866141242 0.43181261152586448 0 -0.31718999816658727 0.45065056632578487 0 -0.33223168701086447 0.43660936806356893 0 -0.31718999816658727 0.45065056632578487 0 -0.33122457162539992 0.46023714195115112 0 -0.33122457162539992 0.46023714195115112 0 -0.35499138700470761 0.44318849185793469 0 -0.33223168701086447 0.43660936806356893 0 -0.33122457162539992 0.46023714195115112 0 -0.35499138700470761 0.44318849185793469 0 -0.33122457162539992 0.46023714195115112 0 -0.35376164566254242 0.46494380824906301 0 -0.35499138700470761 0.44318849185793469 0 -0.38249991962136642 0.44345487931465249 0 -0.35499138700470761 0.44318849185793469 0 -0.37103467036260362 0.45695891695805302 0 -0.38249991962136642 0.44345487931465249 0 -0.37875820238401509 0.42613984176471847 0 -0.35499138700470761 0.44318849185793469 0 -0.35376164566254242 0.46494380824906301 0 -0.35499138700470761 0.44318849185793469 0 -0.37103467036260362 0.45695891695805302 0 -0.35376164566254242 0.46494380824906301 0 -0.37103467036260362 0.45695891695805302 0 -0.36943712044780219 0.47475959506207249 0 -0.33122457162539992 0.46023714195115112 0 -0.35376164566254242 0.46494380824906301 0 -0.3640375775585698 0.5 0 -0.38891458820749281 0.47713565504117422 0 -0.36943712044780219 0.47475959506207249 0 -0.3640375775585698 0.5 0 -0.35376164566254242 0.46494380824906301 0 -0.36943712044780219 0.47475959506207249 0 -0.3640375775585698 0.5 0 -0.1410608215807003 0.47118489318428192 0 -0.1506389915883973 0.47451242435581331 0 -0.15779819732271971 0.4695739402503486 0 -0.1410608215807003 0.47118489318428192 0 -0.15779819732271971 0.4695739402503486 0 -0.1455325599989582 0.47665965757352818 0 -0.14983465253105441 0.48099067897208148 0 -0.1405957742956809 0.47995063378193648 0 -0.14983465253105441 0.48099067897208148 0 -0.14427471349546869 0.48965289008050411 0 -0.1405957742956809 0.47995063378193648 0 -0.1455325599989582 0.47665965757352818 0 -0.1410608215807003 0.47118489318428192 0 -0.1506389915883973 0.47451242435581331 0 -0.1455325599989582 0.47665965757352818 0 -0.1410608215807003 0.47118489318428192 0 -0.1405957742956809 0.47995063378193648 0 -0.1506389915883973 0.47451242435581331 0 -0.15682389603308189 0.47748605108520858 0 -0.15779819732271971 0.4695739402503486 0 -0.1506389915883973 0.47451242435581331 0 -0.14983465253105441 0.48099067897208148 0 -0.15682389603308189 0.47748605108520858 0 -0.1455325599989582 0.47665965757352818 0 -0.1506389915883973 0.47451242435581331 0 -0.14983465253105441 0.48099067897208148 0 -0.14983465253105441 0.48099067897208148 0 -0.1558122254133027 0.48316327461493752 0 -0.15682389603308189 0.47748605108520858 0 -0.14983465253105441 0.48099067897208148 0 -0.1558122254133027 0.48316327461493752 0 -0.15140604362779489 0.486968875654338 0 -0.1558122254133027 0.48316327461493752 0 -0.15140604362779489 0.486968875654338 0 -0.15545271364459581 0.49281799385228547 0 -0.14983465253105441 0.48099067897208148 0 -0.15140604362779489 0.486968875654338 0 -0.14427471349546869 0.48965289008050411 0 -0.15140604362779489 0.486968875654338 0 -0.15545271364459581 0.49281799385228547 0 -0.14427471349546869 0.48965289008050411 0 -0.15453849507163009 0.5 0 -0.14427471349546869 0.48965289008050411 0 -0.12543772684428189 0.5 0 -0.15453849507163009 0.5 0 -0.15545271364459581 0.49281799385228547 0 -0.14427471349546869 0.48965289008050411 0 -0.14427471349546869 0.48965289008050411 0 -0.12543772684428189 0.5 0 -0.13178312884530541 0.48627570230508688 0 -0.14427471349546869 0.48965289008050411 0 -0.13178312884530541 0.48627570230508688 0 -0.1405957742956809 0.47995063378193648 0 -0.13178312884530541 0.48627570230508688 0 -0.1317912103042716 0.47600940211286807 0 -0.11642361318749669 0.48420448820259387 0 -0.1317912103042716 0.47600940211286807 0 -0.14083201439797821 0.46516349611765162 0 -0.12052644250191399 0.4682622397032008 0 -0.13178312884530541 0.48627570230508688 0 -0.1405957742956809 0.47995063378193648 0 -0.1317912103042716 0.47600940211286807 0 -0.1410608215807003 0.47118489318428192 0 -0.1405957742956809 0.47995063378193648 0 -0.1317912103042716 0.47600940211286807 0 -0.1410608215807003 0.47118489318428192 0 -0.1317912103042716 0.47600940211286807 0 -0.14083201439797821 0.46516349611765162 0 -0.12618187852634369 0.45882241462805679 0 -0.14083201439797821 0.46516349611765162 0 -0.12052644250191399 0.4682622397032008 0 -0.14083201439797821 0.46516349611765162 0 -0.12052644250191399 0.4682622397032008 0 -0.12618187852634369 0.45882241462805679 0 -0.13621980461969219 0.45775649261309698 0 -0.13482926781972801 0.45201676164804122 0 -0.13621980461969219 0.45775649261309698 0 -0.13482926781972801 0.45201676164804122 0 -0.1430360577347192 0.45502329805863873 0 -0.13621980461969219 0.45775649261309698 0 -0.14083201439797821 0.46516349611765162 0 -0.1430360577347192 0.45502329805863873 0 -0.12618187852634369 0.45882241462805679 0 -0.13621980461969219 0.45775649261309698 0 -0.14083201439797821 0.46516349611765162 0 -0.12618187852634369 0.45882241462805679 0 -0.13482926781972801 0.45201676164804122 0 -0.1248743097581413 0.44162978393037222 0 -0.13482926781972801 0.45201676164804122 0 -0.13973201497409549 0.44099892737807922 0 -0.1415241139788854 0.4488412036993919 0 -0.13482926781972801 0.45201676164804122 0 -0.1415241139788854 0.4488412036993919 0 -0.1430360577347192 0.45502329805863873 0 -0.13973201497409549 0.44099892737807922 0 -0.13491063247587859 0.43073185275000708 0 -0.1248743097581413 0.44162978393037222 0 -0.13482926781972801 0.45201676164804122 0 -0.13973201497409549 0.44099892737807922 0 -0.1248743097581413 0.44162978393037222 0 -0.13973201497409549 0.44099892737807922 0 -0.14849911538699881 0.44732582771280882 0 -0.14949031039727409 0.43903968606904947 0 -0.14849911538699881 0.44732582771280882 0 -0.1430360577347192 0.45502329805863873 0 -0.15230793746503779 0.45507497120342549 0 -0.13973201497409549 0.44099892737807922 0 -0.1415241139788854 0.4488412036993919 0 -0.14849911538699881 0.44732582771280882 0 -0.1415241139788854 0.4488412036993919 0 -0.14849911538699881 0.44732582771280882 0 -0.1430360577347192 0.45502329805863873 0 -0.14849911538699881 0.44732582771280882 0 -0.15230793746503779 0.45507497120342549 0 -0.15767924869329919 0.44641741059368378 0 -0.14949031039727409 0.43903968606904947 0 -0.15767924869329919 0.44641741059368378 0 -0.15912083936695831 0.4347249498771325 0 -0.14849911538699881 0.44732582771280882 0 -0.14949031039727409 0.43903968606904947 0 -0.15767924869329919 0.44641741059368378 0 -0.14083201439797821 0.46516349611765162 0 -0.16113758629404229 0.46206475253210239 0 -0.15779819732271971 0.4695739402503486 0 -0.1410608215807003 0.47118489318428192 0 -0.14083201439797821 0.46516349611765162 0 -0.15779819732271971 0.4695739402503486 0 -0.14083201439797821 0.46516349611765162 0 -0.16113758629404229 0.46206475253210239 0 -0.14083201439797821 0.46516349611765162 0 -0.15230793746503779 0.45507497120342549 0 -0.16113758629404229 0.46206475253210239 0 -0.14083201439797821 0.46516349611765162 0 -0.1430360577347192 0.45502329805863873 0 -0.15230793746503779 0.45507497120342549 0 -0.16113758629404229 0.46206475253210239 0 -0.16940388650370539 0.44815354093755089 0 -0.18144315819010631 0.45896600894655282 0 -0.16113758629404229 0.46206475253210239 0 -0.18144315819010631 0.45896600894655282 0 -0.16113758629404229 0.46206475253210239 0 -0.17453557306473899 0.46796298731641428 0 -0.15779819732271971 0.4695739402503486 0 -0.15230793746503779 0.45507497120342549 0 -0.16113758629404229 0.46206475253210239 0 -0.16013216473902109 0.45292766881669072 0 -0.16113758629404229 0.46206475253210239 0 -0.16013216473902109 0.45292766881669072 0 -0.16940388650370539 0.44815354093755089 0 -0.15767924869329919 0.44641741059368378 0 -0.16940388650370539 0.44815354093755089 0 -0.15912083936695831 0.4347249498771325 0 -0.15230793746503779 0.45507497120342549 0 -0.16013216473902109 0.45292766881669072 0 -0.15767924869329919 0.44641741059368378 0 -0.16013216473902109 0.45292766881669072 0 -0.15767924869329919 0.44641741059368378 0 -0.16940388650370539 0.44815354093755089 0 -0.1829590266345629 0.45699162349075462 0 -0.18255950863604661 0.43173185523385532 0 -0.1829590266345629 0.45699162349075462 0 -0.19557533522393281 0.44055915781337712 0 -0.18255950863604661 0.43173185523385532 0 -0.16940388650370539 0.44815354093755089 0 -0.1829590266345629 0.45699162349075462 0 -0.18255950863604661 0.43173185523385532 0 -0.16113758629404229 0.46206475253210239 0 -0.17453557306473899 0.46796298731641428 0 -0.18144315819010631 0.45896600894655282 0 -0.17453557306473899 0.46796298731641428 0 -0.18144315819010631 0.45896600894655282 0 -0.17453557306473899 0.46796298731641428 0 -0.18311948649431831 0.46713679563994498 0 -0.16940388650370539 0.44815354093755089 0 -0.18144315819010631 0.45896600894655282 0 -0.1829590266345629 0.45699162349075462 0 -0.18144315819010631 0.45896600894655282 0 -0.1829590266345629 0.45699162349075462 0 -0.18144315819010631 0.45896600894655282 0 -0.1829865290739871 0.45873048193697258 0 -0.1829590266345629 0.45699162349075462 0 -0.18144315819010631 0.45896600894655282 0 -0.1829865290739871 0.45873048193697258 0 -0.1829865290739871 0.45873048193697258 0 -0.1829590266345629 0.45699162349075462 0 -0.17453557306473899 0.46796298731641428 0 -0.18144315819010631 0.45896600894655282 0 -0.18311948649431831 0.46713679563994498 0 -0.1829865290739871 0.45873048193697258 0 -0.18311948649431831 0.46713679563994498 0 -0.18144315819010631 0.45896600894655282 0 -0.1829865290739871 0.45873048193697258 0 -0.18311948649431831 0.46713679563994498 0 -0.18311948649431831 0.46713679563994498 0 -0.18337937489664821 0.48356839781997168 0 -0.19511197543601369 0.47606725323690458 0 -0.18311948649431831 0.46713679563994498 0 -0.18337937489664821 0.48356839781997168 0 -0.18311948649431831 0.46713679563994498 0 -0.18337937489664821 0.48356839781997168 0 -0.17485937494801759 0.47808814193434568 0 -0.17453557306473899 0.46796298731641428 0 -0.18311948649431831 0.46713679563994498 0 -0.17485937494801759 0.47808814193434568 0 -0.17453557306473899 0.46796298731641428 0 -0.15779819732271971 0.4695739402503486 0 -0.17453557306473899 0.46796298731641428 0 -0.16499414335466689 0.48039049058434952 0 -0.17453557306473899 0.46796298731641428 0 -0.16499414335466689 0.48039049058434952 0 -0.15779819732271971 0.4695739402503486 0 -0.17453557306473899 0.46796298731641428 0 -0.17485937494801759 0.47808814193434568 0 -0.16499414335466689 0.48039049058434952 0 -0.17485937494801759 0.47808814193434568 0 -0.16499414335466689 0.48039049058434952 0 -0.1699453859209171 0.49288017845899518 0 -0.1558122254133027 0.48316327461493752 0 -0.16499414335466689 0.48039049058434952 0 -0.15682389603308189 0.47748605108520858 0 -0.16499414335466689 0.48039049058434952 0 -0.15682389603308189 0.47748605108520858 0 -0.15779819732271971 0.4695739402503486 0 -0.15453849507163009 0.5 0 -0.1699453859209171 0.49288017845899518 0 -0.18363926329897839 0.49999999999999828 0 -0.15453849507163009 0.5 0 -0.15545271364459581 0.49281799385228547 0 -0.1699453859209171 0.49288017845899518 0 -0.15545271364459581 0.49281799385228547 0 -0.16499414335466689 0.48039049058434952 0 -0.1699453859209171 0.49288017845899518 0 -0.15545271364459581 0.49281799385228547 0 -0.16499414335466689 0.48039049058434952 0 -0.1558122254133027 0.48316327461493752 0 -0.15545271364459581 0.49281799385228547 0 -0.16499414335466689 0.48039049058434952 0 -0.18337937489664821 0.48356839781997168 0 -0.18363926329897839 0.49999999999999828 0 -0.18337937489664821 0.48356839781997168 0 -0.1699453859209171 0.49288017845899518 0 -0.18363926329897839 0.49999999999999828 0 -0.18337937489664821 0.48356839781997168 0 -0.17485937494801759 0.47808814193434568 0 -0.1699453859209171 0.49288017845899518 0 -0.18337937489664821 0.48356839781997168 0 -0.18363926329897839 0.49999999999999828 0 -0.19848883175809501 0.48685236178056529 0 -0.18363926329897839 0.49999999999999828 0 -0.19848883175809501 0.48685236178056529 0 -0.20708556466301639 0.5 0 -0.18311948649431831 0.46713679563994498 0 -0.19511197543601369 0.47606725323690458 0 -0.20656524953558469 0.46488016823659339 0 -0.18337937489664821 0.48356839781997168 0 -0.19848883175809501 0.48685236178056529 0 -0.19511197543601369 0.47606725323690458 0 -0.19848883175809501 0.48685236178056529 0 -0.19511197543601369 0.47606725323690458 0 -0.206747867840962 0.47700509082497228 0 -0.19511197543601369 0.47606725323690458 0 -0.206747867840962 0.47700509082497228 0 -0.20656524953558469 0.46488016823659339 0 -0.19848883175809501 0.48685236178056529 0 -0.206747867840962 0.47700509082497228 0 -0.21585796601610141 0.48648558657266339 0 -0.206747867840962 0.47700509082497228 0 -0.21852396914967101 0.47285401242330122 0 -0.20656524953558469 0.46488016823659339 0 -0.206747867840962 0.47700509082497228 0 -0.21852396914967101 0.47285401242330122 0 -0.21585796601610141 0.48648558657266339 0 -0.20708556466301639 0.5 0 -0.21585796601610141 0.48648558657266339 0 -0.23053186602705439 0.5 0 -0.19848883175809501 0.48685236178056529 0 -0.20708556466301639 0.5 0 -0.21585796601610141 0.48648558657266339 0 -0.21585796601610141 0.48648558657266339 0 -0.23053186602705439 0.5 0 -0.2373192826940049 0.48342253064983348 0 -0.21852396914967101 0.47285401242330122 0 -0.2373192826940049 0.48342253064983348 0 -0.23001101257685119 0.46262354083324181 0 -0.21852396914967101 0.47285401242330122 0 -0.21585796601610141 0.48648558657266339 0 -0.2373192826940049 0.48342253064983348 0 -0.25474868654415728 0.48692894813519849 0 -0.25315469521642581 0.4750486889203015 0 -0.2373192826940049 0.48342253064983348 0 -0.25315469521642581 0.4750486889203015 0 -0.2373192826940049 0.48342253064983348 0 -0.23001101257685119 0.46262354083324181 0 -0.25397816739109252 0.5 0 -0.23053186602705439 0.5 0 -0.2373192826940049 0.48342253064983348 0 -0.25397816739109252 0.5 0 -0.25474868654415728 0.48692894813519849 0 -0.2373192826940049 0.48342253064983348 0 -0.26330490497154813 0.43976041958731371 0 -0.24129970279445639 0.44943490890582899 0 -0.24092688658692171 0.43286849171069308 0 -0.24129970279445639 0.44943490890582899 0 -0.2242493546558077 0.44235471361969553 0 -0.24092688658692171 0.43286849171069308 0 -0.25345677561811758 0.46036691342989022 0 -0.23001101257685119 0.46262354083324181 0 -0.25345677561811758 0.46036691342989022 0 -0.24129970279445639 0.44943490890582899 0 -0.23001101257685119 0.46262354083324181 0 -0.25345677561811758 0.46036691342989022 0 -0.25315469521642581 0.4750486889203015 0 -0.23001101257685119 0.46262354083324181 0 -0.24129970279445639 0.44943490890582899 0 -0.23001101257685119 0.46262354083324181 0 -0.2242493546558077 0.44235471361969553 0 -0.23001101257685119 0.46262354083324181 0 -0.2242493546558077 0.44235471361969553 0 -0.2144914677851314 0.45380351874251162 0 -0.2242493546558077 0.44235471361969553 0 -0.20880164963731279 0.443380440886459 0 -0.2144914677851314 0.45380351874251162 0 -0.20880164963731279 0.443380440886459 0 -0.2144914677851314 0.45380351874251162 0 -0.20415969833182021 0.45549933815243238 0 -0.23001101257685119 0.46262354083324181 0 -0.2144914677851314 0.45380351874251162 0 -0.20656524953558469 0.46488016823659339 0 -0.21852396914967101 0.47285401242330122 0 -0.23001101257685119 0.46262354083324181 0 -0.20656524953558469 0.46488016823659339 0 -0.23001101257685119 0.46262354083324181 0 -0.20656524953558469 0.46488016823659339 0 -0.2144914677851314 0.45380351874251162 0 -0.20415969833182021 0.45549933815243238 0 -0.20656524953558469 0.46488016823659339 0 -0.1829865290739871 0.45873048193697258 0 -0.1829590266345629 0.45699162349075462 0 -0.20415969833182021 0.45549933815243238 0 -0.1829865290739871 0.45873048193697258 0 -0.20415969833182021 0.45549933815243238 0 -0.18311948649431831 0.46713679563994498 0 -0.20415969833182021 0.45549933815243238 0 -0.20656524953558469 0.46488016823659339 0 -0.1829865290739871 0.45873048193697258 0 -0.18311948649431831 0.46713679563994498 0 -0.20415969833182021 0.45549933815243238 0 -0.18311948649431831 0.46713679563994498 0 -0.20656524953558469 0.46488016823659339 0 -0.1829590266345629 0.45699162349075462 0 -0.19557533522393281 0.44055915781337712 0 -0.1829590266345629 0.45699162349075462 0 -0.20415969833182021 0.45549933815243238 0 -0.19557533522393281 0.44055915781337712 0 -0.20880164963731279 0.443380440886459 0 -0.20415969833182021 0.45549933815243238 0 -0.19557533522393281 0.44055915781337712 0 -0.19557533522393281 0.44055915781337712 0 -0.20819164381331129 0.42412669213600601 0 -0.19557533522393281 0.44055915781337712 0 -0.19413142888046839 0.4217351031076268 0 -0.18255950863604661 0.43173185523385532 0 -0.19557533522393281 0.44055915781337712 0 -0.19413142888046839 0.4217351031076268 0 -0.20819164381331129 0.42412669213600601 0 -0.19413142888046839 0.4217351031076268 0 -0.20819164381331129 0.42412669213600601 0 -0.2021706660915297 0.40578572337793972 0 -0.19413142888046839 0.4217351031076268 0 -0.2021706660915297 0.40578572337793972 0 -0.18215999063752189 0.40647208697695608 0 -0.20819164381331129 0.42412669213600601 0 -0.22405449890785839 0.40643558214578251 0 -0.2021706660915297 0.40578572337793972 0 -0.20880164963731279 0.443380440886459 0 -0.19557533522393281 0.44055915781337712 0 -0.20819164381331129 0.42412669213600601 0 -0.2242493546558077 0.44235471361969553 0 -0.20880164963731279 0.443380440886459 0 -0.20819164381331129 0.42412669213600601 0 -0.2242493546558077 0.44235471361969553 0 -0.20819164381331129 0.42412669213600601 0 -0.22600929792909111 0.42518400498706249 0 -0.2242493546558077 0.44235471361969553 0 -0.22600929792909111 0.42518400498706249 0 -0.24092688658692171 0.43286849171069308 0 -0.20819164381331129 0.42412669213600601 0 -0.22600929792909111 0.42518400498706249 0 -0.22405449890785839 0.40643558214578251 0 -0.22600929792909111 0.42518400498706249 0 -0.22405449890785839 0.40643558214578251 0 -0.2382988550227183 0.41778448946306668 0 -0.2572482915111563 0.42152384209731297 0 -0.2382988550227183 0.41778448946306668 0 -0.2490618870264745 0.40647588616764979 0 -0.22405449890785839 0.40643558214578251 0 -0.2382988550227183 0.41778448946306668 0 -0.2490618870264745 0.40647588616764979 0 -0.2572482915111563 0.42152384209731297 0 -0.2382988550227183 0.41778448946306668 0 -0.24092688658692171 0.43286849171069308 0 -0.22600929792909111 0.42518400498706249 0 -0.2382988550227183 0.41778448946306668 0 -0.24092688658692171 0.43286849171069308 0 -0.24000210142933509 0.37809552861286783 0 -0.23801773827758249 0.39392053259368742 0 -0.22567210936962789 0.38582584627882549 0 -0.25152819264859128 0.38883491631829081 0 -0.24000210142933509 0.37809552861286783 0 -0.23801773827758249 0.39392053259368742 0 -0.25213085833087667 0.37355178257669552 0 -0.25152819264859128 0.38883491631829081 0 -0.24000210142933509 0.37809552861286783 0 -0.25152819264859128 0.38883491631829081 0 -0.2490618870264745 0.40647588616764979 0 -0.23801773827758249 0.39392053259368742 0 -0.22405449890785839 0.40643558214578251 0 -0.2490618870264745 0.40647588616764979 0 -0.23801773827758249 0.39392053259368742 0 -0.22405449890785839 0.40643558214578251 0 -0.22567210936962789 0.38582584627882549 0 -0.2099895612515065 0.38861519238670661 0 -0.22405449890785839 0.40643558214578251 0 -0.23801773827758249 0.39392053259368742 0 -0.22567210936962789 0.38582584627882549 0 -0.22567210936962789 0.38582584627882549 0 -0.21752164111765379 0.37637519474985792 0 -0.23054114355980421 0.3681661286558337 0 -0.24000210142933509 0.37809552861286783 0 -0.22567210936962789 0.38582584627882549 0 -0.23054114355980421 0.3681661286558337 0 -0.22567210936962789 0.38582584627882549 0 -0.21752164111765379 0.37637519474985792 0 -0.2099895612515065 0.38861519238670661 0 -0.21752164111765379 0.37637519474985792 0 -0.2099895612515065 0.38861519238670661 0 -0.20825127389149589 0.37038948781896619 0 -0.2099895612515065 0.38861519238670661 0 -0.1956253707180633 0.37355818799515828 0 -0.20825127389149589 0.37038948781896619 0 -0.22405449890785839 0.40643558214578251 0 -0.2099895612515065 0.38861519238670661 0 -0.2021706660915297 0.40578572337793972 0 -0.2021706660915297 0.40578572337793972 0 -0.19434121226752371 0.39112870189136351 0 -0.18215999063752189 0.40647208697695608 0 -0.2099895612515065 0.38861519238670661 0 -0.2021706660915297 0.40578572337793972 0 -0.19434121226752371 0.39112870189136351 0 -0.2099895612515065 0.38861519238670661 0 -0.19434121226752371 0.39112870189136351 0 -0.1956253707180633 0.37355818799515828 0 -0.19434121226752371 0.39112870189136351 0 -0.18176047263899719 0.38121231872005679 0 -0.1956253707180633 0.37355818799515828 0 -0.18176047263899719 0.38121231872005679 0 -0.16585623702428451 0.39107516703040651 0 -0.16689278400863089 0.37048631692620287 0 -0.16585623702428451 0.39107516703040651 0 -0.1532541744773912 0.375434017343177 0 -0.15169756500005979 0.38990146883471011 0 -0.16585623702428451 0.39107516703040651 0 -0.1532541744773912 0.375434017343177 0 -0.16689278400863089 0.37048631692620287 0 -0.16585623702428451 0.39107516703040651 0 -0.1665369108918931 0.40914444316194981 0 -0.1556916669008335 0.40278409093046019 0 -0.16585623702428451 0.39107516703040651 0 -0.18215999063752189 0.40647208697695608 0 -0.1665369108918931 0.40914444316194981 0 -0.16585623702428451 0.39107516703040651 0 -0.15169756500005979 0.38990146883471011 0 -0.1556916669008335 0.40278409093046019 0 -0.18176047263899719 0.38121231872005679 0 -0.16585623702428451 0.39107516703040651 0 -0.18215999063752189 0.40647208697695608 0 -0.18176047263899719 0.38121231872005679 0 -0.18215999063752189 0.40647208697695608 0 -0.19434121226752371 0.39112870189136351 0 -0.18176047263899719 0.38121231872005679 0 -0.18215999063752189 0.40647208697695608 0 -0.18215999063752189 0.40647208697695608 0 -0.18255950863604661 0.43173185523385532 0 -0.18215999063752189 0.40647208697695608 0 -0.16958367679162159 0.42493542776846188 0 -0.1665369108918931 0.40914444316194981 0 -0.19413142888046839 0.4217351031076268 0 -0.18215999063752189 0.40647208697695608 0 -0.18255950863604661 0.43173185523385532 0 -0.18215999063752189 0.40647208697695608 0 -0.18255950863604661 0.43173185523385532 0 -0.16958367679162159 0.42493542776846188 0 -0.16940388650370539 0.44815354093755089 0 -0.18255950863604661 0.43173185523385532 0 -0.16958367679162159 0.42493542776846188 0 -0.16940388650370539 0.44815354093755089 0 -0.16958367679162159 0.42493542776846188 0 -0.15912083936695831 0.4347249498771325 0 -0.16958367679162159 0.42493542776846188 0 -0.15912083936695831 0.4347249498771325 0 -0.15604886632200479 0.41831593774319042 0 -0.16958367679162159 0.42493542776846188 0 -0.1665369108918931 0.40914444316194981 0 -0.15604886632200479 0.41831593774319042 0 -0.1665369108918931 0.40914444316194981 0 -0.15604886632200479 0.41831593774319042 0 -0.1556916669008335 0.40278409093046019 0 -0.15604886632200479 0.41831593774319042 0 -0.14768726638806501 0.40958107086639878 0 -0.1556916669008335 0.40278409093046019 0 -0.15604886632200479 0.41831593774319042 0 -0.1455440964649429 0.41771164433310332 0 -0.14575226394851429 0.42876386523653243 0 -0.15604886632200479 0.41831593774319042 0 -0.1455440964649429 0.41771164433310332 0 -0.14768726638806501 0.40958107086639878 0 -0.1455440964649429 0.41771164433310332 0 -0.14768726638806501 0.40958107086639878 0 -0.13820848934052041 0.41088683445876423 0 -0.15912083936695831 0.4347249498771325 0 -0.15604886632200479 0.41831593774319042 0 -0.14575226394851429 0.42876386523653243 0 -0.14949031039727409 0.43903968606904947 0 -0.15912083936695831 0.4347249498771325 0 -0.14575226394851429 0.42876386523653243 0 -0.1455440964649429 0.41771164433310332 0 -0.14575226394851429 0.42876386523653243 0 -0.13557398954387551 0.42076075412316039 0 -0.13973201497409549 0.44099892737807922 0 -0.14949031039727409 0.43903968606904947 0 -0.14575226394851429 0.42876386523653243 0 -0.13491063247587859 0.43073185275000708 0 -0.1242188050129694 0.42501783294758849 0 -0.1248743097581413 0.44162978393037222 0 -0.13973201497409549 0.44099892737807922 0 -0.14575226394851429 0.42876386523653243 0 -0.13491063247587859 0.43073185275000708 0 -0.14575226394851429 0.42876386523653243 0 -0.13491063247587859 0.43073185275000708 0 -0.13557398954387551 0.42076075412316039 0 -0.13491063247587859 0.43073185275000708 0 -0.13557398954387551 0.42076075412316039 0 -0.1242188050129694 0.42501783294758849 0 -0.13820848934052041 0.41088683445876423 0 -0.13557398954387551 0.42076075412316039 0 -0.12623023605756489 0.41143854881348008 0 -0.1455440964649429 0.41771164433310332 0 -0.13820848934052041 0.41088683445876423 0 -0.13557398954387551 0.42076075412316039 0 -0.13557398954387551 0.42076075412316039 0 -0.12623023605756489 0.41143854881348008 0 -0.1242188050129694 0.42501783294758849 0 -0.13820848934052041 0.41088683445876423 0 -0.12623023605756489 0.41143854881348008 0 -0.13398515235888339 0.40371564514020769 0 -0.12997925716256209 0.39431640422262348 0 -0.14074253368576661 0.38200722200303072 0 -0.1429432129120235 0.39820684686647628 0 -0.12623023605756489 0.41143854881348008 0 -0.13398515235888339 0.40371564514020769 0 -0.12997925716256209 0.39431640422262348 0 -0.13398515235888339 0.40371564514020769 0 -0.12997925716256209 0.39431640422262348 0 -0.1429432129120235 0.39820684686647628 0 -0.13820848934052041 0.41088683445876423 0 -0.13398515235888339 0.40371564514020769 0 -0.1429432129120235 0.39820684686647628 0 -0.12997925716256209 0.39431640422262348 0 -0.14074253368576661 0.38200722200303072 0 -0.12523428666698541 0.37069662222368049 0 -0.12997925716256209 0.39431640422262348 0 -0.12523428666698541 0.37069662222368049 0 -0.12103247972044499 0.39311621374447298 0 -0.14074253368576661 0.38200722200303072 0 -0.15169756500005979 0.38990146883471011 0 -0.1429432129120235 0.39820684686647628 0 -0.14074253368576661 0.38200722200303072 0 -0.1532541744773912 0.375434017343177 0 -0.15169756500005979 0.38990146883471011 0 -0.15169756500005979 0.38990146883471011 0 -0.1556916669008335 0.40278409093046019 0 -0.1429432129120235 0.39820684686647628 0 -0.14768726638806501 0.40958107086639878 0 -0.1556916669008335 0.40278409093046019 0 -0.1429432129120235 0.39820684686647628 0 -0.14768726638806501 0.40958107086639878 0 -0.13820848934052041 0.41088683445876423 0 -0.1429432129120235 0.39820684686647628 0 -0.14407255521749979 0.34403263722221961 0 -0.15504053286571459 0.3545366000593369 0 -0.14129669608781389 0.36249735492572199 0 -0.14407255521749979 0.34403263722221961 0 -0.15504053286571459 0.3545366000593369 0 -0.1549481930100888 0.34056708499864929 0 -0.14074253368576661 0.38200722200303072 0 -0.1532541744773912 0.375434017343177 0 -0.14129669608781389 0.36249735492572199 0 -0.1532541744773912 0.375434017343177 0 -0.15504053286571459 0.3545366000593369 0 -0.14129669608781389 0.36249735492572199 0 -0.14129669608781389 0.36249735492572199 0 -0.12523428666698541 0.37069662222368049 0 -0.1294360936135257 0.3482770307028879 0 -0.12523428666698541 0.37069662222368049 0 -0.1294360936135257 0.3482770307028879 0 -0.14074253368576661 0.38200722200303072 0 -0.14129669608781389 0.36249735492572199 0 -0.12523428666698541 0.37069662222368049 0 -0.14407255521749979 0.34403263722221961 0 -0.14129669608781389 0.36249735492572199 0 -0.1294360936135257 0.3482770307028879 0 -0.1294360936135257 0.3482770307028879 0 -0.13363790056006589 0.32585743918209531 0 -0.14407255521749979 0.34403263722221961 0 -0.1294360936135257 0.3482770307028879 0 -0.13363790056006589 0.32585743918209531 0 -0.1294360936135257 0.3482770307028879 0 -0.13363790056006589 0.32585743918209531 0 -0.1154499742120704 0.34086754873962172 0 -0.12722248981549561 0.3181430308760943 0 -0.13363790056006589 0.32585743918209531 0 -0.1360408951285694 0.3130357752318072 0 -0.12722248981549561 0.3181430308760943 0 -0.1360408951285694 0.3130357752318072 0 -0.12136448477009221 0.30951812845445109 0 -0.12722248981549561 0.3181430308760943 0 -0.13363790056006589 0.32585743918209531 0 -0.12142985306419619 0.32461006626398298 0 -0.13363790056006589 0.32585743918209531 0 -0.12142985306419619 0.32461006626398298 0 -0.13363790056006589 0.32585743918209531 0 -0.1360408951285694 0.3130357752318072 0 -0.14290423209994971 0.32095809222069871 0 -0.13363790056006589 0.32585743918209531 0 -0.1360408951285694 0.3130357752318072 0 -0.14290423209994971 0.32095809222069871 0 -0.1532404752523272 0.32269894785805692 0 -0.1464174014568787 0.29836992735667278 0 -0.13363790056006589 0.32585743918209531 0 -0.14290423209994971 0.32095809222069871 0 -0.15729966860100811 0.32827511069417059 0 -0.13363790056006589 0.32585743918209531 0 -0.15729966860100811 0.32827511069417059 0 -0.14290423209994971 0.32095809222069871 0 -0.1532404752523272 0.32269894785805692 0 -0.15729966860100811 0.32827511069417059 0 -0.1532404752523272 0.32269894785805692 0 -0.15943794807189979 0.31595908059817063 0 -0.1547819877644892 0.3091453549012102 0 -0.14407255521749979 0.34403263722221961 0 -0.13363790056006589 0.32585743918209531 0 -0.14748957934716561 0.33468306802428371 0 -0.13363790056006589 0.32585743918209531 0 -0.14748957934716561 0.33468306802428371 0 -0.15729966860100811 0.32827511069417059 0 -0.14748957934716561 0.33468306802428371 0 -0.1549481930100888 0.34056708499864929 0 -0.15729966860100811 0.32827511069417059 0 -0.14407255521749979 0.34403263722221961 0 -0.14748957934716561 0.33468306802428371 0 -0.1549481930100888 0.34056708499864929 0 -0.15729966860100811 0.32827511069417059 0 -0.18096143664194889 0.33069278220625808 0 -0.1549481930100888 0.34056708499864929 0 -0.15729966860100811 0.32827511069417059 0 -0.16781010436956259 0.34240718275037813 0 -0.15729966860100811 0.32827511069417059 0 -0.16781010436956259 0.34240718275037813 0 -0.18096143664194889 0.33069278220625808 0 -0.15729966860100811 0.32827511069417059 0 -0.17028988351433311 0.32233995817617028 0 -0.18096143664194889 0.33069278220625808 0 -0.15943794807189979 0.31595908059817063 0 -0.16495134068588049 0.31685297469802859 0 -0.1638395481514221 0.30983277085387728 0 -0.1532404752523272 0.32269894785805692 0 -0.15943794807189979 0.31595908059817063 0 -0.16037638850537991 0.32126535467967993 0 -0.15943794807189979 0.31595908059817063 0 -0.16037638850537991 0.32126535467967993 0 -0.16495134068588049 0.31685297469802859 0 -0.15729966860100811 0.32827511069417059 0 -0.16037638850537991 0.32126535467967993 0 -0.17028988351433311 0.32233995817617028 0 -0.1532404752523272 0.32269894785805692 0 -0.15729966860100811 0.32827511069417059 0 -0.16037638850537991 0.32126535467967993 0 -0.16495134068588049 0.31685297469802859 0 -0.17285953122972289 0.31090601179704258 0 -0.1638395481514221 0.30983277085387728 0 -0.17028988351433311 0.32233995817617028 0 -0.16495134068588049 0.31685297469802859 0 -0.17285953122972289 0.31090601179704258 0 -0.16037638850537991 0.32126535467967993 0 -0.17028988351433311 0.32233995817617028 0 -0.16495134068588049 0.31685297469802859 0 -0.18077272512400111 0.31876138179813301 0 -0.17285953122972289 0.31090601179704258 0 -0.17028988351433311 0.32233995817617028 0 -0.18077272512400111 0.31876138179813301 0 -0.17285953122972289 0.31090601179704258 0 -0.17028988351433311 0.32233995817617028 0 -0.18077272512400111 0.31876138179813301 0 -0.18096143664194889 0.33069278220625808 0 -0.18077272512400111 0.31876138179813301 0 -0.19386790912735871 0.33176087567547108 0 -0.18077272512400111 0.31876138179813301 0 -0.18096143664194889 0.33069278220625808 0 -0.18077272512400111 0.31876138179813301 0 -0.18096143664194889 0.33069278220625808 0 -0.19386790912735871 0.33176087567547108 0 -0.18096143664194889 0.33069278220625808 0 -0.1813609546404725 0.35595255046315749 0 -0.18096143664194889 0.33069278220625808 0 -0.1813609546404725 0.35595255046315749 0 -0.19258948339875709 0.33633707034479371 0 -0.16781010436956259 0.34240718275037813 0 -0.18096143664194889 0.33069278220625808 0 -0.1813609546404725 0.35595255046315749 0 -0.18096143664194889 0.33069278220625808 0 -0.19386790912735871 0.33176087567547108 0 -0.15504053286571459 0.3545366000593369 0 -0.16781010436956259 0.34240718275037813 0 -0.1813609546404725 0.35595255046315749 0 -0.15504053286571459 0.3545366000593369 0 -0.1549481930100888 0.34056708499864929 0 -0.16781010436956259 0.34240718275037813 0 -0.1532541744773912 0.375434017343177 0 -0.15504053286571459 0.3545366000593369 0 -0.16689278400863089 0.37048631692620287 0 -0.15504053286571459 0.3545366000593369 0 -0.1813609546404725 0.35595255046315749 0 -0.16689278400863089 0.37048631692620287 0 -0.18176047263899719 0.38121231872005679 0 -0.1813609546404725 0.35595255046315749 0 -0.18176047263899719 0.38121231872005679 0 -0.1813609546404725 0.35595255046315749 0 -0.1956253707180633 0.37355818799515828 0 -0.18176047263899719 0.38121231872005679 0 -0.1813609546404725 0.35595255046315749 0 -0.16689278400863089 0.37048631692620287 0 -0.1813609546404725 0.35595255046315749 0 -0.1956253707180633 0.37355818799515828 0 -0.2000380028121157 0.35856944723279938 0 -0.1956253707180633 0.37355818799515828 0 -0.2000380028121157 0.35856944723279938 0 -0.20825127389149589 0.37038948781896619 0 -0.1813609546404725 0.35595255046315749 0 -0.1951678646333711 0.34883535218340811 0 -0.19258948339875709 0.33633707034479371 0 -0.1813609546404725 0.35595255046315749 0 -0.1951678646333711 0.34883535218340811 0 -0.2000380028121157 0.35856944723279938 0 -0.1951678646333711 0.34883535218340811 0 -0.2000380028121157 0.35856944723279938 0 -0.20668301768213909 0.34448234069288158 0 -0.20668301768213909 0.34448234069288158 0 -0.2120127789660084 0.36084248239747968 0 -0.21921666942493959 0.3569244055809645 0 -0.2000380028121157 0.35856944723279938 0 -0.20668301768213909 0.34448234069288158 0 -0.2120127789660084 0.36084248239747968 0 -0.2120127789660084 0.36084248239747968 0 -0.21921666942493959 0.3569244055809645 0 -0.20668301768213909 0.34448234069288158 0 -0.21921666942493959 0.3569244055809645 0 -0.22158808080033929 0.34557455345049992 0 -0.20668301768213909 0.34448234069288158 0 -0.21921666942493959 0.3569244055809645 0 -0.2000380028121157 0.35856944723279938 0 -0.20825127389149589 0.37038948781896619 0 -0.2120127789660084 0.36084248239747968 0 -0.2120127789660084 0.36084248239747968 0 -0.2199937556016836 0.36693485901855288 0 -0.21921666942493959 0.3569244055809645 0 -0.20825127389149589 0.37038948781896619 0 -0.2120127789660084 0.36084248239747968 0 -0.2199937556016836 0.36693485901855288 0 -0.21752164111765379 0.37637519474985792 0 -0.20825127389149589 0.37038948781896619 0 -0.2199937556016836 0.36693485901855288 0 -0.21752164111765379 0.37637519474985792 0 -0.23054114355980421 0.3681661286558337 0 -0.2199937556016836 0.36693485901855288 0 -0.23054114355980421 0.3681661286558337 0 -0.21921666942493959 0.3569244055809645 0 -0.23305195790672301 0.35812934693154008 0 -0.23054114355980421 0.3681661286558337 0 -0.2199937556016836 0.36693485901855288 0 -0.21921666942493959 0.3569244055809645 0 -0.23054114355980421 0.3681661286558337 0 -0.21921666942493959 0.3569244055809645 0 -0.21921666942493959 0.3569244055809645 0 -0.22158808080033929 0.34557455345049992 0 -0.23915963598069589 0.34607775607121571 0 -0.21921666942493959 0.3569244055809645 0 -0.23915963598069589 0.34607775607121571 0 -0.21921666942493959 0.3569244055809645 0 -0.23305195790672301 0.35812934693154008 0 -0.23915963598069589 0.34607775607121571 0 -0.23305195790672301 0.35812934693154008 0 -0.23915963598069589 0.34607775607121571 0 -0.24329038266145239 0.36134909741814653 0 -0.25407523553642281 0.3497448278934856 0 -0.23915963598069589 0.34607775607121571 0 -0.24329038266145239 0.36134909741814653 0 -0.25213085833087667 0.37355178257669552 0 -0.24000210142933509 0.37809552861286783 0 -0.24329038266145239 0.36134909741814653 0 -0.24000210142933509 0.37809552861286783 0 -0.23054114355980421 0.3681661286558337 0 -0.24329038266145239 0.36134909741814653 0 -0.23054114355980421 0.3681661286558337 0 -0.23305195790672301 0.35812934693154008 0 -0.24329038266145239 0.36134909741814653 0 -0.23582541811145999 0.32679902143390172 0 -0.24885494741763489 0.31718848033418301 0 -0.23189508169276829 0.30076725351495531 0 -0.23582541811145999 0.32679902143390172 0 -0.24885494741763489 0.31718848033418301 0 -0.24633099797708269 0.32737693631841108 0 -0.25451497659773847 0.32559442806853028 0 -0.24885494741763489 0.31718848033418301 0 -0.24633099797708269 0.32737693631841108 0 -0.24843663428782739 0.33758714710907461 0 -0.22129300011358269 0.33481371145693772 0 -0.25451497659773847 0.32559442806853028 0 -0.24633099797708269 0.32737693631841108 0 -0.24843663428782739 0.33758714710907461 0 -0.25910260253645218 0.33523110656146687 0 -0.23915963598069589 0.34607775607121571 0 -0.23582541811145999 0.32679902143390172 0 -0.24633099797708269 0.32737693631841108 0 -0.24843663428782739 0.33758714710907461 0 -0.25910260253645218 0.33523110656146687 0 -0.23915963598069589 0.34607775607121571 0 -0.24843663428782739 0.33758714710907461 0 -0.23582541811145999 0.32679902143390172 0 -0.24843663428782739 0.33758714710907461 0 -0.22129300011358269 0.33481371145693772 0 -0.23915963598069589 0.34607775607121571 0 -0.24843663428782739 0.33758714710907461 0 -0.22129300011358269 0.33481371145693772 0 -0.22158808080033929 0.34557455345049992 0 -0.23915963598069589 0.34607775607121571 0 -0.22129300011358269 0.33481371145693772 0 -0.23582541811145999 0.32679902143390172 0 -0.21954464392232159 0.31820766509236142 0 -0.23189508169276829 0.30076725351495531 0 -0.23582541811145999 0.32679902143390172 0 -0.22129300011358269 0.33481371145693772 0 -0.21954464392232159 0.31820766509236142 0 -0.21954464392232159 0.31820766509236142 0 -0.20492818889453221 0.32276220977772679 0 -0.20060783596013981 0.3076349397264902 0 -0.22129300011358269 0.33481371145693772 0 -0.21954464392232159 0.31820766509236142 0 -0.20492818889453221 0.32276220977772679 0 -0.22129300011358269 0.33481371145693772 0 -0.20492818889453221 0.32276220977772679 0 -0.19386790912735871 0.33176087567547108 0 -0.22129300011358269 0.33481371145693772 0 -0.19386790912735871 0.33176087567547108 0 -0.20668301768213909 0.34448234069288158 0 -0.22129300011358269 0.33481371145693772 0 -0.19386790912735871 0.33176087567547108 0 -0.20668301768213909 0.34448234069288158 0 -0.22158808080033929 0.34557455345049992 0 -0.22129300011358269 0.33481371145693772 0 -0.20668301768213909 0.34448234069288158 0 -0.19386790912735871 0.33176087567547108 0 -0.19258948339875709 0.33633707034479371 0 -0.20668301768213909 0.34448234069288158 0 -0.19386790912735871 0.33176087567547108 0 -0.1951678646333711 0.34883535218340811 0 -0.20668301768213909 0.34448234069288158 0 -0.19258948339875709 0.33633707034479371 0 -0.18096143664194889 0.33069278220625808 0 -0.19386790912735871 0.33176087567547108 0 -0.19258948339875709 0.33633707034479371 0 -0.19386790912735871 0.33176087567547108 0 -0.19258948339875709 0.33633707034479371 0 -0.18077272512400111 0.31876138179813301 0 -0.19386790912735871 0.33176087567547108 0 -0.20060783596013981 0.3076349397264902 0 -0.20492818889453221 0.32276220977772679 0 -0.19386790912735871 0.33176087567547108 0 -0.20060783596013981 0.3076349397264902 0 -0.19386790912735871 0.33176087567547108 0 -0.20060783596013981 0.3076349397264902 0 -0.20060783596013981 0.3076349397264902 0 -0.20734776279292019 0.28350900377750898 0 -0.23189508169276829 0.30076725351495531 0 -0.21954464392232159 0.31820766509236142 0 -0.20060783596013981 0.3076349397264902 0 -0.23189508169276829 0.30076725351495531 0 -0.20060783596013981 0.3076349397264902 0 -0.20734776279292019 0.28350900377750898 0 -0.18034630435624241 0.29180066960649809 0 -0.20734776279292019 0.28350900377750898 0 -0.19375927737912041 0.2730469699042487 0 -0.18034630435624241 0.29180066960649809 0 -0.20060783596013981 0.3076349397264902 0 -0.20734776279292019 0.28350900377750898 0 -0.20734776279292019 0.28350900377750898 0 -0.23189508169276829 0.30076725351495531 0 -0.22396762922540969 0.27514125130055722 0 -0.23189508169276829 0.30076725351495531 0 -0.2378434694439332 0.28391349183279069 0 -0.22396762922540969 0.27514125130055722 0 -0.25673188405007052 0.28646841290673969 0 -0.23189508169276829 0.30076725351495531 0 -0.2378434694439332 0.28391349183279069 0 -0.25673188405007052 0.28646841290673969 0 -0.23189508169276829 0.30076725351495531 0 -0.25505401324638421 0.30366623925853881 0 -0.25673188405007052 0.28646841290673969 0 -0.23189508169276829 0.30076725351495531 0 -0.25505401324638421 0.30366623925853881 0 -0.24885494741763489 0.31718848033418301 0 -0.23189508169276829 0.30076725351495531 0 -0.25265925142613249 0.26128234508680298 0 -0.23885305679183191 0.2684477152547543 0 -0.23951274761537589 0.2474853768326048 0 -0.23885305679183191 0.2684477152547543 0 -0.22811192938500721 0.25829645972706228 0 -0.23951274761537589 0.2474853768326048 0 -0.25621817608628389 0.2460965770837312 0 -0.25265925142613249 0.26128234508680298 0 -0.23951274761537589 0.2474853768326048 0 -0.25673188405007052 0.28646841290673969 0 -0.2378434694439332 0.28391349183279069 0 -0.23885305679183191 0.2684477152547543 0 -0.25265925142613249 0.26128234508680298 0 -0.25673188405007052 0.28646841290673969 0 -0.23885305679183191 0.2684477152547543 0 -0.23885305679183191 0.2684477152547543 0 -0.22396762922540969 0.27514125130055722 0 -0.22811192938500721 0.25829645972706228 0 -0.2378434694439332 0.28391349183279069 0 -0.23885305679183191 0.2684477152547543 0 -0.22396762922540969 0.27514125130055722 0 -0.22811192938500721 0.25829645972706228 0 -0.22371849106378741 0.2462845034026982 0 -0.23951274761537589 0.2474853768326048 0 -0.22396762922540969 0.27514125130055722 0 -0.22811192938500721 0.25829645972706228 0 -0.21408768962570049 0.25938306782852782 0 -0.22811192938500721 0.25829645972706228 0 -0.21408768962570049 0.25938306782852782 0 -0.22371849106378741 0.2462845034026982 0 -0.21408768962570049 0.25938306782852782 0 -0.19928355658839081 0.25766712263582692 0 -0.2066863838603582 0.24242880758937649 0 -0.21408768962570049 0.25938306782852782 0 -0.20163280817849061 0.26608937016207479 0 -0.19928355658839081 0.25766712263582692 0 -0.20734776279292019 0.28350900377750898 0 -0.21408768962570049 0.25938306782852782 0 -0.20734776279292019 0.28350900377750898 0 -0.22396762922540969 0.27514125130055722 0 -0.21408768962570049 0.25938306782852782 0 -0.20734776279292019 0.28350900377750898 0 -0.21408768962570049 0.25938306782852782 0 -0.20163280817849061 0.26608937016207479 0 -0.20734776279292019 0.28350900377750898 0 -0.20163280817849061 0.26608937016207479 0 -0.19375927737912041 0.2730469699042487 0 -0.20163280817849061 0.26608937016207479 0 -0.19375927737912041 0.2730469699042487 0 -0.19160269433399771 0.26436194023610149 0 -0.19375927737912041 0.2730469699042487 0 -0.19160269433399771 0.26436194023610149 0 -0.17991988358848049 0.26483995741486333 0 -0.19928355658839081 0.25766712263582692 0 -0.18259587964237009 0.2606558300825601 0 -0.2066863838603582 0.24242880758937649 0 -0.18259587964237009 0.2606558300825601 0 -0.19333963139412971 0.24385714112684301 0 -0.19928355658839081 0.25766712263582692 0 -0.19160269433399771 0.26436194023610149 0 -0.18259587964237009 0.2606558300825601 0 -0.18259587964237009 0.2606558300825601 0 -0.2066863838603582 0.24242880758937649 0 -0.20163280817849061 0.26608937016207479 0 -0.19928355658839081 0.25766712263582692 0 -0.19160269433399771 0.26436194023610149 0 -0.17991988358848049 0.26483995741486333 0 -0.17951502337729761 0.2392424245160312 0 -0.17991988358848049 0.26483995741486333 0 -0.17042143569771079 0.26099360542817968 0 -0.17951502337729761 0.2392424245160312 0 -0.18259587964237009 0.2606558300825601 0 -0.17991988358848049 0.26483995741486333 0 -0.17951502337729761 0.2392424245160312 0 -0.19160269433399771 0.26436194023610149 0 -0.18259587964237009 0.2606558300825601 0 -0.17991988358848049 0.26483995741486333 0 -0.18259587964237009 0.2606558300825601 0 -0.17991988358848049 0.26483995741486333 0 -0.17991988358848049 0.26483995741486333 0 -0.17042143569771079 0.26099360542817968 0 -0.17716480609589361 0.26914773470870201 0 -0.17042143569771079 0.26099360542817968 0 -0.1627301728603629 0.26968240911070368 0 -0.1532221513837192 0.25419418888983192 0 -0.17042143569771079 0.26099360542817968 0 -0.1532221513837192 0.25419418888983192 0 -0.17951502337729761 0.2392424245160312 0 -0.1627301728603629 0.26968240911070368 0 -0.1620479085915319 0.28265904931380531 0 -0.15271877240598841 0.27446820953958367 0 -0.17042143569771079 0.26099360542817968 0 -0.1627301728603629 0.26968240911070368 0 -0.1699765768805111 0.26885491792894611 0 -0.1627301728603629 0.26968240911070368 0 -0.1699765768805111 0.26885491792894611 0 -0.16860704672851359 0.27535934789532951 0 -0.1627301728603629 0.26968240911070368 0 -0.16860704672851359 0.27535934789532951 0 -0.1620479085915319 0.28265904931380531 0 -0.16860704672851359 0.27535934789532951 0 -0.17077339862397739 0.28423195702734899 0 -0.1620479085915319 0.28265904931380531 0 -0.17991988358848049 0.26483995741486333 0 -0.18034630435624241 0.29180066960649809 0 -0.17991988358848049 0.26483995741486333 0 -0.17716480609589361 0.26914773470870201 0 -0.18034630435624241 0.29180066960649809 0 -0.16860704672851359 0.27535934789532951 0 -0.17716480609589361 0.26914773470870201 0 -0.17077339862397739 0.28423195702734899 0 -0.19375927737912041 0.2730469699042487 0 -0.17991988358848049 0.26483995741486333 0 -0.18034630435624241 0.29180066960649809 0 -0.17042143569771079 0.26099360542817968 0 -0.1699765768805111 0.26885491792894611 0 -0.17716480609589361 0.26914773470870201 0 -0.1699765768805111 0.26885491792894611 0 -0.16860704672851359 0.27535934789532951 0 -0.17716480609589361 0.26914773470870201 0 -0.17991988358848049 0.26483995741486333 0 -0.17716480609589361 0.26914773470870201 0 -0.17716480609589361 0.26914773470870201 0 -0.18034630435624241 0.29180066960649809 0 -0.17077339862397739 0.28423195702734899 0 -0.18034630435624241 0.29180066960649809 0 -0.16501618616712291 0.29775164083812761 0 -0.17077339862397739 0.28423195702734899 0 -0.18077272512400111 0.31876138179813301 0 -0.18034630435624241 0.29180066960649809 0 -0.18077272512400111 0.31876138179813301 0 -0.18034630435624241 0.29180066960649809 0 -0.17285953122972289 0.31090601179704258 0 -0.18034630435624241 0.29180066960649809 0 -0.17285953122972289 0.31090601179704258 0 -0.16501618616712291 0.29775164083812761 0 -0.18077272512400111 0.31876138179813301 0 -0.20060783596013981 0.3076349397264902 0 -0.18034630435624241 0.29180066960649809 0 -0.16501618616712291 0.29775164083812761 0 -0.15329008091572741 0.28945008379417048 0 -0.1547819877644892 0.3091453549012102 0 -0.17285953122972289 0.31090601179704258 0 -0.16501618616712291 0.29775164083812761 0 -0.1638395481514221 0.30983277085387728 0 -0.16501618616712291 0.29775164083812761 0 -0.1638395481514221 0.30983277085387728 0 -0.1547819877644892 0.3091453549012102 0 -0.15943794807189979 0.31595908059817063 0 -0.1638395481514221 0.30983277085387728 0 -0.1547819877644892 0.3091453549012102 0 -0.16501618616712291 0.29775164083812761 0 -0.17077339862397739 0.28423195702734899 0 -0.1620479085915319 0.28265904931380531 0 -0.16501618616712291 0.29775164083812761 0 -0.1620479085915319 0.28265904931380531 0 -0.15329008091572741 0.28945008379417048 0 -0.1464174014568787 0.29836992735667278 0 -0.13959432766143021 0.2740409068552887 0 -0.1620479085915319 0.28265904931380531 0 -0.15329008091572741 0.28945008379417048 0 -0.15271877240598841 0.27446820953958367 0 -0.15329008091572741 0.28945008379417048 0 -0.1464174014568787 0.29836992735667278 0 -0.13959432766143021 0.2740409068552887 0 -0.15329008091572741 0.28945008379417048 0 -0.1464174014568787 0.29836992735667278 0 -0.1547819877644892 0.3091453549012102 0 -0.1532404752523272 0.32269894785805692 0 -0.1464174014568787 0.29836992735667278 0 -0.1360408951285694 0.3130357752318072 0 -0.14290423209994971 0.32095809222069871 0 -0.1464174014568787 0.29836992735667278 0 -0.1532404752523272 0.32269894785805692 0 -0.1464174014568787 0.29836992735667278 0 -0.1547819877644892 0.3091453549012102 0 -0.1360408951285694 0.3130357752318072 0 -0.1264253840414637 0.29528772621663357 0 -0.12136448477009221 0.30951812845445109 0 -0.1360408951285694 0.3130357752318072 0 -0.1464174014568787 0.29836992735667278 0 -0.1264253840414637 0.29528772621663357 0 -0.1464174014568787 0.29836992735667278 0 -0.1264253840414637 0.29528772621663357 0 -0.13959432766143021 0.2740409068552887 0 -0.1264253840414637 0.29528772621663357 0 -0.13959432766143021 0.2740409068552887 0 -0.1185373796182298 0.27837978510360878 0 -0.13959432766143021 0.2740409068552887 0 -0.1327712538659816 0.24971188635390451 0 -0.13959432766143021 0.2740409068552887 0 -0.116744543106582 0.25728181003509248 0 -0.1327712538659816 0.24971188635390451 0 -0.13959432766143021 0.2740409068552887 0 -0.1532221513837192 0.25419418888983192 0 -0.1327712538659816 0.24971188635390451 0 -0.1627301728603629 0.26968240911070368 0 -0.1532221513837192 0.25419418888983192 0 -0.15271877240598841 0.27446820953958367 0 -0.13959432766143021 0.2740409068552887 0 -0.1532221513837192 0.25419418888983192 0 -0.15271877240598841 0.27446820953958367 0 -0.15329008091572741 0.28945008379417048 0 -0.13959432766143021 0.2740409068552887 0 -0.15271877240598841 0.27446820953958367 0 -0.1061606963602142 0.26761343855331338 0 -0.1001789302111205 0.27974269320078388 0 -0.1185373796182298 0.27837978510360878 0 -0.1061606963602142 0.26761343855331338 0 -0.1001789302111205 0.27974269320078388 0 -0.092613028744971265 0.26767711662392979 0 -0.1061606963602142 0.26761343855331338 0 -0.10005120432924321 0.25626016583208688 0 -0.116744543106582 0.25728181003509248 0 -0.1061606963602142 0.26761343855331338 0 -0.10005120432924321 0.25626016583208688 0 -0.092613028744971265 0.26767711662392979 0 -0.10005120432924321 0.25626016583208688 0 -0.116744543106582 0.25728181003509248 0 -0.1045487088169635 0.24438495162540061 0 -0.13959432766143021 0.2740409068552887 0 -0.116744543106582 0.25728181003509248 0 -0.1185373796182298 0.27837978510360878 0 -0.1061606963602142 0.26761343855331338 0 -0.116744543106582 0.25728181003509248 0 -0.1185373796182298 0.27837978510360878 0 -0.1264253840414637 0.29528772621663357 0 -0.1127724140037699 0.30190213115774378 0 -0.1091517300735869 0.29135078386346752 0 -0.1264253840414637 0.29528772621663357 0 -0.1185373796182298 0.27837978510360878 0 -0.1091517300735869 0.29135078386346752 0 -0.1264253840414637 0.29528772621663357 0 -0.12136448477009221 0.30951812845445109 0 -0.1127724140037699 0.30190213115774378 0 -0.12136448477009221 0.30951812845445109 0 -0.1127724140037699 0.30190213115774378 0 -0.1061991548417472 0.31213959050036899 0 -0.1127724140037699 0.30190213115774378 0 -0.1061991548417472 0.31213959050036899 0 -0.1005146973405663 0.30141191014932889 0 -0.1127724140037699 0.30190213115774378 0 -0.1005146973405663 0.30141191014932889 0 -0.1091517300735869 0.29135078386346752 0 -0.1005146973405663 0.30141191014932889 0 -0.094430836728355921 0.29177030977787999 0 -0.089068024122243669 0.30112896568664949 0 -0.1061991548417472 0.31213959050036899 0 -0.1005146973405663 0.30141191014932889 0 -0.090928135519314904 0.31087631578889069 0 -0.1001789302111205 0.27974269320078388 0 -0.1185373796182298 0.27837978510360878 0 -0.1091517300735869 0.29135078386346752 0 -0.1005146973405663 0.30141191014932889 0 -0.1091517300735869 0.29135078386346752 0 -0.094430836728355921 0.29177030977787999 0 -0.1001789302111205 0.27974269320078388 0 -0.1091517300735869 0.29135078386346752 0 -0.094430836728355921 0.29177030977787999 0 -0.1001789302111205 0.27974269320078388 0 -0.094430836728355921 0.29177030977787999 0 -0.086145563619835275 0.2816538088019015 0 -0.094430836728355921 0.29177030977787999 0 -0.086145563619835275 0.2816538088019015 0 -0.081526075002782958 0.29533369696514911 0 -0.094430836728355921 0.29177030977787999 0 -0.081526075002782958 0.29533369696514911 0 -0.089068024122243669 0.30112896568664949 0 -0.086145563619835275 0.2816538088019015 0 -0.081526075002782958 0.29533369696514911 0 -0.070830210313899522 0.29195808219782299 0 -0.090928135519314904 0.31087631578889069 0 -0.079482369404140468 0.30560554845979909 0 -0.074915307566508993 0.31649039264194578 0 -0.090928135519314904 0.31087631578889069 0 -0.089068024122243669 0.30112896568664949 0 -0.079482369404140468 0.30560554845979909 0 -0.1005146973405663 0.30141191014932889 0 -0.090928135519314904 0.31087631578889069 0 -0.089068024122243669 0.30112896568664949 0 -0.081526075002782958 0.29533369696514911 0 -0.089068024122243669 0.30112896568664949 0 -0.079482369404140468 0.30560554845979909 0 -0.054647974243728172 0.30430181459310768 0 -0.074915307566508993 0.31649039264194578 0 -0.079482369404140468 0.30560554845979909 0 -0.068661557073843291 0.3005821027458685 0 -0.074915307566508993 0.31649039264194578 0 -0.068661557073843291 0.3005821027458685 0 -0.054647974243728172 0.30430181459310768 0 -0.074915307566508993 0.31649039264194578 0 -0.081526075002782958 0.29533369696514911 0 -0.079482369404140468 0.30560554845979909 0 -0.068661557073843291 0.3005821027458685 0 -0.070830210313899522 0.29195808219782299 0 -0.067453711470644842 0.27023673344429472 0 -0.052574645638654917 0.28480468584225688 0 -0.081526075002782958 0.29533369696514911 0 -0.068661557073843291 0.3005821027458685 0 -0.070830210313899522 0.29195808219782299 0 -0.068661557073843291 0.3005821027458685 0 -0.070830210313899522 0.29195808219782299 0 -0.068661557073843291 0.3005821027458685 0 -0.070830210313899522 0.29195808219782299 0 -0.059610011597539182 0.29372125904316332 0 -0.086145563619835275 0.2816538088019015 0 -0.070830210313899522 0.29195808219782299 0 -0.077256670317037021 0.26667642926106078 0 -0.070830210313899522 0.29195808219782299 0 -0.067453711470644842 0.27023673344429472 0 -0.070830210313899522 0.29195808219782299 0 -0.077256670317037021 0.26667642926106078 0 -0.070830210313899522 0.29195808219782299 0 -0.067453711470644842 0.27023673344429472 0 -0.077256670317037021 0.26667642926106078 0 -0.086145563619835275 0.2816538088019015 0 -0.077256670317037021 0.26667642926106078 0 -0.092613028744971265 0.26767711662392979 0 -0.1001789302111205 0.27974269320078388 0 -0.086145563619835275 0.2816538088019015 0 -0.092613028744971265 0.26767711662392979 0 -0.077256670317037021 0.26667642926106078 0 -0.086302411784292182 0.25447467192259482 0 -0.083666647235009842 0.24139059785004849 0 -0.077256670317037021 0.26667642926106078 0 -0.083666647235009842 0.24139059785004849 0 -0.10005120432924321 0.25626016583208688 0 -0.086302411784292182 0.25447467192259482 0 -0.094679029848152713 0.24609146959404629 0 -0.10005120432924321 0.25626016583208688 0 -0.092613028744971265 0.26767711662392979 0 -0.086302411784292182 0.25447467192259482 0 -0.077256670317037021 0.26667642926106078 0 -0.092613028744971265 0.26767711662392979 0 -0.086302411784292182 0.25447467192259482 0 -0.077256670317037021 0.26667642926106078 0 -0.064077212627390134 0.24851538469076631 0 -0.083666647235009842 0.24139059785004849 0 -0.067453711470644842 0.27023673344429472 0 -0.077256670317037021 0.26667642926106078 0 -0.064077212627390134 0.24851538469076631 0 -0.067453711470644842 0.27023673344429472 0 -0.064077212627390134 0.24851538469076631 0 -0.067453711470644842 0.27023673344429472 0 -0.04634179854296408 0.26632715615711849 0 -0.064077212627390134 0.24851538469076631 0 -0.04634179854296408 0.26632715615711849 0 -0.064077212627390134 0.24851538469076631 0 -0.046578861792199937 0.24361118962503389 0 -0.067453711470644842 0.27023673344429472 0 -0.04634179854296408 0.26632715615711849 0 -0.052574645638654917 0.28480468584225688 0 -0.04634179854296408 0.26632715615711849 0 -0.034380640920947357 0.29211323654426968 0 -0.052574645638654917 0.28480468584225688 0 -0.04634179854296408 0.26632715615711849 0 -0.022607631921228569 0.27169805167723737 0 -0.034380640920947357 0.29211323654426968 0 -0.04634179854296408 0.26632715615711849 0 -0.03068766995985707 0.25286978792993342 0 -0.022607631921228569 0.27169805167723737 0 -0.04634179854296408 0.26632715615711849 0 -0.03068766995985707 0.25286978792993342 0 -0.046578861792199937 0.24361118962503389 0 -0.03068766995985707 0.25286978792993342 0 -0.022607631921228569 0.27169805167723737 0 -0.0098044441781452579 0.25473951632571468 0 -0.022607631921228569 0.27169805167723737 0 -0.015153941911089409 0.29208252597919021 0 3.3590645499582607e-05 0.27236849017123349 0 -0.022607631921228569 0.27169805167723737 0 -0.0098044441781452579 0.25473951632571468 0 3.3590645499582607e-05 0.27236849017123349 0 -0.0098044441781452579 0.25473951632571468 0 0.0073806355134042019 0.25529449578482938 0 3.3590645499582607e-05 0.27236849017123349 0 -0.0088759444352828343 0.31092800175718183 0 -0.015153941911089409 0.29208252597919021 0 0.0083336089875100904 0.29343585490586271 0 -0.015153941911089409 0.29208252597919021 0 0.0083336089875100904 0.29343585490586271 0 3.3590645499582607e-05 0.27236849017123349 0 -0.022607631921228569 0.27169805167723737 0 -0.015153941911089409 0.29208252597919021 0 -0.034380640920947357 0.29211323654426968 0 -0.0088759444352828343 0.31092800175718183 0 -0.015153941911089409 0.29208252597919021 0 -0.03508050583840458 0.3127012881250415 0 -0.015153941911089409 0.29208252597919021 0 -0.034380640920947357 0.29211323654426968 0 -0.03508050583840458 0.3127012881250415 0 -0.034380640920947357 0.29211323654426968 0 -0.054647974243728172 0.30430181459310768 0 -0.034380640920947357 0.29211323654426968 0 -0.054647974243728172 0.30430181459310768 0 -0.03508050583840458 0.3127012881250415 0 -0.034380640920947357 0.29211323654426968 0 -0.052574645638654917 0.28480468584225688 0 -0.054647974243728172 0.30430181459310768 0 -0.052574645638654917 0.28480468584225688 0 -0.059610011597539182 0.29372125904316332 0 -0.054647974243728172 0.30430181459310768 0 -0.070830210313899522 0.29195808219782299 0 -0.052574645638654917 0.28480468584225688 0 -0.059610011597539182 0.29372125904316332 0 -0.068661557073843291 0.3005821027458685 0 -0.059610011597539182 0.29372125904316332 0 -0.054647974243728172 0.30430181459310768 0 -0.058679851530075752 0.32054224196392622 0 -0.045885169747561752 0.33132665820789581 0 -0.073191842414501496 0.33174208285196288 0 -0.054647974243728172 0.30430181459310768 0 -0.058679851530075752 0.32054224196392622 0 -0.03508050583840458 0.3127012881250415 0 -0.045885169747561752 0.33132665820789581 0 -0.067541502003893042 0.3482616942848048 0 -0.073191842414501496 0.33174208285196288 0 -0.045885169747561752 0.33132665820789581 0 -0.073191842414501496 0.33174208285196288 0 -0.045885169747561752 0.33132665820789581 0 -0.018578497080621779 0.33091123356382868 0 -0.045885169747561752 0.33132665820789581 0 -0.03508050583840458 0.3127012881250415 0 -0.018578497080621779 0.33091123356382868 0 -0.058679851530075752 0.32054224196392622 0 -0.045885169747561752 0.33132665820789581 0 -0.03508050583840458 0.3127012881250415 0 -0.0088759444352828343 0.31092800175718183 0 -0.03508050583840458 0.3127012881250415 0 -0.018578497080621779 0.33091123356382868 0 -0.018578497080621779 0.33091123356382868 0 -0.0050552824635438226 0.34569829691311771 0 -0.02749858990914332 0.35301881799134821 0 -0.045885169747561752 0.33132665820789581 0 -0.018578497080621779 0.33091123356382868 0 -0.02749858990914332 0.35301881799134821 0 -0.018578497080621779 0.33091123356382868 0 -0.0050552824635438226 0.34569829691311771 0 0.0064742168078369342 0.3347740657525386 0 -0.018578497080621779 0.33091123356382868 0 0.0087281755863181168 0.33049580891976171 0 -0.018578497080621779 0.33091123356382868 0 0.0064742168078369342 0.3347740657525386 0 0.0087281755863181168 0.33049580891976171 0 -0.018578497080621779 0.33091123356382868 0 -0.003280447873963227 0.32161399115684158 0 0.0087281755863181168 0.33049580891976171 0 -0.0088759444352828343 0.31092800175718183 0 -0.018578497080621779 0.33091123356382868 0 -0.003280447873963227 0.32161399115684158 0 -0.0088759444352828343 0.31092800175718183 0 -0.003280447873963227 0.32161399115684158 0 0.0056044744337335906 0.31412092038659428 0 -0.0052616759920083916 0.36132776784546622 0 -0.0045342830833226501 0.3863935686212247 0 -0.0052616759920083916 0.36132776784546622 0 -0.024169526760701381 0.37267007813580277 0 -0.0045342830833226501 0.3863935686212247 0 -0.0052616759920083916 0.36132776784546622 0 -0.0045342830833226501 0.3863935686212247 0 0.0079023355216259559 0.37348921158265391 0 -0.0052616759920083916 0.36132776784546622 0 -0.0050552824635438226 0.34569829691311771 0 0.0061318462344260851 0.35417601161121459 0 -0.0052616759920083916 0.36132776784546622 0 -0.0050552824635438226 0.34569829691311771 0 -0.02749858990914332 0.35301881799134821 0 -0.02749858990914332 0.35301881799134821 0 -0.024169526760701381 0.37267007813580277 0 -0.04149310004589906 0.37124785083274592 0 -0.0052616759920083916 0.36132776784546622 0 -0.02749858990914332 0.35301881799134821 0 -0.024169526760701381 0.37267007813580277 0 -0.02749858990914332 0.35301881799134821 0 -0.04149310004589906 0.37124785083274592 0 -0.051818441616049399 0.35735321764765782 0 -0.045885169747561752 0.33132665820789581 0 -0.02749858990914332 0.35301881799134821 0 -0.051818441616049399 0.35735321764765782 0 -0.045885169747561752 0.33132665820789581 0 -0.051818441616049399 0.35735321764765782 0 -0.067541502003893042 0.3482616942848048 0 -0.04149310004589906 0.37124785083274592 0 -0.051818441616049399 0.35735321764765782 0 -0.056875823715872062 0.37631267096962301 0 -0.051818441616049399 0.35735321764765782 0 -0.069616273344600341 0.3650636543096733 0 -0.056875823715872062 0.37631267096962301 0 -0.069616273344600341 0.3650636543096733 0 -0.085055645225370236 0.37193713089684588 0 -0.071788917171084016 0.3809272333041443 0 -0.069616273344600341 0.3650636543096733 0 -0.071788917171084016 0.3809272333041443 0 -0.056875823715872062 0.37631267096962301 0 -0.069616273344600341 0.3650636543096733 0 -0.085055645225370236 0.37193713089684588 0 -0.084100884505446297 0.3554636863979832 0 -0.085055645225370236 0.37193713089684588 0 -0.084100884505446297 0.3554636863979832 0 -0.1008292236537022 0.36036332390371462 0 -0.084100884505446297 0.3554636863979832 0 -0.067541502003893042 0.3482616942848048 0 -0.085709514220790303 0.34113927750747819 0 -0.084100884505446297 0.3554636863979832 0 -0.085709514220790303 0.34113927750747819 0 -0.099722393067727538 0.34687368244968458 0 -0.069616273344600341 0.3650636543096733 0 -0.084100884505446297 0.3554636863979832 0 -0.067541502003893042 0.3482616942848048 0 -0.051818441616049399 0.35735321764765782 0 -0.069616273344600341 0.3650636543096733 0 -0.067541502003893042 0.3482616942848048 0 -0.067541502003893042 0.3482616942848048 0 -0.073191842414501496 0.33174208285196288 0 -0.085709514220790303 0.34113927750747819 0 -0.058679851530075752 0.32054224196392622 0 -0.073191842414501496 0.33174208285196288 0 -0.074915307566508993 0.31649039264194578 0 -0.054647974243728172 0.30430181459310768 0 -0.058679851530075752 0.32054224196392622 0 -0.074915307566508993 0.31649039264194578 0 -0.073191842414501496 0.33174208285196288 0 -0.074915307566508993 0.31649039264194578 0 -0.095182640889289766 0.32867897069078372 0 -0.090928135519314904 0.31087631578889069 0 -0.074915307566508993 0.31649039264194578 0 -0.095182640889289766 0.32867897069078372 0 -0.074915307566508993 0.31649039264194578 0 -0.095182640889289766 0.32867897069078372 0 -0.073191842414501496 0.33174208285196288 0 -0.085709514220790303 0.34113927750747819 0 -0.095182640889289766 0.32867897069078372 0 -0.085709514220790303 0.34113927750747819 0 -0.095182640889289766 0.32867897069078372 0 -0.099722393067727538 0.34687368244968458 0 -0.095182640889289766 0.32867897069078372 0 -0.1154499742120704 0.34086754873962172 0 -0.095182640889289766 0.32867897069078372 0 -0.1098512680755149 0.32470257897991811 0 -0.1154499742120704 0.34086754873962172 0 -0.095182640889289766 0.32867897069078372 0 -0.1154499742120704 0.34086754873962172 0 -0.099722393067727538 0.34687368244968458 0 -0.1061991548417472 0.31213959050036899 0 -0.090928135519314904 0.31087631578889069 0 -0.095182640889289766 0.32867897069078372 0 -0.1061991548417472 0.31213959050036899 0 -0.095182640889289766 0.32867897069078372 0 -0.1098512680755149 0.32470257897991811 0 -0.1061991548417472 0.31213959050036899 0 -0.115330384384618 0.31728312261503783 0 -0.1098512680755149 0.32470257897991811 0 -0.12136448477009221 0.30951812845445109 0 -0.1061991548417472 0.31213959050036899 0 -0.115330384384618 0.31728312261503783 0 -0.115330384384618 0.31728312261503783 0 -0.1098512680755149 0.32470257897991811 0 -0.12142985306419619 0.32461006626398298 0 -0.12722248981549561 0.3181430308760943 0 -0.115330384384618 0.31728312261503783 0 -0.12142985306419619 0.32461006626398298 0 -0.12722248981549561 0.3181430308760943 0 -0.12136448477009221 0.30951812845445109 0 -0.115330384384618 0.31728312261503783 0 -0.1098512680755149 0.32470257897991811 0 -0.12142985306419619 0.32461006626398298 0 -0.1154499742120704 0.34086754873962172 0 -0.13363790056006589 0.32585743918209531 0 -0.12142985306419619 0.32461006626398298 0 -0.1154499742120704 0.34086754873962172 0 -0.12523428666698541 0.37069662222368049 0 -0.1294360936135257 0.3482770307028879 0 -0.1154159689866658 0.35521970897278921 0 -0.1154499742120704 0.34086754873962172 0 -0.1154159689866658 0.35521970897278921 0 -0.099722393067727538 0.34687368244968458 0 -0.1294360936135257 0.3482770307028879 0 -0.1154499742120704 0.34086754873962172 0 -0.1154159689866658 0.35521970897278921 0 -0.12523428666698541 0.37069662222368049 0 -0.1154159689866658 0.35521970897278921 0 -0.11117961403065831 0.36839673047223442 0 -0.12523428666698541 0.37069662222368049 0 -0.11117961403065831 0.36839673047223442 0 -0.1123930043347208 0.38073562172137532 0 -0.11117961403065831 0.36839673047223442 0 -0.1008292236537022 0.36036332390371462 0 -0.09970079949094271 0.37763208900548878 0 -0.1154159689866658 0.35521970897278921 0 -0.11117961403065831 0.36839673047223442 0 -0.1008292236537022 0.36036332390371462 0 -0.085055645225370236 0.37193713089684588 0 -0.1008292236537022 0.36036332390371462 0 -0.09970079949094271 0.37763208900548878 0 -0.084100884505446297 0.3554636863979832 0 -0.1008292236537022 0.36036332390371462 0 -0.099722393067727538 0.34687368244968458 0 -0.1154159689866658 0.35521970897278921 0 -0.1008292236537022 0.36036332390371462 0 -0.099722393067727538 0.34687368244968458 0 -0.1036554482544351 0.39516830989393792 0 -0.1102807352191843 0.41378788895710661 0 -0.09259379641793411 0.40948313349934218 0 -0.1036554482544351 0.39516830989393792 0 -0.09970079949094271 0.37763208900548878 0 -0.1123930043347208 0.38073562172137532 0 -0.1036554482544351 0.39516830989393792 0 -0.09970079949094271 0.37763208900548878 0 -0.084297773186445962 0.39217279846007119 0 -0.11117961403065831 0.36839673047223442 0 -0.09970079949094271 0.37763208900548878 0 -0.1123930043347208 0.38073562172137532 0 -0.12523428666698541 0.37069662222368049 0 -0.1123930043347208 0.38073562172137532 0 -0.12103247972044499 0.39311621374447298 0 -0.1036554482544351 0.39516830989393792 0 -0.1123930043347208 0.38073562172137532 0 -0.12103247972044499 0.39311621374447298 0 -0.12523428666698541 0.37069662222368049 0 -0.12103247972044499 0.39311621374447298 0 -0.1036554482544351 0.39516830989393792 0 -0.12103247972044499 0.39311621374447298 0 -0.1102807352191843 0.41378788895710661 0 -0.12997925716256209 0.39431640422262348 0 -0.1102807352191843 0.41378788895710661 0 -0.12997925716256209 0.39431640422262348 0 -0.12103247972044499 0.39311621374447298 0 -0.1102807352191843 0.41378788895710661 0 -0.12623023605756489 0.41143854881348008 0 -0.1102807352191843 0.41378788895710661 0 -0.1242188050129694 0.42501783294758849 0 -0.12623023605756489 0.41143854881348008 0 -0.12997925716256209 0.39431640422262348 0 -0.1102807352191843 0.41378788895710661 0 -0.1102807352191843 0.41378788895710661 0 -0.1104760497445479 0.43296770510105842 0 -0.1242188050129694 0.42501783294758849 0 -0.1104760497445479 0.43296770510105842 0 -0.1242188050129694 0.42501783294758849 0 -0.1248743097581413 0.44162978393037222 0 -0.1102807352191843 0.41378788895710661 0 -0.090582213275806372 0.43325937369158968 0 -0.1102807352191843 0.41378788895710661 0 -0.1104760497445479 0.43296770510105842 0 -0.090582213275806372 0.43325937369158968 0 -0.1102807352191843 0.41378788895710661 0 -0.09259379641793411 0.40948313349934218 0 -0.090582213275806372 0.43325937369158968 0 -0.09259379641793411 0.40948313349934218 0 -0.090582213275806372 0.43325937369158968 0 -0.074152812153798875 0.41302729649400538 0 -0.090582213275806372 0.43325937369158968 0 -0.066022972602334681 0.42956105407568013 0 -0.074152812153798875 0.41302729649400538 0 -0.066022972602334681 0.42956105407568013 0 -0.074152812153798875 0.41302729649400538 0 -0.049329429094603867 0.41198700835812702 0 -0.074152812153798875 0.41302729649400538 0 -0.063154715464804681 0.39516467689365731 0 -0.084297773186445962 0.39217279846007119 0 -0.09259379641793411 0.40948313349934218 0 -0.074152812153798875 0.41302729649400538 0 -0.084297773186445962 0.39217279846007119 0 -0.1036554482544351 0.39516830989393792 0 -0.09259379641793411 0.40948313349934218 0 -0.084297773186445962 0.39217279846007119 0 -0.085055645225370236 0.37193713089684588 0 -0.09970079949094271 0.37763208900548878 0 -0.084297773186445962 0.39217279846007119 0 -0.085055645225370236 0.37193713089684588 0 -0.084297773186445962 0.39217279846007119 0 -0.071788917171084016 0.3809272333041443 0 -0.063154715464804681 0.39516467689365731 0 -0.084297773186445962 0.39217279846007119 0 -0.071788917171084016 0.3809272333041443 0 -0.063154715464804681 0.39516467689365731 0 -0.071788917171084016 0.3809272333041443 0 -0.056875823715872062 0.37631267096962301 0 -0.04149310004589906 0.37124785083274592 0 -0.056875823715872062 0.37631267096962301 0 -0.04338349465279491 0.38811939282985902 0 -0.063154715464804681 0.39516467689365731 0 -0.056875823715872062 0.37631267096962301 0 -0.04338349465279491 0.38811939282985902 0 -0.063154715464804681 0.39516467689365731 0 -0.04338349465279491 0.38811939282985902 0 -0.049329429094603867 0.41198700835812702 0 -0.04338349465279491 0.38811939282985902 0 -0.024844401122877391 0.39948633252540261 0 -0.049329429094603867 0.41198700835812702 0 -0.024169526760701381 0.37267007813580277 0 -0.04149310004589906 0.37124785083274592 0 -0.04338349465279491 0.38811939282985902 0 -0.024169526760701381 0.37267007813580277 0 -0.04338349465279491 0.38811939282985902 0 -0.024844401122877391 0.39948633252540261 0 -0.024169526760701381 0.37267007813580277 0 -0.024844401122877391 0.39948633252540261 0 -0.0045342830833226501 0.3863935686212247 0 -0.024844401122877391 0.39948633252540261 0 -0.0045342830833226501 0.3863935686212247 0 -0.0038092142255275289 0.41137928311071797 0 -0.0045342830833226501 0.3863935686212247 0 -0.0038092142255275289 0.41137928311071797 0 -0.024169526760701381 0.37267007813580277 0 -0.0045342830833226501 0.3863935686212247 0 -0.0030841453677343121 0.43636499760021141 0 -0.0038092142255275289 0.41137928311071797 0 -0.026324668085478481 0.42779129271708288 0 -0.0030841453677343121 0.43636499760021141 0 -0.0038092142255275289 0.41137928311071797 0 -0.024844401122877391 0.39948633252540261 0 -0.0038092142255275289 0.41137928311071797 0 -0.026324668085478481 0.42779129271708288 0 -0.026324668085478481 0.42779129271708288 0 -0.049329429094603867 0.41198700835812702 0 -0.049413859365407042 0.43472239834070731 0 -0.024844401122877391 0.39948633252540261 0 -0.026324668085478481 0.42779129271708288 0 -0.049329429094603867 0.41198700835812702 0 -0.074152812153798875 0.41302729649400538 0 -0.063154715464804681 0.39516467689365731 0 -0.049329429094603867 0.41198700835812702 0 -0.066022972602334681 0.42956105407568013 0 -0.049329429094603867 0.41198700835812702 0 -0.049413859365407042 0.43472239834070731 0 -0.066022972602334681 0.42956105407568013 0 -0.049413859365407042 0.43472239834070731 0 -0.0708836913324285 0.45273085842607269 0 -0.0393713920190637 0.45112048084748302 0 -0.052402143273794041 0.47435943831340011 0 -0.0708836913324285 0.45273085842607269 0 -0.049413859365407042 0.43472239834070731 0 -0.0393713920190637 0.45112048084748302 0 -0.0708836913324285 0.45273085842607269 0 -0.0393713920190637 0.45112048084748302 0 -0.02876560419008364 0.47203163756026523 0 -0.052402143273794041 0.47435943831340011 0 -0.026324668085478481 0.42779129271708288 0 -0.049413859365407042 0.43472239834070731 0 -0.0393713920190637 0.45112048084748302 0 -0.0030841453677343121 0.43636499760021141 0 -0.026324668085478481 0.42779129271708288 0 -0.01888650882967766 0.45329231687868837 0 -0.026324668085478481 0.42779129271708288 0 -0.0393713920190637 0.45112048084748302 0 -0.01888650882967766 0.45329231687868837 0 -0.0393713920190637 0.45112048084748302 0 -0.01888650882967766 0.45329231687868837 0 -0.02876560419008364 0.47203163756026523 0 -0.01888650882967766 0.45329231687868837 0 -0.01341416680576474 0.47109478045738301 0 -0.02876560419008364 0.47203163756026523 0 -0.01888650882967766 0.45329231687868837 0 -0.002359076509941094 0.46135071208970457 0 -0.01341416680576474 0.47109478045738301 0 -0.0030841453677343121 0.43636499760021141 0 -0.01888650882967766 0.45329231687868837 0 -0.002359076509941094 0.46135071208970457 0 -0.0030841453677343121 0.43636499760021141 0 -0.002359076509941094 0.46135071208970457 0 -0.0090346539348886701 0.5 0 -0.0016340076521478781 0.48633642657919801 0 -0.017460482120078509 0.48648722646036041 0 -0.0016340076521478781 0.48633642657919801 0 -0.01341416680576474 0.47109478045738301 0 -0.017460482120078509 0.48648722646036041 0 -0.002359076509941094 0.46135071208970457 0 -0.0016340076521478781 0.48633642657919801 0 -0.01341416680576474 0.47109478045738301 0 -0.002359076509941094 0.46135071208970457 0 -0.0016340076521478781 0.48633642657919801 0 -0.002359076509941094 0.46135071208970457 0 -0.0016340076521478781 0.48633642657919801 0 0.0036787250480955699 0.47408322248379448 0 -0.01341416680576474 0.47109478045738301 0 -0.02876560419008364 0.47203163756026523 0 -0.017460482120078509 0.48648722646036041 0 -0.02876560419008364 0.47203163756026523 0 -0.017460482120078509 0.48648722646036041 0 -0.038135422162237087 0.5 0 -0.0090346539348886701 0.5 0 -0.017460482120078509 0.48648722646036041 0 -0.038135422162237087 0.5 0 -0.02876560419008364 0.47203163756026523 0 -0.038135422162237087 0.5 0 -0.052402143273794041 0.47435943831340011 0 -0.038135422162237087 0.5 0 -0.052402143273794041 0.47435943831340011 0 -0.067236190389585393 0.5 0 -0.052402143273794041 0.47435943831340011 0 -0.067236190389585393 0.5 0 -0.073349005429332273 0.47921852398434828 0 -0.067236190389585393 0.5 0 -0.073349005429332273 0.47921852398434828 0 -0.096336958616933588 0.5 0 -0.073349005429332273 0.47921852398434828 0 -0.096336958616933588 0.5 0 -0.093805091172543903 0.47224368257650851 0 -0.052402143273794041 0.47435943831340011 0 -0.073349005429332273 0.47921852398434828 0 -0.0708836913324285 0.45273085842607269 0 -0.0708836913324285 0.45273085842607269 0 -0.1043361340672995 0.45358667135048331 0 -0.093805091172543903 0.47224368257650851 0 -0.090582213275806372 0.43325937369158968 0 -0.0708836913324285 0.45273085842607269 0 -0.1043361340672995 0.45358667135048331 0 -0.090582213275806372 0.43325937369158968 0 -0.066022972602334681 0.42956105407568013 0 -0.0708836913324285 0.45273085842607269 0 -0.090582213275806372 0.43325937369158968 0 -0.0708836913324285 0.45273085842607269 0 -0.073349005429332273 0.47921852398434828 0 -0.0708836913324285 0.45273085842607269 0 -0.093805091172543903 0.47224368257650851 0 -0.1043361340672995 0.45358667135048331 0 -0.12052644250191399 0.4682622397032008 0 -0.093805091172543903 0.47224368257650851 0 -0.1104760497445479 0.43296770510105842 0 -0.090582213275806372 0.43325937369158968 0 -0.1043361340672995 0.45358667135048331 0 -0.12618187852634369 0.45882241462805679 0 -0.1043361340672995 0.45358667135048331 0 -0.1248743097581413 0.44162978393037222 0 -0.1104760497445479 0.43296770510105842 0 -0.1043361340672995 0.45358667135048331 0 -0.1248743097581413 0.44162978393037222 0 -0.12618187852634369 0.45882241462805679 0 -0.1043361340672995 0.45358667135048331 0 -0.12052644250191399 0.4682622397032008 0 -0.1317912103042716 0.47600940211286807 0 -0.12052644250191399 0.4682622397032008 0 -0.11642361318749669 0.48420448820259387 0 -0.12052644250191399 0.4682622397032008 0 -0.11642361318749669 0.48420448820259387 0 -0.093805091172543903 0.47224368257650851 0 -0.12543772684428189 0.5 0 -0.11642361318749669 0.48420448820259387 0 -0.096336958616933588 0.5 0 -0.12543772684428189 0.5 0 -0.13178312884530541 0.48627570230508688 0 -0.11642361318749669 0.48420448820259387 0 -0.11642361318749669 0.48420448820259387 0 -0.096336958616933588 0.5 0 -0.093805091172543903 0.47224368257650851 0 -0.1693268494853358 0.079538523923443544 0 -0.16945340910355561 0.089496265134995978 0 -0.1618062267740645 0.07958177760614682 0 -0.16945340910355561 0.089496265134995978 0 -0.1618062267740645 0.07958177760614682 0 -0.1616157516695074 0.095139316102685473 0 -0.1618062267740645 0.07958177760614682 0 -0.1616157516695074 0.095139316102685473 0 -0.14767322655010931 0.084806545451415583 0 -0.1618062267740645 0.07958177760614682 0 -0.16640070467345031 0.07104807823334372 0 -0.15517576509654349 0.068304766057398533 0 -0.16640070467345031 0.07104807823334372 0 -0.15517576509654349 0.068304766057398533 0 -0.16451238623864939 0.061110077383343737 0 -0.16640070467345031 0.07104807823334372 0 -0.17354141001077031 0.063798093567348918 0 -0.16451238623864939 0.061110077383343737 0 -0.17157411485926041 0.074087910936242465 0 -0.16640070467345031 0.07104807823334372 0 -0.17354141001077031 0.063798093567348918 0 -0.1693268494853358 0.079538523923443544 0 -0.17157411485926041 0.074087910936242465 0 -0.16640070467345031 0.07104807823334372 0 -0.1693268494853358 0.079538523923443544 0 -0.1618062267740645 0.07958177760614682 0 -0.16640070467345031 0.07104807823334372 0 -0.17354141001077031 0.063798093567348918 0 -0.17702749526748529 0.081966948020833708 0 -0.17656426821359539 0.052679136019797047 0 -0.18185637422210199 0.067243003367259677 0 -0.17702749526748529 0.081966948020833708 0 -0.17656426821359539 0.052679136019797047 0 -0.17702749526748529 0.081966948020833708 0 -0.17656426821359539 0.052679136019797047 0 -0.17157411485926041 0.074087910936242465 0 -0.17354141001077031 0.063798093567348918 0 -0.17702749526748529 0.081966948020833708 0 -0.18185637422210199 0.067243003367259677 0 -0.1853153676200878 0.058850167416455039 0 -0.18892740292417859 0.064703221589215376 0 -0.18185637422210199 0.067243003367259677 0 -0.19050021368002351 0.072419239531055349 0 -0.18892740292417859 0.064703221589215376 0 -0.18185637422210199 0.067243003367259677 0 -0.18141962227324601 0.075216957450553817 0 -0.17702749526748529 0.081966948020833708 0 -0.18185637422210199 0.067243003367259677 0 -0.18141962227324601 0.075216957450553817 0 -0.19050021368002351 0.072419239531055349 0 -0.18141962227324601 0.075216957450553817 0 -0.1867192510276118 0.077748512173410014 0 -0.19050021368002351 0.072419239531055349 0 -0.18141962227324601 0.075216957450553817 0 -0.1867192510276118 0.077748512173410014 0 -0.1819129998543452 0.079414551687582866 0 -0.18248563084903771 0.082725789105533951 0 -0.17702749526748529 0.081966948020833708 0 -0.17749072232138041 0.1112547600218704 0 -0.1867192510276118 0.077748512173410014 0 -0.18248563084903771 0.082725789105533951 0 -0.1819129998543452 0.079414551687582866 0 -0.18141962227324601 0.075216957450553817 0 -0.1819129998543452 0.079414551687582866 0 -0.17702749526748529 0.081966948020833708 0 -0.18248563084903771 0.082725789105533951 0 -0.1819129998543452 0.079414551687582866 0 -0.17702749526748529 0.081966948020833708 0 -0.1693268494853358 0.079538523923443544 0 -0.16945340910355561 0.089496265134995978 0 -0.17702749526748529 0.081966948020833708 0 -0.1693268494853358 0.079538523923443544 0 -0.17157411485926041 0.074087910936242465 0 -0.17702749526748529 0.081966948020833708 0 -0.17702749526748529 0.081966948020833708 0 -0.17749072232138041 0.1112547600218704 0 -0.16945340910355561 0.089496265134995978 0 -0.17702749526748529 0.081966948020833708 0 -0.17749072232138041 0.1112547600218704 0 -0.17749072232138041 0.1112547600218704 0 -0.1951643137470572 0.093770439387570487 0 -0.18248563084903771 0.082725789105533951 0 -0.17749072232138041 0.1112547600218704 0 -0.1951643137470572 0.093770439387570487 0 -0.17749072232138041 0.1112547600218704 0 -0.19150979458678249 0.1243728737611647 0 -0.17789558253256721 0.1368522929207025 0 -0.17749072232138041 0.1112547600218704 0 -0.17789558253256721 0.1368522929207025 0 -0.17749072232138041 0.1112547600218704 0 -0.16113979031376621 0.12743058591966341 0 -0.17749072232138041 0.1112547600218704 0 -0.15084139672814201 0.110160429760413 0 -0.16113979031376621 0.12743058591966341 0 -0.17749072232138041 0.1112547600218704 0 -0.1616157516695074 0.095139316102685473 0 -0.15084139672814201 0.110160429760413 0 -0.16945340910355561 0.089496265134995978 0 -0.17749072232138041 0.1112547600218704 0 -0.1616157516695074 0.095139316102685473 0 -0.1616157516695074 0.095139316102685473 0 -0.15084139672814201 0.110160429760413 0 -0.14767322655010931 0.084806545451415583 0 -0.15084139672814201 0.110160429760413 0 -0.1348328660863515 0.097215266237156234 0 -0.14767322655010931 0.084806545451415583 0 -0.15084139672814201 0.110160429760413 0 -0.13137241316615089 0.11357835761918721 0 -0.14300315410871919 0.1253406317882016 0 -0.15084139672814201 0.110160429760413 0 -0.16113979031376621 0.12743058591966341 0 -0.14300315410871919 0.1253406317882016 0 -0.13137241316615089 0.11357835761918721 0 -0.14300315410871919 0.1253406317882016 0 -0.12687331202938101 0.13192737382428379 0 -0.13137241316615089 0.11357835761918721 0 -0.1348328660863515 0.097215266237156234 0 -0.1198812247159142 0.095002477965890675 0 -0.15084139672814201 0.110160429760413 0 -0.13137241316615089 0.11357835761918721 0 -0.1348328660863515 0.097215266237156234 0 -0.1348328660863515 0.097215266237156234 0 -0.12533951967512769 0.078274991835817334 0 -0.1198812247159142 0.095002477965890675 0 -0.1348328660863515 0.097215266237156234 0 -0.12533951967512769 0.078274991835817334 0 -0.14767322655010931 0.084806545451415583 0 -0.1618062267740645 0.07958177760614682 0 -0.14767322655010931 0.084806545451415583 0 -0.15517576509654349 0.068304766057398533 0 -0.14767322655010931 0.084806545451415583 0 -0.15517576509654349 0.068304766057398533 0 -0.14001017723872511 0.063978020277280875 0 -0.12533951967512769 0.078274991835817334 0 -0.14767322655010931 0.084806545451415583 0 -0.14001017723872511 0.063978020277280875 0 -0.12533951967512769 0.078274991835817334 0 -0.14001017723872511 0.063978020277280875 0 -0.1248745965026067 0.059896082918310993 0 -0.14001017723872511 0.063978020277280875 0 -0.13626681081840961 0.042829268155062397 0 -0.1248745965026067 0.059896082918310993 0 -0.13626681081840961 0.042829268155062397 0 -0.1339340902388827 0.022300844741854581 0 -0.1180188049733784 0.030804183747700629 0 -0.13626681081840961 0.042829268155062397 0 -0.1339340902388827 0.022300844741854581 0 -0.15968783393996419 0.037567277286728401 0 -0.13626681081840961 0.042829268155062397 0 -0.15351002702878311 0.053877414325468623 0 -0.15968783393996419 0.037567277286728401 0 -0.13626681081840961 0.042829268155062397 0 -0.15968783393996419 0.037567277286728401 0 -0.14001017723872511 0.063978020277280875 0 -0.13626681081840961 0.042829268155062397 0 -0.15351002702878311 0.053877414325468623 0 -0.15517576509654349 0.068304766057398533 0 -0.14001017723872511 0.063978020277280875 0 -0.15351002702878311 0.053877414325468623 0 -0.12735709500343681 0.004015926865657337 0 -0.15177498865293759 0.016606981474429749 0 -0.12735709500343681 0.004015926865657337 0 -0.1339340902388827 0.022300844741854581 0 -0.15177498865293759 0.016606981474429749 0 -0.12735709500343681 0.004015926865657337 0 -0.1339340902388827 0.022300844741854581 0 -0.11835839359799651 0.016938700943610479 0 -0.1339340902388827 0.022300844741854581 0 -0.15177498865293759 0.016606981474429749 0 -0.15968783393996419 0.037567277286728401 0 -0.1339340902388827 0.022300844741854581 0 -0.15968783393996419 0.037567277286728401 0 -0.12735709500343681 0.004015926865657337 0 -0.15177498865293759 0.016606981474429749 0 -0.14801408494475049 0.0031182785745780331 0 -0.15177498865293759 0.016606981474429749 0 -0.14801408494475049 0.0031182785745780331 0 -0.1619193683370386 0.0066468078375689294 0 -0.15773416148281841 -0.0035868741371463562 0 -0.14801408494475049 0.0031182785745780331 0 -0.1619193683370386 0.0066468078375689294 0 -0.15177498865293759 0.016606981474429749 0 -0.1619193683370386 0.0066468078375689294 0 -0.16760309597538539 0.015861310899326669 0 -0.16716832075785379 -0.0032078365625175 0 -0.1619193683370386 0.0066468078375689294 0 -0.17584419881677341 0.0071523107965592754 0 -0.1619193683370386 0.0066468078375689294 0 -0.16760309597538539 0.015861310899326669 0 -0.17584419881677341 0.0071523107965592754 0 -0.15177498865293759 0.016606981474429749 0 -0.17619288230243149 0.029198036083215671 0 -0.15177498865293759 0.016606981474429749 0 -0.17619288230243149 0.029198036083215671 0 -0.15968783393996419 0.037567277286728401 0 -0.15177498865293759 0.016606981474429749 0 -0.16760309597538539 0.015861310899326669 0 -0.17619288230243149 0.029198036083215671 0 -0.17619288230243149 0.029198036083215671 0 -0.1852069371874478 0.015311100034367831 0 -0.17584419881677341 0.0071523107965592754 0 -0.17619288230243149 0.029198036083215671 0 -0.17584419881677341 0.0071523107965592754 0 -0.16760309597538539 0.015861310899326669 0 -0.17619288230243149 0.029198036083215671 0 -0.17584419881677341 0.0071523107965592754 0 -0.17619288230243149 0.029198036083215671 0 -0.19572946351785711 0.039272048382664133 0 -0.19029700863621521 0.024089069561314659 0 -0.17619288230243149 0.029198036083215671 0 -0.1852069371874478 0.015311100034367831 0 -0.19029700863621521 0.024089069561314659 0 -0.1852069371874478 0.015311100034367831 0 -0.18717715497560061 0.0062623078557712403 0 -0.17584419881677341 0.0071523107965592754 0 -0.18154179604087481 -0.0036104187285780349 0 -0.18717715497560061 0.0062623078557712403 0 -0.17584419881677341 0.0071523107965592754 0 -0.15351002702878311 0.053877414325468623 0 -0.1659033968134131 0.050269055427132232 0 -0.15968783393996419 0.037567277286728401 0 -0.1659033968134131 0.050269055427132232 0 -0.16451238623864939 0.061110077383343737 0 -0.17656426821359539 0.052679136019797047 0 -0.17354141001077031 0.063798093567348918 0 -0.16451238623864939 0.061110077383343737 0 -0.17656426821359539 0.052679136019797047 0 -0.16451238623864939 0.061110077383343737 0 -0.17656426821359539 0.052679136019797047 0 -0.15351002702878311 0.053877414325468623 0 -0.1659033968134131 0.050269055427132232 0 -0.16451238623864939 0.061110077383343737 0 -0.15517576509654349 0.068304766057398533 0 -0.15351002702878311 0.053877414325468623 0 -0.16451238623864939 0.061110077383343737 0 -0.15968783393996419 0.037567277286728401 0 -0.1762663423330757 0.033842591165095401 0 -0.1659033968134131 0.050269055427132232 0 -0.15968783393996419 0.037567277286728401 0 -0.1764827173319595 0.047523031967639129 0 -0.17619288230243149 0.029198036083215671 0 -0.15968783393996419 0.037567277286728401 0 -0.1762663423330757 0.033842591165095401 0 -0.15968783393996419 0.037567277286728401 0 -0.1764827173319595 0.047523031967639129 0 -0.15968783393996419 0.037567277286728401 0 -0.1762663423330757 0.033842591165095401 0 -0.1764827173319595 0.047523031967639129 0 -0.17619288230243149 0.029198036083215671 0 -0.19572946351785711 0.039272048382664133 0 -0.181281627628781 0.040827380692469641 0 -0.18051660755046151 0.049914261515807259 0 -0.1764827173319595 0.047523031967639129 0 -0.17619288230243149 0.029198036083215671 0 -0.1762663423330757 0.033842591165095401 0 -0.19572946351785711 0.039272048382664133 0 -0.1762663423330757 0.033842591165095401 0 -0.181281627628781 0.040827380692469641 0 -0.19572946351785711 0.039272048382664133 0 -0.1762663423330757 0.033842591165095401 0 -0.181281627628781 0.040827380692469641 0 -0.1764827173319595 0.047523031967639129 0 -0.1762663423330757 0.033842591165095401 0 -0.1764827173319595 0.047523031967639129 0 -0.17619288230243149 0.029198036083215671 0 -0.1762663423330757 0.033842591165095401 0 -0.181281627628781 0.040827380692469641 0 -0.18051660755046151 0.049914261515807259 0 -0.19572946351785711 0.039272048382664133 0 -0.18051660755046151 0.049914261515807259 0 -0.17656426821359539 0.052679136019797047 0 -0.1853153676200878 0.058850167416455039 0 -0.18051660755046151 0.049914261515807259 0 -0.1764827173319595 0.047523031967639129 0 -0.1764827173319595 0.047523031967639129 0 -0.17656426821359539 0.052679136019797047 0 -0.1659033968134131 0.050269055427132232 0 -0.1764827173319595 0.047523031967639129 0 -0.17656426821359539 0.052679136019797047 0 -0.18051660755046151 0.049914261515807259 0 -0.1764827173319595 0.047523031967639129 0 -0.17656426821359539 0.052679136019797047 0 -0.18051660755046151 0.049914261515807259 0 -0.17656426821359539 0.052679136019797047 0 -0.18185637422210199 0.067243003367259677 0 -0.17656426821359539 0.052679136019797047 0 -0.1853153676200878 0.058850167416455039 0 -0.1853153676200878 0.058850167416455039 0 -0.19803765617450109 0.060300476042091433 0 -0.18892740292417859 0.064703221589215376 0 -0.18051660755046151 0.049914261515807259 0 -0.19803765617450109 0.060300476042091433 0 -0.1977866825790292 0.05007637869738242 0 -0.18051660755046151 0.049914261515807259 0 -0.1853153676200878 0.058850167416455039 0 -0.19803765617450109 0.060300476042091433 0 -0.18051660755046151 0.049914261515807259 0 -0.19803765617450109 0.060300476042091433 0 -0.19803765617450109 0.060300476042091433 0 -0.1977866825790292 0.05007637869738242 0 -0.2066297839190599 0.054855205218219752 0 -0.18051660755046151 0.049914261515807259 0 -0.1977866825790292 0.05007637869738242 0 -0.19572946351785711 0.039272048382664133 0 -0.18051660755046151 0.049914261515807259 0 -0.19572946351785711 0.039272048382664133 0 -0.19572946351785711 0.039272048382664133 0 -0.2098237389609823 0.029412342647955388 0 -0.1977866825790292 0.05007637869738242 0 -0.19572946351785711 0.039272048382664133 0 -0.2073344650466164 0.045256152092875389 0 -0.19572946351785711 0.039272048382664133 0 -0.2073344650466164 0.045256152092875389 0 -0.2073344650466164 0.045256152092875389 0 -0.21702036639386221 0.038769314305699548 0 -0.2098237389609823 0.029412342647955388 0 -0.19572946351785711 0.039272048382664133 0 -0.2073344650466164 0.045256152092875389 0 -0.2098237389609823 0.029412342647955388 0 -0.21702036639386221 0.038769314305699548 0 -0.2098237389609823 0.029412342647955388 0 -0.2284051488343061 0.035137669629428533 0 -0.2073344650466164 0.045256152092875389 0 -0.21702036639386221 0.038769314305699548 0 -0.22251811273354419 0.045271092852538893 0 -0.2073344650466164 0.045256152092875389 0 -0.21769334509658461 0.055951218203848879 0 -0.22251811273354419 0.045271092852538893 0 -0.21769334509658461 0.055951218203848879 0 -0.20947987249717179 0.060448397508133619 0 -0.2066297839190599 0.054855205218219752 0 -0.21769334509658461 0.055951218203848879 0 -0.20947987249717179 0.060448397508133619 0 -0.2155587047985415 0.070686690568374386 0 -0.19803765617450109 0.060300476042091433 0 -0.20947987249717179 0.060448397508133619 0 -0.2066297839190599 0.054855205218219752 0 -0.1977866825790292 0.05007637869738242 0 -0.2073344650466164 0.045256152092875389 0 -0.2066297839190599 0.054855205218219752 0 -0.2073344650466164 0.045256152092875389 0 -0.21769334509658461 0.055951218203848879 0 -0.2066297839190599 0.054855205218219752 0 -0.1989264366345522 -0.0080023544535597537 0 -0.1965234412062255 0.0098537758749781944 0 -0.20713549204565579 6.5395444916274768e-05 0 -0.19066530249761049 -0.0041303576494283751 0 -0.18717715497560061 0.0062623078557712403 0 -0.1965234412062255 0.0098537758749781944 0 -0.1852069371874478 0.015311100034367831 0 -0.18717715497560061 0.0062623078557712403 0 -0.1965234412062255 0.0098537758749781944 0 -0.1965234412062255 0.0098537758749781944 0 -0.20113962024173071 0.02227838771243261 0 -0.2107847094499361 0.011405203725301251 0 -0.19572946351785711 0.039272048382664133 0 -0.20113962024173071 0.02227838771243261 0 -0.2098237389609823 0.029412342647955388 0 -0.19572946351785711 0.039272048382664133 0 -0.20113962024173071 0.02227838771243261 0 -0.19029700863621521 0.024089069561314659 0 -0.1965234412062255 0.0098537758749781944 0 -0.20113962024173071 0.02227838771243261 0 -0.19029700863621521 0.024089069561314659 0 -0.1852069371874478 0.015311100034367831 0 -0.1965234412062255 0.0098537758749781944 0 -0.19029700863621521 0.024089069561314659 0 -0.2098237389609823 0.029412342647955388 0 -0.2107847094499361 0.011405203725301251 0 -0.22391801440410891 0.019552636913248388 0 -0.20113962024173071 0.02227838771243261 0 -0.2098237389609823 0.029412342647955388 0 -0.2107847094499361 0.011405203725301251 0 -0.2098237389609823 0.029412342647955388 0 -0.22391801440410891 0.019552636913248388 0 -0.21702438745170211 -0.0043907958627755336 0 -0.2107847094499361 0.011405203725301251 0 -0.20713549204565579 6.5395444916274768e-05 0 -0.21702438745170211 -0.0043907958627755336 0 -0.2107847094499361 0.011405203725301251 0 -0.22391801440410891 0.019552636913248388 0 -0.1965234412062255 0.0098537758749781944 0 -0.2107847094499361 0.011405203725301251 0 -0.20713549204565579 6.5395444916274768e-05 0 -0.22867745033346079 0.0038692188645070222 0 -0.22391801440410891 0.019552636913248388 0 -0.2344599051246074 0.012178015861532989 0 -0.21702438745170211 -0.0043907958627755336 0 -0.22391801440410891 0.019552636913248388 0 -0.21702438745170211 -0.0043907958627755336 0 -0.22867745033346079 0.0038692188645070222 0 -0.22391801440410891 0.019552636913248388 0 -0.22391801440410891 0.019552636913248388 0 -0.2403792472176362 0.02548084658656756 0 -0.2344599051246074 0.012178015861532989 0 -0.2098237389609823 0.029412342647955388 0 -0.22391801440410891 0.019552636913248388 0 -0.2284051488343061 0.035137669629428533 0 -0.22391801440410891 0.019552636913248388 0 -0.2403792472176362 0.02548084658656756 0 -0.2284051488343061 0.035137669629428533 0 -0.22391801440410891 0.019552636913248388 0 -0.2344599051246074 0.012178015861532989 0 -0.22391801440410891 0.019552636913248388 0 -0.2284051488343061 0.035137669629428533 0 -0.2522816967992324 0.037264740289820159 0 -0.25157722050270093 0.012682655753942951 0 -0.2403792472176362 0.02548084658656756 0 -0.25157722050270093 0.012682655753942951 0 -0.2403792472176362 0.02548084658656756 0 -0.2344599051246074 0.012178015861532989 0 -0.25267499080189931 -0.0034516002120552492 0 -0.25157722050270093 0.012682655753942951 0 -0.2401015516947359 0.00075261550232862703 0 -0.25157722050270093 0.012682655753942951 0 -0.2344599051246074 0.012178015861532989 0 -0.2401015516947359 0.00075261550232862703 0 -0.22867745033346079 0.0038692188645070222 0 -0.2344599051246074 0.012178015861532989 0 -0.2401015516947359 0.00075261550232862703 0 -0.21769334509658461 0.055951218203848879 0 -0.23255980098598539 0.056775429521547523 0 -0.2155587047985415 0.070686690568374386 0 -0.23289228326450309 0.050722702345608793 0 -0.22641588552015429 0.052180110730886013 0 -0.22251811273354419 0.045271092852538893 0 -0.23289228326450309 0.050722702345608793 0 -0.23255980098598539 0.056775429521547523 0 -0.22641588552015429 0.052180110730886013 0 -0.21769334509658461 0.055951218203848879 0 -0.23255980098598539 0.056775429521547523 0 -0.22641588552015429 0.052180110730886013 0 -0.21769334509658461 0.055951218203848879 0 -0.22641588552015429 0.052180110730886013 0 -0.22251811273354419 0.045271092852538893 0 -0.21702036639386221 0.038769314305699548 0 -0.22251811273354419 0.045271092852538893 0 -0.2284051488343061 0.035137669629428533 0 -0.23289228326450309 0.050722702345608793 0 -0.22251811273354419 0.045271092852538893 0 -0.2284051488343061 0.035137669629428533 0 -0.23289228326450309 0.050722702345608793 0 -0.2284051488343061 0.035137669629428533 0 -0.2522816967992324 0.037264740289820159 0 -0.2403792472176362 0.02548084658656756 0 -0.2284051488343061 0.035137669629428533 0 -0.2522816967992324 0.037264740289820159 0 -0.23289228326450309 0.050722702345608793 0 -0.2284051488343061 0.035137669629428533 0 -0.2522816967992324 0.037264740289820159 0 -0.23289228326450309 0.050722702345608793 0 -0.23255980098598539 0.056775429521547523 0 -0.2522816967992324 0.037264740289820159 0 -0.23255980098598539 0.056775429521547523 0 -0.2522816967992324 0.037264740289820159 0 -0.23255980098598539 0.056775429521547523 0 -0.24906194248509719 0.058488871325365822 0 -0.23255980098598539 0.056775429521547523 0 -0.24906194248509719 0.058488871325365822 0 -0.23770452364983391 0.071010308971772351 0 -0.26257114212692878 0.06573449919026883 0 -0.24906194248509719 0.058488871325365822 0 -0.23770452364983391 0.071010308971772351 0 -0.25261226255175379 0.080423606239198905 0 -0.23770452364983391 0.071010308971772351 0 -0.23158356521460469 0.085326977986282804 0 -0.25261226255175379 0.080423606239198905 0 -0.23158356521460469 0.085326977986282804 0 -0.24377998071086901 0.096378574065869249 0 -0.23158356521460469 0.085326977986282804 0 -0.21283790517273879 0.076286118753275345 0 -0.22135706029896429 0.097751395037259853 0 -0.23158356521460469 0.085326977986282804 0 -0.22135706029896429 0.097751395037259853 0 -0.24377998071086901 0.096378574065869249 0 -0.23255980098598539 0.056775429521547523 0 -0.21283790517273879 0.076286118753275345 0 -0.23770452364983391 0.071010308971772351 0 -0.23158356521460469 0.085326977986282804 0 -0.21283790517273879 0.076286118753275345 0 -0.23255980098598539 0.056775429521547523 0 -0.23770452364983391 0.071010308971772351 0 -0.21283790517273879 0.076286118753275345 0 -0.23255980098598539 0.056775429521547523 0 -0.21283790517273879 0.076286118753275345 0 -0.2155587047985415 0.070686690568374386 0 -0.23770452364983391 0.071010308971772351 0 -0.21283790517273879 0.076286118753275345 0 -0.19803765617450109 0.060300476042091433 0 -0.20947987249717179 0.060448397508133619 0 -0.2155587047985415 0.070686690568374386 0 -0.19803765617450109 0.060300476042091433 0 -0.20333782300263301 0.070680183335342567 0 -0.2155587047985415 0.070686690568374386 0 -0.19803765617450109 0.060300476042091433 0 -0.2155587047985415 0.070686690568374386 0 -0.21283790517273879 0.076286118753275345 0 -0.19766176801088831 0.079505953929404904 0 -0.20333782300263301 0.070680183335342567 0 -0.21283790517273879 0.076286118753275345 0 -0.19766176801088831 0.079505953929404904 0 -0.20333782300263301 0.070680183335342567 0 -0.21283790517273879 0.076286118753275345 0 -0.2155587047985415 0.070686690568374386 0 -0.21283790517273879 0.076286118753275345 0 -0.1951643137470572 0.093770439387570487 0 -0.22135706029896429 0.097751395037259853 0 -0.21283790517273879 0.076286118753275345 0 -0.1951643137470572 0.093770439387570487 0 -0.21283790517273879 0.076286118753275345 0 -0.19766176801088831 0.079505953929404904 0 -0.1951643137470572 0.093770439387570487 0 -0.18248563084903771 0.082725789105533951 0 -0.19766176801088831 0.079505953929404904 0 -0.1951643137470572 0.093770439387570487 0 -0.1867192510276118 0.077748512173410014 0 -0.18248563084903771 0.082725789105533951 0 -0.19766176801088831 0.079505953929404904 0 -0.18248563084903771 0.082725789105533951 0 -0.19766176801088831 0.079505953929404904 0 -0.1867192510276118 0.077748512173410014 0 -0.19766176801088831 0.079505953929404904 0 -0.19050021368002351 0.072419239531055349 0 -0.19803765617450109 0.060300476042091433 0 -0.19050021368002351 0.072419239531055349 0 -0.18892740292417859 0.064703221589215376 0 -0.19803765617450109 0.060300476042091433 0 -0.20333782300263301 0.070680183335342567 0 -0.19050021368002351 0.072419239531055349 0 -0.20333782300263301 0.070680183335342567 0 -0.19766176801088831 0.079505953929404904 0 -0.19050021368002351 0.072419239531055349 0 -0.17749072232138041 0.1112547600218704 0 -0.19150979458678249 0.1243728737611647 0 -0.1951643137470572 0.093770439387570487 0 -0.19150979458678249 0.1243728737611647 0 -0.1951643137470572 0.093770439387570487 0 -0.20994497012605751 0.11823125198409511 0 -0.1951643137470572 0.093770439387570487 0 -0.20994497012605751 0.11823125198409511 0 -0.22135706029896429 0.097751395037259853 0 -0.20994497012605751 0.11823125198409511 0 -0.2348316268224595 0.11651500804646669 0 -0.2235388627286797 0.12965651036182041 0 -0.20994497012605751 0.11823125198409511 0 -0.22135706029896429 0.097751395037259853 0 -0.2348316268224595 0.11651500804646669 0 -0.22135706029896429 0.097751395037259853 0 -0.24377998071086901 0.096378574065869249 0 -0.2348316268224595 0.11651500804646669 0 -0.25136603029008331 0.1103208693098497 0 -0.24377998071086901 0.096378574065869249 0 -0.2348316268224595 0.11651500804646669 0 -0.25922316449870308 0.12628093809151891 0 -0.25136603029008331 0.1103208693098497 0 -0.2348316268224595 0.11651500804646669 0 -0.25922316449870308 0.12628093809151891 0 -0.2348316268224595 0.11651500804646669 0 -0.2369615480924761 0.1404602413506009 0 -0.2369615480924761 0.1404602413506009 0 -0.2235388627286797 0.12965651036182041 0 -0.2124173058737257 0.14341954006611901 0 -0.2348316268224595 0.11651500804646669 0 -0.2369615480924761 0.1404602413506009 0 -0.2235388627286797 0.12965651036182041 0 -0.2369615480924761 0.1404602413506009 0 -0.22679867445049531 0.16064067306310431 0 -0.2124173058737257 0.14341954006611901 0 -0.2369615480924761 0.1404602413506009 0 -0.247018622616726 0.15992587597476091 0 -0.22679867445049531 0.16064067306310431 0 -0.25846103874104392 0.14702121199507179 0 -0.2369615480924761 0.1404602413506009 0 -0.247018622616726 0.15992587597476091 0 -0.247018622616726 0.15992587597476091 0 -0.23359887481107691 0.1809086922627815 0 -0.247018622616726 0.15992587597476091 0 -0.23359887481107691 0.1809086922627815 0 -0.22679867445049531 0.16064067306310431 0 -0.26439180367967152 0.18225540552070321 0 -0.247018622616726 0.15992587597476091 0 -0.23359887481107691 0.1809086922627815 0 -0.23359887481107691 0.1809086922627815 0 -0.20517995294037331 0.17379218369948349 0 -0.2201791270054278 0.2018915085508021 0 -0.23359887481107691 0.1809086922627815 0 -0.22679867445049531 0.16064067306310431 0 -0.20517995294037331 0.17379218369948349 0 -0.22679867445049531 0.16064067306310431 0 -0.20517995294037331 0.17379218369948349 0 -0.2124173058737257 0.14341954006611901 0 -0.20517995294037331 0.17379218369948349 0 -0.19274338499996449 0.14807478539393409 0 -0.17830044274374979 0.16244982581953471 0 -0.19150979458678249 0.1243728737611647 0 -0.19274338499996449 0.14807478539393409 0 -0.2124173058737257 0.14341954006611901 0 -0.20994497012605751 0.11823125198409511 0 -0.2235388627286797 0.12965651036182041 0 -0.2124173058737257 0.14341954006611901 0 -0.19150979458678249 0.1243728737611647 0 -0.20994497012605751 0.11823125198409511 0 -0.2124173058737257 0.14341954006611901 0 -0.20517995294037331 0.17379218369948349 0 -0.19274338499996449 0.14807478539393409 0 -0.2124173058737257 0.14341954006611901 0 -0.22371849106378741 0.2462845034026982 0 -0.23019370483249479 0.22382880503591951 0 -0.2066863838603582 0.24242880758937649 0 -0.22371849106378741 0.2462845034026982 0 -0.23951274761537589 0.2474853768326048 0 -0.23019370483249479 0.22382880503591951 0 -0.25272375818517617 0.22994970808158929 0 -0.25621817608628389 0.2460965770837312 0 -0.23951274761537589 0.2474853768326048 0 -0.25370102580463139 0.2052288024824625 0 -0.25272375818517617 0.22994970808158929 0 -0.23019370483249479 0.22382880503591951 0 -0.25272375818517617 0.22994970808158929 0 -0.23951274761537589 0.2474853768326048 0 -0.23019370483249479 0.22382880503591951 0 -0.25370102580463139 0.2052288024824625 0 -0.23359887481107691 0.1809086922627815 0 -0.2201791270054278 0.2018915085508021 0 -0.25370102580463139 0.2052288024824625 0 -0.23019370483249479 0.22382880503591951 0 -0.2201791270054278 0.2018915085508021 0 -0.23019370483249479 0.22382880503591951 0 -0.2201791270054278 0.2018915085508021 0 -0.20675937919977869 0.22287432483882261 0 -0.25370102580463139 0.2052288024824625 0 -0.23019370483249479 0.22382880503591951 0 -0.23359887481107691 0.1809086922627815 0 -0.2201791270054278 0.2018915085508021 0 -0.20517995294037331 0.17379218369948349 0 -0.2201791270054278 0.2018915085508021 0 -0.19686056424972551 0.20437535499954981 0 -0.20517995294037331 0.17379218369948349 0 -0.19686056424972551 0.20437535499954981 0 -0.17870530295493239 0.18804735871836689 0 -0.19686056424972551 0.20437535499954981 0 -0.20675937919977869 0.22287432483882261 0 -0.19122946023172571 0.22600186257262461 0 -0.19686056424972551 0.20437535499954981 0 -0.19122946023172571 0.22600186257262461 0 -0.179110163166115 0.21364489161719899 0 -0.2201791270054278 0.2018915085508021 0 -0.19686056424972551 0.20437535499954981 0 -0.20675937919977869 0.22287432483882261 0 -0.2201791270054278 0.2018915085508021 0 -0.20675937919977869 0.22287432483882261 0 -0.23019370483249479 0.22382880503591951 0 -0.2066863838603582 0.24242880758937649 0 -0.23019370483249479 0.22382880503591951 0 -0.20675937919977869 0.22287432483882261 0 -0.2066863838603582 0.24242880758937649 0 -0.20675937919977869 0.22287432483882261 0 -0.19333963139412971 0.24385714112684301 0 -0.20675937919977869 0.22287432483882261 0 -0.19122946023172571 0.22600186257262461 0 -0.19333963139412971 0.24385714112684301 0 -0.19122946023172571 0.22600186257262461 0 -0.19333963139412971 0.24385714112684301 0 -0.17951502337729761 0.2392424245160312 0 -0.20675937919977869 0.22287432483882261 0 -0.19333963139412971 0.24385714112684301 0 -0.2066863838603582 0.24242880758937649 0 -0.18259587964237009 0.2606558300825601 0 -0.19333963139412971 0.24385714112684301 0 -0.2066863838603582 0.24242880758937649 0 -0.21408768962570049 0.25938306782852782 0 -0.22371849106378741 0.2462845034026982 0 -0.2066863838603582 0.24242880758937649 0 -0.1532221513837192 0.25419418888983192 0 -0.17951502337729761 0.2392424245160312 0 -0.15110003921584569 0.22881829817408891 0 -0.18259587964237009 0.2606558300825601 0 -0.19333963139412971 0.24385714112684301 0 -0.17951502337729761 0.2392424245160312 0 -0.17951502337729761 0.2392424245160312 0 -0.1619547442009632 0.2162214427956837 0 -0.179110163166115 0.21364489161719899 0 -0.19122946023172571 0.22600186257262461 0 -0.17951502337729761 0.2392424245160312 0 -0.179110163166115 0.21364489161719899 0 -0.17951502337729761 0.2392424245160312 0 -0.179110163166115 0.21364489161719899 0 -0.17951502337729761 0.2392424245160312 0 -0.1619547442009632 0.2162214427956837 0 -0.15110003921584569 0.22881829817408891 0 -0.1619547442009632 0.2162214427956837 0 -0.179110163166115 0.21364489161719899 0 -0.17870530295493239 0.18804735871836689 0 -0.19686056424972551 0.20437535499954981 0 -0.179110163166115 0.21364489161719899 0 -0.17870530295493239 0.18804735871836689 0 -0.179110163166115 0.21364489161719899 0 -0.17870530295493239 0.18804735871836689 0 -0.1619547442009632 0.2162214427956837 0 -0.17870530295493239 0.18804735871836689 0 -0.15775407484820861 0.18727827749961631 0 -0.14804225966403101 0.20585853828705919 0 -0.15775407484820861 0.18727827749961631 0 -0.13876353146598761 0.18223131465273959 0 -0.1619547442009632 0.2162214427956837 0 -0.14804225966403101 0.20585853828705919 0 -0.15775407484820861 0.18727827749961631 0 -0.13876353146598761 0.18223131465273959 0 -0.1245765098090509 0.17966052017845999 0 -0.1190175871807343 0.20067046473278771 0 -0.14804225966403101 0.20585853828705919 0 -0.13876353146598761 0.18223131465273959 0 -0.1190175871807343 0.20067046473278771 0 -0.14804225966403101 0.20585853828705919 0 -0.13479108425045189 0.2189379304695287 0 -0.1190175871807343 0.20067046473278771 0 -0.13479108425045189 0.2189379304695287 0 -0.12594818007053379 0.2253828658525201 0 -0.1190175871807343 0.20067046473278771 0 -0.1619547442009632 0.2162214427956837 0 -0.14804225966403101 0.20585853828705919 0 -0.15110003921584569 0.22881829817408891 0 -0.14804225966403101 0.20585853828705919 0 -0.15110003921584569 0.22881829817408891 0 -0.13479108425045189 0.2189379304695287 0 -0.15110003921584569 0.22881829817408891 0 -0.13479108425045189 0.2189379304695287 0 -0.1378537507735782 0.22769286600650679 0 -0.15110003921584569 0.22881829817408891 0 -0.1378537507735782 0.22769286600650679 0 -0.13827307027013019 0.2362506378269415 0 -0.13479108425045189 0.2189379304695287 0 -0.12594818007053379 0.2253828658525201 0 -0.1378537507735782 0.22769286600650679 0 -0.12594818007053379 0.2253828658525201 0 -0.1378537507735782 0.22769286600650679 0 -0.13827307027013019 0.2362506378269415 0 -0.12594818007053379 0.2253828658525201 0 -0.13827307027013019 0.2362506378269415 0 -0.1327712538659816 0.24971188635390451 0 -0.12594818007053379 0.2253828658525201 0 -0.1327712538659816 0.24971188635390451 0 -0.1532221513837192 0.25419418888983192 0 -0.15110003921584569 0.22881829817408891 0 -0.13827307027013019 0.2362506378269415 0 -0.1532221513837192 0.25419418888983192 0 -0.13827307027013019 0.2362506378269415 0 -0.1327712538659816 0.24971188635390451 0 -0.16317411874061041 0.14897554401654969 0 -0.16113979031376621 0.12743058591966341 0 -0.1447888583061562 0.1436064118174607 0 -0.16317411874061041 0.14897554401654969 0 -0.16113979031376621 0.12743058591966341 0 -0.17789558253256721 0.1368522929207025 0 -0.17749072232138041 0.1112547600218704 0 -0.16113979031376621 0.12743058591966341 0 -0.17789558253256721 0.1368522929207025 0 -0.19150979458678249 0.1243728737611647 0 -0.19274338499996449 0.14807478539393409 0 -0.17789558253256721 0.1368522929207025 0 -0.16317411874061041 0.14897554401654969 0 -0.17789558253256721 0.1368522929207025 0 -0.17830044274374979 0.16244982581953471 0 -0.17789558253256721 0.1368522929207025 0 -0.17830044274374979 0.16244982581953471 0 -0.19274338499996449 0.14807478539393409 0 -0.17789558253256721 0.1368522929207025 0 -0.17830044274374979 0.16244982581953471 0 -0.20517995294037331 0.17379218369948349 0 -0.17870530295493239 0.18804735871836689 0 -0.17830044274374979 0.16244982581953471 0 -0.17870530295493239 0.18804735871836689 0 -0.17830044274374979 0.16244982581953471 0 -0.17870530295493239 0.18804735871836689 0 -0.17830044274374979 0.16244982581953471 0 -0.15775407484820861 0.18727827749961631 0 -0.17830044274374979 0.16244982581953471 0 -0.15775407484820861 0.18727827749961631 0 -0.15245232938168229 0.1648839185887534 0 -0.16317411874061041 0.14897554401654969 0 -0.17830044274374979 0.16244982581953471 0 -0.15245232938168229 0.1648839185887534 0 -0.15775407484820861 0.18727827749961631 0 -0.15245232938168229 0.1648839185887534 0 -0.13876353146598761 0.18223131465273959 0 -0.13876353146598761 0.18223131465273959 0 -0.12843792629854631 0.15978223771525801 0 -0.1245765098090509 0.17966052017845999 0 -0.15245232938168229 0.1648839185887534 0 -0.13876353146598761 0.18223131465273959 0 -0.12843792629854631 0.15978223771525801 0 -0.12843792629854631 0.15978223771525801 0 -0.1447888583061562 0.1436064118174607 0 -0.12843792629854631 0.15978223771525801 0 -0.1447888583061562 0.1436064118174607 0 -0.1204435081575875 0.14623213693654391 0 -0.16317411874061041 0.14897554401654969 0 -0.15245232938168229 0.1648839185887534 0 -0.1447888583061562 0.1436064118174607 0 -0.15245232938168229 0.1648839185887534 0 -0.12843792629854631 0.15978223771525801 0 -0.1447888583061562 0.1436064118174607 0 -0.16113979031376621 0.12743058591966341 0 -0.1447888583061562 0.1436064118174607 0 -0.14300315410871919 0.1253406317882016 0 -0.16113979031376621 0.12743058591966341 0 -0.1447888583061562 0.1436064118174607 0 -0.1447888583061562 0.1436064118174607 0 -0.12687331202938101 0.13192737382428379 0 -0.1204435081575875 0.14623213693654391 0 -0.1447888583061562 0.1436064118174607 0 -0.14300315410871919 0.1253406317882016 0 -0.12687331202938101 0.13192737382428379 0 -0.12687331202938101 0.13192737382428379 0 -0.1130049083687871 0.13722853083192951 0 -0.10667563132183119 0.1260080396076822 0 -0.12687331202938101 0.13192737382428379 0 -0.1130049083687871 0.13722853083192951 0 -0.1204435081575875 0.14623213693654391 0 -0.10667563132183119 0.1260080396076822 0 -0.081978849477511453 0.1384377215961772 0 -0.096577670607123245 0.1239972751083621 0 -0.10667563132183119 0.1260080396076822 0 -0.1008242758955458 0.1385116675773613 0 -0.081978849477511453 0.1384377215961772 0 -0.10667563132183119 0.1260080396076822 0 -0.081978849477511453 0.1384377215961772 0 -0.1130049083687871 0.13722853083192951 0 -0.10667563132183119 0.1260080396076822 0 -0.1008242758955458 0.1385116675773613 0 -0.1130049083687871 0.13722853083192951 0 -0.1008242758955458 0.1385116675773613 0 -0.1078791741402548 0.14587794917826699 0 -0.094422293866394627 0.1556947047027778 0 -0.094582816169344081 0.14500609667275041 0 -0.1078791741402548 0.14587794917826699 0 -0.1008242758955458 0.1385116675773613 0 -0.094582816169344081 0.14500609667275041 0 -0.1078791741402548 0.14587794917826699 0 -0.12843792629854631 0.15978223771525801 0 -0.1204435081575875 0.14623213693654391 0 -0.1073217141416921 0.15896651377475199 0 -0.1078791741402548 0.14587794917826699 0 -0.1204435081575875 0.14623213693654391 0 -0.1073217141416921 0.15896651377475199 0 -0.1130049083687871 0.13722853083192951 0 -0.1078791741402548 0.14587794917826699 0 -0.1204435081575875 0.14623213693654391 0 -0.12843792629854631 0.15978223771525801 0 -0.1245765098090509 0.17966052017845999 0 -0.1120869942909358 0.17595806361305491 0 -0.1120869942909358 0.17595806361305491 0 -0.1073217141416921 0.15896651377475199 0 -0.12843792629854631 0.15978223771525801 0 -0.1120869942909358 0.17595806361305491 0 -0.12843792629854631 0.15978223771525801 0 -0.1120869942909358 0.17595806361305491 0 -0.1073217141416921 0.15896651377475199 0 -0.1245765098090509 0.17966052017845999 0 -0.1120869942909358 0.17595806361305491 0 -0.1190175871807343 0.20067046473278771 0 -0.1120869942909358 0.17595806361305491 0 -0.1020860412129876 0.1687304780430319 0 -0.095149617161195271 0.19271405424946009 0 -0.1020860412129876 0.1687304780430319 0 -0.095149617161195271 0.19271405424946009 0 -0.1120869942909358 0.17595806361305491 0 -0.095149617161195271 0.19271405424946009 0 -0.1020860412129876 0.1687304780430319 0 -0.093279947424905002 0.17994671451597891 0 -0.095149617161195271 0.19271405424946009 0 -0.1020860412129876 0.1687304780430319 0 -0.089956478385260899 0.16811851343374709 0 -0.093279947424905002 0.17994671451597891 0 -0.094422293866394627 0.1556947047027778 0 -0.1078791741402548 0.14587794917826699 0 -0.1020860412129876 0.1687304780430319 0 -0.1078791741402548 0.14587794917826699 0 -0.1073217141416921 0.15896651377475199 0 -0.1020860412129876 0.1687304780430319 0 -0.1120869942909358 0.17595806361305491 0 -0.1073217141416921 0.15896651377475199 0 -0.1020860412129876 0.1687304780430319 0 -0.1078791741402548 0.14587794917826699 0 -0.1020860412129876 0.1687304780430319 0 -0.094422293866394627 0.1556947047027778 0 -0.1020860412129876 0.1687304780430319 0 -0.089956478385260899 0.16811851343374709 0 -0.094422293866394627 0.1556947047027778 0 -0.089956478385260899 0.16811851343374709 0 -0.084742563178951485 0.15922574422532609 0 -0.089956478385260899 0.16811851343374709 0 -0.080023232193096983 0.1657260639694961 0 -0.084742563178951485 0.15922574422532609 0 -0.089956478385260899 0.16811851343374709 0 -0.080023232193096983 0.1657260639694961 0 -0.081293191825158789 0.17801619480298669 0 -0.080023232193096983 0.1657260639694961 0 -0.084742563178951485 0.15922574422532609 0 -0.074930767296401246 0.15918989644816289 0 -0.081293191825158789 0.17801619480298669 0 -0.095149617161195271 0.19271405424946009 0 -0.073474196407973841 0.19079473501472519 0 -0.081293191825158789 0.17801619480298669 0 -0.095149617161195271 0.19271405424946009 0 -0.093279947424905002 0.17994671451597891 0 -0.081293191825158789 0.17801619480298669 0 -0.095149617161195271 0.19271405424946009 0 -0.089956478385260899 0.16811851343374709 0 -0.093279947424905002 0.17994671451597891 0 -0.081293191825158789 0.17801619480298669 0 -0.064604308801312821 0.18244611143699499 0 -0.069549912031587807 0.17131438064227461 0 -0.073474196407973841 0.19079473501472519 0 -0.081293191825158789 0.17801619480298669 0 -0.069549912031587807 0.17131438064227461 0 -0.073474196407973841 0.19079473501472519 0 -0.069549912031587807 0.17131438064227461 0 -0.073474196407973841 0.19079473501472519 0 -0.064604308801312821 0.18244611143699499 0 -0.069549912031587807 0.17131438064227461 0 -0.062041409668937363 0.1723934095439342 0 -0.084742563178951485 0.15922574422532609 0 -0.074930767296401246 0.15918989644816289 0 -0.074588176879671189 0.15080810715310269 0 -0.080023232193096983 0.1657260639694961 0 -0.074930767296401246 0.15918989644816289 0 -0.06743676648912228 0.16331833535651319 0 -0.081293191825158789 0.17801619480298669 0 -0.069549912031587807 0.17131438064227461 0 -0.06743676648912228 0.16331833535651319 0 -0.080023232193096983 0.1657260639694961 0 -0.081293191825158789 0.17801619480298669 0 -0.06743676648912228 0.16331833535651319 0 -0.081293191825158789 0.17801619480298669 0 -0.06743676648912228 0.16331833535651319 0 -0.069549912031587807 0.17131438064227461 0 -0.062031688412593149 0.16441565219234799 0 -0.062041409668937363 0.1723934095439342 0 -0.069549912031587807 0.17131438064227461 0 -0.06743676648912228 0.16331833535651319 0 -0.062031688412593149 0.16441565219234799 0 -0.06743676648912228 0.16331833535651319 0 -0.06725389334219653 0.15771987894696021 0 -0.062031688412593149 0.16441565219234799 0 -0.074930767296401246 0.15918989644816289 0 -0.06743676648912228 0.16331833535651319 0 -0.06725389334219653 0.15771987894696021 0 -0.081978849477511453 0.1384377215961772 0 -0.05728206763319247 0.1508674035846734 0 -0.06725389334219653 0.15771987894696021 0 -0.074588176879671189 0.15080810715310269 0 -0.05728206763319247 0.1508674035846734 0 -0.074588176879671189 0.15080810715310269 0 -0.081978849477511453 0.1384377215961772 0 -0.05728206763319247 0.1508674035846734 0 -0.081978849477511453 0.1384377215961772 0 -0.06070043620975589 0.134524720015781 0 -0.05728206763319247 0.1508674035846734 0 -0.074930767296401246 0.15918989644816289 0 -0.06725389334219653 0.15771987894696021 0 -0.074588176879671189 0.15080810715310269 0 -0.071786582042575819 0.1280585334591178 0 -0.081978849477511453 0.1384377215961772 0 -0.08034823769671974 0.121089655777625 0 -0.071786582042575819 0.1280585334591178 0 -0.081978849477511453 0.1384377215961772 0 -0.06070043620975589 0.134524720015781 0 -0.071786582042575819 0.1280585334591178 0 -0.06070043620975589 0.134524720015781 0 -0.06411880478631618 0.11818203644688791 0 -0.081978849477511453 0.1384377215961772 0 -0.08034823769671974 0.121089655777625 0 -0.096577670607123245 0.1239972751083621 0 -0.1008242758955458 0.1385116675773613 0 -0.094582816169344081 0.14500609667275041 0 -0.081978849477511453 0.1384377215961772 0 -0.094582816169344081 0.14500609667275041 0 -0.081978849477511453 0.1384377215961772 0 -0.0854808471676783 0.14892295327365951 0 -0.094422293866394627 0.1556947047027778 0 -0.084742563178951485 0.15922574422532609 0 -0.0854808471676783 0.14892295327365951 0 -0.094422293866394627 0.1556947047027778 0 -0.094582816169344081 0.14500609667275041 0 -0.0854808471676783 0.14892295327365951 0 -0.084742563178951485 0.15922574422532609 0 -0.074588176879671189 0.15080810715310269 0 -0.0854808471676783 0.14892295327365951 0 -0.074588176879671189 0.15080810715310269 0 -0.081978849477511453 0.1384377215961772 0 -0.0854808471676783 0.14892295327365951 0 -0.1045487088169635 0.24438495162540061 0 -0.11455994162881621 0.23631135170566109 0 -0.098826177075254387 0.23394696074010041 0 -0.10005120432924321 0.25626016583208688 0 -0.094679029848152713 0.24609146959404629 0 -0.1045487088169635 0.24438495162540061 0 -0.094679029848152713 0.24609146959404629 0 -0.1045487088169635 0.24438495162540061 0 -0.098826177075254387 0.23394696074010041 0 -0.116744543106582 0.25728181003509248 0 -0.1045487088169635 0.24438495162540061 0 -0.11455994162881621 0.23631135170566109 0 -0.116744543106582 0.25728181003509248 0 -0.1327712538659816 0.24971188635390451 0 -0.11455994162881621 0.23631135170566109 0 -0.12594818007053379 0.2253828658525201 0 -0.1327712538659816 0.24971188635390451 0 -0.11455994162881621 0.23631135170566109 0 -0.11455994162881621 0.23631135170566109 0 -0.1144435087069731 0.2232582902708152 0 -0.1063794885369051 0.22193246116811141 0 -0.12594818007053379 0.2253828658525201 0 -0.1144435087069731 0.2232582902708152 0 -0.1108864245916369 0.20940648235696879 0 -0.12594818007053379 0.2253828658525201 0 -0.11455994162881621 0.23631135170566109 0 -0.1144435087069731 0.2232582902708152 0 -0.11455994162881621 0.23631135170566109 0 -0.1063794885369051 0.22193246116811141 0 -0.098826177075254387 0.23394696074010041 0 -0.1063794885369051 0.22193246116811141 0 -0.098826177075254387 0.23394696074010041 0 -0.089950704149474564 0.21660149084549701 0 -0.1063794885369051 0.22193246116811141 0 -0.089950704149474564 0.21660149084549701 0 -0.10053720550511509 0.21148400771379949 0 -0.095149617161195271 0.19271405424946009 0 -0.089950704149474564 0.21660149084549701 0 -0.1063794885369051 0.22193246116811141 0 -0.10053720550511509 0.21148400771379949 0 -0.089950704149474564 0.21660149084549701 0 -0.10053720550511509 0.21148400771379949 0 -0.1108864245916369 0.20940648235696879 0 -0.095149617161195271 0.19271405424946009 0 -0.1063794885369051 0.22193246116811141 0 -0.10053720550511509 0.21148400771379949 0 -0.1108864245916369 0.20940648235696879 0 -0.12594818007053379 0.2253828658525201 0 -0.1190175871807343 0.20067046473278771 0 -0.12594818007053379 0.2253828658525201 0 -0.1108864245916369 0.20940648235696879 0 -0.1190175871807343 0.20067046473278771 0 -0.12594818007053379 0.2253828658525201 0 -0.1108864245916369 0.20940648235696879 0 -0.1144435087069731 0.2232582902708152 0 -0.1063794885369051 0.22193246116811141 0 -0.1108864245916369 0.20940648235696879 0 -0.1120869942909358 0.17595806361305491 0 -0.1190175871807343 0.20067046473278771 0 -0.1108864245916369 0.20940648235696879 0 -0.1190175871807343 0.20067046473278771 0 -0.10682171669235439 0.1942096232944058 0 -0.1120869942909358 0.17595806361305491 0 -0.1190175871807343 0.20067046473278771 0 -0.10682171669235439 0.1942096232944058 0 -0.1108864245916369 0.20940648235696879 0 -0.095149617161195271 0.19271405424946009 0 -0.1108864245916369 0.20940648235696879 0 -0.10682171669235439 0.1942096232944058 0 -0.095149617161195271 0.19271405424946009 0 -0.1120869942909358 0.17595806361305491 0 -0.10682171669235439 0.1942096232944058 0 -0.095149617161195271 0.19271405424946009 0 -0.095149617161195271 0.19271405424946009 0 -0.077398480784349299 0.2102750893871779 0 -0.095149617161195271 0.19271405424946009 0 -0.073474196407973841 0.19079473501472519 0 -0.077398480784349299 0.2102750893871779 0 -0.095149617161195271 0.19271405424946009 0 -0.077398480784349299 0.2102750893871779 0 -0.087241526055590657 0.20514135106535239 0 -0.073474196407973841 0.19079473501472519 0 -0.077398480784349299 0.2102750893871779 0 -0.073474196407973841 0.19079473501472519 0 -0.077398480784349299 0.2102750893871779 0 -0.068984895145132993 0.20348567813270921 0 -0.064604308801312821 0.18244611143699499 0 -0.073474196407973841 0.19079473501472519 0 -0.062951628171730722 0.19451437844324071 0 -0.073474196407973841 0.19079473501472519 0 -0.062951628171730722 0.19451437844324071 0 -0.068984895145132993 0.20348567813270921 0 -0.062951628171730722 0.19451437844324071 0 -0.068984895145132993 0.20348567813270921 0 -0.057478398324341332 0.20606456403591589 0 -0.068984895145132993 0.20348567813270921 0 -0.075683327299925024 0.21197187487555791 0 -0.057478398324341332 0.20606456403591589 0 -0.075683327299925024 0.21197187487555791 0 -0.060700713784132942 0.2267940359372384 0 -0.057478398324341332 0.20606456403591589 0 -0.075683327299925024 0.21197187487555791 0 -0.057478398324341332 0.20606456403591589 0 -0.077398480784349299 0.2102750893871779 0 -0.068984895145132993 0.20348567813270921 0 -0.075683327299925024 0.21197187487555791 0 -0.075683327299925024 0.21197187487555791 0 -0.077884159070199604 0.2126860219832131 0 -0.060700713784132942 0.2267940359372384 0 -0.075683327299925024 0.21197187487555791 0 -0.077884159070199604 0.2126860219832131 0 -0.077398480784349299 0.2102750893871779 0 -0.075683327299925024 0.21197187487555791 0 -0.077884159070199604 0.2126860219832131 0 -0.077398480784349299 0.2102750893871779 0 -0.077884159070199604 0.2126860219832131 0 -0.077398480784349299 0.2102750893871779 0 -0.075683327299925024 0.21197187487555791 0 -0.077884159070199604 0.2126860219832131 0 -0.089950704149474564 0.21660149084549701 0 -0.077884159070199604 0.2126860219832131 0 -0.087241526055590657 0.20514135106535239 0 -0.089950704149474564 0.21660149084549701 0 -0.095149617161195271 0.19271405424946009 0 -0.087241526055590657 0.20514135106535239 0 -0.089950704149474564 0.21660149084549701 0 -0.095149617161195271 0.19271405424946009 0 -0.089950704149474564 0.21660149084549701 0 -0.077398480784349299 0.2102750893871779 0 -0.077884159070199604 0.2126860219832131 0 -0.087241526055590657 0.20514135106535239 0 -0.077884159070199604 0.2126860219832131 0 -0.083666647235009842 0.24139059785004849 0 -0.089950704149474564 0.21660149084549701 0 -0.083666647235009842 0.24139059785004849 0 -0.077884159070199604 0.2126860219832131 0 -0.089950704149474564 0.21660149084549701 0 -0.083666647235009842 0.24139059785004849 0 -0.098826177075254387 0.23394696074010041 0 -0.089950704149474564 0.21660149084549701 0 -0.083666647235009842 0.24139059785004849 0 -0.077884159070199604 0.2126860219832131 0 -0.083666647235009842 0.24139059785004849 0 -0.060700713784132942 0.2267940359372384 0 -0.075683327299925024 0.21197187487555791 0 -0.060700713784132942 0.2267940359372384 0 -0.064077212627390134 0.24851538469076631 0 -0.083666647235009842 0.24139059785004849 0 -0.060700713784132942 0.2267940359372384 0 -0.086302411784292182 0.25447467192259482 0 -0.083666647235009842 0.24139059785004849 0 -0.094679029848152713 0.24609146959404629 0 -0.098826177075254387 0.23394696074010041 0 -0.083666647235009842 0.24139059785004849 0 -0.086302411784292182 0.25447467192259482 0 -0.094679029848152713 0.24609146959404629 0 -0.083666647235009842 0.24139059785004849 0 -0.03068766995985707 0.25286978792993342 0 -0.034335222642673788 0.23481172099035691 0 -0.046578861792199937 0.24361118962503389 0 -0.034335222642673788 0.23481172099035691 0 -0.046578861792199937 0.24361118962503389 0 -0.045510089746351297 0.2289623102588538 0 -0.064077212627390134 0.24851538469076631 0 -0.046578861792199937 0.24361118962503389 0 -0.055802081643016588 0.23164020743468811 0 -0.064077212627390134 0.24851538469076631 0 -0.055802081643016588 0.23164020743468811 0 -0.060700713784132942 0.2267940359372384 0 -0.064077212627390134 0.24851538469076631 0 -0.060700713784132942 0.2267940359372384 0 -0.046578861792199937 0.24361118962503389 0 -0.055802081643016588 0.23164020743468811 0 -0.045510089746351297 0.2289623102588538 0 -0.055802081643016588 0.23164020743468811 0 -0.053252725762674542 0.2222055350902031 0 -0.045510089746351297 0.2289623102588538 0 -0.055802081643016588 0.23164020743468811 0 -0.060700713784132942 0.2267940359372384 0 -0.053252725762674542 0.2222055350902031 0 -0.055802081643016588 0.23164020743468811 0 -0.060700713784132942 0.2267940359372384 0 -0.053252725762674542 0.2222055350902031 0 -0.045510089746351297 0.2289623102588538 0 -0.046772345315528908 0.21756655778431969 0 -0.045510089746351297 0.2289623102588538 0 -0.036443083940353373 0.22210497005765251 0 -0.046772345315528908 0.21756655778431969 0 -0.034335222642673788 0.23481172099035691 0 -0.045510089746351297 0.2289623102588538 0 -0.036443083940353373 0.22210497005765251 0 -0.034335222642673788 0.23481172099035691 0 -0.036443083940353373 0.22210497005765251 0 -0.024866254401544021 0.22078734426404351 0 -0.036443083940353373 0.22210497005765251 0 -0.046772345315528908 0.21756655778431969 0 -0.031637039445344017 0.19767931081015269 0 -0.046772345315528908 0.21756655778431969 0 -0.057478398324341332 0.20606456403591589 0 -0.031637039445344017 0.19767931081015269 0 -0.060700713784132942 0.2267940359372384 0 -0.053252725762674542 0.2222055350902031 0 -0.057478398324341332 0.20606456403591589 0 -0.060700713784132942 0.2267940359372384 0 -0.057478398324341332 0.20606456403591589 0 -0.053252725762674542 0.2222055350902031 0 -0.046772345315528908 0.21756655778431969 0 -0.057478398324341332 0.20606456403591589 0 -0.062951628171730722 0.19451437844324071 0 -0.057478398324341332 0.20606456403591589 0 -0.054948738746262903 0.1897910154656581 0 -0.057478398324341332 0.20606456403591589 0 -0.054948738746262903 0.1897910154656581 0 -0.031637039445344017 0.19767931081015269 0 -0.057478398324341332 0.20606456403591589 0 -0.054948738746262903 0.1897910154656581 0 -0.054948738746262903 0.1897910154656581 0 -0.031637039445344017 0.19767931081015269 0 -0.039999697082172873 0.18418677263352329 0 -0.057478398324341332 0.20606456403591589 0 -0.031637039445344017 0.19767931081015269 0 -0.031637039445344017 0.19767931081015269 0 -0.0057956805663459468 0.1892940575843915 0 -0.031637039445344017 0.19767931081015269 0 -0.0057956805663459468 0.1892940575843915 0 -0.024775833668462071 0.17590936267321361 0 -0.031637039445344017 0.19767931081015269 0 -0.0057956805663459468 0.1892940575843915 0 -0.01019634689217482 0.20814994011246479 0 -0.0057956805663459468 0.1892940575843915 0 -0.01019634689217482 0.20814994011246479 0 0.0090806704795409685 0.20996839310177981 0 -0.01019634689217482 0.20814994011246479 0 0.00014186162909880781 0.2338185852574263 0 0.0090806704795409685 0.20996839310177981 0 -0.036443083940353373 0.22210497005765251 0 -0.031637039445344017 0.19767931081015269 0 -0.024866254401544021 0.22078734426404351 0 -0.031637039445344017 0.19767931081015269 0 -0.01019634689217482 0.20814994011246479 0 -0.024866254401544021 0.22078734426404351 0 -0.034335222642673788 0.23481172099035691 0 -0.024866254401544021 0.22078734426404351 0 -0.01991034591062427 0.239405390953495 0 -0.024866254401544021 0.22078734426404351 0 0.00014186162909880781 0.2338185852574263 0 -0.024866254401544021 0.22078734426404351 0 -0.01991034591062427 0.239405390953495 0 0.00014186162909880781 0.2338185852574263 0 -0.01019634689217482 0.20814994011246479 0 -0.024866254401544021 0.22078734426404351 0 0.00014186162909880781 0.2338185852574263 0 -0.0098044441781452579 0.25473951632571468 0 0.00014186162909880781 0.2338185852574263 0 0.0073806355134042019 0.25529449578482938 0 -0.0098044441781452579 0.25473951632571468 0 -0.01991034591062427 0.239405390953495 0 0.00014186162909880781 0.2338185852574263 0 -0.03068766995985707 0.25286978792993342 0 -0.034335222642673788 0.23481172099035691 0 -0.01991034591062427 0.239405390953495 0 -0.03068766995985707 0.25286978792993342 0 -0.0098044441781452579 0.25473951632571468 0 -0.01991034591062427 0.239405390953495 0 -0.045513089216113363 0.1481501368583191 0 -0.039963318838929777 0.1583549670989208 0 -0.028048700007850699 0.14601834090005769 0 -0.045513089216113363 0.1481501368583191 0 -0.037584816749385713 0.12707105787504261 0 -0.028048700007850699 0.14601834090005769 0 -0.037584816749385713 0.12707105787504261 0 -0.028048700007850699 0.14601834090005769 0 -0.045513089216113363 0.1481501368583191 0 -0.037584816749385713 0.12707105787504261 0 -0.045513089216113363 0.1481501368583191 0 -0.037584816749385713 0.12707105787504261 0 -0.049753839012929922 0.13582205838018921 0 -0.037584816749385713 0.12707105787504261 0 -0.049753839012929922 0.13582205838018921 0 -0.051208231868337763 0.1260313133231428 0 -0.049753839012929922 0.13582205838018921 0 -0.06070043620975589 0.134524720015781 0 -0.052276118599972977 0.1457036522838337 0 -0.051208231868337763 0.1260313133231428 0 -0.06070043620975589 0.134524720015781 0 -0.06411880478631618 0.11818203644688791 0 -0.06070043620975589 0.134524720015781 0 -0.06411880478631618 0.11818203644688791 0 -0.049753839012929922 0.13582205838018921 0 -0.051208231868337763 0.1260313133231428 0 -0.06070043620975589 0.134524720015781 0 -0.06070043620975589 0.134524720015781 0 -0.052276118599972977 0.1457036522838337 0 -0.05728206763319247 0.1508674035846734 0 -0.06070043620975589 0.134524720015781 0 -0.05728206763319247 0.1508674035846734 0 -0.045513089216113363 0.1481501368583191 0 -0.049753839012929922 0.13582205838018921 0 -0.052276118599972977 0.1457036522838337 0 -0.045513089216113363 0.1481501368583191 0 -0.052276118599972977 0.1457036522838337 0 -0.053440893212920608 0.15280063427064891 0 -0.052276118599972977 0.1457036522838337 0 -0.053440893212920608 0.15280063427064891 0 -0.05728206763319247 0.1508674035846734 0 -0.053440893212920608 0.15280063427064891 0 -0.05728206763319247 0.1508674035846734 0 -0.05728206763319247 0.1508674035846734 0 -0.062031688412593149 0.16441565219234799 0 -0.053441361682841117 0.16922921584159559 0 -0.053440893212920608 0.15280063427064891 0 -0.05728206763319247 0.1508674035846734 0 -0.053441361682841117 0.16922921584159559 0 -0.045513089216113363 0.1481501368583191 0 -0.053440893212920608 0.15280063427064891 0 -0.053441361682841117 0.16922921584159559 0 -0.045513089216113363 0.1481501368583191 0 -0.053441361682841117 0.16922921584159559 0 -0.05728206763319247 0.1508674035846734 0 -0.053441361682841117 0.16922921584159559 0 -0.06725389334219653 0.15771987894696021 0 -0.05728206763319247 0.1508674035846734 0 -0.062031688412593149 0.16441565219234799 0 -0.062031688412593149 0.16441565219234799 0 -0.053441361682841117 0.16922921584159559 0 -0.062041409668937363 0.1723934095439342 0 -0.053441361682841117 0.16922921584159559 0 -0.047633738945979477 0.17108968717192211 0 -0.039963318838929777 0.1583549670989208 0 -0.052991971448818453 0.17137768000779441 0 -0.053441361682841117 0.16922921584159559 0 -0.047633738945979477 0.17108968717192211 0 -0.052991971448818453 0.17137768000779441 0 -0.053441361682841117 0.16922921584159559 0 -0.054948738746262903 0.1897910154656581 0 -0.052419079168185397 0.17351746689540021 0 -0.046888846475854867 0.17837904804597579 0 -0.062951628171730722 0.19451437844324071 0 -0.054948738746262903 0.1897910154656581 0 -0.052419079168185397 0.17351746689540021 0 -0.062951628171730722 0.19451437844324071 0 -0.052991971448818453 0.17137768000779441 0 -0.052419079168185397 0.17351746689540021 0 -0.064604308801312821 0.18244611143699499 0 -0.062951628171730722 0.19451437844324071 0 -0.053441361682841117 0.16922921584159559 0 -0.062951628171730722 0.19451437844324071 0 -0.052991971448818453 0.17137768000779441 0 -0.053441361682841117 0.16922921584159559 0 -0.054948738746262903 0.1897910154656581 0 -0.052419079168185397 0.17351746689540021 0 -0.062951628171730722 0.19451437844324071 0 -0.053441361682841117 0.16922921584159559 0 -0.064604308801312821 0.18244611143699499 0 -0.053441361682841117 0.16922921584159559 0 -0.062041409668937363 0.1723934095439342 0 -0.052991971448818453 0.17137768000779441 0 -0.047633738945979477 0.17108968717192211 0 -0.052419079168185397 0.17351746689540021 0 -0.047633738945979477 0.17108968717192211 0 -0.052419079168185397 0.17351746689540021 0 -0.046888846475854867 0.17837904804597579 0 -0.054948738746262903 0.1897910154656581 0 -0.046888846475854867 0.17837904804597579 0 -0.039999697082172873 0.18418677263352329 0 -0.031637039445344017 0.19767931081015269 0 -0.039999697082172873 0.18418677263352329 0 -0.024775833668462071 0.17590936267321361 0 -0.046888846475854867 0.17837904804597579 0 -0.039999697082172873 0.18418677263352329 0 -0.039442978436673673 0.17331029806337539 0 -0.047633738945979477 0.17108968717192211 0 -0.046888846475854867 0.17837904804597579 0 -0.039442978436673673 0.17331029806337539 0 -0.039442978436673673 0.17331029806337539 0 -0.032139483942643897 0.16694135859911591 0 -0.024775833668462071 0.17590936267321361 0 -0.039999697082172873 0.18418677263352329 0 -0.039442978436673673 0.17331029806337539 0 -0.024775833668462071 0.17590936267321361 0 -0.045513089216113363 0.1481501368583191 0 -0.053441361682841117 0.16922921584159559 0 -0.039963318838929777 0.1583549670989208 0 -0.039963318838929777 0.1583549670989208 0 -0.032139483942643897 0.16694135859911591 0 -0.02343924065842673 0.15869802647678349 0 -0.047633738945979477 0.17108968717192211 0 -0.039442978436673673 0.17331029806337539 0 -0.039963318838929777 0.1583549670989208 0 -0.039442978436673673 0.17331029806337539 0 -0.039963318838929777 0.1583549670989208 0 -0.032139483942643897 0.16694135859911591 0 -0.032139483942643897 0.16694135859911591 0 -0.02343924065842673 0.15869802647678349 0 -0.024775833668462071 0.17590936267321361 0 -0.02343924065842673 0.15869802647678349 0 -0.024775833668462071 0.17590936267321361 0 -0.0048034666842798916 0.1614245706846468 0 -0.0057956805663459468 0.1892940575843915 0 -0.024775833668462071 0.17590936267321361 0 -0.0048034666842798916 0.1614245706846468 0 -0.0048034666842798916 0.1614245706846468 0 -0.01090464080839405 0.14353955890474629 0 0.011098566836083609 0.13484946890849181 0 -0.02343924065842673 0.15869802647678349 0 -0.0048034666842798916 0.1614245706846468 0 -0.01090464080839405 0.14353955890474629 0 -0.039963318838929777 0.1583549670989208 0 -0.02343924065842673 0.15869802647678349 0 -0.028048700007850699 0.14601834090005769 0 -0.02343924065842673 0.15869802647678349 0 -0.01090464080839405 0.14353955890474629 0 -0.028048700007850699 0.14601834090005769 0 -0.037584816749385713 0.12707105787504261 0 -0.0187932077553963 0.1304023687453105 0 -0.02482114599867602 0.1199028763409456 0 -0.01090464080839405 0.14353955890474629 0 -0.028048700007850699 0.14601834090005769 0 -0.0187932077553963 0.1304023687453105 0 -0.037584816749385713 0.12707105787504261 0 -0.028048700007850699 0.14601834090005769 0 -0.0187932077553963 0.1304023687453105 0 -0.0064436606074630637 0.13109611639504981 0 -0.007175360702145514 0.1155930690216506 0 0.011098566836083609 0.13484946890849181 0 -0.01090464080839405 0.14353955890474629 0 -0.0064436606074630637 0.13109611639504981 0 0.011098566836083609 0.13484946890849181 0 -0.0187932077553963 0.1304023687453105 0 -0.0064436606074630637 0.13109611639504981 0 -0.007175360702145514 0.1155930690216506 0 -0.01090464080839405 0.14353955890474629 0 -0.0187932077553963 0.1304023687453105 0 -0.0064436606074630637 0.13109611639504981 0 -0.007175360702145514 0.1155930690216506 0 -0.0040088977147468936 0.097024336429998151 0 -0.013655752966245171 0.094180689311720855 0 -0.007175360702145514 0.1155930690216506 0 -0.0040088977147468936 0.097024336429998151 0 0.0025937760044158291 0.1064596481343341 0 -0.007175360702145514 0.1155930690216506 0 -0.013655752966245171 0.094180689311720855 0 -0.02544928824037461 0.096336669134809427 0 -0.029459919491476121 0.1011230655410132 0 -0.021580178673492881 0.1105609364200745 0 -0.037915498494119543 0.10215930426450601 0 -0.007175360702145514 0.1155930690216506 0 -0.02544928824037461 0.096336669134809427 0 -0.007175360702145514 0.1155930690216506 0 -0.02544928824037461 0.096336669134809427 0 -0.0241566231860777 0.1021061234229471 0 -0.02544928824037461 0.096336669134809427 0 -0.029459919491476121 0.1011230655410132 0 -0.035034026511796899 0.0954599165668297 0 -0.02544928824037461 0.096336669134809427 0 -0.029459919491476121 0.1011230655410132 0 -0.0241566231860777 0.1021061234229471 0 -0.02544928824037461 0.096336669134809427 0 -0.0241566231860777 0.1021061234229471 0 -0.029459919491476121 0.1011230655410132 0 -0.0241566231860777 0.1021061234229471 0 -0.021580178673492881 0.1105609364200745 0 -0.02482114599867602 0.1199028763409456 0 -0.021580178673492881 0.1105609364200745 0 -0.032585978911933711 0.11378053360982859 0 -0.007175360702145514 0.1155930690216506 0 -0.0241566231860777 0.1021061234229471 0 -0.021580178673492881 0.1105609364200745 0 -0.0187932077553963 0.1304023687453105 0 -0.007175360702145514 0.1155930690216506 0 -0.02482114599867602 0.1199028763409456 0 -0.007175360702145514 0.1155930690216506 0 -0.02482114599867602 0.1199028763409456 0 -0.021580178673492881 0.1105609364200745 0 -0.01109578586274463 0.07592966442077155 0 -0.01963881101933795 0.057650575484614511 0 -0.0089029190745683329 0.062319161291970238 0 -0.0031702267477386531 0.067180855403790804 0 -0.01109578586274463 0.07592966442077155 0 0.0065236609159091173 0.071671444604676282 0 -0.0031702267477386531 0.067180855403790804 0 -0.0089029190745683329 0.062319161291970238 0 0.00079413703044923156 0.058803151297745167 0 -0.0031702267477386531 0.067180855403790804 0 -0.01109578586274463 0.07592966442077155 0 -0.0089029190745683329 0.062319161291970238 0 -0.0040088977147468936 0.097024336429998151 0 -0.01109578586274463 0.07592966442077155 0 0.011643404763696401 0.092949868607662828 0 -0.0040088977147468936 0.097024336429998151 0 -0.013655752966245171 0.094180689311720855 0 -0.01109578586274463 0.07592966442077155 0 -0.013655752966245171 0.094180689311720855 0 -0.01109578586274463 0.07592966442077155 0 -0.02054943231121421 0.086019707551374502 0 -0.02544928824037461 0.096336669134809427 0 -0.02054943231121421 0.086019707551374502 0 -0.029642132364781061 0.077623064684345475 0 -0.02544928824037461 0.096336669134809427 0 -0.029642132364781061 0.077623064684345475 0 -0.036673455980692451 0.084509049595857907 0 -0.01109578586274463 0.07592966442077155 0 -0.02054943231121421 0.086019707551374502 0 -0.029642132364781061 0.077623064684345475 0 -0.02544928824037461 0.096336669134809427 0 -0.029642132364781061 0.077623064684345475 0 -0.013655752966245171 0.094180689311720855 0 -0.02544928824037461 0.096336669134809427 0 -0.02054943231121421 0.086019707551374502 0 -0.02544928824037461 0.096336669134809427 0 -0.036673455980692451 0.084509049595857907 0 -0.01109578586274463 0.07592966442077155 0 -0.033834976489186493 0.058909460233881362 0 -0.01109578586274463 0.07592966442077155 0 -0.029642132364781061 0.077623064684345475 0 -0.033834976489186493 0.058909460233881362 0 -0.01109578586274463 0.07592966442077155 0 -0.033834976489186493 0.058909460233881362 0 -0.01963881101933795 0.057650575484614511 0 -0.029642132364781061 0.077623064684345475 0 -0.033834976489186493 0.058909460233881362 0 -0.029642132364781061 0.077623064684345475 0 -0.036732086871232597 0.066761861307427367 0 -0.033834976489186493 0.058909460233881362 0 -0.042969512877196837 0.063698159366550891 0 -0.036732086871232597 0.066761861307427367 0 -0.038306240480512441 0.072768089837317376 0 -0.042969512877196837 0.063698159366550891 0 -0.038306240480512441 0.072768089837317376 0 -0.046136221960229658 0.070392563092827029 0 -0.042969512877196837 0.063698159366550891 0 -0.036732086871232597 0.066761861307427367 0 -0.038907572144486188 0.060810532415041758 0 -0.029642132364781061 0.077623064684345475 0 -0.036732086871232597 0.066761861307427367 0 -0.038306240480512441 0.072768089837317376 0 -0.038306240480512441 0.072768089837317376 0 -0.046136221960229658 0.070392563092827029 0 -0.043586306971417507 0.077534071189344175 0 -0.038306240480512441 0.072768089837317376 0 -0.043586306971417507 0.077534071189344175 0 -0.036673455980692451 0.084509049595857907 0 -0.043586306971417507 0.077534071189344175 0 -0.036673455980692451 0.084509049595857907 0 -0.046978765451358998 0.084182386091036676 0 -0.029642132364781061 0.077623064684345475 0 -0.038306240480512441 0.072768089837317376 0 -0.036673455980692451 0.084509049595857907 0 -0.02544928824037461 0.096336669134809427 0 -0.036673455980692451 0.084509049595857907 0 -0.035034026511796899 0.0954599165668297 0 -0.036673455980692451 0.084509049595857907 0 -0.044089979176562301 0.093675305350012283 0 -0.035034026511796899 0.0954599165668297 0 -0.036673455980692451 0.084509049595857907 0 -0.044089979176562301 0.093675305350012283 0 -0.046978765451358998 0.084182386091036676 0 -0.044089979176562301 0.093675305350012283 0 -0.057144835734191893 0.088207312209507505 0 -0.046978765451358998 0.084182386091036676 0 -0.057144835734191893 0.088207312209507505 0 -0.046978765451358998 0.084182386091036676 0 -0.053399249393930842 0.076986192110461482 0 -0.043586306971417507 0.077534071189344175 0 -0.046978765451358998 0.084182386091036676 0 -0.053399249393930842 0.076986192110461482 0 -0.053399249393930842 0.076986192110461482 0 -0.070406408885084593 0.061857930521202607 0 -0.059815066152941319 0.061788281472960463 0 -0.057144835734191893 0.088207312209507505 0 -0.053399249393930842 0.076986192110461482 0 -0.070406408885084593 0.061857930521202607 0 -0.046136221960229658 0.070392563092827029 0 -0.043586306971417507 0.077534071189344175 0 -0.053399249393930842 0.076986192110461482 0 -0.046136221960229658 0.070392563092827029 0 -0.053399249393930842 0.076986192110461482 0 -0.05257832837313995 0.068950164376806455 0 -0.053399249393930842 0.076986192110461482 0 -0.05257832837313995 0.068950164376806455 0 -0.059815066152941319 0.061788281472960463 0 -0.05257832837313995 0.068950164376806455 0 -0.052166049838275927 0.062310195238599278 0 -0.059815066152941319 0.061788281472960463 0 -0.046136221960229658 0.070392563092827029 0 -0.05257832837313995 0.068950164376806455 0 -0.052166049838275927 0.062310195238599278 0 -0.042969512877196837 0.063698159366550891 0 -0.046136221960229658 0.070392563092827029 0 -0.052166049838275927 0.062310195238599278 0 -0.021580178673492881 0.1105609364200745 0 -0.043883262583300407 0.11455669389781301 0 -0.021580178673492881 0.1105609364200745 0 -0.043883262583300407 0.11455669389781301 0 -0.032585978911933711 0.11378053360982859 0 -0.037584816749385713 0.12707105787504261 0 -0.051208231868337763 0.1260313133231428 0 -0.043883262583300407 0.11455669389781301 0 -0.037584816749385713 0.12707105787504261 0 -0.043883262583300407 0.11455669389781301 0 -0.037584816749385713 0.12707105787504261 0 -0.032585978911933711 0.11378053360982859 0 -0.037584816749385713 0.12707105787504261 0 -0.043883262583300407 0.11455669389781301 0 -0.032585978911933711 0.11378053360982859 0 -0.037584816749385713 0.12707105787504261 0 -0.02482114599867602 0.1199028763409456 0 -0.032585978911933711 0.11378053360982859 0 -0.021580178673492881 0.1105609364200745 0 -0.043883262583300407 0.11455669389781301 0 -0.037915498494119543 0.10215930426450601 0 -0.044089979176562301 0.093675305350012283 0 -0.043883262583300407 0.11455669389781301 0 -0.037915498494119543 0.10215930426450601 0 -0.044089979176562301 0.093675305350012283 0 -0.037915498494119543 0.10215930426450601 0 -0.035034026511796899 0.0954599165668297 0 -0.029459919491476121 0.1011230655410132 0 -0.037915498494119543 0.10215930426450601 0 -0.035034026511796899 0.0954599165668297 0 -0.044089979176562301 0.093675305350012283 0 -0.057144835734191893 0.088207312209507505 0 -0.043883262583300407 0.11455669389781301 0 -0.057144835734191893 0.088207312209507505 0 -0.043883262583300407 0.11455669389781301 0 -0.057144835734191893 0.088207312209507505 0 -0.043883262583300407 0.11455669389781301 0 -0.056175626513735713 0.104231459755559 0 -0.056175626513735713 0.104231459755559 0 -0.061770267295803899 0.1005995653590098 0 -0.06411880478631618 0.11818203644688791 0 -0.057144835734191893 0.088207312209507505 0 -0.056175626513735713 0.104231459755559 0 -0.061770267295803899 0.1005995653590098 0 -0.043883262583300407 0.11455669389781301 0 -0.06411880478631618 0.11818203644688791 0 -0.051208231868337763 0.1260313133231428 0 -0.043883262583300407 0.11455669389781301 0 -0.06411880478631618 0.11818203644688791 0 -0.043883262583300407 0.11455669389781301 0 -0.056175626513735713 0.104231459755559 0 -0.06411880478631618 0.11818203644688791 0 -0.071786582042575819 0.1280585334591178 0 -0.06411880478631618 0.11818203644688791 0 -0.08034823769671974 0.121089655777625 0 -0.06411880478631618 0.11818203644688791 0 -0.08034823769671974 0.121089655777625 0 -0.075381325115152609 0.106019298300689 0 -0.06411880478631618 0.11818203644688791 0 -0.08034823769671974 0.121089655777625 0 -0.08034823769671974 0.121089655777625 0 -0.096577670607123245 0.1239972751083621 0 -0.08034823769671974 0.121089655777625 0 -0.092569001324263961 0.1124699312803344 0 -0.096577670607123245 0.1239972751083621 0 -0.08034823769671974 0.121089655777625 0 -0.083967771981719092 0.1102844810624737 0 -0.092569001324263961 0.1124699312803344 0 -0.08034823769671974 0.121089655777625 0 -0.083967771981719092 0.1102844810624737 0 -0.075381325115152609 0.106019298300689 0 -0.087572523790740042 0.10155903889124659 0 -0.082071947835387321 0.094412947715560025 0 -0.09233625647768956 0.091651488650119919 0 -0.083967771981719092 0.1102844810624737 0 -0.092569001324263961 0.1124699312803344 0 -0.087572523790740042 0.10155903889124659 0 -0.083967771981719092 0.1102844810624737 0 -0.087572523790740042 0.10155903889124659 0 -0.075381325115152609 0.106019298300689 0 -0.087572523790740042 0.10155903889124659 0 -0.082071947835387321 0.094412947715560025 0 -0.075381325115152609 0.106019298300689 0 -0.06411880478631618 0.11818203644688791 0 -0.06964180214897181 0.091777453024084701 0 -0.082071947835387321 0.094412947715560025 0 -0.075381325115152609 0.106019298300689 0 -0.06964180214897181 0.091777453024084701 0 -0.06411880478631618 0.11818203644688791 0 -0.075381325115152609 0.106019298300689 0 -0.06964180214897181 0.091777453024084701 0 -0.061770267295803899 0.1005995653590098 0 -0.06411880478631618 0.11818203644688791 0 -0.06964180214897181 0.091777453024084701 0 -0.057144835734191893 0.088207312209507505 0 -0.061770267295803899 0.1005995653590098 0 -0.06964180214897181 0.091777453024084701 0 -0.06964180214897181 0.091777453024084701 0 -0.075164799511626648 0.065372869601281192 0 -0.057144835734191893 0.088207312209507505 0 -0.06964180214897181 0.091777453024084701 0 -0.068089461569968729 0.076803891339018993 0 -0.06964180214897181 0.091777453024084701 0 -0.068089461569968729 0.076803891339018993 0 -0.075164799511626648 0.065372869601281192 0 -0.057144835734191893 0.088207312209507505 0 -0.068089461569968729 0.076803891339018993 0 -0.070406408885084593 0.061857930521202607 0 -0.06964180214897181 0.091777453024084701 0 -0.075164799511626648 0.065372869601281192 0 -0.08073347634316104 0.073575546631144614 0 -0.057144835734191893 0.088207312209507505 0 -0.070406408885084593 0.061857930521202607 0 -0.068089461569968729 0.076803891339018993 0 -0.075164799511626648 0.065372869601281192 0 -0.070406408885084593 0.061857930521202607 0 -0.089923560922876636 0.068178037636278263 0 -0.08578586832533959 0.082170087930996366 0 -0.103675070998617 0.083967309240415983 0 -0.08073347634316104 0.073575546631144614 0 -0.089923560922876636 0.068178037636278263 0 -0.083186879645449088 0.059889597987781727 0 -0.075164799511626648 0.065372869601281192 0 -0.08073347634316104 0.073575546631144614 0 -0.083186879645449088 0.059889597987781727 0 -0.08073347634316104 0.073575546631144614 0 -0.089923560922876636 0.068178037636278263 0 -0.08578586832533959 0.082170087930996366 0 -0.06964180214897181 0.091777453024084701 0 -0.08073347634316104 0.073575546631144614 0 -0.08578586832533959 0.082170087930996366 0 -0.082071947835387321 0.094412947715560025 0 -0.06964180214897181 0.091777453024084701 0 -0.08578586832533959 0.082170087930996366 0 -0.082071947835387321 0.094412947715560025 0 -0.08578586832533959 0.082170087930996366 0 -0.09233625647768956 0.091651488650119919 0 -0.09233625647768956 0.091651488650119919 0 -0.103675070998617 0.083967309240415983 0 -0.10429444750695741 0.1014886749251958 0 -0.08578586832533959 0.082170087930996366 0 -0.09233625647768956 0.091651488650119919 0 -0.103675070998617 0.083967309240415983 0 -0.103675070998617 0.083967309240415983 0 -0.1198812247159142 0.095002477965890675 0 -0.10429444750695741 0.1014886749251958 0 -0.089923560922876636 0.068178037636278263 0 -0.103675070998617 0.083967309240415983 0 -0.10785209906359081 0.065371441260914459 0 -0.12533951967512769 0.078274991835817334 0 -0.103675070998617 0.083967309240415983 0 -0.10785209906359081 0.065371441260914459 0 -0.12533951967512769 0.078274991835817334 0 -0.10785209906359081 0.065371441260914459 0 -0.1248745965026067 0.059896082918310993 0 -0.12533951967512769 0.078274991835817334 0 -0.103675070998617 0.083967309240415983 0 -0.1198812247159142 0.095002477965890675 0 -0.13137241316615089 0.11357835761918721 0 -0.1198812247159142 0.095002477965890675 0 -0.10429444750695741 0.1014886749251958 0 -0.13137241316615089 0.11357835761918721 0 -0.12687331202938101 0.13192737382428379 0 -0.10667563132183119 0.1260080396076822 0 -0.13137241316615089 0.11357835761918721 0 -0.10667563132183119 0.1260080396076822 0 -0.1062978327852654 0.11550845570815239 0 -0.13137241316615089 0.11357835761918721 0 -0.1062978327852654 0.11550845570815239 0 -0.10429444750695741 0.1014886749251958 0 -0.13137241316615089 0.11357835761918721 0 -0.10667563132183119 0.1260080396076822 0 -0.10667563132183119 0.1260080396076822 0 -0.1062978327852654 0.11550845570815239 0 -0.096577670607123245 0.1239972751083621 0 -0.092569001324263961 0.1124699312803344 0 -0.1062978327852654 0.11550845570815239 0 -0.096577670607123245 0.1239972751083621 0 -0.092569001324263961 0.1124699312803344 0 -0.1062978327852654 0.11550845570815239 0 -0.10429444750695741 0.1014886749251958 0 -0.092569001324263961 0.1124699312803344 0 -0.087572523790740042 0.10155903889124659 0 -0.10429444750695741 0.1014886749251958 0 -0.087572523790740042 0.10155903889124659 0 -0.09233625647768956 0.091651488650119919 0 -0.10429444750695741 0.1014886749251958 0 -0.10370969952600501 0.019997694726909911 0 -0.098524362227562057 0.035744340183224317 0 -0.08645931971955316 0.02325136753113614 0 -0.10370969952600501 0.019997694726909911 0 -0.08645931971955316 0.02325136753113614 0 -0.091682611010439896 0.0063963380850077774 0 -0.10370969952600501 0.019997694726909911 0 -0.1180188049733784 0.030804183747700629 0 -0.098524362227562057 0.035744340183224317 0 -0.10370969952600501 0.019997694726909911 0 -0.10877227824827949 0.0075748546359299482 0 -0.091682611010439896 0.0063963380850077774 0 -0.1029392013539359 -0.0085751277431150782 0 -0.10877227824827949 0.0075748546359299482 0 -0.091682611010439896 0.0063963380850077774 0 -0.10370969952600501 0.019997694726909911 0 -0.10877227824827949 0.0075748546359299482 0 -0.11835839359799651 0.016938700943610479 0 -0.1029392013539359 -0.0085751277431150782 0 -0.12735709500343681 0.004015926865657337 0 -0.10877227824827949 0.0075748546359299482 0 -0.12735709500343681 0.004015926865657337 0 -0.10877227824827949 0.0075748546359299482 0 -0.11835839359799651 0.016938700943610479 0 -0.1339340902388827 0.022300844741854581 0 -0.11835839359799651 0.016938700943610479 0 -0.1180188049733784 0.030804183747700629 0 -0.10370969952600501 0.019997694726909911 0 -0.11835839359799651 0.016938700943610479 0 -0.1180188049733784 0.030804183747700629 0 -0.1180188049733784 0.030804183747700629 0 -0.1128457876968547 0.048091259023394652 0 -0.098524362227562057 0.035744340183224317 0 -0.13626681081840961 0.042829268155062397 0 -0.1128457876968547 0.048091259023394652 0 -0.13626681081840961 0.042829268155062397 0 -0.1180188049733784 0.030804183747700629 0 -0.1128457876968547 0.048091259023394652 0 -0.13626681081840961 0.042829268155062397 0 -0.1128457876968547 0.048091259023394652 0 -0.1248745965026067 0.059896082918310993 0 -0.10785209906359081 0.065371441260914459 0 -0.1128457876968547 0.048091259023394652 0 -0.1248745965026067 0.059896082918310993 0 -0.1128457876968547 0.048091259023394652 0 -0.089424764575299687 0.053353249891726941 0 -0.089923560922876636 0.068178037636278263 0 -0.10785209906359081 0.065371441260914459 0 -0.089424764575299687 0.053353249891726941 0 -0.10785209906359081 0.065371441260914459 0 -0.1128457876968547 0.048091259023394652 0 -0.089424764575299687 0.053353249891726941 0 -0.1128457876968547 0.048091259023394652 0 -0.098524362227562057 0.035744340183224317 0 -0.089424764575299687 0.053353249891726941 0 -0.098524362227562057 0.035744340183224317 0 -0.080687796874281473 0.038968286178477703 0 -0.08645931971955316 0.02325136753113614 0 -0.098524362227562057 0.035744340183224317 0 -0.080687796874281473 0.038968286178477703 0 -0.089424764575299687 0.053353249891726941 0 -0.080687796874281473 0.038968286178477703 0 -0.089424764575299687 0.053353249891726941 0 -0.083186879645449088 0.059889597987781727 0 -0.075164799511626648 0.065372869601281192 0 -0.080687796874281473 0.038968286178477703 0 -0.083186879645449088 0.059889597987781727 0 -0.089923560922876636 0.068178037636278263 0 -0.089424764575299687 0.053353249891726941 0 -0.083186879645449088 0.059889597987781727 0 -0.075164799511626648 0.065372869601281192 0 -0.080687796874281473 0.038968286178477703 0 -0.071303082845968715 0.053347503409362687 0 -0.075164799511626648 0.065372869601281192 0 -0.080687796874281473 0.038968286178477703 0 -0.075164799511626648 0.065372869601281192 0 -0.070406408885084593 0.061857930521202607 0 -0.071303082845968715 0.053347503409362687 0 -0.071303082845968715 0.053347503409362687 0 -0.064856269609628314 0.055117702274744398 0 -0.065400139349222536 0.045420728471107522 0 -0.070406408885084593 0.061857930521202607 0 -0.071303082845968715 0.053347503409362687 0 -0.064856269609628314 0.055117702274744398 0 -0.070406408885084593 0.061857930521202607 0 -0.064856269609628314 0.055117702274744398 0 -0.059815066152941319 0.061788281472960463 0 -0.080687796874281473 0.038968286178477703 0 -0.065400139349222536 0.045420728471107522 0 -0.063264057366842208 0.031259222641012697 0 -0.080687796874281473 0.038968286178477703 0 -0.063264057366842208 0.031259222641012697 0 -0.073460039823911166 0.024685388153665749 0 -0.080687796874281473 0.038968286178477703 0 -0.071303082845968715 0.053347503409362687 0 -0.065400139349222536 0.045420728471107522 0 -0.063264057366842208 0.031259222641012697 0 -0.073460039823911166 0.024685388153665749 0 -0.061440697951084179 0.017621877449499421 0 -0.073460039823911166 0.024685388153665749 0 -0.076769634387976737 0.01135693610240161 0 -0.061440697951084179 0.017621877449499421 0 -0.080687796874281473 0.038968286178477703 0 -0.073460039823911166 0.024685388153665749 0 -0.08645931971955316 0.02325136753113614 0 -0.073460039823911166 0.024685388153665749 0 -0.08645931971955316 0.02325136753113614 0 -0.076769634387976737 0.01135693610240161 0 -0.08645931971955316 0.02325136753113614 0 -0.091682611010439896 0.0063963380850077774 0 -0.076769634387976737 0.01135693610240161 0 -0.091682611010439896 0.0063963380850077774 0 -0.078933949510919491 0.00072378658541613432 0 -0.076769634387976737 0.01135693610240161 0 -0.086097875964997059 -0.0058870606910941042 0 -0.091682611010439896 0.0063963380850077774 0 -0.078933949510919491 0.00072378658541613432 0 -0.078933949510919491 0.00072378658541613432 0 -0.076769634387976737 0.01135693610240161 0 -0.068462160169621672 0.0025537029525893409 0 -0.068462160169621672 0.0025537029525893409 0 -0.057836245250817257 0.0062936453779614283 0 -0.061440697951084179 0.017621877449499421 0 -0.076769634387976737 0.01135693610240161 0 -0.068462160169621672 0.0025537029525893409 0 -0.061440697951084179 0.017621877449499421 0 -0.057836245250817257 0.0062936453779614283 0 -0.061440697951084179 0.017621877449499421 0 -0.042678209040760022 0.019440128409622049 0 -0.057836245250817257 0.0062936453779614283 0 -0.042678209040760022 0.019440128409622049 0 -0.044352522143416888 0.0050416822031405977 0 -0.063264057366842208 0.031259222641012697 0 -0.042678209040760022 0.019440128409622049 0 -0.05195897498334151 0.039592758420259042 0 -0.063264057366842208 0.031259222641012697 0 -0.061440697951084179 0.017621877449499421 0 -0.042678209040760022 0.019440128409622049 0 -0.042678209040760022 0.019440128409622049 0 -0.038256592764973757 0.039174794321751791 0 -0.042678209040760022 0.019440128409622049 0 -0.038256592764973757 0.039174794321751791 0 -0.027511467414372541 0.03001296694831072 0 -0.042678209040760022 0.019440128409622049 0 -0.028180513839983729 0.018098474401369 0 -0.027511467414372541 0.03001296694831072 0 -0.042678209040760022 0.019440128409622049 0 -0.032770024037711037 0.0084985419153508525 0 -0.028180513839983729 0.018098474401369 0 -0.032770024037711037 0.0084985419153508525 0 -0.03614709390981162 0.0015378833132510439 0 -0.044352522143416888 0.0050416822031405977 0 -0.029539197120254941 -0.00051038393964639519 0 -0.032770024037711037 0.0084985419153508525 0 -0.03614709390981162 0.0015378833132510439 0 -0.042678209040760022 0.019440128409622049 0 -0.032770024037711037 0.0084985419153508525 0 -0.044352522143416888 0.0050416822031405977 0 -0.042969512877196837 0.063698159366550891 0 -0.047980875447113908 0.056604040506729722 0 -0.052166049838275927 0.062310195238599278 0 -0.047980875447113908 0.056604040506729722 0 -0.052166049838275927 0.062310195238599278 0 -0.055804220694704088 0.051985500715961808 0 -0.064856269609628314 0.055117702274744398 0 -0.059815066152941319 0.061788281472960463 0 -0.055804220694704088 0.051985500715961808 0 -0.052166049838275927 0.062310195238599278 0 -0.059815066152941319 0.061788281472960463 0 -0.055804220694704088 0.051985500715961808 0 -0.064856269609628314 0.055117702274744398 0 -0.065400139349222536 0.045420728471107522 0 -0.055804220694704088 0.051985500715961808 0 -0.047980875447113908 0.056604040506729722 0 -0.055804220694704088 0.051985500715961808 0 -0.046350630683546529 0.050276175962098407 0 -0.055804220694704088 0.051985500715961808 0 -0.05195897498334151 0.039592758420259042 0 -0.046350630683546529 0.050276175962098407 0 -0.065400139349222536 0.045420728471107522 0 -0.055804220694704088 0.051985500715961808 0 -0.05195897498334151 0.039592758420259042 0 -0.065400139349222536 0.045420728471107522 0 -0.063264057366842208 0.031259222641012697 0 -0.05195897498334151 0.039592758420259042 0 -0.042678209040760022 0.019440128409622049 0 -0.05195897498334151 0.039592758420259042 0 -0.038256592764973757 0.039174794321751791 0 -0.05195897498334151 0.039592758420259042 0 -0.038256592764973757 0.039174794321751791 0 -0.046350630683546529 0.050276175962098407 0 -0.038256592764973757 0.039174794321751791 0 -0.033834976489186493 0.058909460233881362 0 -0.038256592764973757 0.039174794321751791 0 -0.038513274033404883 0.055407770980391423 0 -0.033834976489186493 0.058909460233881362 0 -0.038256592764973757 0.039174794321751791 0 -0.046350630683546529 0.050276175962098407 0 -0.038513274033404883 0.055407770980391423 0 -0.038256592764973757 0.039174794321751791 0 -0.033834976489186493 0.058909460233881362 0 -0.02879531395286377 0.050132256585483953 0 -0.046350630683546529 0.050276175962098407 0 -0.038513274033404883 0.055407770980391423 0 -0.042914570065583427 0.057802329486214707 0 -0.036732086871232597 0.066761861307427367 0 -0.033834976489186493 0.058909460233881362 0 -0.038907572144486188 0.060810532415041758 0 -0.038513274033404883 0.055407770980391423 0 -0.033834976489186493 0.058909460233881362 0 -0.038513274033404883 0.055407770980391423 0 -0.033834976489186493 0.058909460233881362 0 -0.038907572144486188 0.060810532415041758 0 -0.042969512877196837 0.063698159366550891 0 -0.038907572144486188 0.060810532415041758 0 -0.042914570065583427 0.057802329486214707 0 -0.038513274033404883 0.055407770980391423 0 -0.038907572144486188 0.060810532415041758 0 -0.042914570065583427 0.057802329486214707 0 -0.047980875447113908 0.056604040506729722 0 -0.046350630683546529 0.050276175962098407 0 -0.042914570065583427 0.057802329486214707 0 -0.042969512877196837 0.063698159366550891 0 -0.047980875447113908 0.056604040506729722 0 -0.042914570065583427 0.057802329486214707 0 -0.033834976489186493 0.058909460233881362 0 -0.01963881101933795 0.057650575484614511 0 -0.02879531395286377 0.050132256585483953 0 -0.01963881101933795 0.057650575484614511 0 -0.02879531395286377 0.050132256585483953 0 -0.02345087553795689 0.044794196301688183 0 -0.01963881101933795 0.057650575484614511 0 -0.02345087553795689 0.044794196301688183 0 -0.012175026131353321 0.050402421608982242 0 -0.02345087553795689 0.044794196301688183 0 -0.014695186475719159 0.0359408453649432 0 -0.012175026131353321 0.050402421608982242 0 -0.038256592764973757 0.039174794321751791 0 -0.02879531395286377 0.050132256585483953 0 -0.02345087553795689 0.044794196301688183 0 -0.038256592764973757 0.039174794321751791 0 -0.02345087553795689 0.044794196301688183 0 -0.027511467414372541 0.03001296694831072 0 -0.02345087553795689 0.044794196301688183 0 -0.014695186475719159 0.0359408453649432 0 -0.027511467414372541 0.03001296694831072 0 -0.014695186475719159 0.0359408453649432 0 -0.0023331541944977092 0.045311556235899067 0 0.00074240361007229996 0.028778475488121531 0 -0.014695186475719159 0.0359408453649432 0 -0.0023331541944977092 0.045311556235899067 0 -0.012175026131353321 0.050402421608982242 0 -0.0023331541944977092 0.045311556235899067 0 -0.012175026131353321 0.050402421608982242 0 0.00079413703044923156 0.058803151297745167 0 -0.012175026131353321 0.050402421608982242 0 -0.0089029190745683329 0.062319161291970238 0 0.00079413703044923156 0.058803151297745167 0 -0.01963881101933795 0.057650575484614511 0 -0.012175026131353321 0.050402421608982242 0 -0.0089029190745683329 0.062319161291970238 0 -0.021996997598287969 0.010981086364913869 0 -0.02112675760807068 0.0030512678310729521 0 -0.0083058662928979787 0.012079608812324741 0 -0.021996997598287969 0.010981086364913869 0 -0.01661374249992489 0.02103319015209278 0 -0.0083058662928979787 0.012079608812324741 0 -0.021996997598287969 0.010981086364913869 0 -0.02112675760807068 0.0030512678310729521 0 -0.02631380729169577 0.0053104208567875946 0 -0.029539197120254941 -0.00051038393964639519 0 -0.02112675760807068 0.0030512678310729521 0 -0.02631380729169577 0.0053104208567875946 0 -0.029539197120254941 -0.00051038393964639519 0 -0.032770024037711037 0.0084985419153508525 0 -0.02631380729169577 0.0053104208567875946 0 -0.032770024037711037 0.0084985419153508525 0 -0.021996997598287969 0.010981086364913869 0 -0.02631380729169577 0.0053104208567875946 0 -0.032770024037711037 0.0084985419153508525 0 -0.021996997598287969 0.010981086364913869 0 -0.028180513839983729 0.018098474401369 0 -0.028180513839983729 0.018098474401369 0 -0.027511467414372541 0.03001296694831072 0 -0.01661374249992489 0.02103319015209278 0 -0.014695186475719159 0.0359408453649432 0 -0.027511467414372541 0.03001296694831072 0 -0.01661374249992489 0.02103319015209278 0 -0.021996997598287969 0.010981086364913869 0 -0.028180513839983729 0.018098474401369 0 -0.01661374249992489 0.02103319015209278 0 -0.01661374249992489 0.02103319015209278 0 0.00074240361007229996 0.028778475488121531 0 -0.0083058662928979787 0.012079608812324741 0 0.0060294939382754481 0.01286563290641534 0 0.00074240361007229996 0.028778475488121531 0 -0.014695186475719159 0.0359408453649432 0 -0.01661374249992489 0.02103319015209278 0 0.00074240361007229996 0.028778475488121531 0 -0.0083058662928979787 0.012079608812324741 0 0.00074240361007229996 0.028778475488121531 0 -0.01661374249992489 0.02103319015209278 0 -0.0083058662928979787 0.012079608812324741 0 0.00074240361007229996 0.028778475488121531 0 -0.0072764121498596901 -0.0036325873431357339 0 -0.0083058662928979787 0.012079608812324741 0 0.0012074066645448821 -0.00065723147797176382 0 -0.0072764121498596901 -0.0036325873431357339 0 -0.013607688627124061 -0.00178224205395049 0 -0.0083058662928979787 0.012079608812324741 0 -0.017354136195868258 -0.0046192578634720229 0 -0.0083058662928979787 0.012079608812324741 0 -0.017354136195868258 -0.0046192578634720229 0 -0.013607688627124061 -0.00178224205395049 0 -0.0083058662928979787 0.012079608812324741 0 -0.0083058662928979787 0.012079608812324741 0 0.0060294939382754481 0.01286563290641534 0 0.0012074066645448821 -0.00065723147797176382 0 -0.017354136195868258 -0.0046192578634720229 0 -0.02112675760807068 0.0030512678310729521 0 -0.0083058662928979787 0.012079608812324741 0 0.0060294939382754481 0.01286563290641534 0 0.0012074066645448821 -0.00065723147797176382 0 0.01265631079038235 -0.01012693536007268 0 0.0060294939382754481 0.01286563290641534 0 0.020311547060899309 0.014329649790385431 0 0.01265631079038235 -0.01012693536007268 0 0.00074240361007229996 0.028778475488121531 0 0.015746539320639769 0.024046632949657649 0 0.022626785018342459 0.038544513255683338 0 0.0060294939382754481 0.01286563290641534 0 0.00074240361007229996 0.028778475488121531 0 0.015746539320639769 0.024046632949657649 0 0.0060294939382754481 0.01286563290641534 0 0.015746539320639769 0.024046632949657649 0 0.020311547060899309 0.014329649790385431 0 0.015746539320639769 0.024046632949657649 0 0.029022466975609298 0.02571489330768258 0 0.020311547060899309 0.014329649790385431 0 0.015746539320639769 0.024046632949657649 0 0.029022466975609298 0.02571489330768258 0 0.022626785018342459 0.038544513255683338 0 0.020311547060899309 0.014329649790385431 0 0.034885408484197772 0.0062912350017927032 0 0.01265631079038235 -0.01012693536007268 0 0.029022466975609298 0.02571489330768258 0 0.020311547060899309 0.014329649790385431 0 0.034885408484197772 0.0062912350017927032 0 0.00079413703044923156 0.058803151297745167 0 0.01366790099406239 0.052632887419703241 0 0.0065236609159091173 0.071671444604676282 0 -0.0023331541944977092 0.045311556235899067 0 0.00079413703044923156 0.058803151297745167 0 0.01366790099406239 0.052632887419703241 0 0.00074240361007229996 0.028778475488121531 0 0.01366790099406239 0.052632887419703241 0 0.022626785018342459 0.038544513255683338 0 0.00074240361007229996 0.028778475488121531 0 0.022626785018342459 0.038544513255683338 0 -0.0023331541944977092 0.045311556235899067 0 0.00074240361007229996 0.028778475488121531 0 0.01366790099406239 0.052632887419703241 0 0.00074240361007229996 0.028778475488121531 0 0.01366790099406239 0.052632887419703241 0 0.029022466975609298 0.02571489330768258 0 0.022626785018342459 0.038544513255683338 0 0.037630953216902623 0.033668105561091018 0 0.01366790099406239 0.052632887419703241 0 0.022626785018342459 0.038544513255683338 0 0.025434983742737761 0.055249644843112657 0 0.022626785018342459 0.038544513255683338 0 0.025434983742737761 0.055249644843112657 0 0.034616451435572633 0.051242168749322393 0 0.025434983742737761 0.055249644843112657 0 0.034062632092931817 0.061255223706808547 0 0.02703491536905472 0.067401080742933134 0 0.01366790099406239 0.052632887419703241 0 0.025434983742737761 0.055249644843112657 0 0.02703491536905472 0.067401080742933134 0 0.034616451435572633 0.051242168749322393 0 0.044511166426612833 0.04831055102324476 0 0.060132464308973767 0.062986029428160187 0 0.034616451435572633 0.051242168749322393 0 0.060132464308973767 0.062986029428160187 0 0.044258496001147778 0.063884183083345675 0 0.034062632092931817 0.061255223706808547 0 0.034616451435572633 0.051242168749322393 0 0.044258496001147778 0.063884183083345675 0 0.025434983742737761 0.055249644843112657 0 0.034062632092931817 0.061255223706808547 0 0.034616451435572633 0.051242168749322393 0 0.022626785018342459 0.038544513255683338 0 0.044511166426612833 0.04831055102324476 0 0.022626785018342459 0.038544513255683338 0 0.034616451435572633 0.051242168749322393 0 0.044511166426612833 0.04831055102324476 0 0.022626785018342459 0.038544513255683338 0 0.044511166426612833 0.04831055102324476 0 0.037630953216902623 0.033668105561091018 0 0.044511166426612833 0.04831055102324476 0 0.037630953216902623 0.033668105561091018 0 0.0484135161167236 0.034205204957136963 0 0.0484135161167236 0.034205204957136963 0 0.060669767880595721 0.038134724015348051 0 0.0518117103670514 0.042737821036878322 0 0.0484135161167236 0.034205204957136963 0 0.060669767880595721 0.038134724015348051 0 0.057623658326613529 0.02352368721002385 0 0.060669767880595721 0.038134724015348051 0 0.0518117103670514 0.042737821036878322 0 0.059559274975242667 0.047504887075434543 0 0.044511166426612833 0.04831055102324476 0 0.0518117103670514 0.042737821036878322 0 0.059559274975242667 0.047504887075434543 0 0.044511166426612833 0.04831055102324476 0 0.0484135161167236 0.034205204957136963 0 0.0518117103670514 0.042737821036878322 0 0.044511166426612833 0.04831055102324476 0 0.066395547834883203 0.05807658879080619 0 0.060132464308973767 0.062986029428160187 0 0.034616451435572633 0.051242168749322393 0 0.060132464308973767 0.062986029428160187 0 0.044511166426612833 0.04831055102324476 0 0.066395547834883203 0.05807658879080619 0 0.044511166426612833 0.04831055102324476 0 0.059559274975242667 0.047504887075434543 0 0.066395547834883203 0.05807658879080619 0 0.034885408484197772 0.0062912350017927032 0 0.052968053050369737 0.0090809173488315582 0 0.042517259973231587 -0.011683923625132649 0 0.034885408484197772 0.0062912350017927032 0 0.043580831547224863 0.021565365261707499 0 0.052968053050369737 0.0090809173488315582 0 0.029022466975609298 0.02571489330768258 0 0.034885408484197772 0.0062912350017927032 0 0.043580831547224863 0.021565365261707499 0 0.029022466975609298 0.02571489330768258 0 0.037630953216902623 0.033668105561091018 0 0.043580831547224863 0.021565365261707499 0 0.037630953216902623 0.033668105561091018 0 0.0484135161167236 0.034205204957136963 0 0.043580831547224863 0.021565365261707499 0 0.057623658326613529 0.02352368721002385 0 0.052968053050369737 0.0090809173488315582 0 0.071708216805815503 0.016768608491387289 0 0.043580831547224863 0.021565365261707499 0 0.057623658326613529 0.02352368721002385 0 0.052968053050369737 0.0090809173488315582 0 0.0484135161167236 0.034205204957136963 0 0.043580831547224863 0.021565365261707499 0 0.057623658326613529 0.02352368721002385 0 0.052968053050369737 0.0090809173488315582 0 0.071708216805815503 0.016768608491387289 0 0.067492943165135169 -0.0019794682467893379 0 0.083930998993742512 0.0059737405228527038 0 0.071708216805815503 0.016768608491387289 0 0.067492943165135169 -0.0019794682467893379 0 0.083930998993742512 0.0059737405228527038 0 0.098495163759696414 0.0029673617968291321 0 0.094917995650245529 0.021722354499223519 0 0.083930998993742512 0.0059737405228527038 0 0.071708216805815503 0.016768608491387289 0 0.094917995650245529 0.021722354499223519 0 0.071708216805815503 0.016768608491387289 0 0.07449934060461412 0.03258063005354956 0 0.094917995650245529 0.021722354499223519 0 0.07449934060461412 0.03258063005354956 0 0.087237150257314613 0.037926204838731957 0 0.094917995650245529 0.021722354499223519 0 0.057623658326613529 0.02352368721002385 0 0.071708216805815503 0.016768608491387289 0 0.07449934060461412 0.03258063005354956 0 0.060669767880595721 0.038134724015348051 0 0.057623658326613529 0.02352368721002385 0 0.07449934060461412 0.03258063005354956 0 0.060669767880595721 0.038134724015348051 0 0.069155187538762042 0.045022305850501279 0 0.07449934060461412 0.03258063005354956 0 0.060669767880595721 0.038134724015348051 0 0.059559274975242667 0.047504887075434543 0 0.069155187538762042 0.045022305850501279 0 0.069155187538762042 0.045022305850501279 0 0.07449934060461412 0.03258063005354956 0 0.079692196512252927 0.044953406994506007 0 0.059559274975242667 0.047504887075434543 0 0.069155187538762042 0.045022305850501279 0 0.067326156772233525 0.050603546620565112 0 0.059559274975242667 0.047504887075434543 0 0.066395547834883203 0.05807658879080619 0 0.067326156772233525 0.050603546620565112 0 0.066395547834883203 0.05807658879080619 0 0.067326156772233525 0.050603546620565112 0 0.074194616740046182 0.051810404765518438 0 0.069155187538762042 0.045022305850501279 0 0.067326156772233525 0.050603546620565112 0 0.074194616740046182 0.051810404765518438 0 0.069155187538762042 0.045022305850501279 0 0.074194616740046182 0.051810404765518438 0 0.079692196512252927 0.044953406994506007 0 0.066395547834883203 0.05807658879080619 0 0.074194616740046182 0.051810404765518438 0 0.080343143758095259 0.058335218209008277 0 0.066395547834883203 0.05807658879080619 0 0.080343143758095259 0.058335218209008277 0 0.08827992924315356 0.067842626558367619 0 0.080343143758095259 0.058335218209008277 0 0.083306510346727383 0.05351440315152866 0 0.090416084875221875 0.058235299142909973 0 0.074194616740046182 0.051810404765518438 0 0.083306510346727383 0.05351440315152866 0 0.079692196512252927 0.044953406994506007 0 0.083306510346727383 0.05351440315152866 0 0.089760373586053266 0.048866493307206167 0 0.079692196512252927 0.044953406994506007 0 0.074194616740046182 0.051810404765518438 0 0.080343143758095259 0.058335218209008277 0 0.083306510346727383 0.05351440315152866 0 0.083306510346727383 0.05351440315152866 0 0.089760373586053266 0.048866493307206167 0 0.090416084875221875 0.058235299142909973 0 0.089760373586053266 0.048866493307206167 0 0.090416084875221875 0.058235299142909973 0 0.099395501669828634 0.055681054702382278 0 0.080343143758095259 0.058335218209008277 0 0.090416084875221875 0.058235299142909973 0 0.08827992924315356 0.067842626558367619 0 0.087237150257314613 0.037926204838731957 0 0.098930039005792711 0.04227996871225087 0 0.094917995650245529 0.021722354499223519 0 0.07449934060461412 0.03258063005354956 0 0.079692196512252927 0.044953406994506007 0 0.087237150257314613 0.037926204838731957 0 0.089760373586053266 0.048866493307206167 0 0.079692196512252927 0.044953406994506007 0 0.087237150257314613 0.037926204838731957 0 0.089760373586053266 0.048866493307206167 0 0.087237150257314613 0.037926204838731957 0 0.098930039005792711 0.04227996871225087 0 0.10894092886672049 0.033503019923715648 0 0.098930039005792711 0.04227996871225087 0 0.11550376979223601 0.054551475820320147 0 0.10894092886672049 0.033503019923715648 0 0.098930039005792711 0.04227996871225087 0 0.094917995650245529 0.021722354499223519 0 0.098930039005792711 0.04227996871225087 0 0.099395501669828634 0.055681054702382278 0 0.11550376979223601 0.054551475820320147 0 0.099395501669828634 0.055681054702382278 0 0.11550376979223601 0.054551475820320147 0 0.10561354398445311 0.069921878226714862 0 0.090416084875221875 0.058235299142909973 0 0.099395501669828634 0.055681054702382278 0 0.095618088847860577 0.065038419849084594 0 0.089760373586053266 0.048866493307206167 0 0.098930039005792711 0.04227996871225087 0 0.099395501669828634 0.055681054702382278 0 0.10894092886672049 0.033503019923715648 0 0.11961069471150609 0.02296590295220987 0 0.12977361784467401 0.039215218793308727 0 0.10894092886672049 0.033503019923715648 0 0.11550376979223601 0.054551475820320147 0 0.12977361784467401 0.039215218793308727 0 0.11961069471150609 0.02296590295220987 0 0.1158546052028349 0.0064685721448778594 0 0.094917995650245529 0.021722354499223519 0 0.11961069471150609 0.02296590295220987 0 0.1158546052028349 0.0064685721448778594 0 0.13894824890776639 0.02136224913872127 0 0.1158546052028349 0.0064685721448778594 0 0.098495163759696414 0.0029673617968291321 0 0.094917995650245529 0.021722354499223519 0 0.10894092886672049 0.033503019923715648 0 0.11961069471150609 0.02296590295220987 0 0.094917995650245529 0.021722354499223519 0 0.097728221435088053 0.099184528615223033 0 0.110275064223293 0.10236359857942121 0 0.11116449005577619 0.086473750785835857 0 0.099894961061174667 0.1104201015940532 0 0.11150799601301251 0.1117412241471519 0 0.110275064223293 0.10236359857942121 0 0.097728221435088053 0.099184528615223033 0 0.099894961061174667 0.1104201015940532 0 0.110275064223293 0.10236359857942121 0 0.097728221435088053 0.099184528615223033 0 0.099894961061174667 0.1104201015940532 0 0.084925795867796111 0.1103515185161017 0 0.099894961061174667 0.1104201015940532 0 0.096984900528893664 0.1212489081817222 0 0.084925795867796111 0.1103515185161017 0 0.099894961061174667 0.1104201015940532 0 0.096984900528893664 0.1212489081817222 0 0.10712684862241641 0.1210429748963526 0 0.096984900528893664 0.1212489081817222 0 0.10712684862241641 0.1210429748963526 0 0.10589272808503949 0.13156516273042271 0 0.099894961061174667 0.1104201015940532 0 0.10712684862241641 0.1210429748963526 0 0.11150799601301251 0.1117412241471519 0 0.10712684862241641 0.1210429748963526 0 0.11150799601301251 0.1117412241471519 0 0.1187293914863337 0.1182846474287873 0 0.11150799601301251 0.1117412241471519 0 0.1187293914863337 0.1182846474287873 0 0.1197878353292403 0.1092484053650479 0 0.10712684862241641 0.1210429748963526 0 0.1187293914863337 0.1182846474287873 0 0.114987521205969 0.1268010028982309 0 0.1187293914863337 0.1182846474287873 0 0.12813823657366311 0.12049833089676459 0 0.12624189261331301 0.1140678077034443 0 0.1187293914863337 0.1182846474287873 0 0.12212988809696081 0.1249307776834532 0 0.12813823657366311 0.12049833089676459 0 0.1187293914863337 0.1182846474287873 0 0.12212988809696081 0.1249307776834532 0 0.114987521205969 0.1268010028982309 0 0.1187293914863337 0.1182846474287873 0 0.1197878353292403 0.1092484053650479 0 0.12624189261331301 0.1140678077034443 0 0.1216961693062274 0.1020981758197984 0 0.110275064223293 0.10236359857942121 0 0.11116449005577619 0.086473750785835857 0 0.1197878353292403 0.1092484053650479 0 0.1216961693062274 0.1020981758197984 0 0.1302764983332621 0.10693497851168419 0 0.1216961693062274 0.1020981758197984 0 0.11116449005577619 0.086473750785835857 0 0.13668050292917741 0.098217611464673699 0 0.1197878353292403 0.1092484053650479 0 0.1216961693062274 0.1020981758197984 0 0.110275064223293 0.10236359857942121 0 0.11150799601301251 0.1117412241471519 0 0.1197878353292403 0.1092484053650479 0 0.110275064223293 0.10236359857942121 0 0.11116449005577619 0.086473750785835857 0 0.1207366242219714 0.074251990558816788 0 0.1300820653953097 0.084166932106396392 0 0.11116449005577619 0.086473750785835857 0 0.13668050292917741 0.098217611464673699 0 0.11116449005577619 0.086473750785835857 0 0.1207366242219714 0.074251990558816788 0 0.10561354398445311 0.069921878226714862 0 0.11550376979223601 0.054551475820320147 0 0.1207366242219714 0.074251990558816788 0 0.13255022158949201 0.068763676371196639 0 0.11550376979223601 0.054551475820320147 0 0.1207366242219714 0.074251990558816788 0 0.10561354398445311 0.069921878226714862 0 0.11116449005577619 0.086473750785835857 0 0.10561354398445311 0.069921878226714862 0 0.085648477182374977 0.074729890106998029 0 0.10561354398445311 0.069921878226714862 0 0.095618088847860577 0.065038419849084594 0 0.085648477182374977 0.074729890106998029 0 0.099395501669828634 0.055681054702382278 0 0.10561354398445311 0.069921878226714862 0 0.095618088847860577 0.065038419849084594 0 0.11116449005577619 0.086473750785835857 0 0.085648477182374977 0.074729890106998029 0 0.11116449005577619 0.086473750785835857 0 0.090808031879269946 0.087622927320568048 0 0.085648477182374977 0.074729890106998029 0 0.097728221435088053 0.099184528615223033 0 0.11116449005577619 0.086473750785835857 0 0.090808031879269946 0.087622927320568048 0 0.097728221435088053 0.099184528615223033 0 0.090808031879269946 0.087622927320568048 0 0.080235742217082393 0.093435287859391092 0 0.090808031879269946 0.087622927320568048 0 0.078675001300488379 0.083882301042573534 0 0.085648477182374977 0.074729890106998029 0 0.090808031879269946 0.087622927320568048 0 0.078675001300488379 0.083882301042573534 0 0.080235742217082393 0.093435287859391092 0 0.066395547834883203 0.05807658879080619 0 0.08827992924315356 0.067842626558367619 0 0.085648477182374977 0.074729890106998029 0 0.095618088847860577 0.065038419849084594 0 0.08827992924315356 0.067842626558367619 0 0.085648477182374977 0.074729890106998029 0 0.090416084875221875 0.058235299142909973 0 0.095618088847860577 0.065038419849084594 0 0.08827992924315356 0.067842626558367619 0 0.066395547834883203 0.05807658879080619 0 0.085648477182374977 0.074729890106998029 0 0.060132464308973767 0.062986029428160187 0 0.066395547834883203 0.05807658879080619 0 0.08827992924315356 0.067842626558367619 0 0.085648477182374977 0.074729890106998029 0 0.068637102026180674 0.07792917868559901 0 0.060132464308973767 0.062986029428160187 0 0.085648477182374977 0.074729890106998029 0 0.060132464308973767 0.062986029428160187 0 0.078675001300488379 0.083882301042573534 0 0.085648477182374977 0.074729890106998029 0 0.068637102026180674 0.07792917868559901 0 0.080235742217082393 0.093435287859391092 0 0.069503799956795384 0.087722797055870286 0 0.068523875558259784 0.095111972458496966 0 0.078675001300488379 0.083882301042573534 0 0.080235742217082393 0.093435287859391092 0 0.069503799956795384 0.087722797055870286 0 0.078675001300488379 0.083882301042573534 0 0.068637102026180674 0.07792917868559901 0 0.069503799956795384 0.087722797055870286 0 0.068637102026180674 0.07792917868559901 0 0.069503799956795384 0.087722797055870286 0 0.060111091978902922 0.083782113849914977 0 0.069503799956795384 0.087722797055870286 0 0.06135777996986308 0.093915161513068182 0 0.060111091978902922 0.083782113849914977 0 0.069503799956795384 0.087722797055870286 0 0.068523875558259784 0.095111972458496966 0 0.06135777996986308 0.093915161513068182 0 0.068523875558259784 0.095111972458496966 0 0.071520258741129425 0.10189571548122769 0 0.062413973273008162 0.1018934272394761 0 0.068523875558259784 0.095111972458496966 0 0.062413973273008162 0.1018934272394761 0 0.06135777996986308 0.093915161513068182 0 0.071520258741129425 0.10189571548122769 0 0.072821304814728441 0.1108529925529516 0 0.063718101814298073 0.11016590081819259 0 0.071520258741129425 0.10189571548122769 0 0.063718101814298073 0.11016590081819259 0 0.062413973273008162 0.1018934272394761 0 0.071520258741129425 0.10189571548122769 0 0.084925795867796111 0.1103515185161017 0 0.072821304814728441 0.1108529925529516 0 0.080235742217082393 0.093435287859391092 0 0.068523875558259784 0.095111972458496966 0 0.071520258741129425 0.10189571548122769 0 0.097728221435088053 0.099184528615223033 0 0.080235742217082393 0.093435287859391092 0 0.084925795867796111 0.1103515185161017 0 0.080235742217082393 0.093435287859391092 0 0.071520258741129425 0.10189571548122769 0 0.084925795867796111 0.1103515185161017 0 0.084925795867796111 0.1103515185161017 0 0.074154959480044275 0.1204842858357125 0 0.087075880893963842 0.12621803440601359 0 0.096984900528893664 0.1212489081817222 0 0.084925795867796111 0.1103515185161017 0 0.087075880893963842 0.12621803440601359 0 0.084925795867796111 0.1103515185161017 0 0.074154959480044275 0.1204842858357125 0 0.072821304814728441 0.1108529925529516 0 0.074154959480044275 0.1204842858357125 0 0.072821304814728441 0.1108529925529516 0 0.063718101814298073 0.11016590081819259 0 0.074154959480044275 0.1204842858357125 0 0.063718101814298073 0.11016590081819259 0 0.060124536552058239 0.11864948812996751 0 0.074154959480044275 0.1204842858357125 0 0.060124536552058239 0.11864948812996751 0 0.061109117960118017 0.12720913792676911 0 0.060124536552058239 0.11864948812996751 0 0.052595679859244633 0.1236025024456274 0 0.054913207086597561 0.11271600588853189 0 0.060124536552058239 0.11864948812996751 0 0.052595679859244633 0.1236025024456274 0 0.061109117960118017 0.12720913792676911 0 0.052595679859244633 0.1236025024456274 0 0.054913207086597561 0.11271600588853189 0 0.046771683079868627 0.1089772416004138 0 0.063718101814298073 0.11016590081819259 0 0.060124536552058239 0.11864948812996751 0 0.054913207086597561 0.11271600588853189 0 0.063718101814298073 0.11016590081819259 0 0.062413973273008162 0.1018934272394761 0 0.053620768430252298 0.1031656988462608 0 0.063718101814298073 0.11016590081819259 0 0.054913207086597561 0.11271600588853189 0 0.053620768430252298 0.1031656988462608 0 0.06135777996986308 0.093915161513068182 0 0.053620768430252298 0.1031656988462608 0 0.051535176025136201 0.090416251810209708 0 0.062413973273008162 0.1018934272394761 0 0.06135777996986308 0.093915161513068182 0 0.053620768430252298 0.1031656988462608 0 0.053620768430252298 0.1031656988462608 0 0.042875633238578528 0.09739353282270094 0 0.051535176025136201 0.090416251810209708 0 0.053620768430252298 0.1031656988462608 0 0.046771683079868627 0.1089772416004138 0 0.042875633238578528 0.09739353282270094 0 0.054913207086597561 0.11271600588853189 0 0.053620768430252298 0.1031656988462608 0 0.046771683079868627 0.1089772416004138 0 0.046771683079868627 0.1089772416004138 0 0.042875633238578528 0.09739353282270094 0 0.034382595390138257 0.1099700727945534 0 0.042875633238578528 0.09739353282270094 0 0.034382595390138257 0.1099700727945534 0 0.030708755379597181 0.088685576768743155 0 0.034382595390138257 0.1099700727945534 0 0.030708755379597181 0.088685576768743155 0 0.052595679859244633 0.1236025024456274 0 0.046771683079868627 0.1089772416004138 0 0.034382595390138257 0.1099700727945534 0 0.034382595390138257 0.1099700727945534 0 0.02520709702204247 0.1232263280856261 0 0.037354296692750887 0.12718670835402709 0 0.052595679859244633 0.1236025024456274 0 0.034382595390138257 0.1099700727945534 0 0.037354296692750887 0.12718670835402709 0 0.034382595390138257 0.1099700727945534 0 0.037354296692750887 0.12718670835402709 0 0.052595679859244633 0.1236025024456274 0 0.034382595390138257 0.1099700727945534 0 0.060132464308973767 0.062986029428160187 0 0.051537231586459821 0.0703604747810012 0 0.044258496001147778 0.063884183083345675 0 0.051537231586459821 0.0703604747810012 0 0.045053238281461433 0.071665999821029613 0 0.044258496001147778 0.063884183083345675 0 0.060132464308973767 0.062986029428160187 0 0.058160070023191839 0.074213970699792686 0 0.051537231586459821 0.0703604747810012 0 0.068637102026180674 0.07792917868559901 0 0.060132464308973767 0.062986029428160187 0 0.058160070023191839 0.074213970699792686 0 0.051537231586459821 0.0703604747810012 0 0.049495561811348857 0.078896267932753172 0 0.045053238281461433 0.071665999821029613 0 0.058160070023191839 0.074213970699792686 0 0.051537231586459821 0.0703604747810012 0 0.049495561811348857 0.078896267932753172 0 0.049495561811348857 0.078896267932753172 0 0.051535176025136201 0.090416251810209708 0 0.041750220721871581 0.085344735896560275 0 0.049495561811348857 0.078896267932753172 0 0.060111091978902922 0.083782113849914977 0 0.051535176025136201 0.090416251810209708 0 0.068637102026180674 0.07792917868559901 0 0.058160070023191839 0.074213970699792686 0 0.060111091978902922 0.083782113849914977 0 0.058160070023191839 0.074213970699792686 0 0.049495561811348857 0.078896267932753172 0 0.060111091978902922 0.083782113849914977 0 0.06135777996986308 0.093915161513068182 0 0.060111091978902922 0.083782113849914977 0 0.051535176025136201 0.090416251810209708 0 0.042875633238578528 0.09739353282270094 0 0.051535176025136201 0.090416251810209708 0 0.041750220721871581 0.085344735896560275 0 0.042875633238578528 0.09739353282270094 0 0.041750220721871581 0.085344735896560275 0 0.030708755379597181 0.088685576768743155 0 0.041750220721871581 0.085344735896560275 0 0.037489048909448763 0.07466528487264068 0 0.030708755379597181 0.088685576768743155 0 0.049495561811348857 0.078896267932753172 0 0.041750220721871581 0.085344735896560275 0 0.037489048909448763 0.07466528487264068 0 0.037489048909448763 0.07466528487264068 0 0.02703491536905472 0.067401080742933134 0 0.030708755379597181 0.088685576768743155 0 0.049495561811348857 0.078896267932753172 0 0.045053238281461433 0.071665999821029613 0 0.037489048909448763 0.07466528487264068 0 0.045053238281461433 0.071665999821029613 0 0.037489048909448763 0.07466528487264068 0 0.037579666130808903 0.067774354445351542 0 0.034062632092931817 0.061255223706808547 0 0.037579666130808903 0.067774354445351542 0 0.02703491536905472 0.067401080742933134 0 0.037489048909448763 0.07466528487264068 0 0.037579666130808903 0.067774354445351542 0 0.02703491536905472 0.067401080742933134 0 0.034062632092931817 0.061255223706808547 0 0.037579666130808903 0.067774354445351542 0 0.044258496001147778 0.063884183083345675 0 0.045053238281461433 0.071665999821029613 0 0.037579666130808903 0.067774354445351542 0 0.044258496001147778 0.063884183083345675 0 0.02703491536905472 0.067401080742933134 0 0.030708755379597181 0.088685576768743155 0 0.01366790099406239 0.052632887419703241 0 0.026593398378051959 0.076487299351285121 0 0.01366790099406239 0.052632887419703241 0 0.02703491536905472 0.067401080742933134 0 0.026593398378051959 0.076487299351285121 0 0.02703491536905472 0.067401080742933134 0 0.026593398378051959 0.076487299351285121 0 0.030708755379597181 0.088685576768743155 0 0.01366790099406239 0.052632887419703241 0 0.026593398378051959 0.076487299351285121 0 0.01611389888654503 0.070322973248010373 0 0.026593398378051959 0.076487299351285121 0 0.01611389888654503 0.070322973248010373 0 0.01767063525815666 0.080500261616376856 0 0.01767063525815666 0.080500261616376856 0 0.030708755379597181 0.088685576768743155 0 0.011643404763696401 0.092949868607662828 0 0.026593398378051959 0.076487299351285121 0 0.01767063525815666 0.080500261616376856 0 0.030708755379597181 0.088685576768743155 0 0.01767063525815666 0.080500261616376856 0 0.011643404763696401 0.092949868607662828 0 0.0065236609159091173 0.071671444604676282 0 -0.01109578586274463 0.07592966442077155 0 0.011643404763696401 0.092949868607662828 0 0.0065236609159091173 0.071671444604676282 0 -0.01109578586274463 0.07592966442077155 0 0.011643404763696401 0.092949868607662828 0 0.01366790099406239 0.052632887419703241 0 0.01611389888654503 0.070322973248010373 0 0.0065236609159091173 0.071671444604676282 0 0.01611389888654503 0.070322973248010373 0 0.01767063525815666 0.080500261616376856 0 0.0065236609159091173 0.071671444604676282 0 -0.0031702267477386531 0.067180855403790804 0 0.00079413703044923156 0.058803151297745167 0 0.0065236609159091173 0.071671444604676282 0 0.034382595390138257 0.1099700727945534 0 0.02520709702204247 0.1232263280856261 0 0.01356063639681436 0.11371506303709419 0 0.02520709702204247 0.1232263280856261 0 0.01356063639681436 0.11371506303709419 0 0.011098566836083609 0.13484946890849181 0 0.034382595390138257 0.1099700727945534 0 0.011643404763696401 0.092949868607662828 0 0.01356063639681436 0.11371506303709419 0 0.034382595390138257 0.1099700727945534 0 0.011643404763696401 0.092949868607662828 0 0.034382595390138257 0.1099700727945534 0 0.030708755379597181 0.088685576768743155 0 0.011643404763696401 0.092949868607662828 0 -0.0040088977147468936 0.097024336429998151 0 0.011643404763696401 0.092949868607662828 0 0.0025937760044158291 0.1064596481343341 0 0.011643404763696401 0.092949868607662828 0 0.0025937760044158291 0.1064596481343341 0 0.01356063639681436 0.11371506303709419 0 -0.007175360702145514 0.1155930690216506 0 0.0025937760044158291 0.1064596481343341 0 0.01356063639681436 0.11371506303709419 0 -0.007175360702145514 0.1155930690216506 0 0.01356063639681436 0.11371506303709419 0 0.011098566836083609 0.13484946890849181 0 -0.007175360702145514 0.1155930690216506 0 0.011098566836083609 0.13484946890849181 0 0.02520709702204247 0.1232263280856261 0 0.011098566836083609 0.13484946890849181 0 0.028759663239593541 0.13617761485890201 0 0.02520709702204247 0.1232263280856261 0 0.028759663239593541 0.13617761485890201 0 0.037354296692750887 0.12718670835402709 0 0.011098566836083609 0.13484946890849181 0 0.029372494374312729 0.15410586879533311 0 0.013538337341477229 0.1636201682865295 0 0.011098566836083609 0.13484946890849181 0 0.028759663239593541 0.13617761485890201 0 0.029372494374312729 0.15410586879533311 0 0.011098566836083609 0.13484946890849181 0 0.029372494374312729 0.15410586879533311 0 -0.0048034666842798916 0.1614245706846468 0 0.011098566836083609 0.13484946890849181 0 0.013538337341477229 0.1636201682865295 0 -0.0057956805663459468 0.1892940575843915 0 -0.0048034666842798916 0.1614245706846468 0 0.013538337341477229 0.1636201682865295 0 -0.0057956805663459468 0.1892940575843915 0 0.013538337341477229 0.1636201682865295 0 0.020045678312652242 0.18090880435863019 0 -0.0057956805663459468 0.1892940575843915 0 0.020045678312652242 0.18090880435863019 0 0.029372494374312729 0.15410586879533311 0 0.013538337341477229 0.1636201682865295 0 0.020045678312652242 0.18090880435863019 0 0.029372494374312729 0.15410586879533311 0 0.045887037191650451 0.17252355113286891 0 0.04813315871709322 0.1541455757588851 0 0.029372494374312729 0.15410586879533311 0 0.020045678312652242 0.18090880435863019 0 0.045887037191650451 0.17252355113286891 0 0.020045678312652242 0.18090880435863019 0 0.045887037191650451 0.17252355113286891 0 0.020045678312652242 0.18090880435863019 0 0.045887037191650451 0.17252355113286891 0 0.041991232206495782 0.1919910870650737 0 0.045887037191650451 0.17252355113286891 0 0.060802696405823108 0.1787365445376432 0 0.041991232206495782 0.1919910870650737 0 0.045887037191650451 0.17252355113286891 0 0.071728396070648653 0.1641382979071076 0 0.045887037191650451 0.17252355113286891 0 0.060802696405823108 0.1787365445376432 0 0.071728396070648653 0.1641382979071076 0 0.045887037191650451 0.17252355113286891 0 0.059657673584757237 0.15824269734654939 0 0.04813315871709322 0.1541455757588851 0 0.045887037191650451 0.17252355113286891 0 0.059657673584757237 0.15824269734654939 0 0.071728396070648653 0.1641382979071076 0 0.059657673584757237 0.15824269734654939 0 0.04813315871709322 0.1541455757588851 0 0.060329678829100349 0.1474246815113264 0 0.04813315871709322 0.1541455757588851 0 0.050215372913412007 0.1458935282758238 0 0.060329678829100349 0.1474246815113264 0 0.050215372913412007 0.1458935282758238 0 0.060329678829100349 0.1474246815113264 0 0.052072656112092337 0.13760051191958289 0 0.050215372913412007 0.1458935282758238 0 0.052072656112092337 0.13760051191958289 0 0.040325997995362128 0.14440334391350099 0 0.060329678829100349 0.1474246815113264 0 0.062159468211553673 0.13737243366585769 0 0.052072656112092337 0.13760051191958289 0 0.062159468211553673 0.13737243366585769 0 0.054733357378362921 0.13083888414419281 0 0.052072656112092337 0.13760051191958289 0 0.052595679859244633 0.1236025024456274 0 0.054733357378362921 0.13083888414419281 0 0.061109117960118017 0.12720913792676911 0 0.062159468211553673 0.13737243366585769 0 0.054733357378362921 0.13083888414419281 0 0.061109117960118017 0.12720913792676911 0 0.052595679859244633 0.1236025024456274 0 0.054733357378362921 0.13083888414419281 0 0.046346625143134958 0.1312929959830558 0 0.054733357378362921 0.13083888414419281 0 0.052072656112092337 0.13760051191958289 0 0.046346625143134958 0.1312929959830558 0 0.037354296692750887 0.12718670835402709 0 0.040325997995362128 0.14440334391350099 0 0.046346625143134958 0.1312929959830558 0 0.037354296692750887 0.12718670835402709 0 0.040325997995362128 0.14440334391350099 0 0.028759663239593541 0.13617761485890201 0 0.037354296692750887 0.12718670835402709 0 0.040325997995362128 0.14440334391350099 0 0.052072656112092337 0.13760051191958289 0 0.046346625143134958 0.1312929959830558 0 0.040325997995362128 0.14440334391350099 0 0.052595679859244633 0.1236025024456274 0 0.046346625143134958 0.1312929959830558 0 0.037354296692750887 0.12718670835402709 0 0.028759663239593541 0.13617761485890201 0 0.029372494374312729 0.15410586879533311 0 0.040325997995362128 0.14440334391350099 0 0.029372494374312729 0.15410586879533311 0 0.04813315871709322 0.1541455757588851 0 0.040325997995362128 0.14440334391350099 0 0.04813315871709322 0.1541455757588851 0 0.050215372913412007 0.1458935282758238 0 0.040325997995362128 0.14440334391350099 0 0.025149977659741599 0.24684982625080901 0 0.00014186162909880781 0.2338185852574263 0 0.02177620002751179 0.22559840920251981 0 0.025149977659741599 0.24684982625080901 0 0.00014186162909880781 0.2338185852574263 0 0.025149977659741599 0.24684982625080901 0 0.00014186162909880781 0.2338185852574263 0 0.0073806355134042019 0.25529449578482938 0 0.00014186162909880781 0.2338185852574263 0 0.02177620002751179 0.22559840920251981 0 0.0090806704795409685 0.20996839310177981 0 0.025149977659741599 0.24684982625080901 0 0.02177620002751179 0.22559840920251981 0 0.039960986899899173 0.22780444499479169 0 0.02177620002751179 0.22559840920251981 0 0.0090806704795409685 0.20996839310177981 0 0.034547503469278373 0.20955079640779209 0 0.0090806704795409685 0.20996839310177981 0 0.02162293693503077 0.1981024475624624 0 0.034547503469278373 0.20955079640779209 0 -0.0057956805663459468 0.1892940575843915 0 0.0090806704795409685 0.20996839310177981 0 0.02162293693503077 0.1981024475624624 0 -0.0057956805663459468 0.1892940575843915 0 0.020045678312652242 0.18090880435863019 0 0.02162293693503077 0.1981024475624624 0 0.020045678312652242 0.18090880435863019 0 0.02162293693503077 0.1981024475624624 0 0.041991232206495782 0.1919910870650737 0 0.02162293693503077 0.1981024475624624 0 0.041991232206495782 0.1919910870650737 0 0.034547503469278373 0.20955079640779209 0 0.041991232206495782 0.1919910870650737 0 0.05849467095877426 0.1965416733816682 0 0.050764695011206777 0.20916964222725651 0 0.060802696405823108 0.1787365445376432 0 0.041991232206495782 0.1919910870650737 0 0.05849467095877426 0.1965416733816682 0 0.050764695011206777 0.20916964222725651 0 0.066981886553135278 0.20878848804672309 0 0.05849467095877426 0.1965416733816682 0 0.050764695011206777 0.20916964222725651 0 0.066981886553135278 0.20878848804672309 0 0.050764695011206777 0.20916964222725651 0 0.061514006406540499 0.23071042489022231 0 0.066981886553135278 0.20878848804672309 0 0.050764695011206777 0.20916964222725651 0 0.034547503469278373 0.20955079640779209 0 0.039960986899899173 0.22780444499479169 0 0.050764695011206777 0.20916964222725651 0 0.034547503469278373 0.20955079640779209 0 0.041991232206495782 0.1919910870650737 0 0.050764695011206777 0.20916964222725651 0 0.034547503469278373 0.20955079640779209 0 0.02177620002751179 0.22559840920251981 0 0.034547503469278373 0.20955079640779209 0 0.039960986899899173 0.22780444499479169 0 0.039960986899899173 0.22780444499479169 0 0.061514006406540499 0.23071042489022231 0 0.045472231705318063 0.24424317023843681 0 0.050764695011206777 0.20916964222725651 0 0.039960986899899173 0.22780444499479169 0 0.061514006406540499 0.23071042489022231 0 0.061514006406540499 0.23071042489022231 0 0.056046126259945157 0.25263236173372139 0 0.061514006406540499 0.23071042489022231 0 0.056046126259945157 0.25263236173372139 0 0.067905867336300579 0.25358800162702 0 0.061514006406540499 0.23071042489022231 0 0.045472231705318063 0.24424317023843681 0 0.056046126259945157 0.25263236173372139 0 0.025149977659741599 0.24684982625080901 0 0.039960986899899173 0.22780444499479169 0 0.045472231705318063 0.24424317023843681 0 0.092857250133516089 0.24175825718487831 0 0.078525547080241467 0.2465942846531784 0 0.093798877441032588 0.2579700649065903 0 0.092857250133516089 0.24175825718487831 0 0.078525547080241467 0.2465942846531784 0 0.081986142109724491 0.22560265144644431 0 0.061514006406540499 0.23071042489022231 0 0.078525547080241467 0.2465942846531784 0 0.067905867336300579 0.25358800162702 0 0.061514006406540499 0.23071042489022231 0 0.078525547080241467 0.2465942846531784 0 0.081986142109724491 0.22560265144644431 0 0.061514006406540499 0.23071042489022231 0 0.081986142109724491 0.22560265144644431 0 0.066981886553135278 0.20878848804672309 0 0.061514006406540499 0.23071042489022231 0 0.066981886553135278 0.20878848804672309 0 0.081986142109724491 0.22560265144644431 0 0.09236794217301933 0.20819183719001669 0 0.066981886553135278 0.20878848804672309 0 0.09236794217301933 0.20819183719001669 0 0.066981886553135278 0.20878848804672309 0 0.09236794217301933 0.20819183719001669 0 0.066981886553135278 0.20878848804672309 0 0.071445073857882777 0.19089458628000441 0 0.060802696405823108 0.1787365445376432 0 0.05849467095877426 0.1965416733816682 0 0.071445073857882777 0.19089458628000441 0 0.066981886553135278 0.20878848804672309 0 0.071445073857882777 0.19089458628000441 0 0.05849467095877426 0.1965416733816682 0 0.066981886553135278 0.20878848804672309 0 0.071445073857882777 0.19089458628000441 0 0.09236794217301933 0.20819183719001669 0 0.071445073857882777 0.19089458628000441 0 0.086464584236575506 0.1862285865309723 0 0.09236794217301933 0.20819183719001669 0 0.086464584236575506 0.1862285865309723 0 0.1023855527362314 0.18749689463882899 0 0.09236794217301933 0.20819183719001669 0 0.11775399779290339 0.20759518633331239 0 0.1023855527362314 0.18749689463882899 0 0.11775399779290339 0.20759518633331239 0 0.1023855527362314 0.18749689463882899 0 0.12550986450034471 0.186594373040398 0 0.09236794217301933 0.20819183719001669 0 0.11775399779290339 0.20759518633331239 0 0.09236794217301933 0.20819183719001669 0 0.11775399779290339 0.20759518633331239 0 0.10906069526472741 0.22998953009969161 0 0.092857250133516089 0.24175825718487831 0 0.081986142109724491 0.22560265144644431 0 0.10906069526472741 0.22998953009969161 0 0.081986142109724491 0.22560265144644431 0 0.09236794217301933 0.20819183719001669 0 0.10906069526472741 0.22998953009969161 0 0.11775399779290339 0.20759518633331239 0 0.10906069526472741 0.22998953009969161 0 0.1382648444377183 0.22719855966067881 0 0.10906069526472741 0.22998953009969161 0 0.12787711237058769 0.24521089126939841 0 0.1100607559553454 0.25396994184181759 0 0.092857250133516089 0.24175825718487831 0 0.10906069526472741 0.22998953009969161 0 0.1100607559553454 0.25396994184181759 0 0.081151633673542972 0.15313158297098389 0 0.083920606388658545 0.14050817004821939 0 0.0975697549496468 0.15575304468134629 0 0.081151633673542972 0.15313158297098389 0 0.083920606388658545 0.14050817004821939 0 0.071387777285217918 0.15212681924726251 0 0.074154959480044275 0.1204842858357125 0 0.087075880893963842 0.12621803440601359 0 0.083920606388658545 0.14050817004821939 0 0.087075880893963842 0.12621803440601359 0 0.083920606388658545 0.14050817004821939 0 0.097906888154765004 0.1362305538396491 0 0.062159468211553673 0.13737243366585769 0 0.061109117960118017 0.12720913792676911 0 0.083920606388658545 0.14050817004821939 0 0.074154959480044275 0.1204842858357125 0 0.061109117960118017 0.12720913792676911 0 0.083920606388658545 0.14050817004821939 0 0.061109117960118017 0.12720913792676911 0 0.083920606388658545 0.14050817004821939 0 0.062159468211553673 0.13737243366585769 0 0.083920606388658545 0.14050817004821939 0 0.069449382678632612 0.1443580261181665 0 0.060329678829100349 0.1474246815113264 0 0.062159468211553673 0.13737243366585769 0 0.069449382678632612 0.1443580261181665 0 0.060329678829100349 0.1474246815113264 0 0.069449382678632612 0.1443580261181665 0 0.071387777285217918 0.15212681924726251 0 0.083920606388658545 0.14050817004821939 0 0.069449382678632612 0.1443580261181665 0 0.071387777285217918 0.15212681924726251 0 0.059657673584757237 0.15824269734654939 0 0.060329678829100349 0.1474246815113264 0 0.071387777285217918 0.15212681924726251 0 0.059657673584757237 0.15824269734654939 0 0.071387777285217918 0.15212681924726251 0 0.071728396070648653 0.1641382979071076 0 0.081151633673542972 0.15313158297098389 0 0.071387777285217918 0.15212681924726251 0 0.071728396070648653 0.1641382979071076 0 0.071445073857882777 0.19089458628000441 0 0.075908261162629706 0.17300068451328551 0 0.086464584236575506 0.1862285865309723 0 0.060802696405823108 0.1787365445376432 0 0.071445073857882777 0.19089458628000441 0 0.075908261162629706 0.17300068451328551 0 0.071445073857882777 0.19089458628000441 0 0.075908261162629706 0.17300068451328551 0 0.060802696405823108 0.1787365445376432 0 0.071728396070648653 0.1641382979071076 0 0.075908261162629706 0.17300068451328551 0 0.086464584236575506 0.1862285865309723 0 0.090216091253114361 0.17155893003272579 0 0.1023855527362314 0.18749689463882899 0 0.075908261162629706 0.17300068451328551 0 0.086464584236575506 0.1862285865309723 0 0.090216091253114361 0.17155893003272579 0 0.081151633673542972 0.15313158297098389 0 0.071728396070648653 0.1641382979071076 0 0.0975697549496468 0.15575304468134629 0 0.071728396070648653 0.1641382979071076 0 0.090216091253114361 0.17155893003272579 0 0.0975697549496468 0.15575304468134629 0 0.071728396070648653 0.1641382979071076 0 0.075908261162629706 0.17300068451328551 0 0.090216091253114361 0.17155893003272579 0 0.071728396070648653 0.1641382979071076 0 0.0975697549496468 0.15575304468134629 0 0.090216091253114361 0.17155893003272579 0 0.1064810698159025 0.16893633516972181 0 0.0975697549496468 0.15575304468134629 0 0.1064810698159025 0.16893633516972181 0 0.1067320948171991 0.1538072021696697 0 0.0975697549496468 0.15575304468134629 0 0.090216091253114361 0.17155893003272579 0 0.1064810698159025 0.16893633516972181 0 0.1023855527362314 0.18749689463882899 0 0.1064810698159025 0.16893633516972181 0 0.12954358324573961 0.16710623429112001 0 0.12550986450034471 0.186594373040398 0 0.1064810698159025 0.16893633516972181 0 0.1023855527362314 0.18749689463882899 0 0.12550986450034471 0.186594373040398 0 0.1064810698159025 0.16893633516972181 0 0.1067320948171991 0.1538072021696697 0 0.12954358324573961 0.16710623429112001 0 0.1067320948171991 0.1538072021696697 0 0.1262856736452258 0.1537478882528979 0 0.12954358324573961 0.16710623429112001 0 0.1067320948171991 0.1538072021696697 0 0.12954358324573961 0.16710623429112001 0 0.1148569119608701 0.14824987142416859 0 0.1067320948171991 0.1538072021696697 0 0.1262856736452258 0.1537478882528979 0 0.118317888191051 0.14254191757659121 0 0.1148569119608701 0.14824987142416859 0 0.1262856736452258 0.1537478882528979 0 0.118317888191051 0.14254191757659121 0 0.12756241452120801 0.13893694775055651 0 0.1262856736452258 0.1537478882528979 0 0.1148569119608701 0.14824987142416859 0 0.1067320948171991 0.1538072021696697 0 0.1080919911900045 0.14290247769751591 0 0.118317888191051 0.14254191757659121 0 0.1148569119608701 0.14824987142416859 0 0.1080919911900045 0.14290247769751591 0 0.083920606388658545 0.14050817004821939 0 0.1067320948171991 0.1538072021696697 0 0.1067320948171991 0.1538072021696697 0 0.1080919911900045 0.14290247769751591 0 0.097906888154765004 0.1362305538396491 0 0.083920606388658545 0.14050817004821939 0 0.1067320948171991 0.1538072021696697 0 0.097906888154765004 0.1362305538396491 0 0.083920606388658545 0.14050817004821939 0 0.1067320948171991 0.1538072021696697 0 0.0975697549496468 0.15575304468134629 0 0.096984900528893664 0.1212489081817222 0 0.097906888154765004 0.1362305538396491 0 0.10589272808503949 0.13156516273042271 0 0.096984900528893664 0.1212489081817222 0 0.087075880893963842 0.12621803440601359 0 0.097906888154765004 0.1362305538396491 0 0.1080919911900045 0.14290247769751591 0 0.097906888154765004 0.1362305538396491 0 0.10589272808503949 0.13156516273042271 0 0.1080919911900045 0.14290247769751591 0 0.10589272808503949 0.13156516273042271 0 0.11327312463209829 0.13597294690712769 0 0.10712684862241641 0.1210429748963526 0 0.10589272808503949 0.13156516273042271 0 0.114987521205969 0.1268010028982309 0 0.10589272808503949 0.13156516273042271 0 0.114987521205969 0.1268010028982309 0 0.11327312463209829 0.13597294690712769 0 0.114987521205969 0.1268010028982309 0 0.11327312463209829 0.13597294690712769 0 0.1203000125167645 0.13336293759413789 0 0.118317888191051 0.14254191757659121 0 0.1080919911900045 0.14290247769751591 0 0.11327312463209829 0.13597294690712769 0 0.118317888191051 0.14254191757659121 0 0.1203000125167645 0.13336293759413789 0 0.12756241452120801 0.13893694775055651 0 0.118317888191051 0.14254191757659121 0 0.11327312463209829 0.13597294690712769 0 0.1203000125167645 0.13336293759413789 0 0.12212988809696081 0.1249307776834532 0 0.114987521205969 0.1268010028982309 0 0.1203000125167645 0.13336293759413789 0 0.12212988809696081 0.1249307776834532 0 0.1203000125167645 0.13336293759413789 0 0.12788127083107459 0.1291064789800366 0 0.12788127083107459 0.1291064789800366 0 0.13409394305489639 0.1257339851238449 0 0.12813823657366311 0.12049833089676459 0 0.12788127083107459 0.1291064789800366 0 0.13410827310584911 0.13282331674432049 0 0.13409394305489639 0.1257339851238449 0 0.12788127083107459 0.1291064789800366 0 0.12756241452120801 0.13893694775055651 0 0.13410827310584911 0.13282331674432049 0 0.1203000125167645 0.13336293759413789 0 0.12788127083107459 0.1291064789800366 0 0.12756241452120801 0.13893694775055651 0 0.13410827310584911 0.13282331674432049 0 0.14295710802469111 0.12768772724150559 0 0.13848136883728299 0.14203914735535511 0 0.12756241452120801 0.13893694775055651 0 0.13410827310584911 0.13282331674432049 0 0.13848136883728299 0.14203914735535511 0 0.13410827310584911 0.13282331674432049 0 0.13409394305489639 0.1257339851238449 0 0.14295710802469111 0.12768772724150559 0 0.14295710802469111 0.12768772724150559 0 0.15698787762036359 0.14007723406829989 0 0.15364605026385231 0.1227496740475859 0 0.14295710802469111 0.12768772724150559 0 0.13848136883728299 0.14203914735535511 0 0.15698787762036359 0.14007723406829989 0 0.13848136883728299 0.14203914735535511 0 0.1441447949138806 0.1573716891147208 0 0.15698787762036359 0.14007723406829989 0 0.1441447949138806 0.1573716891147208 0 0.1598153361361678 0.15982657838785511 0 0.15698787762036359 0.14007723406829989 0 0.13848136883728299 0.14203914735535511 0 0.1262856736452258 0.1537478882528979 0 0.1441447949138806 0.1573716891147208 0 0.12756241452120801 0.13893694775055651 0 0.13848136883728299 0.14203914735535511 0 0.1262856736452258 0.1537478882528979 0 0.1262856736452258 0.1537478882528979 0 0.12954358324573961 0.16710623429112001 0 0.1441447949138806 0.1573716891147208 0 0.12954358324573961 0.16710623429112001 0 0.12550986450034471 0.186594373040398 0 0.15375492999850379 0.1814330523327968 0 0.12954358324573961 0.16710623429112001 0 0.15375492999850379 0.1814330523327968 0 0.1441447949138806 0.1573716891147208 0 0.15375492999850379 0.1814330523327968 0 0.1441447949138806 0.1573716891147208 0 0.1598153361361678 0.15982657838785511 0 0.1598153361361678 0.15982657838785511 0 0.17205847002769489 0.1711246398383999 0 0.17247097746626519 0.1464629757798975 0 0.15375492999850379 0.1814330523327968 0 0.1598153361361678 0.15982657838785511 0 0.17205847002769489 0.1711246398383999 0 0.15375492999850379 0.1814330523327968 0 0.17205847002769489 0.1711246398383999 0 0.18411838942066619 0.18828130780555291 0 0.17205847002769489 0.1711246398383999 0 0.18411838942066619 0.18828130780555291 0 0.19050902449260759 0.164433536692701 0 0.17205847002769489 0.1711246398383999 0 0.17247097746626519 0.1464629757798975 0 0.19050902449260759 0.164433536692701 0 0.17247097746626519 0.1464629757798975 0 0.1903693880120208 0.14015559280000461 0 0.19050902449260759 0.164433536692701 0 0.17247097746626519 0.1464629757798975 0 0.18002451345814399 0.12716596121819479 0 0.1903693880120208 0.14015559280000461 0 0.17247097746626519 0.1464629757798975 0 0.18002451345814399 0.12716596121819479 0 0.16417220099380411 0.12505127510387981 0 0.15698787762036359 0.14007723406829989 0 0.16417220099380411 0.12505127510387981 0 0.15364605026385231 0.1227496740475859 0 0.17247097746626519 0.1464629757798975 0 0.15698787762036359 0.14007723406829989 0 0.16417220099380411 0.12505127510387981 0 0.1598153361361678 0.15982657838785511 0 0.17247097746626519 0.1464629757798975 0 0.15698787762036359 0.14007723406829989 0 0.14702044576598061 0.2478904659134552 0 0.1382648444377183 0.22719855966067881 0 0.15828943790025421 0.22969507774947781 0 0.14702044576598061 0.2478904659134552 0 0.12787711237058769 0.24521089126939841 0 0.1382648444377183 0.22719855966067881 0 0.10906069526472741 0.22998953009969161 0 0.12787711237058769 0.24521089126939841 0 0.1382648444377183 0.22719855966067881 0 0.1382648444377183 0.22719855966067881 0 0.14314005341278749 0.20699853547660821 0 0.15828943790025421 0.22969507774947781 0 0.14314005341278749 0.20699853547660821 0 0.16852610903267151 0.206401884619904 0 0.11775399779290339 0.20759518633331239 0 0.1382648444377183 0.22719855966067881 0 0.14314005341278749 0.20699853547660821 0 0.11775399779290339 0.20759518633331239 0 0.14314005341278749 0.20699853547660821 0 0.11775399779290339 0.20759518633331239 0 0.12550986450034471 0.186594373040398 0 0.14314005341278749 0.20699853547660821 0 0.15375492999850379 0.1814330523327968 0 0.14314005341278749 0.20699853547660821 0 0.16852610903267151 0.206401884619904 0 0.12550986450034471 0.186594373040398 0 0.15375492999850379 0.1814330523327968 0 0.14314005341278749 0.20699853547660821 0 0.15375492999850379 0.1814330523327968 0 0.18411838942066619 0.18828130780555291 0 0.16852610903267151 0.206401884619904 0 0.18411838942066619 0.18828130780555291 0 0.16852610903267151 0.206401884619904 0 0.1878214256448299 0.20672411698152671 0 0.16852610903267151 0.206401884619904 0 0.17766068788986381 0.23020170431202469 0 0.1878214256448299 0.20672411698152671 0 0.14314005341278749 0.20699853547660821 0 0.16852610903267151 0.206401884619904 0 0.15828943790025421 0.22969507774947781 0 0.16852610903267151 0.206401884619904 0 0.15828943790025421 0.22969507774947781 0 0.17766068788986381 0.23020170431202469 0 0.17766068788986381 0.23020170431202469 0 0.19353513124668931 0.22246748781277501 0 0.1878214256448299 0.20672411698152671 0 0.17766068788986381 0.23020170431202469 0 0.18692125413578081 0.24552837502103991 0 0.19379669244916639 0.23440003217329089 0 0.17766068788986381 0.23020170431202469 0 0.18692125413578081 0.24552837502103991 0 0.16774616909827719 0.2460930353984315 0 0.15828943790025421 0.22969507774947781 0 0.17766068788986381 0.23020170431202469 0 0.16774616909827719 0.2460930353984315 0 0.14702044576598061 0.2478904659134552 0 0.15828943790025421 0.22969507774947781 0 0.16774616909827719 0.2460930353984315 0 0.21557305570370441 0.24515722135805329 0 0.2029257889591993 0.24295866219667439 0 0.23007231546290949 0.2334513308517342 0 0.2029257889591993 0.24295866219667439 0 0.23007231546290949 0.2334513308517342 0 0.21557305570370441 0.24515722135805329 0 0.2029257889591993 0.24295866219667439 0 0.20107379594449931 0.25686311186437227 0 0.18692125413578081 0.24552837502103991 0 0.2029257889591993 0.24295866219667439 0 0.20107379594449931 0.25686311186437227 0 0.18692125413578081 0.24552837502103991 0 0.19379669244916639 0.23440003217329089 0 0.2029257889591993 0.24295866219667439 0 0.17766068788986381 0.23020170431202469 0 0.19379669244916639 0.23440003217329089 0 0.19353513124668931 0.22246748781277501 0 0.19379669244916639 0.23440003217329089 0 0.2029257889591993 0.24295866219667439 0 0.20920449219815451 0.22515354045629349 0 0.19379669244916639 0.23440003217329089 0 0.19353513124668931 0.22246748781277501 0 0.20920449219815451 0.22515354045629349 0 0.2029257889591993 0.24295866219667439 0 0.20920449219815451 0.22515354045629349 0 0.23007231546290949 0.2334513308517342 0 0.19353513124668931 0.22246748781277501 0 0.20920449219815451 0.22515354045629349 0 0.20732414099141369 0.20672295990195361 0 0.20920449219815451 0.22515354045629349 0 0.20732414099141369 0.20672295990195361 0 0.22783619495118521 0.20973527166224001 0 0.19353513124668931 0.22246748781277501 0 0.20732414099141369 0.20672295990195361 0 0.1878214256448299 0.20672411698152671 0 0.18411838942066619 0.18828130780555291 0 0.1878214256448299 0.20672411698152671 0 0.20343121377691101 0.18825927067945539 0 0.20732414099141369 0.20672295990195361 0 0.1878214256448299 0.20672411698152671 0 0.20343121377691101 0.18825927067945539 0 0.20732414099141369 0.20672295990195361 0 0.20343121377691101 0.18825927067945539 0 0.2219787971027708 0.18678942035429349 0 0.20732414099141369 0.20672295990195361 0 0.22783619495118521 0.20973527166224001 0 0.2219787971027708 0.18678942035429349 0 0.24528107816237801 0.1907036486386274 0 0.22783619495118521 0.20973527166224001 0 0.2219787971027708 0.18678942035429349 0 0.24528107816237801 0.1907036486386274 0 0.25242827713160498 0.21540237912569379 0 0.24528107816237801 0.1907036486386274 0 0.22783619495118521 0.20973527166224001 0 0.25242827713160498 0.21540237912569379 0 0.20920449219815451 0.22515354045629349 0 0.22783619495118521 0.20973527166224001 0 0.23007231546290949 0.2334513308517342 0 0.23007231546290949 0.2334513308517342 0 0.25242827713160498 0.21540237912569379 0 0.23007231546290949 0.2334513308517342 0 0.25511338863332461 0.22468137717712711 0 0.25242827713160498 0.21540237912569379 0 0.23007231546290949 0.2334513308517342 0 0.25511338863332461 0.22468137717712711 0 0.23007231546290949 0.2334513308517342 0 0.2457442494512444 0.24022391879071339 0 0.25511338863332461 0.22468137717712711 0 0.22783619495118521 0.20973527166224001 0 0.23007231546290949 0.2334513308517342 0 0.25242827713160498 0.21540237912569379 0 0.2457442494512444 0.24022391879071339 0 0.23628031136540401 0.25597328662156199 0 0.26221447651104962 0.2479993693513689 0 0.23007231546290949 0.2334513308517342 0 0.2457442494512444 0.24022391879071339 0 0.23628031136540401 0.25597328662156199 0 0.21557305570370441 0.24515722135805329 0 0.23007231546290949 0.2334513308517342 0 0.23628031136540401 0.25597328662156199 0 0.21557305570370441 0.24515722135805329 0 0.23007231546290949 0.2334513308517342 0 0.21023583046185859 0.14706018503428281 0 0.22521494488481819 0.12557893006429149 0 0.2001236667938262 0.1180422718546187 0 0.18002451345814399 0.12716596121819479 0 0.1903693880120208 0.14015559280000461 0 0.2001236667938262 0.1180422718546187 0 0.21023583046185859 0.14706018503428281 0 0.1903693880120208 0.14015559280000461 0 0.2001236667938262 0.1180422718546187 0 0.21023583046185859 0.14706018503428281 0 0.1903693880120208 0.14015559280000461 0 0.19050902449260759 0.164433536692701 0 0.18411838942066619 0.18828130780555291 0 0.20343121377691101 0.18825927067945539 0 0.19050902449260759 0.164433536692701 0 0.20343121377691101 0.18825927067945539 0 0.19050902449260759 0.164433536692701 0 0.20962662881846919 0.1707346457134423 0 0.20343121377691101 0.18825927067945539 0 0.20962662881846919 0.1707346457134423 0 0.2219787971027708 0.18678942035429349 0 0.21023583046185859 0.14706018503428281 0 0.20962662881846919 0.1707346457134423 0 0.2254160648188453 0.164078398330023 0 0.21023583046185859 0.14706018503428281 0 0.19050902449260759 0.164433536692701 0 0.20962662881846919 0.1707346457134423 0 0.20962662881846919 0.1707346457134423 0 0.2254160648188453 0.164078398330023 0 0.2219787971027708 0.18678942035429349 0 0.2254160648188453 0.164078398330023 0 0.2219787971027708 0.18678942035429349 0 0.23714843650665229 0.1758398884969993 0 0.24528107816237801 0.1907036486386274 0 0.2219787971027708 0.18678942035429349 0 0.23714843650665229 0.1758398884969993 0 0.24528107816237801 0.1907036486386274 0 0.23714843650665229 0.1758398884969993 0 0.25292738168467233 0.17649485219682931 0 0.2254160648188453 0.164078398330023 0 0.24653130607993951 0.16237692388552691 0 0.23688534306575301 0.1458043597726891 0 0.23714843650665229 0.1758398884969993 0 0.24653130607993951 0.16237692388552691 0 0.25292738168467233 0.17649485219682931 0 0.2254160648188453 0.164078398330023 0 0.23714843650665229 0.1758398884969993 0 0.24653130607993951 0.16237692388552691 0 0.24653130607993951 0.16237692388552691 0 0.2496536413094039 0.15044712256699261 0 0.23688534306575301 0.1458043597726891 0 0.2496536413094039 0.15044712256699261 0 0.23688534306575301 0.1458043597726891 0 0.25004344172447263 0.14019424959050239 0 0.21023583046185859 0.14706018503428281 0 0.2254160648188453 0.164078398330023 0 0.23688534306575301 0.1458043597726891 0 0.21023583046185859 0.14706018503428281 0 0.23688534306575301 0.1458043597726891 0 0.22521494488481819 0.12557893006429149 0 0.22521494488481819 0.12557893006429149 0 0.25030622297580962 0.13311558827396619 0 0.23688534306575301 0.1458043597726891 0 0.22521494488481819 0.12557893006429149 0 0.25030622297580962 0.13311558827396619 0 0.23688534306575301 0.1458043597726891 0 0.25004344172447263 0.14019424959050239 0 0.25030622297580962 0.13311558827396619 0 0.22521494488481819 0.12557893006429149 0 0.2369469616243938 0.1144798656387125 0 0.25030622297580962 0.13311558827396619 0 0.2369469616243938 0.1144798656387125 0 0.25094552198087999 0.11589449234768209 0 0.25030622297580962 0.13311558827396619 0 0.2369469616243938 0.1144798656387125 0 0.25158482098595109 0.098673396421397969 0 0.25094552198087999 0.11589449234768209 0 0.2369469616243938 0.1144798656387125 0 0.2308580048349978 0.09939168424622695 0 0.25158482098595109 0.098673396421397969 0 0.2308580048349978 0.09939168424622695 0 0.2177667053289645 0.10879872465146249 0 0.21723881235993189 0.092441087960636145 0 0.2369469616243938 0.1144798656387125 0 0.2308580048349978 0.09939168424622695 0 0.2177667053289645 0.10879872465146249 0 0.22521494488481819 0.12557893006429149 0 0.2369469616243938 0.1144798656387125 0 0.2177667053289645 0.10879872465146249 0 0.2177667053289645 0.10879872465146249 0 0.1970849337058638 0.1019164286603922 0 0.2001236667938262 0.1180422718546187 0 0.22521494488481819 0.12557893006429149 0 0.2177667053289645 0.10879872465146249 0 0.2001236667938262 0.1180422718546187 0 0.22521494488481819 0.12557893006429149 0 0.2001236667938262 0.1180422718546187 0 0.1970849337058638 0.1019164286603922 0 0.20420713705815571 0.090978010823124941 0 0.21723881235993189 0.092441087960636145 0 0.1970849337058638 0.1019164286603922 0 0.21723881235993189 0.092441087960636145 0 0.2177667053289645 0.10879872465146249 0 0.1970849337058638 0.1019164286603922 0 0.21723881235993189 0.092441087960636145 0 0.1970849337058638 0.1019164286603922 0 0.1916307843626972 0.08827444688259839 0 0.17503238870283441 0.11050561364494491 0 0.2001236667938262 0.1180422718546187 0 0.17503238870283441 0.11050561364494491 0 0.1970849337058638 0.1019164286603922 0 0.2001236667938262 0.1180422718546187 0 0.17503238870283441 0.11050561364494491 0 0.1916307843626972 0.08827444688259839 0 0.2082291800225603 0.066043280120252124 0 0.19067723801237901 0.065525043857756982 0 0.1916307843626972 0.08827444688259839 0 0.2082291800225603 0.066043280120252124 0 0.1916307843626972 0.08827444688259839 0 0.21087401780412959 0.081280079788873041 0 0.20420713705815571 0.090978010823124941 0 0.1970849337058638 0.1019164286603922 0 0.1916307843626972 0.08827444688259839 0 0.20420713705815571 0.090978010823124941 0 0.1916307843626972 0.08827444688259839 0 0.21087401780412959 0.081280079788873041 0 0.2082291800225603 0.066043280120252124 0 0.21087401780412959 0.081280079788873041 0 0.20420713705815571 0.090978010823124941 0 0.21723881235993189 0.092441087960636145 0 0.21087401780412959 0.081280079788873041 0 0.21723881235993189 0.092441087960636145 0 0.22613356481757629 0.0775902723280468 0 0.21087401780412959 0.081280079788873041 0 0.2082291800225603 0.066043280120252124 0 0.22613356481757629 0.0775902723280468 0 0.2082291800225603 0.066043280120252124 0 0.22613356481757629 0.0775902723280468 0 0.2082291800225603 0.066043280120252124 0 0.2259496113806885 0.070300708218039992 0 0.21450653174737461 0.057635669175196122 0 0.2259496113806885 0.070300708218039992 0 0.21450653174737461 0.057635669175196122 0 0.2082291800225603 0.066043280120252124 0 0.2259496113806885 0.070300708218039992 0 0.22613356481757629 0.0775902723280468 0 0.2259496113806885 0.070300708218039992 0 0.2248665156508784 0.061611733455129589 0 0.21450653174737461 0.057635669175196122 0 0.2259496113806885 0.070300708218039992 0 0.22613356481757629 0.0775902723280468 0 0.23739269101400209 0.082965747260884265 0 0.2259496113806885 0.070300708218039992 0 0.23739269101400209 0.082965747260884265 0 0.237967452106535 0.070105640596903412 0 0.2259496113806885 0.070300708218039992 0 0.23739269101400209 0.082965747260884265 0 0.2259496113806885 0.070300708218039992 0 0.2330718446673557 0.064441819436705627 0 0.2248665156508784 0.061611733455129589 0 0.2259496113806885 0.070300708218039992 0 0.2330718446673557 0.064441819436705627 0 0.237967452106535 0.070105640596903412 0 0.2308580048349978 0.09939168424622695 0 0.21723881235993189 0.092441087960636145 0 0.23739269101400209 0.082965747260884265 0 0.21723881235993189 0.092441087960636145 0 0.22613356481757629 0.0775902723280468 0 0.23739269101400209 0.082965747260884265 0 0.21723881235993189 0.092441087960636145 0 0.23739269101400209 0.082965747260884265 0 0.23739269101400209 0.082965747260884265 0 0.25158482098595109 0.098673396421397969 0 0.23739269101400209 0.082965747260884265 0 0.25243039498113262 0.075895774732197205 0 0.25158482098595109 0.098673396421397969 0 0.2308580048349978 0.09939168424622695 0 0.23739269101400209 0.082965747260884265 0 0.25158482098595109 0.098673396421397969 0 0.23739269101400209 0.082965747260884265 0 0.25243039498113262 0.075895774732197205 0 0.23934469018649959 0.064583282500140851 0 0.237967452106535 0.070105640596903412 0 0.24496427956833819 0.066036472520138348 0 0.2330718446673557 0.064441819436705627 0 0.23934469018649959 0.064583282500140851 0 0.2376257901407148 0.059976102198904507 0 0.2330718446673557 0.064441819436705627 0 0.23934469018649959 0.064583282500140851 0 0.237967452106535 0.070105640596903412 0 0.23739269101400209 0.082965747260884265 0 0.237967452106535 0.070105640596903412 0 0.24429048066179679 0.072622021298478806 0 0.24429048066179679 0.072622021298478806 0 0.24842415088314279 0.069033451464499671 0 0.25243039498113262 0.075895774732197205 0 0.23739269101400209 0.082965747260884265 0 0.24429048066179679 0.072622021298478806 0 0.25243039498113262 0.075895774732197205 0 0.24842415088314279 0.069033451464499671 0 0.24853219730195361 0.063845178725116872 0 0.25274476311700622 0.067427493409812952 0 0.237967452106535 0.070105640596903412 0 0.24429048066179679 0.072622021298478806 0 0.24496427956833819 0.066036472520138348 0 0.24429048066179679 0.072622021298478806 0 0.24842415088314279 0.069033451464499671 0 0.24496427956833819 0.066036472520138348 0 0.23934469018649959 0.064583282500140851 0 0.24496427956833819 0.066036472520138348 0 0.24309408444955441 0.062356377748052388 0 0.24496427956833819 0.066036472520138348 0 0.24602681454492631 0.062964227281045088 0 0.24309408444955441 0.062356377748052388 0 0.24496427956833819 0.066036472520138348 0 0.24602681454492631 0.062964227281045088 0 0.24853219730195361 0.063845178725116872 0 0.24842415088314279 0.069033451464499671 0 0.24496427956833819 0.066036472520138348 0 0.24853219730195361 0.063845178725116872 0 0.24751669685985911 0.059618880130872708 0 0.24309408444955441 0.062356377748052388 0 0.2376257901407148 0.059976102198904507 0 0.24751669685985911 0.059618880130872708 0 0.24426241142214139 0.049994713685017962 0 0.2310385276818335 0.053106641608170198 0 0.24751669685985911 0.059618880130872708 0 0.2376257901407148 0.059976102198904507 0 0.2310385276818335 0.053106641608170198 0 0.24751669685985911 0.059618880130872708 0 0.2310385276818335 0.053106641608170198 0 0.24853219730195361 0.063845178725116872 0 0.24751669685985911 0.059618880130872708 0 0.2530174900015254 0.0600809219264858 0 0.24602681454492631 0.062964227281045088 0 0.24853219730195361 0.063845178725116872 0 0.24751669685985911 0.059618880130872708 0 0.24602681454492631 0.062964227281045088 0 0.24751669685985911 0.059618880130872708 0 0.24309408444955441 0.062356377748052388 0 0.23934469018649959 0.064583282500140851 0 0.24309408444955441 0.062356377748052388 0 0.2376257901407148 0.059976102198904507 0 0.24426241142214139 0.049994713685017962 0 0.23928634064401511 0.040096757013566242 0 0.2310385276818335 0.053106641608170198 0 0.24751669685985911 0.059618880130872708 0 0.24426241142214139 0.049994713685017962 0 0.25102243244437311 0.053297338652025752 0 0.24426241142214139 0.049994713685017962 0 0.25174039047255609 0.044464402284776217 0 0.25102243244437311 0.053297338652025752 0 0.23928634064401511 0.040096757013566242 0 0.2320502206633881 0.021165953515508481 0 0.25044211127373811 0.032849993626191502 0 0.23928634064401511 0.040096757013566242 0 0.25044211127373811 0.032849993626191502 0 0.25174039047255609 0.044464402284776217 0 0.24426241142214139 0.049994713685017962 0 0.23928634064401511 0.040096757013566242 0 0.25174039047255609 0.044464402284776217 0 0.22618438235043381 0.038998837361733103 0 0.2320502206633881 0.021165953515508481 0 0.20963369093729961 0.03941564640516447 0 0.23928634064401511 0.040096757013566242 0 0.22618438235043381 0.038998837361733103 0 0.2320502206633881 0.021165953515508481 0 0.22618438235043381 0.038998837361733103 0 0.2310385276818335 0.053106641608170198 0 0.21456035850380811 0.046594403085467223 0 0.23928634064401511 0.040096757013566242 0 0.22618438235043381 0.038998837361733103 0 0.2310385276818335 0.053106641608170198 0 0.2310385276818335 0.053106641608170198 0 0.21456035850380811 0.046594403085467223 0 0.2248665156508784 0.061611733455129589 0 0.2310385276818335 0.053106641608170198 0 0.21456035850380811 0.046594403085467223 0 0.2248665156508784 0.061611733455129589 0 0.21456035850380811 0.046594403085467223 0 0.2330718446673557 0.064441819436705627 0 0.2248665156508784 0.061611733455129589 0 0.23150027442910881 0.059501590197602497 0 0.2248665156508784 0.061611733455129589 0 0.23150027442910881 0.059501590197602497 0 0.2310385276818335 0.053106641608170198 0 0.2330718446673557 0.064441819436705627 0 0.2376257901407148 0.059976102198904507 0 0.23150027442910881 0.059501590197602497 0 0.2376257901407148 0.059976102198904507 0 0.23150027442910881 0.059501590197602497 0 0.2310385276818335 0.053106641608170198 0 0.2320502206633881 0.021165953515508481 0 0.22999165343287109 0.0038227322559807589 0 0.25446675038947358 0.0029162606258486688 0 0.2320502206633881 0.021165953515508481 0 0.2600935707136679 0.019574361616358959 0 0.25446675038947358 0.0029162606258486688 0 0.22999165343287109 0.0038227322559807589 0 0.25446675038947358 0.0029162606258486688 0 0.24138147174972829 -0.0061427828714447699 0 0.2320502206633881 0.021165953515508481 0 0.25446675038947358 0.0029162606258486688 0 0.2320502206633881 0.021165953515508481 0 0.2600935707136679 0.019574361616358959 0 0.25044211127373811 0.032849993626191502 0 0.2320502206633881 0.021165953515508481 0 0.20963369093729961 0.03941564640516447 0 0.22999165343287109 0.0038227322559807589 0 0.21340461703840111 0.0096506044731711187 0 0.21351355446813719 -0.0021103410187178909 0 0.2320502206633881 0.021165953515508481 0 0.22999165343287109 0.0038227322559807589 0 0.21340461703840111 0.0096506044731711187 0 0.21340461703840111 0.0096506044731711187 0 0.1998105265397013 0.00335350757378736 0 0.21351355446813719 -0.0021103410187178909 0 0.21340461703840111 0.0096506044731711187 0 0.20371525389429951 0.01279949030761077 0 0.2082588668535221 0.02245160931237615 0 0.21340461703840111 0.0096506044731711187 0 0.20371525389429951 0.01279949030761077 0 0.1998105265397013 0.00335350757378736 0 0.2320502206633881 0.021165953515508481 0 0.2082588668535221 0.02245160931237615 0 0.20963369093729961 0.03941564640516447 0 0.2320502206633881 0.021165953515508481 0 0.21340461703840111 0.0096506044731711187 0 0.2082588668535221 0.02245160931237615 0 0.2082588668535221 0.02245160931237615 0 0.19338700514557339 0.015742239871108451 0 0.20963369093729961 0.03941564640516447 0 0.19338700514557339 0.015742239871108451 0 0.1989601287501698 0.040429129743079398 0 0.18048502430789731 0.01998114488410483 0 0.1989601287501698 0.040429129743079398 0 0.18048502430789731 0.01998114488410483 0 0.19338700514557339 0.015742239871108451 0 0.20963369093729961 0.03941564640516447 0 0.20371525389429951 0.01279949030761077 0 0.2082588668535221 0.02245160931237615 0 0.19338700514557339 0.015742239871108451 0 0.19338700514557339 0.015742239871108451 0 0.1998105265397013 0.00335350757378736 0 0.17714031935384769 -0.0079311666629475405 0 0.20371525389429951 0.01279949030761077 0 0.19338700514557339 0.015742239871108451 0 0.1998105265397013 0.00335350757378736 0 0.21450653174737461 0.057635669175196122 0 0.2029561920580818 0.044851916216142339 0 0.21450653174737461 0.057635669175196122 0 0.2029561920580818 0.044851916216142339 0 0.2021088015620611 0.053433964061651712 0 0.21450653174737461 0.057635669175196122 0 0.21456035850380811 0.046594403085467223 0 0.2029561920580818 0.044851916216142339 0 0.2082291800225603 0.066043280120252124 0 0.21450653174737461 0.057635669175196122 0 0.2021088015620611 0.053433964061651712 0 0.2248665156508784 0.061611733455129589 0 0.21450653174737461 0.057635669175196122 0 0.21456035850380811 0.046594403085467223 0 0.2082291800225603 0.066043280120252124 0 0.21450653174737461 0.057635669175196122 0 0.22618438235043381 0.038998837361733103 0 0.21456035850380811 0.046594403085467223 0 0.20963369093729961 0.03941564640516447 0 0.21456035850380811 0.046594403085467223 0 0.20963369093729961 0.03941564640516447 0 0.21456035850380811 0.046594403085467223 0 0.20530753189452691 0.042937648913457381 0 0.2029561920580818 0.044851916216142339 0 0.20963369093729961 0.03941564640516447 0 0.20530753189452691 0.042937648913457381 0 0.1989601287501698 0.040429129743079398 0 0.21456035850380811 0.046594403085467223 0 0.20530753189452691 0.042937648913457381 0 0.21456035850380811 0.046594403085467223 0 0.20963369093729961 0.03941564640516447 0 0.20530753189452691 0.042937648913457381 0 0.20963369093729961 0.03941564640516447 0 0.20530753189452691 0.042937648913457381 0 0.20530753189452691 0.042937648913457381 0 0.2029561920580818 0.044851916216142339 0 0.1989601287501698 0.040429129743079398 0 0.1774654858828027 0.031934360706524292 0 0.2029561920580818 0.044851916216142339 0 0.1989601287501698 0.040429129743079398 0 0.19971656766465989 0.047489351670260083 0 0.1989601287501698 0.040429129743079398 0 0.19133087755196571 0.045131483978966998 0 0.19971656766465989 0.047489351670260083 0 0.2029561920580818 0.044851916216142339 0 0.19971656766465989 0.047489351670260083 0 0.19338700514557339 0.015742239871108451 0 0.20963369093729961 0.03941564640516447 0 0.1989601287501698 0.040429129743079398 0 0.1989601287501698 0.040429129743079398 0 0.19133087755196571 0.045131483978966998 0 0.18298678422305309 0.040980100737508622 0 0.20530753189452691 0.042937648913457381 0 0.2029561920580818 0.044851916216142339 0 0.1989601287501698 0.040429129743079398 0 0.20530753189452691 0.042937648913457381 0 0.1989601287501698 0.040429129743079398 0 0.2029561920580818 0.044851916216142339 0 0.1989601287501698 0.040429129743079398 0 0.2082291800225603 0.066043280120252124 0 0.18513553631762919 0.051149603126408108 0 0.2021088015620611 0.053433964061651712 0 0.19971656766465989 0.047489351670260083 0 0.18513553631762919 0.051149603126408108 0 0.2082291800225603 0.066043280120252124 0 0.2021088015620611 0.053433964061651712 0 0.18513553631762919 0.051149603126408108 0 0.19067723801237901 0.065525043857756982 0 0.2082291800225603 0.066043280120252124 0 0.18513553631762919 0.051149603126408108 0 0.19133087755196571 0.045131483978966998 0 0.19971656766465989 0.047489351670260083 0 0.18513553631762919 0.051149603126408108 0 0.2029561920580818 0.044851916216142339 0 0.2021088015620611 0.053433964061651712 0 0.19971656766465989 0.047489351670260083 0 0.17734631865053521 0.060730067185729229 0 0.18513553631762919 0.051149603126408108 0 0.16725106424272049 0.052894846580172288 0 0.19067723801237901 0.065525043857756982 0 0.17734631865053521 0.060730067185729229 0 0.18513553631762919 0.051149603126408108 0 0.18298678422305309 0.040980100737508622 0 0.1774654858828027 0.031934360706524292 0 0.1620418926126978 0.036255926132564682 0 0.19133087755196571 0.045131483978966998 0 0.18513553631762919 0.051149603126408108 0 0.18298678422305309 0.040980100737508622 0 0.18513553631762919 0.051149603126408108 0 0.18298678422305309 0.040980100737508622 0 0.1620418926126978 0.036255926132564682 0 0.1989601287501698 0.040429129743079398 0 0.18298678422305309 0.040980100737508622 0 0.1774654858828027 0.031934360706524292 0 0.18513553631762919 0.051149603126408108 0 0.1620418926126978 0.036255926132564682 0 0.1620418926126978 0.036255926132564682 0 0.16725106424272049 0.052894846580172288 0 0.15541952745182569 0.04677658384696623 0 0.18513553631762919 0.051149603126408108 0 0.1620418926126978 0.036255926132564682 0 0.16725106424272049 0.052894846580172288 0 0.16725106424272049 0.052894846580172288 0 0.15507694825043991 0.057889849327421902 0 0.15541952745182569 0.04677658384696623 0 0.16725106424272049 0.052894846580172288 0 0.15507694825043991 0.057889849327421902 0 0.1653937448538241 0.067538194789913991 0 0.17734631865053521 0.060730067185729229 0 0.16725106424272049 0.052894846580172288 0 0.1653937448538241 0.067538194789913991 0 0.18048502430789731 0.01998114488410483 0 0.1657030786406338 0.0084270166623369204 0 0.17714031935384769 -0.0079311666629475405 0 0.19338700514557339 0.015742239871108451 0 0.17714031935384769 -0.0079311666629475405 0 0.19338700514557339 0.015742239871108451 0 0.18048502430789731 0.01998114488410483 0 0.17714031935384769 -0.0079311666629475405 0 0.1989601287501698 0.040429129743079398 0 0.1774654858828027 0.031934360706524292 0 0.18048502430789731 0.01998114488410483 0 0.1774654858828027 0.031934360706524292 0 0.18048502430789731 0.01998114488410483 0 0.16935520337559401 0.020657770454092759 0 0.1774654858828027 0.031934360706524292 0 0.15597084301543529 0.02343959166996953 0 0.1774654858828027 0.031934360706524292 0 0.1620418926126978 0.036255926132564682 0 0.15597084301543529 0.02343959166996953 0 0.1774654858828027 0.031934360706524292 0 0.16935520337559401 0.020657770454092759 0 0.15597084301543529 0.02343959166996953 0 0.16935520337559401 0.020657770454092759 0 0.1657030786406338 0.0084270166623369204 0 0.15597084301543529 0.02343959166996953 0 0.18048502430789731 0.01998114488410483 0 0.16935520337559401 0.020657770454092759 0 0.1657030786406338 0.0084270166623369204 0 0.1657030786406338 0.0084270166623369204 0 0.14883794818754281 0.01110572894874149 0 0.15480995508657039 -0.001084596553268768 0 0.1657030786406338 0.0084270166623369204 0 0.14883794818754281 0.01110572894874149 0 0.15597084301543529 0.02343959166996953 0 0.14883794818754281 0.01110572894874149 0 0.13464870039648349 0.00080453217212592717 0 0.15480995508657039 -0.001084596553268768 0 0.14883794818754281 0.01110572894874149 0 0.13894824890776639 0.02136224913872127 0 0.13464870039648349 0.00080453217212592717 0 0.1620418926126978 0.036255926132564682 0 0.13894824890776639 0.02136224913872127 0 0.14883794818754281 0.01110572894874149 0 0.15597084301543529 0.02343959166996953 0 0.13894824890776639 0.02136224913872127 0 0.1620418926126978 0.036255926132564682 0 0.15597084301543529 0.02343959166996953 0 0.13894824890776639 0.02136224913872127 0 0.11961069471150609 0.02296590295220987 0 0.13894824890776639 0.02136224913872127 0 0.12977361784467401 0.039215218793308727 0 0.1158546052028349 0.0064685721448778594 0 0.13894824890776639 0.02136224913872127 0 0.1158546052028349 0.0064685721448778594 0 0.13894824890776639 0.02136224913872127 0 0.13464870039648349 0.00080453217212592717 0 0.14278372382386809 0.048416123664777412 0 0.1428601767931531 0.062084067640591357 0 0.15507694825043991 0.057889849327421902 0 0.14278372382386809 0.048416123664777412 0 0.15507694825043991 0.057889849327421902 0 0.15541952745182569 0.04677658384696623 0 0.1620418926126978 0.036255926132564682 0 0.13894824890776639 0.02136224913872127 0 0.14579340212816641 0.038405220315267663 0 0.1620418926126978 0.036255926132564682 0 0.15541952745182569 0.04677658384696623 0 0.14579340212816641 0.038405220315267663 0 0.14278372382386809 0.048416123664777412 0 0.15541952745182569 0.04677658384696623 0 0.14579340212816641 0.038405220315267663 0 0.14278372382386809 0.048416123664777412 0 0.14579340212816641 0.038405220315267663 0 0.12977361784467401 0.039215218793308727 0 0.13894824890776639 0.02136224913872127 0 0.14579340212816641 0.038405220315267663 0 0.12977361784467401 0.039215218793308727 0 0.11550376979223601 0.054551475820320147 0 0.12977361784467401 0.039215218793308727 0 0.1326943019686847 0.054606112458038862 0 0.11550376979223601 0.054551475820320147 0 0.1326943019686847 0.054606112458038862 0 0.13255022158949201 0.068763676371196639 0 0.14278372382386809 0.048416123664777412 0 0.12977361784467401 0.039215218793308727 0 0.1326943019686847 0.054606112458038862 0 0.14278372382386809 0.048416123664777412 0 0.1428601767931531 0.062084067640591357 0 0.1326943019686847 0.054606112458038862 0 0.1428601767931531 0.062084067640591357 0 0.1326943019686847 0.054606112458038862 0 0.13255022158949201 0.068763676371196639 0 0.1207366242219714 0.074251990558816788 0 0.13255022158949201 0.068763676371196639 0 0.13578085374332971 0.077614708003019631 0 0.13255022158949201 0.068763676371196639 0 0.13578085374332971 0.077614708003019631 0 0.1430759120552613 0.073085192731263071 0 0.1428601767931531 0.062084067640591357 0 0.13255022158949201 0.068763676371196639 0 0.1430759120552613 0.073085192731263071 0 0.1428601767931531 0.062084067640591357 0 0.1430759120552613 0.073085192731263071 0 0.15260580868734391 0.069203578475014266 0 0.1430759120552613 0.073085192731263071 0 0.14969883640752091 0.076610515579137797 0 0.14563192422462459 0.083183778073064013 0 0.13578085374332971 0.077614708003019631 0 0.1430759120552613 0.073085192731263071 0 0.14563192422462459 0.083183778073064013 0 0.1430759120552613 0.073085192731263071 0 0.14969883640752091 0.076610515579137797 0 0.15260580868734391 0.069203578475014266 0 0.14969883640752091 0.076610515579137797 0 0.15260580868734391 0.069203578475014266 0 0.15677919641446331 0.080277826610221981 0 0.1428601767931531 0.062084067640591357 0 0.15507694825043991 0.057889849327421902 0 0.15260580868734391 0.069203578475014266 0 0.1506819444987289 0.088437751930635633 0 0.14868901735932749 0.09586058707093438 0 0.157853861938485 0.092527754269896317 0 0.1506819444987289 0.088437751930635633 0 0.15677919641446331 0.080277826610221981 0 0.157853861938485 0.092527754269896317 0 0.14969883640752091 0.076610515579137797 0 0.14563192422462459 0.083183778073064013 0 0.15677919641446331 0.080277826610221981 0 0.1506819444987289 0.088437751930635633 0 0.14563192422462459 0.083183778073064013 0 0.15677919641446331 0.080277826610221981 0 0.14563192422462459 0.083183778073064013 0 0.1444557225567443 0.090338813629061501 0 0.13888671887288589 0.088270852986767859 0 0.1506819444987289 0.088437751930635633 0 0.14563192422462459 0.083183778073064013 0 0.1444557225567443 0.090338813629061501 0 0.1444557225567443 0.090338813629061501 0 0.14209274384079601 0.094639397504520467 0 0.14868901735932749 0.09586058707093438 0 0.1506819444987289 0.088437751930635633 0 0.1444557225567443 0.090338813629061501 0 0.14868901735932749 0.09586058707093438 0 0.1444557225567443 0.090338813629061501 0 0.13888671887288589 0.088270852986767859 0 0.14209274384079601 0.094639397504520467 0 0.13888671887288589 0.088270852986767859 0 0.13668050292917741 0.098217611464673699 0 0.14209274384079601 0.094639397504520467 0 0.13888671887288589 0.088270852986767859 0 0.1300820653953097 0.084166932106396392 0 0.13668050292917741 0.098217611464673699 0 0.11116449005577619 0.086473750785835857 0 0.1300820653953097 0.084166932106396392 0 0.13668050292917741 0.098217611464673699 0 0.13578085374332971 0.077614708003019631 0 0.13888671887288589 0.088270852986767859 0 0.1300820653953097 0.084166932106396392 0 0.13578085374332971 0.077614708003019631 0 0.14563192422462459 0.083183778073064013 0 0.13888671887288589 0.088270852986767859 0 0.1207366242219714 0.074251990558816788 0 0.13578085374332971 0.077614708003019631 0 0.1300820653953097 0.084166932106396392 0 0.1216961693062274 0.1020981758197984 0 0.1302764983332621 0.10693497851168419 0 0.13668050292917741 0.098217611464673699 0 0.1302764983332621 0.10693497851168419 0 0.13758713408363871 0.1043360441680015 0 0.13668050292917741 0.098217611464673699 0 0.1302764983332621 0.10693497851168419 0 0.1360833458267342 0.1084620534226548 0 0.13758713408363871 0.1043360441680015 0 0.1360833458267342 0.1084620534226548 0 0.13758713408363871 0.1043360441680015 0 0.14314356584317489 0.10755645506983 0 0.13758713408363871 0.1043360441680015 0 0.13668050292917741 0.098217611464673699 0 0.14175175748584509 0.1005091223711649 0 0.13668050292917741 0.098217611464673699 0 0.14209274384079601 0.094639397504520467 0 0.14175175748584509 0.1005091223711649 0 0.12813823657366311 0.12049833089676459 0 0.13246275659848361 0.1130811342378658 0 0.13708322035591489 0.118794437000363 0 0.12212988809696081 0.1249307776834532 0 0.12788127083107459 0.1291064789800366 0 0.12813823657366311 0.12049833089676459 0 0.1197878353292403 0.1092484053650479 0 0.1302764983332621 0.10693497851168419 0 0.12624189261331301 0.1140678077034443 0 0.12813823657366311 0.12049833089676459 0 0.12624189261331301 0.1140678077034443 0 0.13246275659848361 0.1130811342378658 0 0.1302764983332621 0.10693497851168419 0 0.12624189261331301 0.1140678077034443 0 0.13246275659848361 0.1130811342378658 0 0.138866780176991 0.11235807520418389 0 0.13708322035591489 0.118794437000363 0 0.14572099158606311 0.1154247658161887 0 0.1360833458267342 0.1084620534226548 0 0.13246275659848361 0.1130811342378658 0 0.138866780176991 0.11235807520418389 0 0.1302764983332621 0.10693497851168419 0 0.1360833458267342 0.1084620534226548 0 0.13246275659848361 0.1130811342378658 0 0.1360833458267342 0.1084620534226548 0 0.138866780176991 0.11235807520418389 0 0.14314356584317489 0.10755645506983 0 0.13246275659848361 0.1130811342378658 0 0.138866780176991 0.11235807520418389 0 0.13708322035591489 0.118794437000363 0 0.13409394305489639 0.1257339851238449 0 0.14295710802469111 0.12768772724150559 0 0.13708322035591489 0.118794437000363 0 0.13409394305489639 0.1257339851238449 0 0.12813823657366311 0.12049833089676459 0 0.13708322035591489 0.118794437000363 0 0.14572099158606311 0.1154247658161887 0 0.15364605026385231 0.1227496740475859 0 0.15839207309433961 0.10550736800805539 0 0.14295710802469111 0.12768772724150559 0 0.13708322035591489 0.118794437000363 0 0.14572099158606311 0.1154247658161887 0 0.14295710802469111 0.12768772724150559 0 0.14572099158606311 0.1154247658161887 0 0.15364605026385231 0.1227496740475859 0 0.138866780176991 0.11235807520418389 0 0.14572099158606311 0.1154247658161887 0 0.14314356584317489 0.10755645506983 0 0.14572099158606311 0.1154247658161887 0 0.14314356584317489 0.10755645506983 0 0.15839207309433961 0.10550736800805539 0 0.14175175748584509 0.1005091223711649 0 0.15839207309433961 0.10550736800805539 0 0.14175175748584509 0.1005091223711649 0 0.14314356584317489 0.10755645506983 0 0.15839207309433961 0.10550736800805539 0 0.14175175748584509 0.1005091223711649 0 0.14868901735932749 0.09586058707093438 0 0.15839207309433961 0.10550736800805539 0 0.14209274384079601 0.094639397504520467 0 0.14175175748584509 0.1005091223711649 0 0.14868901735932749 0.09586058707093438 0 0.13758713408363871 0.1043360441680015 0 0.14175175748584509 0.1005091223711649 0 0.14314356584317489 0.10755645506983 0 0.14868901735932749 0.09586058707093438 0 0.15839207309433961 0.10550736800805539 0 0.157853861938485 0.092527754269896317 0 0.15839207309433961 0.10550736800805539 0 0.17503238870283441 0.11050561364494491 0 0.15839207309433961 0.10550736800805539 0 0.1705578526620479 0.095927182961129481 0 0.157853861938485 0.092527754269896317 0 0.15839207309433961 0.10550736800805539 0 0.1705578526620479 0.095927182961129481 0 0.17503238870283441 0.11050561364494491 0 0.16417220099380411 0.12505127510387981 0 0.15839207309433961 0.10550736800805539 0 0.17503238870283441 0.11050561364494491 0 0.16417220099380411 0.12505127510387981 0 0.15364605026385231 0.1227496740475859 0 0.15839207309433961 0.10550736800805539 0 0.16417220099380411 0.12505127510387981 0 0.17503238870283441 0.11050561364494491 0 0.18002451345814399 0.12716596121819479 0 0.16417220099380411 0.12505127510387981 0 0.17503238870283441 0.11050561364494491 0 0.18002451345814399 0.12716596121819479 0 0.2001236667938262 0.1180422718546187 0 0.17503238870283441 0.11050561364494491 0 0.1916307843626972 0.08827444688259839 0 0.1705578526620479 0.095927182961129481 0 0.17503238870283441 0.11050561364494491 0 0.1916307843626972 0.08827444688259839 0 0.17503238870283441 0.11050561364494491 0 0.1916307843626972 0.08827444688259839 0 0.17935943521264269 0.07135827912697662 0 0.16988015521188329 0.08282073200015258 0 0.1916307843626972 0.08827444688259839 0 0.1705578526620479 0.095927182961129481 0 0.16988015521188329 0.08282073200015258 0 0.19067723801237901 0.065525043857756982 0 0.1916307843626972 0.08827444688259839 0 0.17935943521264269 0.07135827912697662 0 0.19067723801237901 0.065525043857756982 0 0.17734631865053521 0.060730067185729229 0 0.17935943521264269 0.07135827912697662 0 0.17734631865053521 0.060730067185729229 0 0.17935943521264269 0.07135827912697662 0 0.1653937448538241 0.067538194789913991 0 0.17935943521264269 0.07135827912697662 0 0.1653937448538241 0.067538194789913991 0 0.16988015521188329 0.08282073200015258 0 0.15507694825043991 0.057889849327421902 0 0.15260580868734391 0.069203578475014266 0 0.1653937448538241 0.067538194789913991 0 0.15260580868734391 0.069203578475014266 0 0.1653937448538241 0.067538194789913991 0 0.15677919641446331 0.080277826610221981 0 0.1653937448538241 0.067538194789913991 0 0.15677919641446331 0.080277826610221981 0 0.16988015521188329 0.08282073200015258 0 0.15677919641446331 0.080277826610221981 0 0.157853861938485 0.092527754269896317 0 0.16988015521188329 0.08282073200015258 0 0.1705578526620479 0.095927182961129481 0 0.157853861938485 0.092527754269896317 0 0.16988015521188329 0.08282073200015258 0 0.099456207782380623 0.4822659283708195 0 0.1141892196830592 0.48396198267476093 0 0.11304725129434449 0.46767028325629811 0 0.099456207782380623 0.4822659283708195 0 0.11304725129434449 0.46767028325629811 0 0.096803680563272876 0.46646214520586099 0 0.099456207782380623 0.4822659283708195 0 0.10782601469385079 0.5 0 0.078267650747156567 0.50000000000000133 0 0.099456207782380623 0.4822659283708195 0 0.10782601469385079 0.5 0 0.1141892196830592 0.48396198267476093 0 0.10782601469385079 0.5 0 0.1249193769550877 0.49369376296818718 0 0.1141892196830592 0.48396198267476093 0 0.1249193769550877 0.49369376296818718 0 0.1141892196830592 0.48396198267476093 0 0.12569724768963239 0.47617993877849962 0 0.10782601469385079 0.5 0 0.1249193769550877 0.49369376296818718 0 0.13738437864054501 0.5 0 0.1141892196830592 0.48396198267476093 0 0.11304725129434449 0.46767028325629811 0 0.12569724768963239 0.47617993877849962 0 0.11304725129434449 0.46767028325629811 0 0.1267882431275838 0.46370707134437261 0 0.12569724768963239 0.47617993877849962 0 0.11304725129434449 0.46767028325629811 0 0.1221607865463437 0.4507156547582637 0 0.1004821270038239 0.44949914822431608 0 0.11304725129434449 0.46767028325629811 0 0.1221607865463437 0.4507156547582637 0 0.1267882431275838 0.46370707134437261 0 0.1221607865463437 0.4507156547582637 0 0.1004821270038239 0.44949914822431608 0 0.12259086230274099 0.42947812748907283 0 0.1004821270038239 0.44949914822431608 0 0.096803680563272876 0.46646214520586099 0 0.084307548883437972 0.45862843933572522 0 0.11304725129434449 0.46767028325629811 0 0.1004821270038239 0.44949914822431608 0 0.096803680563272876 0.46646214520586099 0 0.084307548883437972 0.45862843933572522 0 0.070120974899159305 0.46867166915081548 0 0.08254081050968877 0.47642281665818748 0 0.096803680563272876 0.46646214520586099 0 0.084307548883437972 0.45862843933572522 0 0.08254081050968877 0.47642281665818748 0 0.084307548883437972 0.45862843933572522 0 0.083205653112744402 0.44008551456546158 0 0.070599818540594342 0.45171728711773013 0 0.1004821270038239 0.44949914822431608 0 0.084307548883437972 0.45862843933572522 0 0.083205653112744402 0.44008551456546158 0 0.1004821270038239 0.44949914822431608 0 0.083205653112744402 0.44008551456546158 0 0.095892719888732866 0.42453745382262881 0 0.070599818540594342 0.45171728711773013 0 0.057347956450285731 0.44480695268810438 0 0.068330088192809502 0.43602814955066621 0 0.083205653112744402 0.44008551456546158 0 0.070599818540594342 0.45171728711773013 0 0.068330088192809502 0.43602814955066621 0 0.070599818540594342 0.45171728711773013 0 0.070120974899159305 0.46867166915081548 0 0.05832870883015126 0.45973880463956351 0 0.084307548883437972 0.45862843933572522 0 0.070599818540594342 0.45171728711773013 0 0.070120974899159305 0.46867166915081548 0 0.070120974899159305 0.46867166915081548 0 0.08254081050968877 0.47642281665818748 0 0.061557047466102868 0.48310025102256282 0 0.070120974899159305 0.46867166915081548 0 0.061557047466102868 0.48310025102256282 0 0.05832870883015126 0.45973880463956351 0 0.099456207782380623 0.4822659283708195 0 0.096803680563272876 0.46646214520586099 0 0.08254081050968877 0.47642281665818748 0 0.099456207782380623 0.4822659283708195 0 0.08254081050968877 0.47642281665818748 0 0.078267650747156567 0.50000000000000133 0 0.078267650747156567 0.50000000000000133 0 0.049166882519808157 0.5 0 0.061557047466102868 0.48310025102256282 0 0.08254081050968877 0.47642281665818748 0 0.078267650747156567 0.50000000000000133 0 0.061557047466102868 0.48310025102256282 0 0.078267650747156567 0.50000000000000133 0 0.061557047466102868 0.48310025102256282 0 0.049166882519808157 0.5 0 0.061557047466102868 0.48310025102256282 0 0.038208171894904559 0.48286056860770488 0 0.061557047466102868 0.48310025102256282 0 0.044846444185049857 0.46620050204512359 0 0.05832870883015126 0.45973880463956351 0 0.061557047466102868 0.48310025102256282 0 0.044846444185049857 0.46620050204512359 0 0.061557047466102868 0.48310025102256282 0 0.038208171894904559 0.48286056860770488 0 0.044846444185049857 0.46620050204512359 0 0.038208171894904559 0.48286056860770488 0 0.029572045059576241 0.469060477695939 0 0.044846444185049857 0.46620050204512359 0 0.049166882519808157 0.5 0 0.038208171894904559 0.48286056860770488 0 0.020066114292459799 0.5 0 0.038208171894904559 0.48286056860770488 0 0.020066114292459799 0.5 0 0.021055159894441029 0.48095839664786189 0 0.038208171894904559 0.48286056860770488 0 0.029572045059576241 0.469060477695939 0 0.021055159894441029 0.48095839664786189 0 0.029572045059576241 0.469060477695939 0 0.021055159894441029 0.48095839664786189 0 0.01561460841948897 0.46598216811131982 0 0.021055159894441029 0.48095839664786189 0 0.0030933759349822849 0.48266358315495572 0 0.01561460841948897 0.46598216811131982 0 0.0030933759349822849 0.48266358315495572 0 0.01561460841948897 0.46598216811131982 0 0.0036787250480955699 0.47408322248379448 0 0.0030933759349822849 0.48266358315495572 0 0.01561460841948897 0.46598216811131982 0 -0.0016340076521478781 0.48633642657919801 0 0.0036787250480955699 0.47408322248379448 0 0.0030933759349822849 0.48266358315495572 0 0.020066114292459799 0.5 0 0.021055159894441029 0.48095839664786189 0 0.0030933759349822849 0.48266358315495572 0 -0.0090346539348886701 0.5 0 -0.0016340076521478781 0.48633642657919801 0 0.020066114292459799 0.5 0 -0.0016340076521478781 0.48633642657919801 0 0.020066114292459799 0.5 0 0.0030933759349822849 0.48266358315495572 0 -0.0030841453677343121 0.43636499760021141 0 -0.002359076509941094 0.46135071208970457 0 0.010470448459028871 0.45111158928184719 0 -0.0030841453677343121 0.43636499760021141 0 0.010470448459028871 0.45111158928184719 0 0.017893296784651399 0.43894227458572882 0 -0.002359076509941094 0.46135071208970457 0 0.010470448459028871 0.45111158928184719 0 0.01561460841948897 0.46598216811131982 0 -0.002359076509941094 0.46135071208970457 0 0.0036787250480955699 0.47408322248379448 0 0.01561460841948897 0.46598216811131982 0 0.010470448459028871 0.45111158928184719 0 0.01561460841948897 0.46598216811131982 0 0.0281358409039968 0.44930075306768458 0 0.029572045059576241 0.469060477695939 0 0.01561460841948897 0.46598216811131982 0 0.0281358409039968 0.44930075306768458 0 0.01561460841948897 0.46598216811131982 0 0.0281358409039968 0.44930075306768458 0 0.010470448459028871 0.45111158928184719 0 0.0281358409039968 0.44930075306768458 0 0.017893296784651399 0.43894227458572882 0 0.0281358409039968 0.44930075306768458 0 0.017893296784651399 0.43894227458572882 0 0.03800042812263172 0.43615865433005307 0 0.0281358409039968 0.44930075306768458 0 0.017893296784651399 0.43894227458572882 0 0.0281358409039968 0.44930075306768458 0 0.04587361322417214 0.448769157871174 0 0.03800042812263172 0.43615865433005307 0 0.0281358409039968 0.44930075306768458 0 0.03800042812263172 0.43615865433005307 0 0.04587361322417214 0.448769157871174 0 0.049411209704934803 0.43621283219101809 0 0.03800042812263172 0.43615865433005307 0 0.029572045059576241 0.469060477695939 0 0.0281358409039968 0.44930075306768458 0 0.044846444185049857 0.46620050204512359 0 0.0281358409039968 0.44930075306768458 0 0.04587361322417214 0.448769157871174 0 0.044846444185049857 0.46620050204512359 0 0.0281358409039968 0.44930075306768458 0 0.044846444185049857 0.46620050204512359 0 0.04587361322417214 0.448769157871174 0 0.044846444185049857 0.46620050204512359 0 0.05832870883015126 0.45973880463956351 0 0.04587361322417214 0.448769157871174 0 0.057347956450285731 0.44480695268810438 0 0.049411209704934803 0.43621283219101809 0 0.04587361322417214 0.448769157871174 0 0.05832870883015126 0.45973880463956351 0 0.057347956450285731 0.44480695268810438 0 0.070599818540594342 0.45171728711773013 0 0.05832870883015126 0.45973880463956351 0 0.057347956450285731 0.44480695268810438 0 0.057347956450285731 0.44480695268810438 0 0.058238482531349368 0.43512174465279091 0 0.068330088192809502 0.43602814955066621 0 0.057347956450285731 0.44480695268810438 0 0.058238482531349368 0.43512174465279091 0 0.049411209704934803 0.43621283219101809 0 0.058238482531349368 0.43512174465279091 0 0.05412352915042095 0.42739076434297479 0 0.063786863135573219 0.4234822836218442 0 0.05412352915042095 0.42739076434297479 0 0.047865015341267358 0.42301655559242213 0 0.049411209704934803 0.43621283219101809 0 0.05412352915042095 0.42739076434297479 0 0.047865015341267358 0.42301655559242213 0 0.058238482531349368 0.43512174465279091 0 0.05412352915042095 0.42739076434297479 0 0.049411209704934803 0.43621283219101809 0 0.047865015341267358 0.42301655559242213 0 0.055388731832649349 0.41299308245440008 0 0.044385004541519633 0.40583709082877739 0 0.055388731832649349 0.41299308245440008 0 0.057103340742871267 0.4006394318358022 0 0.0691327228978319 0.40699071288372829 0 0.05412352915042095 0.42739076434297479 0 0.055388731832649349 0.41299308245440008 0 0.063786863135573219 0.4234822836218442 0 0.047865015341267358 0.42301655559242213 0 0.055388731832649349 0.41299308245440008 0 0.05412352915042095 0.42739076434297479 0 0.047865015341267358 0.42301655559242213 0 0.055388731832649349 0.41299308245440008 0 0.055388731832649349 0.41299308245440008 0 0.044385004541519633 0.40583709082877739 0 0.057103340742871267 0.4006394318358022 0 0.047865015341267358 0.42301655559242213 0 0.030398582533070099 0.41080889326869052 0 0.044385004541519633 0.40583709082877739 0 0.047865015341267358 0.42301655559242213 0 0.035686717363660143 0.42423985257235269 0 0.030398582533070099 0.41080889326869052 0 0.047865015341267358 0.42301655559242213 0 0.030398582533070099 0.41080889326869052 0 0.047865015341267358 0.42301655559242213 0 0.049411209704934803 0.43621283219101809 0 0.03800042812263172 0.43615865433005307 0 0.047865015341267358 0.42301655559242213 0 0.03800042812263172 0.43615865433005307 0 0.047865015341267358 0.42301655559242213 0 0.035686717363660143 0.42423985257235269 0 0.03800042812263172 0.43615865433005307 0 0.035686717363660143 0.42423985257235269 0 0.03800042812263172 0.43615865433005307 0 0.0264828434576714 0.42697530709824522 0 0.017893296784651399 0.43894227458572882 0 0.0264828434576714 0.42697530709824522 0 0.013451351612083251 0.42022136891186163 0 0.017893296784651399 0.43894227458572882 0 0.03800042812263172 0.43615865433005307 0 0.0264828434576714 0.42697530709824522 0 0.030398582533070099 0.41080889326869052 0 0.013451351612083251 0.42022136891186163 0 0.012932149724872831 0.39860123094495892 0 0.0264828434576714 0.42697530709824522 0 0.030398582533070099 0.41080889326869052 0 0.013451351612083251 0.42022136891186163 0 0.035686717363660143 0.42423985257235269 0 0.0264828434576714 0.42697530709824522 0 0.030398582533070099 0.41080889326869052 0 -0.0038092142255275289 0.41137928311071797 0 0.013451351612083251 0.42022136891186163 0 0.012932149724872831 0.39860123094495892 0 -0.0030841453677343121 0.43636499760021141 0 0.017893296784651399 0.43894227458572882 0 0.013451351612083251 0.42022136891186163 0 -0.0030841453677343121 0.43636499760021141 0 -0.0038092142255275289 0.41137928311071797 0 0.013451351612083251 0.42022136891186163 0 -0.0045342830833226501 0.3863935686212247 0 0.012932149724872831 0.39860123094495892 0 0.0079023355216259559 0.37348921158265391 0 0.012932149724872831 0.39860123094495892 0 0.025375843575522711 0.38021681034322929 0 0.0079023355216259559 0.37348921158265391 0 -0.0045342830833226501 0.3863935686212247 0 0.012932149724872831 0.39860123094495892 0 -0.0045342830833226501 0.3863935686212247 0 -0.0038092142255275289 0.41137928311071797 0 0.012932149724872831 0.39860123094495892 0 0.030398582533070099 0.41080889326869052 0 0.012932149724872831 0.39860123094495892 0 0.030398582533070099 0.41080889326869052 0 0.012932149724872831 0.39860123094495892 0 0.030218872497922818 0.39559608178221078 0 0.012932149724872831 0.39860123094495892 0 0.030218872497922818 0.39559608178221078 0 0.025375843575522711 0.38021681034322929 0 0.025375843575522711 0.38021681034322929 0 0.045236422390978262 0.39339421550307069 0 0.045418656597819553 0.37354288132317159 0 0.030218872497922818 0.39559608178221078 0 0.025375843575522711 0.38021681034322929 0 0.045236422390978262 0.39339421550307069 0 0.030398582533070099 0.41080889326869052 0 0.030218872497922818 0.39559608178221078 0 0.044385004541519633 0.40583709082877739 0 0.030218872497922818 0.39559608178221078 0 0.045236422390978262 0.39339421550307069 0 0.044385004541519633 0.40583709082877739 0 0.045236422390978262 0.39339421550307069 0 0.057103340742871267 0.4006394318358022 0 0.06607043693335328 0.38973814947632979 0 0.045236422390978262 0.39339421550307069 0 0.044385004541519633 0.40583709082877739 0 0.057103340742871267 0.4006394318358022 0 0.045236422390978262 0.39339421550307069 0 0.06607043693335328 0.38973814947632979 0 0.045418656597819553 0.37354288132317159 0 0.06607043693335328 0.38973814947632979 0 0.066778362586220691 0.36264744131756171 0 0.045418656597819553 0.37354288132317159 0 0.06607043693335328 0.38973814947632979 0 0.086713905658550791 0.37461406501925459 0 0.066778362586220691 0.36264744131756171 0 0.091303312773641829 0.3995757594209417 0 0.1025776524751303 0.38486691706586951 0 0.086713905658550791 0.37461406501925459 0 0.06607043693335328 0.38973814947632979 0 0.091303312773641829 0.3995757594209417 0 0.086713905658550791 0.37461406501925459 0 0.091303312773641829 0.3995757594209417 0 0.086713905658550791 0.37461406501925459 0 0.06607043693335328 0.38973814947632979 0 0.091303312773641829 0.3995757594209417 0 0.0691327228978319 0.40699071288372829 0 0.057103340742871267 0.4006394318358022 0 0.06607043693335328 0.38973814947632979 0 0.0691327228978319 0.40699071288372829 0 0.055388731832649349 0.41299308245440008 0 0.0691327228978319 0.40699071288372829 0 0.063786863135573219 0.4234822836218442 0 0.0691327228978319 0.40699071288372829 0 0.077714875811277062 0.4214876261871765 0 0.063786863135573219 0.4234822836218442 0 0.083205653112744402 0.44008551456546158 0 0.077714875811277062 0.4214876261871765 0 0.068330088192809502 0.43602814955066621 0 0.058238482531349368 0.43512174465279091 0 0.068330088192809502 0.43602814955066621 0 0.063786863135573219 0.4234822836218442 0 0.077714875811277062 0.4214876261871765 0 0.068330088192809502 0.43602814955066621 0 0.063786863135573219 0.4234822836218442 0 0.083205653112744402 0.44008551456546158 0 0.077714875811277062 0.4214876261871765 0 0.095892719888732866 0.42453745382262881 0 0.091303312773641829 0.3995757594209417 0 0.0691327228978319 0.40699071288372829 0 0.077714875811277062 0.4214876261871765 0 0.091303312773641829 0.3995757594209417 0 0.095892719888732866 0.42453745382262881 0 0.091303312773641829 0.3995757594209417 0 0.077714875811277062 0.4214876261871765 0 0.095892719888732866 0.42453745382262881 0 0.091303312773641829 0.3995757594209417 0 0.095892719888732866 0.42453745382262881 0 0.115428724103706 0.40267530492779557 0 0.1004821270038239 0.44949914822431608 0 0.095892719888732866 0.42453745382262881 0 0.12259086230274099 0.42947812748907283 0 0.1004821270038239 0.44949914822431608 0 0.095892719888732866 0.42453745382262881 0 0.095892719888732866 0.42453745382262881 0 0.12259086230274099 0.42947812748907283 0 0.115428724103706 0.40267530492779557 0 0.115428724103706 0.40267530492779557 0 0.119448870245615 0.38256434187866972 0 0.13692284990477191 0.38930777957628943 0 0.119448870245615 0.38256434187866972 0 0.1025776524751303 0.38486691706586951 0 0.1087205780393706 0.3656269003386084 0 0.115428724103706 0.40267530492779557 0 0.119448870245615 0.38256434187866972 0 0.1025776524751303 0.38486691706586951 0 0.1025776524751303 0.38486691706586951 0 0.1087205780393706 0.3656269003386084 0 0.086713905658550791 0.37461406501925459 0 0.091303312773641829 0.3995757594209417 0 0.115428724103706 0.40267530492779557 0 0.1025776524751303 0.38486691706586951 0 0.1087205780393706 0.3656269003386084 0 0.1202868522871179 0.34060046584014031 0 0.0915497208986496 0.34709204532757532 0 0.1087205780393706 0.3656269003386084 0 0.0915497208986496 0.34709204532757532 0 0.086713905658550791 0.37461406501925459 0 0.119448870245615 0.38256434187866972 0 0.1087205780393706 0.3656269003386084 0 0.13274728415341139 0.36410634055334368 0 0.1087205780393706 0.3656269003386084 0 0.1202868522871179 0.34060046584014031 0 0.13274728415341139 0.36410634055334368 0 0.1202868522871179 0.34060046584014031 0 0.1104734498024164 0.31171603628350752 0 0.14183880654046921 0.32250528078568202 0 0.1202868522871179 0.34060046584014031 0 0.1016552612267161 0.33013161519950079 0 0.1104734498024164 0.31171603628350752 0 0.1016552612267161 0.33013161519950079 0 0.081254576285268804 0.3210829637434266 0 0.1104734498024164 0.31171603628350752 0 0.1202868522871179 0.34060046584014031 0 0.1016552612267161 0.33013161519950079 0 0.0915497208986496 0.34709204532757532 0 0.081254576285268804 0.3210829637434266 0 0.072654821413094289 0.33942743407960763 0 0.0915497208986496 0.34709204532757532 0 0.1016552612267161 0.33013161519950079 0 0.081254576285268804 0.3210829637434266 0 0.0915497208986496 0.34709204532757532 0 0.081254576285268804 0.3210829637434266 0 0.06358813508901956 0.32234581427363851 0 0.071244474661197085 0.3036312559279935 0 0.081254576285268804 0.3210829637434266 0 0.06358813508901956 0.32234581427363851 0 0.072654821413094289 0.33942743407960763 0 0.06358813508901956 0.32234581427363851 0 0.072654821413094289 0.33942743407960763 0 0.055199983679349987 0.34246375673151652 0 0.072654821413094289 0.33942743407960763 0 0.066778362586220691 0.36264744131756171 0 0.055199983679349987 0.34246375673151652 0 0.072654821413094289 0.33942743407960763 0 0.0915497208986496 0.34709204532757532 0 0.066778362586220691 0.36264744131756171 0 0.0915497208986496 0.34709204532757532 0 0.086713905658550791 0.37461406501925459 0 0.066778362586220691 0.36264744131756171 0 0.066778362586220691 0.36264744131756171 0 0.044951457965310811 0.3555124197003488 0 0.045418656597819553 0.37354288132317159 0 0.066778362586220691 0.36264744131756171 0 0.044951457965310811 0.3555124197003488 0 0.055199983679349987 0.34246375673151652 0 0.044951457965310811 0.3555124197003488 0 0.021903196078839001 0.35746348141110651 0 0.035457090884324839 0.34144453771838768 0 0.044951457965310811 0.3555124197003488 0 0.035457090884324839 0.34144453771838768 0 0.055199983679349987 0.34246375673151652 0 0.044951457965310811 0.3555124197003488 0 0.045418656597819553 0.37354288132317159 0 0.021903196078839001 0.35746348141110651 0 0.025375843575522711 0.38021681034322929 0 0.021903196078839001 0.35746348141110651 0 0.0079023355216259559 0.37348921158265391 0 0.025375843575522711 0.38021681034322929 0 0.045418656597819553 0.37354288132317159 0 0.021903196078839001 0.35746348141110651 0 0.021903196078839001 0.35746348141110651 0 0.017151683724365509 0.3376665205351736 0 0.035457090884324839 0.34144453771838768 0 0.021903196078839001 0.35746348141110651 0 0.0095650341834115256 0.34490192427506011 0 0.017151683724365509 0.3376665205351736 0 0.021903196078839001 0.35746348141110651 0 0.0095650341834115256 0.34490192427506011 0 0.0061318462344260851 0.35417601161121459 0 -0.0050552824635438226 0.34569829691311771 0 0.0095650341834115256 0.34490192427506011 0 0.0061318462344260851 0.35417601161121459 0 0.021903196078839001 0.35746348141110651 0 0.0061318462344260851 0.35417601161121459 0 0.0079023355216259559 0.37348921158265391 0 -0.0052616759920083916 0.36132776784546622 0 0.0061318462344260851 0.35417601161121459 0 0.0079023355216259559 0.37348921158265391 0 0.0087281755863181168 0.33049580891976171 0 0.020410497070949891 0.30832150289807031 0 0.0056044744337335906 0.31412092038659428 0 0.0087281755863181168 0.33049580891976171 0 0.020410497070949891 0.30832150289807031 0 -0.003280447873963227 0.32161399115684158 0 0.0056044744337335906 0.31412092038659428 0 0.0087281755863181168 0.33049580891976171 0 0.0064742168078369342 0.3347740657525386 0 0.0087281755863181168 0.33049580891976171 0 -0.0050552824635438226 0.34569829691311771 0 0.0095650341834115256 0.34490192427506011 0 0.0064742168078369342 0.3347740657525386 0 0.0095650341834115256 0.34490192427506011 0 0.0064742168078369342 0.3347740657525386 0 0.017151683724365509 0.3376665205351736 0 0.0064742168078369342 0.3347740657525386 0 0.0087281755863181168 0.33049580891976171 0 0.017151683724365509 0.3376665205351736 0 0.0087281755863181168 0.33049580891976171 0 0.025353163704189718 0.33024288796319817 0 0.017151683724365509 0.3376665205351736 0 0.0087281755863181168 0.33049580891976171 0 0.025353163704189718 0.33024288796319817 0 0.025353163704189718 0.33024288796319817 0 0.017151683724365509 0.3376665205351736 0 0.035457090884324839 0.34144453771838768 0 0.0087281755863181168 0.33049580891976171 0 0.025353163704189718 0.33024288796319817 0 0.020410497070949891 0.30832150289807031 0 0.025353163704189718 0.33024288796319817 0 0.038017806832533571 0.30672300381527179 0 0.020410497070949891 0.30832150289807031 0 0.025353163704189718 0.33024288796319817 0 0.045812945845809312 0.32351293560108041 0 0.038017806832533571 0.30672300381527179 0 0.025353163704189718 0.33024288796319817 0 0.045812945845809312 0.32351293560108041 0 0.035457090884324839 0.34144453771838768 0 0.045812945845809312 0.32351293560108041 0 0.035457090884324839 0.34144453771838768 0 0.055199983679349987 0.34246375673151652 0 0.06358813508901956 0.32234581427363851 0 0.045812945845809312 0.32351293560108041 0 0.055199983679349987 0.34246375673151652 0 0.06358813508901956 0.32234581427363851 0 0.045812945845809312 0.32351293560108041 0 0.055148108477292443 0.3057593846019967 0 0.055148108477292443 0.3057593846019967 0 0.047586914097201803 0.29032131063477928 0 0.038017806832533571 0.30672300381527179 0 0.055148108477292443 0.3057593846019967 0 0.047586914097201803 0.29032131063477928 0 0.066935962560195753 0.28615893812798288 0 0.047586914097201803 0.29032131063477928 0 0.050578246113349837 0.27455429857722041 0 0.066935962560195753 0.28615893812798288 0 0.047586914097201803 0.29032131063477928 0 0.032092818555581597 0.28614719687637868 0 0.038017806832533571 0.30672300381527179 0 0.047586914097201803 0.29032131063477928 0 0.032092818555581597 0.28614719687637868 0 0.050578246113349837 0.27455429857722041 0 0.045812945845809312 0.32351293560108041 0 0.055148108477292443 0.3057593846019967 0 0.038017806832533571 0.30672300381527179 0 0.032092818555581597 0.28614719687637868 0 0.038017806832533571 0.30672300381527179 0 0.020410497070949891 0.30832150289807031 0 0.032092818555581597 0.28614719687637868 0 0.020410497070949891 0.30832150289807031 0 0.032092818555581597 0.28614719687637868 0 0.020410497070949891 0.30832150289807031 0 0.0083336089875100904 0.29343585490586271 0 0.032092818555581597 0.28614719687637868 0 0.0083336089875100904 0.29343585490586271 0 0.021382191810826279 0.2686960609189637 0 -0.0088759444352828343 0.31092800175718183 0 0.0056044744337335906 0.31412092038659428 0 0.0083336089875100904 0.29343585490586271 0 0.0056044744337335906 0.31412092038659428 0 0.020410497070949891 0.30832150289807031 0 0.0083336089875100904 0.29343585490586271 0 0.0073806355134042019 0.25529449578482938 0 3.3590645499582607e-05 0.27236849017123349 0 0.021382191810826279 0.2686960609189637 0 0.0083336089875100904 0.29343585490586271 0 3.3590645499582607e-05 0.27236849017123349 0 0.021382191810826279 0.2686960609189637 0 0.025149977659741599 0.24684982625080901 0 0.0073806355134042019 0.25529449578482938 0 0.021382191810826279 0.2686960609189637 0 0.025149977659741599 0.24684982625080901 0 0.021382191810826279 0.2686960609189637 0 0.043775140040213267 0.26397289085468728 0 0.025149977659741599 0.24684982625080901 0 0.045472231705318063 0.24424317023843681 0 0.050158093690384618 0.2598810672441918 0 0.025149977659741599 0.24684982625080901 0 0.050158093690384618 0.2598810672441918 0 0.025149977659741599 0.24684982625080901 0 0.043775140040213267 0.26397289085468728 0 0.050158093690384618 0.2598810672441918 0 0.032092818555581597 0.28614719687637868 0 0.043775140040213267 0.26397289085468728 0 0.032092818555581597 0.28614719687637868 0 0.021382191810826279 0.2686960609189637 0 0.043775140040213267 0.26397289085468728 0 0.032092818555581597 0.28614719687637868 0 0.043775140040213267 0.26397289085468728 0 0.050578246113349837 0.27455429857722041 0 0.050578246113349837 0.27455429857722041 0 0.063875668081316214 0.2678607518654692 0 0.066935962560195753 0.28615893812798288 0 0.043775140040213267 0.26397289085468728 0 0.050578246113349837 0.27455429857722041 0 0.050158093690384618 0.2598810672441918 0 0.050578246113349837 0.27455429857722041 0 0.056046126259945157 0.25263236173372139 0 0.063875668081316214 0.2678607518654692 0 0.050578246113349837 0.27455429857722041 0 0.050158093690384618 0.2598810672441918 0 0.056046126259945157 0.25263236173372139 0 0.045472231705318063 0.24424317023843681 0 0.050158093690384618 0.2598810672441918 0 0.056046126259945157 0.25263236173372139 0 0.050578246113349837 0.27455429857722041 0 0.056046126259945157 0.25263236173372139 0 0.078525547080241467 0.2465942846531784 0 0.067905867336300579 0.25358800162702 0 0.079567988853459573 0.27014218499250892 0 0.067905867336300579 0.25358800162702 0 0.079567988853459573 0.27014218499250892 0 0.063875668081316214 0.2678607518654692 0 0.056046126259945157 0.25263236173372139 0 0.067905867336300579 0.25358800162702 0 0.063875668081316214 0.2678607518654692 0 0.078525547080241467 0.2465942846531784 0 0.079567988853459573 0.27014218499250892 0 0.093798877441032588 0.2579700649065903 0 0.079567988853459573 0.27014218499250892 0 0.063875668081316214 0.2678607518654692 0 0.066935962560195753 0.28615893812798288 0 0.079567988853459573 0.27014218499250892 0 0.066935962560195753 0.28615893812798288 0 0.087430381393448858 0.29852998767476718 0 0.066935962560195753 0.28615893812798288 0 0.071244474661197085 0.3036312559279935 0 0.087430381393448858 0.29852998767476718 0 0.055148108477292443 0.3057593846019967 0 0.066935962560195753 0.28615893812798288 0 0.071244474661197085 0.3036312559279935 0 0.06358813508901956 0.32234581427363851 0 0.055148108477292443 0.3057593846019967 0 0.071244474661197085 0.3036312559279935 0 0.081254576285268804 0.3210829637434266 0 0.087430381393448858 0.29852998767476718 0 0.1104734498024164 0.31171603628350752 0 0.081254576285268804 0.3210829637434266 0 0.071244474661197085 0.3036312559279935 0 0.087430381393448858 0.29852998767476718 0 0.079567988853459573 0.27014218499250892 0 0.087430381393448858 0.29852998767476718 0 0.1079828451826004 0.27738565586056829 0 0.087430381393448858 0.29852998767476718 0 0.1104734498024164 0.31171603628350752 0 0.1079828451826004 0.27738565586056829 0 0.1104734498024164 0.31171603628350752 0 0.1079828451826004 0.27738565586056829 0 0.13401849175413849 0.29214957311260448 0 0.1079828451826004 0.27738565586056829 0 0.13401849175413849 0.29214957311260448 0 0.1100607559553454 0.25396994184181759 0 0.1079828451826004 0.27738565586056829 0 0.13366986361514199 0.26692500362740812 0 0.12787711237058769 0.24521089126939841 0 0.1100607559553454 0.25396994184181759 0 0.13366986361514199 0.26692500362740812 0 0.092857250133516089 0.24175825718487831 0 0.1100607559553454 0.25396994184181759 0 0.093798877441032588 0.2579700649065903 0 0.1100607559553454 0.25396994184181759 0 0.093798877441032588 0.2579700649065903 0 0.1079828451826004 0.27738565586056829 0 0.079567988853459573 0.27014218499250892 0 0.093798877441032588 0.2579700649065903 0 0.1079828451826004 0.27738565586056829 0 0.13366986361514199 0.26692500362740812 0 0.1558685034792309 0.28595093384994291 0 0.15959452244756481 0.26367036214955358 0 0.14702044576598061 0.2478904659134552 0 0.13366986361514199 0.26692500362740812 0 0.15959452244756481 0.26367036214955358 0 0.14702044576598061 0.2478904659134552 0 0.12787711237058769 0.24521089126939841 0 0.13366986361514199 0.26692500362740812 0 0.1079828451826004 0.27738565586056829 0 0.13366986361514199 0.26692500362740812 0 0.13401849175413849 0.29214957311260448 0 0.1104734498024164 0.31171603628350752 0 0.13401849175413849 0.29214957311260448 0 0.14183880654046921 0.32250528078568202 0 0.13401849175413849 0.29214957311260448 0 0.16005413832567669 0.30691349036464077 0 0.14183880654046921 0.32250528078568202 0 0.13401849175413849 0.29214957311260448 0 0.16005413832567669 0.30691349036464077 0 0.13401849175413849 0.29214957311260448 0 0.1558685034792309 0.28595093384994291 0 0.16005413832567669 0.30691349036464077 0 0.13366986361514199 0.26692500362740812 0 0.13401849175413849 0.29214957311260448 0 0.1558685034792309 0.28595093384994291 0 0.1558685034792309 0.28595093384994291 0 0.1700220001876428 0.28782965529906401 0 0.16005413832567669 0.30691349036464077 0 0.1558685034792309 0.28595093384994291 0 0.1700220001876428 0.28782965529906401 0 0.17370236977615991 0.27502287964280692 0 0.1700220001876428 0.28782965529906401 0 0.16005413832567669 0.30691349036464077 0 0.1764196225356903 0.29880027385689728 0 0.16005413832567669 0.30691349036464077 0 0.1764196225356903 0.29880027385689728 0 0.18686192329242929 0.31378732528256248 0 0.1764196225356903 0.29880027385689728 0 0.18674031124236579 0.30201460306836742 0 0.19086383386244751 0.2907864273273883 0 0.1764196225356903 0.29880027385689728 0 0.18674031124236579 0.30201460306836742 0 0.18686192329242929 0.31378732528256248 0 0.1700220001876428 0.28782965529906401 0 0.18013512871176271 0.28566990799825959 0 0.17370236977615991 0.27502287964280692 0 0.1700220001876428 0.28782965529906401 0 0.1764196225356903 0.29880027385689728 0 0.18013512871176271 0.28566990799825959 0 0.1764196225356903 0.29880027385689728 0 0.18013512871176271 0.28566990799825959 0 0.19086383386244751 0.2907864273273883 0 0.18013512871176271 0.28566990799825959 0 0.1896678171968729 0.27591030386514148 0 0.19086383386244751 0.2907864273273883 0 0.18251379545819379 0.26835647973838378 0 0.17370236977615991 0.27502287964280692 0 0.1896678171968729 0.27591030386514148 0 0.18013512871176271 0.28566990799825959 0 0.17370236977615991 0.27502287964280692 0 0.1896678171968729 0.27591030386514148 0 0.18251379545819379 0.26835647973838378 0 0.17370236977615991 0.27502287964280692 0 0.17699066645021869 0.2595722272450377 0 0.17370236977615991 0.27502287964280692 0 0.15959452244756481 0.26367036214955358 0 0.17699066645021869 0.2595722272450377 0 0.1558685034792309 0.28595093384994291 0 0.17370236977615991 0.27502287964280692 0 0.15959452244756481 0.26367036214955358 0 0.16774616909827719 0.2460930353984315 0 0.15959452244756481 0.26367036214955358 0 0.17699066645021869 0.2595722272450377 0 0.14702044576598061 0.2478904659134552 0 0.16774616909827719 0.2460930353984315 0 0.15959452244756481 0.26367036214955358 0 0.18692125413578081 0.24552837502103991 0 0.16774616909827719 0.2460930353984315 0 0.17699066645021869 0.2595722272450377 0 0.18692125413578081 0.24552837502103991 0 0.17699066645021869 0.2595722272450377 0 0.19242781921148469 0.26384338938458129 0 0.18251379545819379 0.26835647973838378 0 0.17699066645021869 0.2595722272450377 0 0.19242781921148469 0.26384338938458129 0 0.18692125413578081 0.24552837502103991 0 0.19242781921148469 0.26384338938458129 0 0.20107379594449931 0.25686311186437227 0 0.18692125413578081 0.24552837502103991 0 0.20107379594449931 0.25686311186437227 0 0.19242781921148469 0.26384338938458129 0 0.20107379594449931 0.25686311186437227 0 0.2008998280478862 0.26959186196165702 0 0.19242781921148469 0.26384338938458129 0 0.20107379594449931 0.25686311186437227 0 0.19242781921148469 0.26384338938458129 0 0.1896678171968729 0.27591030386514148 0 0.2008998280478862 0.26959186196165702 0 0.18251379545819379 0.26835647973838378 0 0.19242781921148469 0.26384338938458129 0 0.1896678171968729 0.27591030386514148 0 0.1896678171968729 0.27591030386514148 0 0.2008998280478862 0.26959186196165702 0 0.20354188417430641 0.281093168015905 0 0.2008998280478862 0.26959186196165702 0 0.2177878237122676 0.27024933667828532 0 0.20354188417430641 0.281093168015905 0 0.2177878237122676 0.27024933667828532 0 0.20354188417430641 0.281093168015905 0 0.2166033006779626 0.28924568688104418 0 0.21557305570370441 0.24515722135805329 0 0.20107379594449931 0.25686311186437227 0 0.2177878237122676 0.27024933667828532 0 0.20107379594449931 0.25686311186437227 0 0.2177878237122676 0.27024933667828532 0 0.20107379594449931 0.25686311186437227 0 0.2008998280478862 0.26959186196165702 0 0.2177878237122676 0.27024933667828532 0 0.21557305570370441 0.24515722135805329 0 0.20107379594449931 0.25686311186437227 0 0.21557305570370441 0.24515722135805329 0 0.2177878237122676 0.27024933667828532 0 0.23628031136540401 0.25597328662156199 0 0.2177878237122676 0.27024933667828532 0 0.23628031136540401 0.25597328662156199 0 0.23450185148003599 0.28363556149219821 0 0.2177878237122676 0.27024933667828532 0 0.23450185148003599 0.28363556149219821 0 0.2166033006779626 0.28924568688104418 0 0.2177878237122676 0.27024933667828532 0 0.23450185148003599 0.28363556149219821 0 0.23628031136540401 0.25597328662156199 0 0.23450185148003599 0.28363556149219821 0 0.25102838231212438 0.26850893423506528 0 0.23450185148003599 0.28363556149219821 0 0.25953152444998728 0.28294166139542631 0 0.25102838231212438 0.26850893423506528 0 0.23628031136540401 0.25597328662156199 0 0.25102838231212438 0.26850893423506528 0 0.26221447651104962 0.2479993693513689 0 0.2297645605960125 0.30261029929826411 0 0.25121587924780342 0.29702178630611242 0 0.2484846271056145 0.31037308609574782 0 0.2297645605960125 0.30261029929826411 0 0.23798581837376781 0.31938142953188831 0 0.2484846271056145 0.31037308609574782 0 0.2297645605960125 0.30261029929826411 0 0.25121587924780342 0.29702178630611242 0 0.23450185148003599 0.28363556149219821 0 0.2297645605960125 0.30261029929826411 0 0.25121587924780342 0.29702178630611242 0 0.23450185148003599 0.28363556149219821 0 0.25121587924780342 0.29702178630611242 0 0.23450185148003599 0.28363556149219821 0 0.25953152444998728 0.28294166139542631 0 0.25121587924780342 0.29702178630611242 0 0.23450185148003599 0.28363556149219821 0 0.2297645605960125 0.30261029929826411 0 0.2166033006779626 0.28924568688104418 0 0.2297645605960125 0.30261029929826411 0 0.20831324194422091 0.30819881229041318 0 0.2297645605960125 0.30261029929826411 0 0.20831324194422091 0.30819881229041318 0 0.21977364325038071 0.31928170538083578 0 0.20831324194422091 0.30819881229041318 0 0.2166033006779626 0.28924568688104418 0 0.20288664267638859 0.29424953150154581 0 0.2297645605960125 0.30261029929826411 0 0.20831324194422091 0.30819881229041318 0 0.2166033006779626 0.28924568688104418 0 0.20354188417430641 0.281093168015905 0 0.2166033006779626 0.28924568688104418 0 0.20288664267638859 0.29424953150154581 0 0.20354188417430641 0.281093168015905 0 0.20288664267638859 0.29424953150154581 0 0.19086383386244751 0.2907864273273883 0 0.20288664267638859 0.29424953150154581 0 0.19086383386244751 0.2907864273273883 0 0.19511095272300569 0.3019235629929784 0 0.1896678171968729 0.27591030386514148 0 0.20354188417430641 0.281093168015905 0 0.19086383386244751 0.2907864273273883 0 0.20831324194422091 0.30819881229041318 0 0.18686192329242929 0.31378732528256248 0 0.20831324194422091 0.30819881229041318 0 0.19511095272300569 0.3019235629929784 0 0.18686192329242929 0.31378732528256248 0 0.20831324194422091 0.30819881229041318 0 0.20288664267638859 0.29424953150154581 0 0.19511095272300569 0.3019235629929784 0 0.18674031124236579 0.30201460306836742 0 0.19086383386244751 0.2907864273273883 0 0.19511095272300569 0.3019235629929784 0 0.18674031124236579 0.30201460306836742 0 0.19511095272300569 0.3019235629929784 0 0.18686192329242929 0.31378732528256248 0 0.20141288137377081 0.31920030670374799 0 0.18686192329242929 0.31378732528256248 0 0.18608978489721489 0.32167740761667712 0 0.20831324194422091 0.30819881229041318 0 0.20141288137377081 0.31920030670374799 0 0.18686192329242929 0.31378732528256248 0 0.20141288137377081 0.31920030670374799 0 0.21212543146875301 0.33644132486871342 0 0.18608978489721489 0.32167740761667712 0 0.21212543146875301 0.33644132486871342 0 0.18608978489721489 0.32167740761667712 0 0.19231113454718349 0.34165597013868199 0 0.21212543146875301 0.33644132486871342 0 0.18608978489721489 0.32167740761667712 0 0.20831324194422091 0.30819881229041318 0 0.20141288137377081 0.31920030670374799 0 0.21977364325038071 0.31928170538083578 0 0.20141288137377081 0.31920030670374799 0 0.21212543146875301 0.33644132486871342 0 0.21977364325038071 0.31928170538083578 0 0.21977364325038071 0.31928170538083578 0 0.2290399257457596 0.32985805959198788 0 0.23798581837376781 0.31938142953188831 0 0.2297645605960125 0.30261029929826411 0 0.21977364325038071 0.31928170538083578 0 0.23798581837376781 0.31938142953188831 0 0.21212543146875301 0.33644132486871342 0 0.21977364325038071 0.31928170538083578 0 0.2290399257457596 0.32985805959198788 0 0.21212543146875301 0.33644132486871342 0 0.23060518033342339 0.33807106122714048 0 0.2290399257457596 0.32985805959198788 0 0.21212543146875301 0.33644132486871342 0 0.23060518033342339 0.33807106122714048 0 0.23816107804029091 0.35120524212074949 0 0.23060518033342339 0.33807106122714048 0 0.2290399257457596 0.32985805959198788 0 0.2430942860788903 0.33477961832711151 0 0.23060518033342339 0.33807106122714048 0 0.2430942860788903 0.33477961832711151 0 0.23816107804029091 0.35120524212074949 0 0.2484846271056145 0.31037308609574782 0 0.23798581837376781 0.31938142953188831 0 0.25508783524565293 0.32209220201309929 0 0.2430942860788903 0.33477961832711151 0 0.23798581837376781 0.31938142953188831 0 0.25508783524565293 0.32209220201309929 0 0.2290399257457596 0.32985805959198788 0 0.2430942860788903 0.33477961832711151 0 0.23798581837376781 0.31938142953188831 0 0.23439037865920059 0.35560025357312369 0 0.2386764282036242 0.37725286527910618 0 0.24311907173897271 0.36013203008567057 0 0.23439037865920059 0.35560025357312369 0 0.2386764282036242 0.37725286527910618 0 0.2492643002430574 0.365916522193315 0 0.24311907173897271 0.36013203008567057 0 0.2386764282036242 0.37725286527910618 0 0.2492643002430574 0.365916522193315 0 0.2386764282036242 0.37725286527910618 0 0.25383912625151372 0.37755129754335942 0 0.24311907173897271 0.36013203008567057 0 0.23816107804029091 0.35120524212074949 0 0.2641967246118288 0.36596915937278562 0 0.2430942860788903 0.33477961832711151 0 0.23816107804029091 0.35120524212074949 0 0.26173146881309822 0.35734024057335978 0 0.24311907173897271 0.36013203008567057 0 0.23816107804029091 0.35120524212074949 0 0.23439037865920059 0.35560025357312369 0 0.21212543146875301 0.33644132486871342 0 0.23816107804029091 0.35120524212074949 0 0.21848510057545151 0.35453686872473111 0 0.23816107804029091 0.35120524212074949 0 0.23439037865920059 0.35560025357312369 0 0.21848510057545151 0.35453686872473111 0 0.21212543146875301 0.33644132486871342 0 0.23816107804029091 0.35120524212074949 0 0.23439037865920059 0.35560025357312369 0 0.22513916990612379 0.36868200325308897 0 0.2386764282036242 0.37725286527910618 0 0.23439037865920059 0.35560025357312369 0 0.22513916990612379 0.36868200325308897 0 0.21848510057545151 0.35453686872473111 0 0.22513916990612379 0.36868200325308897 0 0.20931495008602691 0.36890180222237801 0 0.21961872799640589 0.38146559318592133 0 0.22513916990612379 0.36868200325308897 0 0.20931495008602691 0.36890180222237801 0 0.21848510057545151 0.35453686872473111 0 0.20931495008602691 0.36890180222237801 0 0.21848510057545151 0.35453686872473111 0 0.2018014651714847 0.35413555731190122 0 0.21212543146875301 0.33644132486871342 0 0.21848510057545151 0.35453686872473111 0 0.2018014651714847 0.35413555731190122 0 0.19231113454718349 0.34165597013868199 0 0.2018014651714847 0.35413555731190122 0 0.1832131523033072 0.3569188224833833 0 0.19231113454718349 0.34165597013868199 0 0.21212543146875301 0.33644132486871342 0 0.2018014651714847 0.35413555731190122 0 0.20931495008602691 0.36890180222237801 0 0.2018014651714847 0.35413555731190122 0 0.19217836357317111 0.36996972767433872 0 0.20931495008602691 0.36890180222237801 0 0.19217836357317111 0.36996972767433872 0 0.20289108470775991 0.38370682355227331 0 0.2018014651714847 0.35413555731190122 0 0.19217836357317111 0.36996972767433872 0 0.1832131523033072 0.3569188224833833 0 0.19217836357317111 0.36996972767433872 0 0.17197644233242751 0.37002706837148541 0 0.1832131523033072 0.3569188224833833 0 0.17197644233242751 0.37002706837148541 0 0.16866852787741549 0.35230522619665788 0 0.1832131523033072 0.3569188224833833 0 0.17197644233242751 0.37002706837148541 0 0.16866852787741549 0.35230522619665788 0 0.15186920095361911 0.35620033980905319 0 0.17197644233242751 0.37002706837148541 0 0.15186920095361911 0.35620033980905319 0 0.15185568245476189 0.37707061606136422 0 0.16866852787741549 0.35230522619665788 0 0.1579580049025659 0.33927316190663209 0 0.15186920095361911 0.35620033980905319 0 0.16866852787741549 0.35230522619665788 0 0.1832131523033072 0.3569188224833833 0 0.17832583889515771 0.33910673841273542 0 0.19231113454718349 0.34165597013868199 0 0.1832131523033072 0.3569188224833833 0 0.17832583889515771 0.33910673841273542 0 0.17832583889515771 0.33910673841273542 0 0.18608978489721489 0.32167740761667712 0 0.16647560889869609 0.32578562508456149 0 0.19231113454718349 0.34165597013868199 0 0.17832583889515771 0.33910673841273542 0 0.18608978489721489 0.32167740761667712 0 0.16005413832567669 0.30691349036464077 0 0.18608978489721489 0.32167740761667712 0 0.16005413832567669 0.30691349036464077 0 0.18686192329242929 0.31378732528256248 0 0.18608978489721489 0.32167740761667712 0 0.16005413832567669 0.30691349036464077 0 0.18608978489721489 0.32167740761667712 0 0.16647560889869609 0.32578562508456149 0 0.17832583889515771 0.33910673841273542 0 0.16647560889869609 0.32578562508456149 0 0.1579580049025659 0.33927316190663209 0 0.16866852787741549 0.35230522619665788 0 0.17832583889515771 0.33910673841273542 0 0.1579580049025659 0.33927316190663209 0 0.16647560889869609 0.32578562508456149 0 0.1579580049025659 0.33927316190663209 0 0.14183880654046921 0.32250528078568202 0 0.1579580049025659 0.33927316190663209 0 0.14183880654046921 0.32250528078568202 0 0.14054269679001921 0.34363296691054102 0 0.16005413832567669 0.30691349036464077 0 0.16647560889869609 0.32578562508456149 0 0.14183880654046921 0.32250528078568202 0 0.1202868522871179 0.34060046584014031 0 0.14183880654046921 0.32250528078568202 0 0.14054269679001921 0.34363296691054102 0 0.1202868522871179 0.34060046584014031 0 0.14054269679001921 0.34363296691054102 0 0.13274728415341139 0.36410634055334368 0 0.13274728415341139 0.36410634055334368 0 0.15186920095361911 0.35620033980905319 0 0.15185568245476189 0.37707061606136422 0 0.14054269679001921 0.34363296691054102 0 0.13274728415341139 0.36410634055334368 0 0.15186920095361911 0.35620033980905319 0 0.1579580049025659 0.33927316190663209 0 0.14054269679001921 0.34363296691054102 0 0.15186920095361911 0.35620033980905319 0 0.15352992747694119 0.40026604784697911 0 0.13692284990477191 0.38930777957628943 0 0.1397509022148696 0.40843688002483958 0 0.15352992747694119 0.40026604784697911 0 0.15185568245476189 0.37707061606136422 0 0.13692284990477191 0.38930777957628943 0 0.13274728415341139 0.36410634055334368 0 0.15185568245476189 0.37707061606136422 0 0.13692284990477191 0.38930777957628943 0 0.119448870245615 0.38256434187866972 0 0.13274728415341139 0.36410634055334368 0 0.13692284990477191 0.38930777957628943 0 0.115428724103706 0.40267530492779557 0 0.13692284990477191 0.38930777957628943 0 0.1397509022148696 0.40843688002483958 0 0.12259086230274099 0.42947812748907283 0 0.1397509022148696 0.40843688002483958 0 0.14363603346764281 0.42707530835579988 0 0.12259086230274099 0.42947812748907283 0 0.115428724103706 0.40267530492779557 0 0.1397509022148696 0.40843688002483958 0 0.12259086230274099 0.42947812748907283 0 0.14363603346764281 0.42707530835579988 0 0.13510526379757609 0.44116740875256688 0 0.14363603346764281 0.42707530835579988 0 0.16526304614212209 0.42908608809292892 0 0.1507341445198021 0.44370602134863157 0 0.14363603346764281 0.42707530835579988 0 0.15527295380072001 0.4153931176925994 0 0.16526304614212209 0.42908608809292892 0 0.14363603346764281 0.42707530835579988 0 0.1507341445198021 0.44370602134863157 0 0.13510526379757609 0.44116740875256688 0 0.1397509022148696 0.40843688002483958 0 0.14363603346764281 0.42707530835579988 0 0.15527295380072001 0.4153931176925994 0 0.15352992747694119 0.40026604784697911 0 0.1397509022148696 0.40843688002483958 0 0.15527295380072001 0.4153931176925994 0 0.15527295380072001 0.4153931176925994 0 0.1711416470664554 0.41062619466687539 0 0.16526304614212209 0.42908608809292892 0 0.15352992747694119 0.40026604784697911 0 0.15527295380072001 0.4153931176925994 0 0.1711416470664554 0.41062619466687539 0 0.16526304614212209 0.42908608809292892 0 0.1809560021812836 0.43814832633623357 0 0.16598328874466911 0.44273574664910909 0 0.16526304614212209 0.42908608809292892 0 0.18469425222239219 0.42125941149134333 0 0.1809560021812836 0.43814832633623357 0 0.1711416470664554 0.41062619466687539 0 0.16526304614212209 0.42908608809292892 0 0.18469425222239219 0.42125941149134333 0 0.1711416470664554 0.41062619466687539 0 0.18469425222239219 0.42125941149134333 0 0.1843100454414533 0.40126956181167389 0 0.1711416470664554 0.41062619466687539 0 0.1843100454414533 0.40126956181167389 0 0.16952276405911931 0.3912061138884545 0 0.1843100454414533 0.40126956181167389 0 0.16952276405911931 0.3912061138884545 0 0.18589276442329861 0.38606835492789338 0 0.15352992747694119 0.40026604784697911 0 0.1711416470664554 0.41062619466687539 0 0.16952276405911931 0.3912061138884545 0 0.15352992747694119 0.40026604784697911 0 0.15185568245476189 0.37707061606136422 0 0.16952276405911931 0.3912061138884545 0 0.17197644233242751 0.37002706837148541 0 0.15185568245476189 0.37707061606136422 0 0.16952276405911931 0.3912061138884545 0 0.17197644233242751 0.37002706837148541 0 0.16952276405911931 0.3912061138884545 0 0.18589276442329861 0.38606835492789338 0 0.19217836357317111 0.36996972767433872 0 0.17197644233242751 0.37002706837148541 0 0.18589276442329861 0.38606835492789338 0 0.18589276442329861 0.38606835492789338 0 0.20289108470775991 0.38370682355227331 0 0.19700705340585539 0.39579078134538831 0 0.19217836357317111 0.36996972767433872 0 0.18589276442329861 0.38606835492789338 0 0.20289108470775991 0.38370682355227331 0 0.19700705340585539 0.39579078134538831 0 0.21316338490038089 0.39704202397260657 0 0.19877798755638451 0.41086714246249401 0 0.1843100454414533 0.40126956181167389 0 0.19700705340585539 0.39579078134538831 0 0.19877798755638451 0.41086714246249401 0 0.1843100454414533 0.40126956181167389 0 0.18589276442329861 0.38606835492789338 0 0.19700705340585539 0.39579078134538831 0 0.20289108470775991 0.38370682355227331 0 0.19700705340585539 0.39579078134538831 0 0.21316338490038089 0.39704202397260657 0 0.20931495008602691 0.36890180222237801 0 0.20289108470775991 0.38370682355227331 0 0.21961872799640589 0.38146559318592133 0 0.20289108470775991 0.38370682355227331 0 0.21316338490038089 0.39704202397260657 0 0.21961872799640589 0.38146559318592133 0 0.22513916990612379 0.36868200325308897 0 0.21961872799640589 0.38146559318592133 0 0.2386764282036242 0.37725286527910618 0 0.21961872799640589 0.38146559318592133 0 0.22852735017452019 0.39320804083607441 0 0.2386764282036242 0.37725286527910618 0 0.21316338490038089 0.39704202397260657 0 0.21961872799640589 0.38146559318592133 0 0.22852735017452019 0.39320804083607441 0 0.21316338490038089 0.39704202397260657 0 0.22852735017452019 0.39320804083607441 0 0.22983145469658259 0.40925978250573319 0 0.21316338490038089 0.39704202397260657 0 0.22983145469658259 0.40925978250573319 0 0.22852735017452019 0.39320804083607441 0 0.2429624777480478 0.39890547698508871 0 0.22983145469658259 0.40925978250573319 0 0.2429624777480478 0.39890547698508871 0 0.2386764282036242 0.37725286527910618 0 0.22852735017452019 0.39320804083607441 0 0.2429624777480478 0.39890547698508871 0 0.2386764282036242 0.37725286527910618 0 0.2429624777480478 0.39890547698508871 0 0.2386764282036242 0.37725286527910618 0 0.25341304662754638 0.38974012394171498 0 0.2386764282036242 0.37725286527910618 0 0.25383912625151372 0.37755129754335942 0 0.25341304662754638 0.38974012394171498 0 0.24649952449278431 0.42147754103885982 0 0.22996656543308741 0.44177288309861867 0 0.24946733303660301 0.43176723098649622 0 0.24649952449278431 0.42147754103885982 0 0.22996656543308741 0.44177288309861867 0 0.24649952449278431 0.42147754103885982 0 0.22738899126970491 0.42458926785457718 0 0.22996656543308741 0.44177288309861867 0 0.24946733303660301 0.43176723098649622 0 0.24649952449278431 0.42147754103885982 0 0.2429624777480478 0.39890547698508871 0 0.24649952449278431 0.42147754103885982 0 0.24649952449278431 0.42147754103885982 0 0.22983145469658259 0.40925978250573319 0 0.22738899126970491 0.42458926785457718 0 0.24649952449278431 0.42147754103885982 0 0.22983145469658259 0.40925978250573319 0 0.2429624777480478 0.39890547698508871 0 0.24649952449278431 0.42147754103885982 0 0.22983145469658259 0.40925978250573319 0 0.21316338490038089 0.39704202397260657 0 0.22983145469658259 0.40925978250573319 0 0.21370806227123909 0.41789950377956148 0 0.22983145469658259 0.40925978250573319 0 0.22738899126970491 0.42458926785457718 0 0.21370806227123909 0.41789950377956148 0 0.22738899126970491 0.42458926785457718 0 0.21739304288862979 0.43200563017257382 0 0.22996656543308741 0.44177288309861867 0 0.22738899126970491 0.42458926785457718 0 0.21739304288862979 0.43200563017257382 0 0.21370806227123909 0.41789950377956148 0 0.21739304288862979 0.43200563017257382 0 0.1999317510848099 0.43097584272053618 0 0.2111195299095035 0.44359306409302351 0 0.21739304288862979 0.43200563017257382 0 0.21370806227123909 0.41789950377956148 0 0.1999317510848099 0.43097584272053618 0 0.21370806227123909 0.41789950377956148 0 0.19877798755638451 0.41086714246249401 0 0.1999317510848099 0.43097584272053618 0 0.21316338490038089 0.39704202397260657 0 0.21370806227123909 0.41789950377956148 0 0.19877798755638451 0.41086714246249401 0 0.18469425222239219 0.42125941149134333 0 0.19877798755638451 0.41086714246249401 0 0.1999317510848099 0.43097584272053618 0 0.18469425222239219 0.42125941149134333 0 0.1843100454414533 0.40126956181167389 0 0.19877798755638451 0.41086714246249401 0 0.18469425222239219 0.42125941149134333 0 0.1999317510848099 0.43097584272053618 0 0.1809560021812836 0.43814832633623357 0 0.1999317510848099 0.43097584272053618 0 0.19479511809318301 0.4526549487178691 0 0.2111195299095035 0.44359306409302351 0 0.1999317510848099 0.43097584272053618 0 0.19479511809318301 0.4526549487178691 0 0.1809560021812836 0.43814832633623357 0 0.19479511809318301 0.4526549487178691 0 0.213169792932182 0.46047172596691099 0 0.19211155850092579 0.47790980627879082 0 0.19479511809318301 0.4526549487178691 0 0.19211155850092579 0.47790980627879082 0 0.18348770279874721 0.46143911161818069 0 0.213169792932182 0.46047172596691099 0 0.2111195299095035 0.44359306409302351 0 0.22996656543308741 0.44177288309861867 0 0.19479511809318301 0.4526549487178691 0 0.213169792932182 0.46047172596691099 0 0.2111195299095035 0.44359306409302351 0 0.21739304288862979 0.43200563017257382 0 0.2111195299095035 0.44359306409302351 0 0.22996656543308741 0.44177288309861867 0 0.22996656543308741 0.44177288309861867 0 0.22854105436186559 0.46372788353366717 0 0.24141841662185301 0.45603819576859073 0 0.213169792932182 0.46047172596691099 0 0.22854105436186559 0.46372788353366717 0 0.221321310837439 0.47674074212904899 0 0.213169792932182 0.46047172596691099 0 0.22996656543308741 0.44177288309861867 0 0.22854105436186559 0.46372788353366717 0 0.24141841662185301 0.45603819576859073 0 0.23645949407781469 0.47608243786178739 0 0.25047151807745072 0.47036873115219768 0 0.22854105436186559 0.46372788353366717 0 0.24141841662185301 0.45603819576859073 0 0.23645949407781469 0.47608243786178739 0 0.24141841662185301 0.45603819576859073 0 0.25047151807745072 0.47036873115219768 0 0.25477099823403621 0.45804476415031298 0 0.24141841662185301 0.45603819576859073 0 0.25282491994113748 0.44831200937164878 0 0.25477099823403621 0.45804476415031298 0 0.22996656543308741 0.44177288309861867 0 0.24141841662185301 0.45603819576859073 0 0.24583280085865111 0.44361242472787987 0 0.24946733303660301 0.43176723098649622 0 0.22996656543308741 0.44177288309861867 0 0.24583280085865111 0.44361242472787987 0 0.24141841662185301 0.45603819576859073 0 0.24583280085865111 0.44361242472787987 0 0.25282491994113748 0.44831200937164878 0 0.24904418528453851 0.48634810883828161 0 0.23645949407781469 0.47608243786178739 0 0.23352830384551029 0.49999999999999978 0 0.24904418528453851 0.48634810883828161 0 0.23352830384551029 0.49999999999999978 0 0.25181722630913472 0.5 0 0.24904418528453851 0.48634810883828161 0 0.23645949407781469 0.47608243786178739 0 0.25047151807745072 0.47036873115219768 0 0.23645949407781469 0.47608243786178739 0 0.221321310837439 0.47674074212904899 0 0.23352830384551029 0.49999999999999978 0 0.22854105436186559 0.46372788353366717 0 0.23645949407781469 0.47608243786178739 0 0.221321310837439 0.47674074212904899 0 0.23352830384551029 0.49999999999999978 0 0.2128199311732181 0.48895490313939532 0 0.21702906166474581 0.5 0 0.23352830384551029 0.49999999999999978 0 0.2128199311732181 0.48895490313939532 0 0.221321310837439 0.47674074212904899 0 0.23352830384551029 0.49999999999999978 0 0.2128199311732181 0.48895490313939532 0 0.2128199311732181 0.48895490313939532 0 0.21702906166474581 0.5 0 0.20052981948398141 0.49999999999999989 0 0.213169792932182 0.46047172596691099 0 0.221321310837439 0.47674074212904899 0 0.19211155850092579 0.47790980627879082 0 0.221321310837439 0.47674074212904899 0 0.2128199311732181 0.48895490313939532 0 0.19211155850092579 0.47790980627879082 0 0.2128199311732181 0.48895490313939532 0 0.19211155850092579 0.47790980627879082 0 0.2128199311732181 0.48895490313939532 0 0.20052981948398141 0.49999999999999989 0 0.19295831529489699 0.4905304616351287 0 0.2128199311732181 0.48895490313939532 0 0.19211155850092579 0.47790980627879082 0 0.19295831529489699 0.4905304616351287 0 0.20052981948398141 0.49999999999999989 0 0.1839227339461352 0.49861489743603538 0 0.20052981948398141 0.49999999999999989 0 0.19295831529489699 0.4905304616351287 0 0.1839227339461352 0.49861489743603538 0 0.19211155850092579 0.47790980627879082 0 0.19295831529489699 0.4905304616351287 0 0.1809625144841838 0.48570342190566712 0 0.1839227339461352 0.49861489743603538 0 0.1809625144841838 0.48570342190566712 0 0.16731564840828889 0.49722979487207219 0 0.1839227339461352 0.49861489743603538 0 0.16731564840828889 0.49722979487207219 0 0.1839227339461352 0.49861489743603538 0 0.1669427425872391 0.49999999999999922 0 0.16731564840828889 0.49722979487207219 0 0.19295831529489699 0.4905304616351287 0 0.1839227339461352 0.49861489743603538 0 0.1809625144841838 0.48570342190566712 0 0.1809625144841838 0.48570342190566712 0 0.16731564840828889 0.49722979487207219 0 0.16935941711846161 0.48204725214512889 0 0.16731564840828889 0.49722979487207219 0 0.157708884996551 0.48584061526662409 0 0.14611751268168829 0.49546177892012921 0 0.16731564840828889 0.49722979487207219 0 0.14611751268168829 0.49546177892012921 0 0.1669427425872391 0.49999999999999922 0 0.16731564840828889 0.49722979487207219 0 0.14611751268168829 0.49546177892012921 0 0.1669427425872391 0.49999999999999922 0 0.16731564840828889 0.49722979487207219 0 0.16731564840828889 0.49722979487207219 0 0.16935941711846161 0.48204725214512889 0 0.16731564840828889 0.49722979487207219 0 0.157708884996551 0.48584061526662409 0 0.16935941711846161 0.48204725214512889 0 0.16382575626869561 0.4735735187060508 0 0.15802571703479451 0.46684670821381258 0 0.1531189490294651 0.47544631339495541 0 0.157708884996551 0.48584061526662409 0 0.16382575626869561 0.4735735187060508 0 0.1531189490294651 0.47544631339495541 0 0.157708884996551 0.48584061526662409 0 0.16382575626869561 0.4735735187060508 0 0.16935941711846161 0.48204725214512889 0 0.16935941711846161 0.48204725214512889 0 0.17140318582863401 0.46686470941818559 0 0.16382575626869561 0.4735735187060508 0 0.16935941711846161 0.48204725214512889 0 0.17140318582863401 0.46686470941818559 0 0.1809625144841838 0.48570342190566712 0 0.16935941711846161 0.48204725214512889 0 0.17140318582863401 0.46686470941818559 0 0.19211155850092579 0.47790980627879082 0 0.1809625144841838 0.48570342190566712 0 0.17140318582863401 0.46686470941818559 0 0.19211155850092579 0.47790980627879082 0 0.17140318582863401 0.46686470941818559 0 0.19479511809318301 0.4526549487178691 0 0.18348770279874721 0.46143911161818069 0 0.17341546959919829 0.45191605883299152 0 0.19211155850092579 0.47790980627879082 0 0.18348770279874721 0.46143911161818069 0 0.17140318582863401 0.46686470941818559 0 0.18348770279874721 0.46143911161818069 0 0.17341546959919829 0.45191605883299152 0 0.17140318582863401 0.46686470941818559 0 0.17341546959919829 0.45191605883299152 0 0.17140318582863401 0.46686470941818559 0 0.19479511809318301 0.4526549487178691 0 0.1809560021812836 0.43814832633623357 0 0.17341546959919829 0.45191605883299152 0 0.1809560021812836 0.43814832633623357 0 0.17341546959919829 0.45191605883299152 0 0.16598328874466911 0.44273574664910909 0 0.17341546959919829 0.45191605883299152 0 0.16598328874466911 0.44273574664910909 0 0.15954778128093949 0.4508222386347599 0 0.16598328874466911 0.44273574664910909 0 0.15954778128093949 0.4508222386347599 0 0.1507341445198021 0.44370602134863157 0 0.16526304614212209 0.42908608809292892 0 0.16598328874466911 0.44273574664910909 0 0.1507341445198021 0.44370602134863157 0 0.16382575626869561 0.4735735187060508 0 0.1651762257979181 0.46354347419730452 0 0.17140318582863401 0.46686470941818559 0 0.1651762257979181 0.46354347419730452 0 0.17140318582863401 0.46686470941818559 0 0.17341546959919829 0.45191605883299152 0 0.1651762257979181 0.46354347419730452 0 0.17140318582863401 0.46686470941818559 0 0.17341546959919829 0.45191605883299152 0 0.15954778128093949 0.4508222386347599 0 0.1651762257979181 0.46354347419730452 0 0.15954778128093949 0.4508222386347599 0 0.1651762257979181 0.46354347419730452 0 0.1582471669695637 0.45974252444074731 0 0.16382575626869561 0.4735735187060508 0 0.1651762257979181 0.46354347419730452 0 0.15802571703479451 0.46684670821381258 0 0.1651762257979181 0.46354347419730452 0 0.1582471669695637 0.45974252444074731 0 0.15802571703479451 0.46684670821381258 0 0.14976048710833001 0.46192771033000529 0 0.1507341445198021 0.44370602134863157 0 0.136404492151351 0.45486193181106682 0 0.1582471669695637 0.45974252444074731 0 0.15802571703479451 0.46684670821381258 0 0.14976048710833001 0.46192771033000529 0 0.15802571703479451 0.46684670821381258 0 0.14976048710833001 0.46192771033000529 0 0.1531189490294651 0.47544631339495541 0 0.15954778128093949 0.4508222386347599 0 0.1582471669695637 0.45974252444074731 0 0.14976048710833001 0.46192771033000529 0 0.14976048710833001 0.46192771033000529 0 0.136404492151351 0.45486193181106682 0 0.13663143795624749 0.46910754811773492 0 0.15954778128093949 0.4508222386347599 0 0.14976048710833001 0.46192771033000529 0 0.1507341445198021 0.44370602134863157 0 0.1507341445198021 0.44370602134863157 0 0.13510526379757609 0.44116740875256688 0 0.136404492151351 0.45486193181106682 0 0.1221607865463437 0.4507156547582637 0 0.12259086230274099 0.42947812748907283 0 0.13510526379757609 0.44116740875256688 0 0.1221607865463437 0.4507156547582637 0 0.13510526379757609 0.44116740875256688 0 0.136404492151351 0.45486193181106682 0 0.136404492151351 0.45486193181106682 0 0.1267882431275838 0.46370707134437261 0 0.13663143795624749 0.46910754811773492 0 0.1221607865463437 0.4507156547582637 0 0.136404492151351 0.45486193181106682 0 0.1267882431275838 0.46370707134437261 0 0.1267882431275838 0.46370707134437261 0 0.12569724768963239 0.47617993877849962 0 0.13663143795624749 0.46910754811773492 0 0.12569724768963239 0.47617993877849962 0 0.13663143795624749 0.46910754811773492 0 0.1364132019148096 0.48384982340983701 0 0.13663143795624749 0.46910754811773492 0 0.1364132019148096 0.48384982340983701 0 0.14361111091913481 0.47574478002545789 0 0.1249193769550877 0.49369376296818718 0 0.1364132019148096 0.48384982340983701 0 0.14611751268168829 0.49546177892012921 0 0.1249193769550877 0.49369376296818718 0 0.14611751268168829 0.49546177892012921 0 0.1249193769550877 0.49369376296818718 0 0.12569724768963239 0.47617993877849962 0 0.1364132019148096 0.48384982340983701 0 0.1249193769550877 0.49369376296818718 0 0.13738437864054501 0.5 0 0.14611751268168829 0.49546177892012921 0 0.1364132019148096 0.48384982340983701 0 0.14611751268168829 0.49546177892012921 0 0.14718343377546941 0.48347361591025501 0 0.1669427425872391 0.49999999999999922 0 0.13738437864054501 0.5 0 0.14611751268168829 0.49546177892012921 0 0.157708884996551 0.48584061526662409 0 0.14611751268168829 0.49546177892012921 0 0.14718343377546941 0.48347361591025501 0 0.157708884996551 0.48584061526662409 0 0.1531189490294651 0.47544631339495541 0 0.14718343377546941 0.48347361591025501 0 0.14976048710833001 0.46192771033000529 0 0.1531189490294651 0.47544631339495541 0 0.14361111091913481 0.47574478002545789 0 0.14976048710833001 0.46192771033000529 0 0.13663143795624749 0.46910754811773492 0 0.14361111091913481 0.47574478002545789 0 0.1364132019148096 0.48384982340983701 0 0.14361111091913481 0.47574478002545789 0 0.14718343377546941 0.48347361591025501 0 0.1531189490294651 0.47544631339495541 0 0.14361111091913481 0.47574478002545789 0 0.14718343377546941 0.48347361591025501 0 0.35832214194920592 0.47929915408112939 0 0.34611268429232461 0.46591887339206078 0 0.3375369348076922 0.4829399206954248 0 0.35832214194920592 0.47929915408112939 0 0.35850557312216419 0.5 0 0.3375369348076922 0.4829399206954248 0 0.35850557312216419 0.5 0 0.37801407526051067 0.48065415083330842 0 0.38797204790529932 0.5 0 0.35832214194920592 0.47929915408112939 0 0.35850557312216419 0.5 0 0.37801407526051067 0.48065415083330842 0 0.35832214194920592 0.47929915408112939 0 0.36980735363827261 0.46050290225189661 0 0.37801407526051067 0.48065415083330842 0 0.36980735363827261 0.46050290225189661 0 0.34502769605759259 0.44546544446971242 0 0.36959298495063608 0.43610817863788948 0 0.35832214194920592 0.47929915408112939 0 0.36980735363827261 0.46050290225189661 0 0.34611268429232461 0.46591887339206078 0 0.36980735363827261 0.46050290225189661 0 0.34502769605759259 0.44546544446971242 0 0.34611268429232461 0.46591887339206078 0 0.36980735363827261 0.46050290225189661 0 0.34611268429232461 0.46591887339206078 0 0.34611268429232461 0.46591887339206078 0 0.3317687487832644 0.45597005559148451 0 0.32241801494637662 0.47133484453222518 0 0.34502769605759259 0.44546544446971242 0 0.34611268429232461 0.46591887339206078 0 0.3317687487832644 0.45597005559148451 0 0.34611268429232461 0.46591887339206078 0 0.32241801494637662 0.47133484453222518 0 0.34502769605759259 0.44546544446971242 0 0.3317687487832644 0.45597005559148451 0 0.32480939915707069 0.44218818576869201 0 0.34502769605759259 0.44546544446971242 0 0.32480939915707069 0.44218818576869201 0 0.33523501366627878 0.43221560569608392 0 0.3107318966111981 0.4514989769174147 0 0.3227404476219688 0.42624713816244092 0 0.3317687487832644 0.45597005559148451 0 0.32480939915707069 0.44218818576869201 0 0.3107318966111981 0.4514989769174147 0 0.32480939915707069 0.44218818576869201 0 0.3107318966111981 0.4514989769174147 0 0.3227404476219688 0.42624713816244092 0 0.3317687487832644 0.45597005559148451 0 0.32241801494637662 0.47133484453222518 0 0.3107318966111981 0.4514989769174147 0 0.32241801494637662 0.47133484453222518 0 0.3375369348076922 0.4829399206954248 0 0.31372501333874958 0.48784291822244708 0 0.34611268429232461 0.46591887339206078 0 0.32241801494637662 0.47133484453222518 0 0.3375369348076922 0.4829399206954248 0 0.35850557312216419 0.5 0 0.3375369348076922 0.4829399206954248 0 0.32903909833902928 0.5 0 0.32903909833902928 0.5 0 0.31372501333874958 0.48784291822244708 0 0.29957262355589431 0.5 0 0.3375369348076922 0.4829399206954248 0 0.32903909833902928 0.5 0 0.31372501333874958 0.48784291822244708 0 0.31372501333874958 0.48784291822244708 0 0.30130976803097798 0.48891801032572652 0 0.29957262355589431 0.5 0 0.31372501333874958 0.48784291822244708 0 0.30130976803097798 0.48891801032572652 0 0.29872334560042851 0.47675081567238892 0 0.30130976803097798 0.48891801032572652 0 0.29957262355589431 0.5 0 0.28978827390519868 0.49553967616935518 0 0.32241801494637662 0.47133484453222518 0 0.29872334560042851 0.47675081567238892 0 0.32241801494637662 0.47133484453222518 0 0.31372501333874958 0.48784291822244708 0 0.29872334560042851 0.47675081567238892 0 0.29872334560042851 0.47675081567238892 0 0.28397488520641462 0.48012192141307769 0 0.28978827390519868 0.49553967616935518 0 0.29872334560042851 0.47675081567238892 0 0.28929399795500932 0.47058792179259418 0 0.29703527816799058 0.46117092995693892 0 0.29872334560042851 0.47675081567238892 0 0.28929399795500932 0.47058792179259418 0 0.28397488520641462 0.48012192141307769 0 0.29872334560042851 0.47675081567238892 0 0.28397488520641462 0.48012192141307769 0 0.28929399795500932 0.47058792179259418 0 0.28397488520641462 0.48012192141307769 0 0.27920072977811172 0.47805830749059319 0 0.28397488520641462 0.48012192141307769 0 0.28978827390519868 0.49553967616935518 0 0.27010614877275918 0.50000000000000067 0 0.29957262355589431 0.5 0 0.28978827390519868 0.49553967616935518 0 0.27010614877275918 0.50000000000000067 0 0.30130976803097798 0.48891801032572652 0 0.29872334560042851 0.47675081567238892 0 0.28978827390519868 0.49553967616935518 0 0.29872334560042851 0.47675081567238892 0 0.28978827390519868 0.49553967616935518 0 0.28397488520641462 0.48012192141307769 0 0.27010614877275918 0.50000000000000067 0 0.27920072977811172 0.47805830749059319 0 0.27010614877275918 0.50000000000000067 0 0.26909437115437917 0.48384867389528768 0 0.26130641782501518 0.49139676135406141 0 0.27010614877275918 0.50000000000000067 0 0.27920072977811172 0.47805830749059319 0 0.26909437115437917 0.48384867389528768 0 0.27010614877275918 0.50000000000000067 0 0.27920072977811172 0.47805830749059319 0 0.27920072977811172 0.47805830749059319 0 0.27306774476234302 0.47644699960251641 0 0.26909437115437917 0.48384867389528768 0 0.27920072977811172 0.47805830749059319 0 0.27306774476234302 0.47644699960251641 0 0.27643472525740193 0.46726539210963169 0 0.26824582816420722 0.47348896141386071 0 0.27306774476234302 0.47644699960251641 0 0.27643472525740193 0.46726539210963169 0 0.26824582816420722 0.47348896141386071 0 0.26909437115437917 0.48384867389528768 0 0.25993240985832161 0.47939275616227872 0 0.26824582816420722 0.47348896141386071 0 0.27306774476234302 0.47644699960251641 0 0.26909437115437917 0.48384867389528768 0 0.24904418528453851 0.48634810883828161 0 0.25993240985832161 0.47939275616227872 0 0.25047151807745072 0.47036873115219768 0 0.26824582816420722 0.47348896141386071 0 0.25993240985832161 0.47939275616227872 0 0.26165523792153211 0.46576309323832682 0 0.25993240985832161 0.47939275616227872 0 0.25047151807745072 0.47036873115219768 0 0.26165523792153211 0.46576309323832682 0 0.27010614877275918 0.50000000000000067 0 0.25181722630913472 0.5 0 0.26130641782501518 0.49139676135406141 0 0.24904418528453851 0.48634810883828161 0 0.25993240985832161 0.47939275616227872 0 0.26130641782501518 0.49139676135406141 0 0.24904418528453851 0.48634810883828161 0 0.25181722630913472 0.5 0 0.26130641782501518 0.49139676135406141 0 0.26909437115437917 0.48384867389528768 0 0.25993240985832161 0.47939275616227872 0 0.26130641782501518 0.49139676135406141 0 0.26490489917960358 0.45079530358348557 0 0.25548676926057468 0.44017180441404491 0 0.26331147225899149 0.43380076267102891 0 0.24946733303660301 0.43176723098649622 0 0.24583280085865111 0.44361242472787987 0 0.25548676926057468 0.44017180441404491 0 0.24583280085865111 0.44361242472787987 0 0.25548676926057468 0.44017180441404491 0 0.25282491994113748 0.44831200937164878 0 0.26490489917960358 0.45079530358348557 0 0.25548676926057468 0.44017180441404491 0 0.25282491994113748 0.44831200937164878 0 0.26490489917960358 0.45079530358348557 0 0.25282491994113748 0.44831200937164878 0 0.25477099823403621 0.45804476415031298 0 0.25047151807745072 0.47036873115219768 0 0.25477099823403621 0.45804476415031298 0 0.26165523792153211 0.46576309323832682 0 0.26490489917960358 0.45079530358348557 0 0.25477099823403621 0.45804476415031298 0 0.26165523792153211 0.46576309323832682 0 0.26490489917960358 0.45079530358348557 0 0.27160577401557351 0.46248804296782559 0 0.27679169795675967 0.45600994403837303 0 0.26490489917960358 0.45079530358348557 0 0.26165523792153211 0.46576309323832682 0 0.27160577401557351 0.46248804296782559 0 0.26824582816420722 0.47348896141386071 0 0.27160577401557351 0.46248804296782559 0 0.27643472525740193 0.46726539210963169 0 0.26824582816420722 0.47348896141386071 0 0.26165523792153211 0.46576309323832682 0 0.27160577401557351 0.46248804296782559 0 0.27160577401557351 0.46248804296782559 0 0.27643472525740193 0.46726539210963169 0 0.27679169795675967 0.45600994403837303 0 0.27643472525740193 0.46726539210963169 0 0.27679169795675967 0.45600994403837303 0 0.28829531078346382 0.45611661498118572 0 0.27903440424894049 0.4453257315987294 0 0.26331147225899149 0.43380076267102891 0 0.26490489917960358 0.45079530358348557 0 0.27903440424894049 0.4453257315987294 0 0.26331147225899149 0.43380076267102891 0 0.26490489917960358 0.45079530358348557 0 0.27679169795675967 0.45600994403837303 0 0.27903440424894049 0.4453257315987294 0 0.27903440424894049 0.4453257315987294 0 0.2917470315179379 0.44281751567604499 0 0.28179675760275558 0.42932557237874241 0 0.27679169795675967 0.45600994403837303 0 0.27903440424894049 0.4453257315987294 0 0.28829531078346382 0.45611661498118572 0 0.27903440424894049 0.4453257315987294 0 0.2917470315179379 0.44281751567604499 0 0.28829531078346382 0.45611661498118572 0 0.2917470315179379 0.44281751567604499 0 0.28829531078346382 0.45611661498118572 0 0.29813183988985342 0.45090032042111128 0 0.27920072977811172 0.47805830749059319 0 0.27643472525740193 0.46726539210963169 0 0.28829531078346382 0.45611661498118572 0 0.28929399795500932 0.47058792179259418 0 0.27920072977811172 0.47805830749059319 0 0.28829531078346382 0.45611661498118572 0 0.27920072977811172 0.47805830749059319 0 0.28829531078346382 0.45611661498118572 0 0.28829531078346382 0.45611661498118572 0 0.29703527816799058 0.46117092995693892 0 0.29813183988985342 0.45090032042111128 0 0.28929399795500932 0.47058792179259418 0 0.28829531078346382 0.45611661498118572 0 0.29703527816799058 0.46117092995693892 0 0.29872334560042851 0.47675081567238892 0 0.29703527816799058 0.46117092995693892 0 0.3107318966111981 0.4514989769174147 0 0.29872334560042851 0.47675081567238892 0 0.3107318966111981 0.4514989769174147 0 0.32241801494637662 0.47133484453222518 0 0.29872334560042851 0.47675081567238892 0 0.3107318966111981 0.4514989769174147 0 0.29703527816799058 0.46117092995693892 0 0.29813183988985342 0.45090032042111128 0 0.3107318966111981 0.4514989769174147 0 0.30159082278473881 0.44219288247638061 0 0.3107318966111981 0.4514989769174147 0 0.30884109342504262 0.43428586920116352 0 0.2917470315179379 0.44281751567604499 0 0.30159082278473881 0.44219288247638061 0 0.29850225247966211 0.43146173016616862 0 0.2917470315179379 0.44281751567604499 0 0.30159082278473881 0.44219288247638061 0 0.29813183988985342 0.45090032042111128 0 0.30159082278473881 0.44219288247638061 0 0.29813183988985342 0.45090032042111128 0 0.3107318966111981 0.4514989769174147 0 0.30884109342504262 0.43428586920116352 0 0.29850225247966211 0.43146173016616862 0 0.30862162828234507 0.42004495563460759 0 0.29850225247966211 0.43146173016616862 0 0.30862162828234507 0.42004495563460759 0 0.29547148538100448 0.41817397575591742 0 0.30159082278473881 0.44219288247638061 0 0.30884109342504262 0.43428586920116352 0 0.29850225247966211 0.43146173016616862 0 0.30862162828234507 0.42004495563460759 0 0.30304430461131138 0.40735012112542651 0 0.3196782615082488 0.40265332564926309 0 0.30862162828234507 0.42004495563460759 0 0.30304430461131138 0.40735012112542651 0 0.29547148538100448 0.41817397575591742 0 0.30304430461131138 0.40735012112542651 0 0.29062365375375682 0.40708788978866228 0 0.29547148538100448 0.41817397575591742 0 0.29062365375375682 0.40708788978866228 0 0.29547148538100448 0.41817397575591742 0 0.28288479604298378 0.41446876034122271 0 0.29547148538100448 0.41817397575591742 0 0.28288479604298378 0.41446876034122271 0 0.28179675760275558 0.42932557237874241 0 0.29062365375375682 0.40708788978866228 0 0.28288479604298378 0.41446876034122271 0 0.28001120465417539 0.40182109974822727 0 0.29850225247966211 0.43146173016616862 0 0.29547148538100448 0.41817397575591742 0 0.28179675760275558 0.42932557237874241 0 0.2917470315179379 0.44281751567604499 0 0.29850225247966211 0.43146173016616862 0 0.28179675760275558 0.42932557237874241 0 0.28179675760275558 0.42932557237874241 0 0.27042562322166658 0.41684269204638819 0 0.26331147225899149 0.43380076267102891 0 0.27903440424894049 0.4453257315987294 0 0.28179675760275558 0.42932557237874241 0 0.26331147225899149 0.43380076267102891 0 0.27042562322166658 0.41684269204638819 0 0.26380858941988822 0.4002294757553399 0 0.28001120465417539 0.40182109974822727 0 0.28288479604298378 0.41446876034122271 0 0.28179675760275558 0.42932557237874241 0 0.27042562322166658 0.41684269204638819 0 0.28288479604298378 0.41446876034122271 0 0.27042562322166658 0.41684269204638819 0 0.28001120465417539 0.40182109974822727 0 0.24649952449278431 0.42147754103885982 0 0.25492995388566009 0.41993008507457552 0 0.26380858941988822 0.4002294757553399 0 0.27042562322166658 0.41684269204638819 0 0.25492995388566009 0.41993008507457552 0 0.26380858941988822 0.4002294757553399 0 0.24649952449278431 0.42147754103885982 0 0.26380858941988822 0.4002294757553399 0 0.2429624777480478 0.39890547698508871 0 0.24649952449278431 0.42147754103885982 0 0.26380858941988822 0.4002294757553399 0 0.24946733303660301 0.43176723098649622 0 0.24649952449278431 0.42147754103885982 0 0.26331147225899149 0.43380076267102891 0 0.24649952449278431 0.42147754103885982 0 0.25492995388566009 0.41993008507457552 0 0.26331147225899149 0.43380076267102891 0 0.24649952449278431 0.42147754103885982 0 0.26331147225899149 0.43380076267102891 0 0.27042562322166658 0.41684269204638819 0 0.25492995388566009 0.41993008507457552 0 0.26331147225899149 0.43380076267102891 0 0.24946733303660301 0.43176723098649622 0 0.25548676926057468 0.44017180441404491 0 0.26331147225899149 0.43380076267102891 0 0.26350653962281989 0.38010735630523079 0 0.25341304662754638 0.38974012394171498 0 0.26380858941988822 0.4002294757553399 0 0.26350653962281989 0.38010735630523079 0 0.25383912625151372 0.37755129754335942 0 0.25710864090743918 0.37145542319719338 0 0.26350653962281989 0.38010735630523079 0 0.25383912625151372 0.37755129754335942 0 0.25341304662754638 0.38974012394171498 0 0.2429624777480478 0.39890547698508871 0 0.25341304662754638 0.38974012394171498 0 0.26380858941988822 0.4002294757553399 0 0.26380858941988822 0.4002294757553399 0 0.28001120465417539 0.40182109974822727 0 0.28036865154730628 0.37990086281960789 0 0.26350653962281989 0.38010735630523079 0 0.28036865154730628 0.37990086281960789 0 0.2641967246118288 0.36596915937278562 0 0.26380858941988822 0.4002294757553399 0 0.28036865154730628 0.37990086281960789 0 0.26350653962281989 0.38010735630523079 0 0.26380858941988822 0.4002294757553399 0 0.28036865154730628 0.37990086281960789 0 0.28036865154730628 0.37990086281960789 0 0.29170647807930872 0.39362549197251728 0 0.2987730087010142 0.37934426936791982 0 0.28036865154730628 0.37990086281960789 0 0.29170647807930872 0.39362549197251728 0 0.28001120465417539 0.40182109974822727 0 0.28036865154730628 0.37990086281960789 0 0.29170647807930872 0.39362549197251728 0 0.29062365375375682 0.40708788978866228 0 0.28001120465417539 0.40182109974822727 0 0.29170647807930872 0.39362549197251728 0 0.30304430461131138 0.40735012112542651 0 0.29062365375375682 0.40708788978866228 0 0.29170647807930872 0.39362549197251728 0 0.30304430461131138 0.40735012112542651 0 0.30637452063024528 0.39219955594670219 0 0.3196782615082488 0.40265332564926309 0 0.30304430461131138 0.40735012112542651 0 0.29170647807930872 0.39362549197251728 0 0.30304430461131138 0.40735012112542651 0 0.29170647807930872 0.39362549197251728 0 0.30637452063024528 0.39219955594670219 0 0.30637452063024528 0.39219955594670219 0 0.2987730087010142 0.37934426936791982 0 0.31661607539452802 0.37905951313608538 0 0.29170647807930872 0.39362549197251728 0 0.30637452063024528 0.39219955594670219 0 0.2987730087010142 0.37934426936791982 0 0.31661607539452802 0.37905951313608538 0 0.32905198958534931 0.38831461949406398 0 0.3196782615082488 0.40265332564926309 0 0.31661607539452802 0.37905951313608538 0 0.32905198958534931 0.38831461949406398 0 0.33389487655237682 0.3658352592629312 0 0.32905198958534931 0.38831461949406398 0 0.34270248502322931 0.38427053755298168 0 0.33389487655237682 0.3658352592629312 0 0.32905198958534931 0.38831461949406398 0 0.34270248502322931 0.38427053755298168 0 0.33272146632259869 0.40525883785771122 0 0.34270248502322931 0.38427053755298168 0 0.33272146632259869 0.40525883785771122 0 0.34270248502322931 0.38427053755298168 0 0.33272146632259869 0.40525883785771122 0 0.34670895149724801 0.40816004440777182 0 0.31661607539452802 0.37905951313608538 0 0.3196782615082488 0.40265332564926309 0 0.32905198958534931 0.38831461949406398 0 0.33272146632259869 0.40525883785771122 0 0.3196782615082488 0.40265332564926309 0 0.30637452063024528 0.39219955594670219 0 0.31661607539452802 0.37905951313608538 0 0.3196782615082488 0.40265332564926309 0 0.3196782615082488 0.40265332564926309 0 0.3227404476219688 0.42624713816244092 0 0.30862162828234507 0.42004495563460759 0 0.3196782615082488 0.40265332564926309 0 0.3227404476219688 0.42624713816244092 0 0.33272146632259869 0.40525883785771122 0 0.3196782615082488 0.40265332564926309 0 0.3227404476219688 0.42624713816244092 0 0.33272146632259869 0.40525883785771122 0 0.3227404476219688 0.42624713816244092 0 0.32480939915707069 0.44218818576869201 0 0.3227404476219688 0.42624713816244092 0 0.3107318966111981 0.4514989769174147 0 0.30884109342504262 0.43428586920116352 0 0.3227404476219688 0.42624713816244092 0 0.32480939915707069 0.44218818576869201 0 0.3227404476219688 0.42624713816244092 0 0.33523501366627878 0.43221560569608392 0 0.30884109342504262 0.43428586920116352 0 0.30862162828234507 0.42004495563460759 0 0.3227404476219688 0.42624713816244092 0 0.34502769605759259 0.44546544446971242 0 0.33523501366627878 0.43221560569608392 0 0.34795858503051302 0.425881111768525 0 0.3227404476219688 0.42624713816244092 0 0.33523501366627878 0.43221560569608392 0 0.33659904832278342 0.4201421825902541 0 0.33523501366627878 0.43221560569608392 0 0.33659904832278342 0.4201421825902541 0 0.34795858503051302 0.425881111768525 0 0.33272146632259869 0.40525883785771122 0 0.3227404476219688 0.42624713816244092 0 0.33659904832278342 0.4201421825902541 0 0.33272146632259869 0.40525883785771122 0 0.33659904832278342 0.4201421825902541 0 0.34670895149724801 0.40816004440777182 0 0.33659904832278342 0.4201421825902541 0 0.34670895149724801 0.40816004440777182 0 0.34795858503051302 0.425881111768525 0 0.34670895149724801 0.40816004440777182 0 0.34795858503051302 0.425881111768525 0 0.36336601300371613 0.41450991002864218 0 0.34670895149724801 0.40816004440777182 0 0.36336601300371613 0.41450991002864218 0 0.35690611128064731 0.3988976866485166 0 0.34502769605759259 0.44546544446971242 0 0.34795858503051302 0.425881111768525 0 0.36959298495063608 0.43610817863788948 0 0.34795858503051302 0.425881111768525 0 0.36959298495063608 0.43610817863788948 0 0.36336601300371613 0.41450991002864218 0 0.36959298495063608 0.43610817863788948 0 0.36336601300371613 0.41450991002864218 0 0.38530342098431941 0.41064856824057122 0 0.36336601300371613 0.41450991002864218 0 0.3736470799201031 0.39378130610698531 0 0.38530342098431941 0.41064856824057122 0 0.3736470799201031 0.39378130610698531 0 0.3601059063978746 0.38125551426405008 0 0.35690611128064731 0.3988976866485166 0 0.36336601300371613 0.41450991002864218 0 0.3736470799201031 0.39378130610698531 0 0.35690611128064731 0.3988976866485166 0 0.3736470799201031 0.39378130610698531 0 0.3601059063978746 0.38125551426405008 0 0.37414389550204002 0.36898578533419818 0 0.34270248502322931 0.38427053755298168 0 0.3601059063978746 0.38125551426405008 0 0.35690611128064731 0.3988976866485166 0 0.34270248502322931 0.38427053755298168 0 0.3601059063978746 0.38125551426405008 0 0.35268350372385993 0.36328223724825232 0 0.34270248502322931 0.38427053755298168 0 0.34670895149724801 0.40816004440777182 0 0.35690611128064731 0.3988976866485166 0 0.35268350372385993 0.36328223724825232 0 0.36266452242448938 0.34229393694352239 0 0.35030182712711511 0.35130594720886232 0 0.35268350372385993 0.36328223724825232 0 0.36266452242448938 0.34229393694352239 0 0.35030182712711511 0.35130594720886232 0 0.35146565257524442 0.34420791440797271 0 0.36266452242448938 0.34229393694352239 0 0.35030182712711511 0.35130594720886232 0 0.35146565257524442 0.34420791440797271 0 0.34269927497721508 0.34493512072036142 0 0.35030182712711511 0.35130594720886232 0 0.35268350372385993 0.36328223724825232 0 0.33389487655237682 0.3658352592629312 0 0.34270248502322931 0.38427053755298168 0 0.35268350372385993 0.36328223724825232 0 0.3601059063978746 0.38125551426405008 0 0.35268350372385993 0.36328223724825232 0 0.37414389550204002 0.36898578533419818 0 0.35268350372385993 0.36328223724825232 0 0.37414389550204002 0.36898578533419818 0 0.36300645299402812 0.35604351837507042 0 0.37414389550204002 0.36898578533419818 0 0.37228166628853332 0.35471301169251829 0 0.36300645299402812 0.35604351837507042 0 0.35268350372385993 0.36328223724825232 0 0.36300645299402812 0.35604351837507042 0 0.36266452242448938 0.34229393694352239 0 0.37228166628853332 0.35471301169251829 0 0.36300645299402812 0.35604351837507042 0 0.36840829020790361 0.34668560051738673 0 0.36300645299402812 0.35604351837507042 0 0.36840829020790361 0.34668560051738673 0 0.36266452242448938 0.34229393694352239 0 0.36840829020790361 0.34668560051738673 0 0.36266452242448938 0.34229393694352239 0 0.36587418437400321 0.34278907974668538 0 0.37228166628853332 0.35471301169251829 0 0.36840829020790361 0.34668560051738673 0 0.37486749369974542 0.34694596905823039 0 0.37486749369974542 0.34694596905823039 0 0.37256750073976291 0.34304532959464751 0 0.37670219357667811 0.34177383067972761 0 0.36840829020790361 0.34668560051738673 0 0.37486749369974542 0.34694596905823039 0 0.37256750073976291 0.34304532959464751 0 0.36124897776362869 0.33531944770056321 0 0.36266452242448938 0.34229393694352239 0 0.36411885078159001 0.32644375487552563 0 0.37256750073976291 0.34304532959464751 0 0.36916640720496519 0.34145859007673351 0 0.37369311900952262 0.33836265764115908 0 0.37256750073976291 0.34304532959464751 0 0.37369311900952262 0.33836265764115908 0 0.37670219357667811 0.34177383067972761 0 0.36266452242448938 0.34229393694352239 0 0.37014896644917339 0.316543878568457 0 0.36770298492566261 0.33637877995368609 0 0.36266452242448938 0.34229393694352239 0 0.37368960646642962 0.31911015363466272 0 0.36770298492566261 0.33637877995368609 0 0.36985494237623989 0.33311962493185521 0 0.37368960646642962 0.31911015363466272 0 0.36266452242448938 0.34229393694352239 0 0.37368960646642962 0.31911015363466272 0 0.36266452242448938 0.34229393694352239 0 0.37014896644917339 0.316543878568457 0 0.36411885078159001 0.32644375487552563 0 0.36840829020790361 0.34668560051738673 0 0.36916640720496519 0.34145859007673351 0 0.36587418437400321 0.34278907974668538 0 0.36840829020790361 0.34668560051738673 0 0.37256750073976291 0.34304532959464751 0 0.36916640720496519 0.34145859007673351 0 0.36916640720496519 0.34145859007673351 0 0.36587418437400321 0.34278907974668538 0 0.36708394454210669 0.33994961910346172 0 0.36916640720496519 0.34145859007673351 0 0.37010024416019238 0.33739894816112592 0 0.36708394454210669 0.33994961910346172 0 0.36916640720496519 0.34145859007673351 0 0.37010024416019238 0.33739894816112592 0 0.37369311900952262 0.33836265764115908 0 0.36770298492566261 0.33637877995368609 0 0.37010024416019238 0.33739894816112592 0 0.36708394454210669 0.33994961910346172 0 0.37010024416019238 0.33739894816112592 0 0.37369311900952262 0.33836265764115908 0 0.3722735272100694 0.33425106354392481 0 0.3722735272100694 0.33425106354392481 0 0.37245621682226088 0.32924087979990557 0 0.375263113682131 0.33313320718557798 0 0.37369311900952262 0.33836265764115908 0 0.3722735272100694 0.33425106354392481 0 0.375263113682131 0.33313320718557798 0 0.3722735272100694 0.33425106354392481 0 0.37245621682226088 0.32924087979990557 0 0.36985494237623989 0.33311962493185521 0 0.37245621682226088 0.32924087979990557 0 0.37577016905582622 0.32787937856968757 0 0.375263113682131 0.33313320718557798 0 0.37010024416019238 0.33739894816112592 0 0.3722735272100694 0.33425106354392481 0 0.36985494237623989 0.33311962493185521 0 0.36770298492566261 0.33637877995368609 0 0.37010024416019238 0.33739894816112592 0 0.36985494237623989 0.33311962493185521 0 0.36128237795215928 0.33126347269122047 0 0.36124897776362869 0.33531944770056321 0 0.36411885078159001 0.32644375487552563 0 0.36150631125237548 0.32912422255951068 0 0.36128237795215928 0.33126347269122047 0 0.36411885078159001 0.32644375487552563 0 0.36150631125237548 0.32912422255951068 0 0.35994194411877378 0.32646204206530971 0 0.35835984371964152 0.33045614064968309 0 0.36128237795215928 0.33126347269122047 0 0.35899626180536931 0.33430086833413269 0 0.35835984371964152 0.33045614064968309 0 0.36150631125237548 0.32912422255951068 0 0.36128237795215928 0.33126347269122047 0 0.35835984371964152 0.33045614064968309 0 0.36128237795215928 0.33126347269122047 0 0.36124897776362869 0.33531944770056321 0 0.35899626180536931 0.33430086833413269 0 0.36124897776362869 0.33531944770056321 0 0.36001134864139028 0.33778823672905661 0 0.35899626180536931 0.33430086833413269 0 0.36124897776362869 0.33531944770056321 0 0.36001134864139028 0.33778823672905661 0 0.36266452242448938 0.34229393694352239 0 0.36001134864139028 0.33778823672905661 0 0.36266452242448938 0.34229393694352239 0 0.3582225103283424 0.33883319475427592 0 0.36266452242448938 0.34229393694352239 0 0.36587418437400321 0.34278907974668538 0 0.36708394454210669 0.33994961910346172 0 0.36770298492566261 0.33637877995368609 0 0.36266452242448938 0.34229393694352239 0 0.36708394454210669 0.33994961910346172 0 0.36266452242448938 0.34229393694352239 0 0.37368960646642962 0.31911015363466272 0 0.37014896644917339 0.316543878568457 0 0.37014896644917339 0.316543878568457 0 0.36604953812300478 0.31497278055865852 0 0.36630954626425261 0.31087512405144152 0 0.37499251130121058 0.31593455150060828 0 0.37014896644917339 0.316543878568457 0 0.37695808612291098 0.31120865645681561 0 0.37499251130121058 0.31593455150060828 0 0.37368960646642962 0.31911015363466272 0 0.37014896644917339 0.316543878568457 0 0.37014896644917339 0.316543878568457 0 0.36646072203027302 0.32009490443849897 0 0.3659238024377004 0.31770243144255911 0 0.37014896644917339 0.316543878568457 0 0.3659238024377004 0.31770243144255911 0 0.36604953812300478 0.31497278055865852 0 0.37245621682226088 0.32924087979990557 0 0.36985494237623989 0.33311962493185521 0 0.37368960646642962 0.31911015363466272 0 0.37245621682226088 0.32924087979990557 0 0.37368960646642962 0.31911015363466272 0 0.37506056064123422 0.32471797871916308 0 0.37245621682226088 0.32924087979990557 0 0.37577016905582622 0.32787937856968757 0 0.37506056064123422 0.32471797871916308 0 0.37014896644917339 0.316543878568457 0 0.36411885078159001 0.32644375487552563 0 0.36646072203027302 0.32009490443849897 0 0.36411885078159001 0.32644375487552563 0 0.35994194411877378 0.32646204206530971 0 0.36132202517978662 0.32303080634539388 0 0.36150631125237548 0.32912422255951068 0 0.36411885078159001 0.32644375487552563 0 0.35994194411877378 0.32646204206530971 0 0.36132202517978662 0.32303080634539388 0 0.36348301458407639 0.32047903077872458 0 0.35962675317161102 0.31893041505789499 0 0.36411885078159001 0.32644375487552563 0 0.36132202517978662 0.32303080634539388 0 0.36348301458407639 0.32047903077872458 0 0.36411885078159001 0.32644375487552563 0 0.36348301458407639 0.32047903077872458 0 0.36646072203027302 0.32009490443849897 0 0.36348301458407639 0.32047903077872458 0 0.36646072203027302 0.32009490443849897 0 0.3659238024377004 0.31770243144255911 0 0.3659238024377004 0.31770243144255911 0 0.36344593390349789 0.31667187251247519 0 0.36604953812300478 0.31497278055865852 0 0.36348301458407639 0.32047903077872458 0 0.3659238024377004 0.31770243144255911 0 0.36344593390349789 0.31667187251247519 0 0.36348301458407639 0.32047903077872458 0 0.36344593390349789 0.31667187251247519 0 0.35962675317161102 0.31893041505789499 0 0.36344593390349789 0.31667187251247519 0 0.35962675317161102 0.31893041505789499 0 0.35878641637012221 0.31305233625990619 0 0.36344593390349789 0.31667187251247519 0 0.36331333565659901 0.31283202127524651 0 0.35878641637012221 0.31305233625990619 0 0.36331333565659901 0.31283202127524651 0 0.36604953812300478 0.31497278055865852 0 0.36630954626425261 0.31087512405144152 0 0.36344593390349789 0.31667187251247519 0 0.36331333565659901 0.31283202127524651 0 0.36604953812300478 0.31497278055865852 0 0.35878641637012221 0.31305233625990619 0 0.35512602374864599 0.31718053618965047 0 0.35090510471213721 0.31152713165908658 0 0.35512602374864599 0.31718053618965047 0 0.34983435518440159 0.31943204998396652 0 0.35090510471213721 0.31152713165908658 0 0.35962675317161102 0.31893041505789499 0 0.35878641637012221 0.31305233625990619 0 0.35512602374864599 0.31718053618965047 0 0.35962675317161102 0.31893041505789499 0 0.35512602374864599 0.31718053618965047 0 0.35673455485560862 0.32229528426682241 0 0.35512602374864599 0.31718053618965047 0 0.35673455485560862 0.32229528426682241 0 0.34983435518440159 0.31943204998396652 0 0.35673455485560862 0.32229528426682241 0 0.35060422568955008 0.32587015674736058 0 0.34983435518440159 0.31943204998396652 0 0.35994194411877378 0.32646204206530971 0 0.36132202517978662 0.32303080634539388 0 0.35673455485560862 0.32229528426682241 0 0.36132202517978662 0.32303080634539388 0 0.35962675317161102 0.31893041505789499 0 0.35673455485560862 0.32229528426682241 0 0.35994194411877378 0.32646204206530971 0 0.35673455485560862 0.32229528426682241 0 0.35627338036128769 0.32705738058013539 0 0.35994194411877378 0.32646204206530971 0 0.35627338036128769 0.32705738058013539 0 0.35835984371964152 0.33045614064968309 0 0.35627338036128769 0.32705738058013539 0 0.35060422568955008 0.32587015674736058 0 0.35398721241228231 0.33095327650953749 0 0.35673455485560862 0.32229528426682241 0 0.35627338036128769 0.32705738058013539 0 0.35060422568955008 0.32587015674736058 0 0.35060422568955008 0.32587015674736058 0 0.34514221143703899 0.32919058107390442 0 0.34284551192874652 0.32364904383841531 0 0.35060422568955008 0.32587015674736058 0 0.34983435518440159 0.31943204998396652 0 0.34284551192874652 0.32364904383841531 0 0.34983435518440159 0.31943204998396652 0 0.34480088275632298 0.31606258733578418 0 0.35090510471213721 0.31152713165908658 0 0.34983435518440159 0.31943204998396652 0 0.34480088275632298 0.31606258733578418 0 0.34284551192874652 0.32364904383841531 0 0.35146565257524442 0.34420791440797271 0 0.36266452242448938 0.34229393694352239 0 0.35562031764263757 0.34031424282986023 0 0.35302683950207769 0.33602013814058929 0 0.35562031764263757 0.34031424282986023 0 0.35672120529774148 0.33684362974708199 0 0.35202203774268331 0.33965573310897551 0 0.35302683950207769 0.33602013814058929 0 0.35562031764263757 0.34031424282986023 0 0.35146565257524442 0.34420791440797271 0 0.35202203774268331 0.33965573310897551 0 0.35562031764263757 0.34031424282986023 0 0.36266452242448938 0.34229393694352239 0 0.35562031764263757 0.34031424282986023 0 0.3582225103283424 0.33883319475427592 0 0.35562031764263757 0.34031424282986023 0 0.3582225103283424 0.33883319475427592 0 0.35672120529774148 0.33684362974708199 0 0.36001134864139028 0.33778823672905661 0 0.3582225103283424 0.33883319475427592 0 0.35672120529774148 0.33684362974708199 0 0.36001134864139028 0.33778823672905661 0 0.35672120529774148 0.33684362974708199 0 0.35899626180536931 0.33430086833413269 0 0.35899626180536931 0.33430086833413269 0 0.35641212776078268 0.33381706902087938 0 0.35835984371964152 0.33045614064968309 0 0.35672120529774148 0.33684362974708199 0 0.35899626180536931 0.33430086833413269 0 0.35641212776078268 0.33381706902087938 0 0.35627338036128769 0.32705738058013539 0 0.35835984371964152 0.33045614064968309 0 0.35398721241228231 0.33095327650953749 0 0.35641212776078268 0.33381706902087938 0 0.35835984371964152 0.33045614064968309 0 0.35398721241228231 0.33095327650953749 0 0.35302683950207769 0.33602013814058929 0 0.35641212776078268 0.33381706902087938 0 0.35398721241228231 0.33095327650953749 0 0.35302683950207769 0.33602013814058929 0 0.35398721241228231 0.33095327650953749 0 0.34924685744035389 0.33249877391857741 0 0.35302683950207769 0.33602013814058929 0 0.35672120529774148 0.33684362974708199 0 0.35641212776078268 0.33381706902087938 0 0.35302683950207769 0.33602013814058929 0 0.34924685744035389 0.33249877391857741 0 0.34788509595764172 0.33882226599831611 0 0.35060422568955008 0.32587015674736058 0 0.34924685744035389 0.33249877391857741 0 0.34514221143703899 0.32919058107390442 0 0.35060422568955008 0.32587015674736058 0 0.35398721241228231 0.33095327650953749 0 0.34924685744035389 0.33249877391857741 0 0.34924685744035389 0.33249877391857741 0 0.34514221143703899 0.32919058107390442 0 0.34474234507332802 0.33433591834825649 0 0.34924685744035389 0.33249877391857741 0 0.34474234507332802 0.33433591834825649 0 0.34788509595764172 0.33882226599831611 0 0.34474234507332802 0.33433591834825649 0 0.34788509595764172 0.33882226599831611 0 0.34057592936449049 0.33809639891542392 0 0.35146565257524442 0.34420791440797271 0 0.34788509595764172 0.33882226599831611 0 0.34269927497721508 0.34493512072036142 0 0.35202203774268331 0.33965573310897551 0 0.35302683950207769 0.33602013814058929 0 0.34788509595764172 0.33882226599831611 0 0.35146565257524442 0.34420791440797271 0 0.35202203774268331 0.33965573310897551 0 0.34788509595764172 0.33882226599831611 0 0.34057592936449049 0.33809639891542392 0 0.33318390910610529 0.34358855052096038 0 0.34269927497721508 0.34493512072036142 0 0.34788509595764172 0.33882226599831611 0 0.34057592936449049 0.33809639891542392 0 0.34269927497721508 0.34493512072036142 0 0.34474234507332802 0.33433591834825649 0 0.34057592936449049 0.33809639891542392 0 0.33946855119551672 0.33096103471374028 0 0.34514221143703899 0.32919058107390442 0 0.34474234507332802 0.33433591834825649 0 0.33946855119551672 0.33096103471374028 0 0.34057592936449049 0.33809639891542392 0 0.33946855119551672 0.33096103471374028 0 0.33283637980140879 0.33469331179832718 0 0.33946855119551672 0.33096103471374028 0 0.33283637980140879 0.33469331179832718 0 0.33464693517381472 0.32630086361949601 0 0.33283637980140879 0.33469331179832718 0 0.33464693517381472 0.32630086361949601 0 0.3250964778074269 0.32978689602061512 0 0.34057592936449049 0.33809639891542392 0 0.33283637980140879 0.33469331179832718 0 0.33318390910610529 0.34358855052096038 0 0.33283637980140879 0.33469331179832718 0 0.33318390910610529 0.34358855052096038 0 0.32611481079287369 0.33974729713420021 0 0.34480088275632298 0.31606258733578418 0 0.33769186663180051 0.31814262317354819 0 0.34192449374142192 0.30753297203612773 0 0.34480088275632298 0.31606258733578418 0 0.33769186663180051 0.31814262317354819 0 0.34284551192874652 0.32364904383841531 0 0.33946855119551672 0.33096103471374028 0 0.34284551192874652 0.32364904383841531 0 0.33464693517381472 0.32630086361949601 0 0.33769186663180051 0.31814262317354819 0 0.34284551192874652 0.32364904383841531 0 0.33464693517381472 0.32630086361949601 0 0.34514221143703899 0.32919058107390442 0 0.33946855119551672 0.33096103471374028 0 0.34284551192874652 0.32364904383841531 0 0.33769186663180051 0.31814262317354819 0 0.33464693517381472 0.32630086361949601 0 0.32994282367798861 0.32057227217232959 0 0.33464693517381472 0.32630086361949601 0 0.32994282367798861 0.32057227217232959 0 0.3250964778074269 0.32978689602061512 0 0.33769186663180051 0.31814262317354819 0 0.32994282367798861 0.32057227217232959 0 0.32867162081685902 0.31028670060733149 0 0.32176892132522322 0.32006025561378759 0 0.31440941436971798 0.31242774502049953 0 0.32867162081685902 0.31028670060733149 0 0.32994282367798861 0.32057227217232959 0 0.32176892132522322 0.32006025561378759 0 0.32867162081685902 0.31028670060733149 0 0.32176892132522322 0.32006025561378759 0 0.31484893044661 0.32778579360563193 0 0.3250964778074269 0.32978689602061512 0 0.32994282367798861 0.32057227217232959 0 0.32176892132522322 0.32006025561378759 0 0.3250964778074269 0.32978689602061512 0 0.32176892132522322 0.32006025561378759 0 0.31484893044661 0.32778579360563193 0 0.31440941436971798 0.31242774502049953 0 0.32611481079287369 0.33974729713420021 0 0.3250964778074269 0.32978689602061512 0 0.31767498628904178 0.33862919533695518 0 0.32611481079287369 0.33974729713420021 0 0.31767498628904178 0.33862919533695518 0 0.32336406622478242 0.34852958887145069 0 0.33283637980140879 0.33469331179832718 0 0.32611481079287369 0.33974729713420021 0 0.3250964778074269 0.32978689602061512 0 0.31484893044661 0.32778579360563193 0 0.31767498628904178 0.33862919533695518 0 0.30654896287530792 0.34033791233229299 0 0.31484893044661 0.32778579360563193 0 0.3250964778074269 0.32978689602061512 0 0.31767498628904178 0.33862919533695518 0 0.31767498628904178 0.33862919533695518 0 0.31315570067328902 0.3464643712977632 0 0.32336406622478242 0.34852958887145069 0 0.31315570067328902 0.3464643712977632 0 0.31355388928080707 0.35546570062290778 0 0.32336406622478242 0.34852958887145069 0 0.32336406622478242 0.34852958887145069 0 0.33442175170730049 0.35218858713626039 0 0.32437013183195901 0.3602157298059272 0 0.31355388928080707 0.35546570062290778 0 0.32336406622478242 0.34852958887145069 0 0.32437013183195901 0.3602157298059272 0 0.33318390910610529 0.34358855052096038 0 0.32611481079287369 0.33974729713420021 0 0.32336406622478242 0.34852958887145069 0 0.35030182712711511 0.35130594720886232 0 0.33442175170730049 0.35218858713626039 0 0.33389487655237682 0.3658352592629312 0 0.33318390910610529 0.34358855052096038 0 0.32336406622478242 0.34852958887145069 0 0.33442175170730049 0.35218858713626039 0 0.35030182712711511 0.35130594720886232 0 0.33442175170730049 0.35218858713626039 0 0.34269927497721508 0.34493512072036142 0 0.33318390910610529 0.34358855052096038 0 0.33442175170730049 0.35218858713626039 0 0.34269927497721508 0.34493512072036142 0 0.34270248502322931 0.38427053755298168 0 0.35268350372385993 0.36328223724825232 0 0.33389487655237682 0.3658352592629312 0 0.33442175170730049 0.35218858713626039 0 0.33389487655237682 0.3658352592629312 0 0.32437013183195901 0.3602157298059272 0 0.31661607539452802 0.37905951313608538 0 0.33389487655237682 0.3658352592629312 0 0.32437013183195901 0.3602157298059272 0 0.31661607539452802 0.37905951313608538 0 0.31355388928080707 0.35546570062290778 0 0.32437013183195901 0.3602157298059272 0 0.31661607539452802 0.37905951313608538 0 0.31355388928080707 0.35546570062290778 0 0.31661607539452802 0.37905951313608538 0 0.31355388928080707 0.35546570062290778 0 0.30541822204374358 0.36584678197342768 0 0.2987730087010142 0.37934426936791982 0 0.31661607539452802 0.37905951313608538 0 0.30541822204374358 0.36584678197342768 0 0.30541822204374358 0.36584678197342768 0 0.30393955747459928 0.35096595789874813 0 0.29215410451095353 0.36543341035917859 0 0.2987730087010142 0.37934426936791982 0 0.30541822204374358 0.36584678197342768 0 0.29215410451095353 0.36543341035917859 0 0.31315570067328902 0.3464643712977632 0 0.30393955747459928 0.35096595789874813 0 0.30654896287530792 0.34033791233229299 0 0.31315570067328902 0.3464643712977632 0 0.31355388928080707 0.35546570062290778 0 0.30393955747459928 0.35096595789874813 0 0.31355388928080707 0.35546570062290778 0 0.30541822204374358 0.36584678197342768 0 0.30393955747459928 0.35096595789874813 0 0.30393955747459928 0.35096595789874813 0 0.29215410451095353 0.36543341035917859 0 0.30393955747459928 0.35096595789874813 0 0.29720735802849829 0.34424744790442102 0 0.29027641861796738 0.35164951467646482 0 0.30393955747459928 0.35096595789874813 0 0.29720735802849829 0.34424744790442102 0 0.30654896287530792 0.34033791233229299 0 0.29720735802849829 0.34424744790442102 0 0.29027641861796738 0.35164951467646482 0 0.28998304713239348 0.34105976447064218 0 0.30393955747459928 0.35096595789874813 0 0.29027641861796738 0.35164951467646482 0 0.29215410451095353 0.36543341035917859 0 0.29027641861796738 0.35164951467646482 0 0.29215410451095353 0.36543341035917859 0 0.27920137084664282 0.3573603676334649 0 0.29027641861796738 0.35164951467646482 0 0.27920137084664282 0.3573603676334649 0 0.28068773357058369 0.34198453751068081 0 0.29027641861796738 0.35164951467646482 0 0.28068773357058369 0.34198453751068081 0 0.28998304713239348 0.34105976447064218 0 0.28036865154730628 0.37990086281960789 0 0.29215410451095353 0.36543341035917859 0 0.27920137084664282 0.3573603676334649 0 0.28036865154730628 0.37990086281960789 0 0.2987730087010142 0.37934426936791982 0 0.29215410451095353 0.36543341035917859 0 0.28036865154730628 0.37990086281960789 0 0.29215410451095353 0.36543341035917859 0 0.28036865154730628 0.37990086281960789 0 0.27920137084664282 0.3573603676334649 0 0.26173146881309822 0.35734024057335978 0 0.28036865154730628 0.37990086281960789 0 0.26173146881309822 0.35734024057335978 0 0.28036865154730628 0.37990086281960789 0 0.26173146881309822 0.35734024057335978 0 0.2641967246118288 0.36596915937278562 0 0.27920137084664282 0.3573603676334649 0 0.27030047393074008 0.3474963096498429 0 0.26173146881309822 0.35734024057335978 0 0.27920137084664282 0.3573603676334649 0 0.27030047393074008 0.3474963096498429 0 0.28068773357058369 0.34198453751068081 0 0.2430942860788903 0.33477961832711151 0 0.26173146881309822 0.35734024057335978 0 0.27030047393074008 0.3474963096498429 0 0.26173146881309822 0.35734024057335978 0 0.26240083601839698 0.33727672217147331 0 0.23816107804029091 0.35120524212074949 0 0.26173146881309822 0.35734024057335978 0 0.2641967246118288 0.36596915937278562 0 0.23816107804029091 0.35120524212074949 0 0.2641967246118288 0.36596915937278562 0 0.2492643002430574 0.365916522193315 0 0.24311907173897271 0.36013203008567057 0 0.2641967246118288 0.36596915937278562 0 0.2492643002430574 0.365916522193315 0 0.25710864090743918 0.37145542319719338 0 0.2641967246118288 0.36596915937278562 0 0.2492643002430574 0.365916522193315 0 0.25383912625151372 0.37755129754335942 0 0.25710864090743918 0.37145542319719338 0 0.26350653962281989 0.38010735630523079 0 0.25710864090743918 0.37145542319719338 0 0.2641967246118288 0.36596915937278562 0 0.2484846271056145 0.31037308609574782 0 0.25508783524565293 0.32209220201309929 0 0.26836904206483531 0.31075971332937607 0 0.25508783524565293 0.32209220201309929 0 0.26240083601839698 0.33727672217147331 0 0.26677092012209491 0.32204036282613252 0 0.25508783524565293 0.32209220201309929 0 0.26677092012209491 0.32204036282613252 0 0.26836904206483531 0.31075971332937607 0 0.2430942860788903 0.33477961832711151 0 0.25508783524565293 0.32209220201309929 0 0.26240083601839698 0.33727672217147331 0 0.2430942860788903 0.33477961832711151 0 0.26173146881309822 0.35734024057335978 0 0.26240083601839698 0.33727672217147331 0 0.26240083601839698 0.33727672217147331 0 0.27184092000699639 0.33891315949469752 0 0.27388917516664008 0.32964775149744319 0 0.26240083601839698 0.33727672217147331 0 0.27388917516664008 0.32964775149744319 0 0.26677092012209491 0.32204036282613252 0 0.27030047393074008 0.3474963096498429 0 0.26240083601839698 0.33727672217147331 0 0.27184092000699639 0.33891315949469752 0 0.27030047393074008 0.3474963096498429 0 0.27184092000699639 0.33891315949469752 0 0.28068773357058369 0.34198453751068081 0 0.27184092000699639 0.33891315949469752 0 0.28068773357058369 0.34198453751068081 0 0.27388917516664008 0.32964775149744319 0 0.28068773357058369 0.34198453751068081 0 0.27388917516664008 0.32964775149744319 0 0.28570907475377572 0.33188311037056872 0 0.27388917516664008 0.32964775149744319 0 0.26677092012209491 0.32204036282613252 0 0.28178409254690689 0.31684790712797722 0 0.27388917516664008 0.32964775149744319 0 0.28178409254690689 0.31684790712797722 0 0.28570907475377572 0.33188311037056872 0 0.26677092012209491 0.32204036282613252 0 0.28178409254690689 0.31684790712797722 0 0.26836904206483531 0.31075971332937607 0 0.28178409254690689 0.31684790712797722 0 0.29262159606390598 0.32453461147271162 0 0.29660332646403359 0.30785121346786842 0 0.28178409254690689 0.31684790712797722 0 0.29262159606390598 0.32453461147271162 0 0.28570907475377572 0.33188311037056872 0 0.28068773357058369 0.34198453751068081 0 0.28570907475377572 0.33188311037056872 0 0.28998304713239348 0.34105976447064218 0 0.29262159606390598 0.32453461147271162 0 0.28570907475377572 0.33188311037056872 0 0.29603465069114282 0.33553421189107618 0 0.29720735802849829 0.34424744790442102 0 0.29603465069114282 0.33553421189107618 0 0.28998304713239348 0.34105976447064218 0 0.28570907475377572 0.33188311037056872 0 0.29603465069114282 0.33553421189107618 0 0.28998304713239348 0.34105976447064218 0 0.29720735802849829 0.34424744790442102 0 0.29603465069114282 0.33553421189107618 0 0.30654896287530792 0.34033791233229299 0 0.29603465069114282 0.33553421189107618 0 0.30654896287530792 0.34033791233229299 0 0.30445412428221041 0.32558903425911379 0 0.29262159606390598 0.32453461147271162 0 0.29603465069114282 0.33553421189107618 0 0.30445412428221041 0.32558903425911379 0 0.31484893044661 0.32778579360563193 0 0.30654896287530792 0.34033791233229299 0 0.30445412428221041 0.32558903425911379 0 0.31767498628904178 0.33862919533695518 0 0.31315570067328902 0.3464643712977632 0 0.30654896287530792 0.34033791233229299 0 0.30445412428221041 0.32558903425911379 0 0.29660332646403359 0.30785121346786842 0 0.31440941436971798 0.31242774502049953 0 0.29262159606390598 0.32453461147271162 0 0.30445412428221041 0.32558903425911379 0 0.29660332646403359 0.30785121346786842 0 0.31484893044661 0.32778579360563193 0 0.30445412428221041 0.32558903425911379 0 0.31440941436971798 0.31242774502049953 0 0.30822946874662033 0.29998271616579031 0 0.29660332646403359 0.30785121346786842 0 0.31440941436971798 0.31242774502049953 0 0.30822946874662033 0.29998271616579031 0 0.30055108247350393 0.28416894361273021 0 0.29660332646403359 0.30785121346786842 0 0.30822946874662033 0.29998271616579031 0 0.30055108247350393 0.28416894361273021 0 0.32109763140443309 0.29547610107375327 0 0.30055108247350393 0.28416894361273021 0 0.29660332646403359 0.30785121346786842 0 0.27430616976337108 0.29100628718303567 0 0.30055108247350393 0.28416894361273021 0 0.27430616976337108 0.29100628718303567 0 0.28443506245096839 0.27205148705280008 0 0.30055108247350393 0.28416894361273021 0 0.27430616976337108 0.29100628718303567 0 0.28178409254690689 0.31684790712797722 0 0.29660332646403359 0.30785121346786842 0 0.27430616976337108 0.29100628718303567 0 0.28178409254690689 0.31684790712797722 0 0.26836904206483531 0.31075971332937607 0 0.27430616976337108 0.29100628718303567 0 0.28178409254690689 0.31684790712797722 0 0.27430616976337108 0.29100628718303567 0 0.27430616976337108 0.29100628718303567 0 0.25121587924780342 0.29702178630611242 0 0.27430616976337108 0.29100628718303567 0 0.25953152444998728 0.28294166139542631 0 0.25121587924780342 0.29702178630611242 0 0.26836904206483531 0.31075971332937607 0 0.27430616976337108 0.29100628718303567 0 0.25121587924780342 0.29702178630611242 0 0.26836904206483531 0.31075971332937607 0 0.25121587924780342 0.29702178630611242 0 0.2484846271056145 0.31037308609574782 0 0.26836904206483531 0.31075971332937607 0 0.25121587924780342 0.29702178630611242 0 0.25102838231212438 0.26850893423506528 0 0.26790857605335527 0.26889798384773289 0 0.26221447651104962 0.2479993693513689 0 0.26790857605335527 0.26889798384773289 0 0.26221447651104962 0.2479993693513689 0 0.25953152444998728 0.28294166139542631 0 0.25102838231212438 0.26850893423506528 0 0.26790857605335527 0.26889798384773289 0 0.27430616976337108 0.29100628718303567 0 0.26790857605335527 0.26889798384773289 0 0.28443506245096839 0.27205148705280008 0 0.27430616976337108 0.29100628718303567 0 0.25953152444998728 0.28294166139542631 0 0.26790857605335527 0.26889798384773289 0 0.27430616976337108 0.29100628718303567 0 0.26790857605335527 0.26889798384773289 0 0.26790857605335527 0.26889798384773289 0 0.28119448123381058 0.25405304303149878 0 0.26221447651104962 0.2479993693513689 0 0.26790857605335527 0.26889798384773289 0 0.28119448123381058 0.25405304303149878 0 0.28443506245096839 0.27205148705280008 0 0.28119448123381058 0.25405304303149878 0 0.28443506245096839 0.27205148705280008 0 0.2982150027308012 0.26213117758900317 0 0.28119448123381058 0.25405304303149878 0 0.2982150027308012 0.26213117758900317 0 0.30328699804120918 0.24394477185791469 0 0.30055108247350393 0.28416894361273021 0 0.28443506245096839 0.27205148705280008 0 0.2982150027308012 0.26213117758900317 0 0.30055108247350393 0.28416894361273021 0 0.2982150027308012 0.26213117758900317 0 0.31879452400631653 0.25919465198291952 0 0.2982150027308012 0.26213117758900317 0 0.31879452400631653 0.25919465198291952 0 0.30328699804120918 0.24394477185791469 0 0.31879452400631653 0.25919465198291952 0 0.33092809789354199 0.24744869965648561 0 0.31845456220733243 0.24449663650262579 0 0.31879452400631653 0.25919465198291952 0 0.33565265393095528 0.25675142138279861 0 0.33982225619875311 0.26765994074234428 0 0.31879452400631653 0.25919465198291952 0 0.33982225619875311 0.26765994074234428 0 0.31879452400631653 0.25919465198291952 0 0.33565265393095528 0.25675142138279861 0 0.33092809789354199 0.24744869965648561 0 0.33565265393095528 0.25675142138279861 0 0.33982225619875311 0.26765994074234428 0 0.34536281311255052 0.25941060478944128 0 0.33565265393095528 0.25675142138279861 0 0.3433555784436142 0.25004320974280247 0 0.33092809789354199 0.24744869965648561 0 0.33565265393095528 0.25675142138279861 0 0.3433555784436142 0.25004320974280247 0 0.34536281311255052 0.25941060478944128 0 0.31879452400631653 0.25919465198291952 0 0.33982225619875311 0.26765994074234428 0 0.32679599518363661 0.27733160004242491 0 0.33982225619875311 0.26765994074234428 0 0.32679599518363661 0.27733160004242491 0 0.34056182851336592 0.28206143899133118 0 0.30055108247350393 0.28416894361273021 0 0.32679599518363661 0.27733160004242491 0 0.30055108247350393 0.28416894361273021 0 0.31879452400631653 0.25919465198291952 0 0.32679599518363661 0.27733160004242491 0 0.32679599518363661 0.27733160004242491 0 0.32109763140443309 0.29547610107375327 0 0.33248404658197278 0.28876668272462419 0 0.30055108247350393 0.28416894361273021 0 0.32679599518363661 0.27733160004242491 0 0.32109763140443309 0.29547610107375327 0 0.32109763140443309 0.29547610107375327 0 0.31440941436971798 0.31242774502049953 0 0.32867162081685902 0.31028670060733149 0 0.30822946874662033 0.29998271616579031 0 0.32109763140443309 0.29547610107375327 0 0.31440941436971798 0.31242774502049953 0 0.32867162081685902 0.31028670060733149 0 0.33472549883669622 0.29791121211074773 0 0.34192449374142192 0.30753297203612773 0 0.32109763140443309 0.29547610107375327 0 0.32867162081685902 0.31028670060733149 0 0.33472549883669622 0.29791121211074773 0 0.33472549883669622 0.29791121211074773 0 0.34281583705185747 0.29966479619329672 0 0.34192449374142192 0.30753297203612773 0 0.33769186663180051 0.31814262317354819 0 0.32867162081685902 0.31028670060733149 0 0.34192449374142192 0.30753297203612773 0 0.32679599518363661 0.27733160004242491 0 0.33248404658197278 0.28876668272462419 0 0.34056182851336592 0.28206143899133118 0 0.32109763140443309 0.29547610107375327 0 0.33472549883669622 0.29791121211074773 0 0.33248404658197278 0.28876668272462419 0 0.33472549883669622 0.29791121211074773 0 0.33248404658197278 0.28876668272462419 0 0.34417327957572558 0.29277050597204329 0 0.33472549883669622 0.29791121211074773 0 0.34281583705185747 0.29966479619329672 0 0.34417327957572558 0.29277050597204329 0 0.33248404658197278 0.28876668272462419 0 0.34056182851336592 0.28206143899133118 0 0.34417327957572558 0.29277050597204329 0 0.34056182851336592 0.28206143899133118 0 0.34979868535227071 0.28728326233729501 0 0.34417327957572558 0.29277050597204329 0 0.34056182851336592 0.28206143899133118 0 0.34979868535227071 0.28728326233729501 0 0.35183199075491411 0.27966461044832719 0 0.34417327957572558 0.29277050597204329 0 0.35334053836337709 0.29410458558147129 0 0.34972900846361488 0.30172704795696642 0 0.34979868535227071 0.28728326233729501 0 0.34417327957572558 0.29277050597204329 0 0.35334053836337709 0.29410458558147129 0 0.34979868535227071 0.28728326233729501 0 0.35334053836337709 0.29410458558147129 0 0.35722235408413222 0.28831366276426512 0 0.35334053836337709 0.29410458558147129 0 0.35826071325737319 0.3003277240158499 0 0.36091512844171192 0.29433704443458902 0 0.35334053836337709 0.29410458558147129 0 0.35722235408413222 0.28831366276426512 0 0.36091512844171192 0.29433704443458902 0 0.34979868535227071 0.28728326233729501 0 0.35722235408413222 0.28831366276426512 0 0.35183199075491411 0.27966461044832719 0 0.35722235408413222 0.28831366276426512 0 0.36152496379752869 0.28359539021876212 0 0.35183199075491411 0.27966461044832719 0 0.34480088275632298 0.31606258733578418 0 0.34192449374142192 0.30753297203612773 0 0.35090510471213721 0.31152713165908658 0 0.34192449374142192 0.30753297203612773 0 0.35090510471213721 0.31152713165908658 0 0.34972900846361488 0.30172704795696642 0 0.34281583705185747 0.29966479619329672 0 0.34417327957572558 0.29277050597204329 0 0.34972900846361488 0.30172704795696642 0 0.34281583705185747 0.29966479619329672 0 0.34192449374142192 0.30753297203612773 0 0.34972900846361488 0.30172704795696642 0 0.34972900846361488 0.30172704795696642 0 0.35826071325737319 0.3003277240158499 0 0.35721607615581658 0.30656573559573969 0 0.35334053836337709 0.29410458558147129 0 0.34972900846361488 0.30172704795696642 0 0.35826071325737319 0.3003277240158499 0 0.35090510471213721 0.31152713165908658 0 0.34972900846361488 0.30172704795696642 0 0.35721607615581658 0.30656573559573969 0 0.35878641637012221 0.31305233625990619 0 0.35090510471213721 0.31152713165908658 0 0.35721607615581658 0.30656573559573969 0 0.37014896644917339 0.316543878568457 0 0.37763341047385651 0.29079382019339128 0 0.37014896644917339 0.316543878568457 0 0.37108481648816682 0.30013899891886681 0 0.36845835323010317 0.30596496181531441 0 0.37014896644917339 0.316543878568457 0 0.37763341047385651 0.29079382019339128 0 0.37695808612291098 0.31120865645681561 0 0.37014896644917339 0.316543878568457 0 0.37108481648816682 0.30013899891886681 0 0.37763341047385651 0.29079382019339128 0 0.36630954626425261 0.31087512405144152 0 0.36228941999803421 0.30896529616435242 0 0.36543096483439103 0.3064802843427199 0 0.36331333565659901 0.31283202127524651 0 0.36630954626425261 0.31087512405144152 0 0.36228941999803421 0.30896529616435242 0 0.36331333565659901 0.31283202127524651 0 0.35878641637012221 0.31305233625990619 0 0.36228941999803421 0.30896529616435242 0 0.35878641637012221 0.31305233625990619 0 0.35721607615581658 0.30656573559573969 0 0.36228941999803421 0.30896529616435242 0 0.35721607615581658 0.30656573559573969 0 0.36228941999803421 0.30896529616435242 0 0.36268018070702418 0.30398627546106088 0 0.36630954626425261 0.31087512405144152 0 0.36543096483439103 0.3064802843427199 0 0.36845835323010317 0.30596496181531441 0 0.36228941999803421 0.30896529616435242 0 0.36543096483439103 0.3064802843427199 0 0.36268018070702418 0.30398627546106088 0 0.36543096483439103 0.3064802843427199 0 0.36607900901995372 0.30349396637540749 0 0.36845835323010317 0.30596496181531441 0 0.36607900901995372 0.30349396637540749 0 0.36268018070702418 0.30398627546106088 0 0.36558719123160882 0.29969948119116269 0 0.36607900901995372 0.30349396637540749 0 0.36558719123160882 0.29969948119116269 0 0.36823835509664099 0.30133882906677939 0 0.36543096483439103 0.3064802843427199 0 0.36607900901995372 0.30349396637540749 0 0.36268018070702418 0.30398627546106088 0 0.35826071325737319 0.3003277240158499 0 0.35721607615581658 0.30656573559573969 0 0.36268018070702418 0.30398627546106088 0 0.35826071325737319 0.3003277240158499 0 0.36268018070702418 0.30398627546106088 0 0.36558719123160882 0.29969948119116269 0 0.35826071325737319 0.3003277240158499 0 0.36558719123160882 0.29969948119116269 0 0.36091512844171192 0.29433704443458902 0 0.36871223371641282 0.29817542324200702 0 0.37108481648816682 0.30013899891886681 0 0.37014933742706652 0.29575476169949788 0 0.36558719123160882 0.29969948119116269 0 0.36871223371641282 0.29817542324200702 0 0.36734652779664789 0.29411680932906442 0 0.36558719123160882 0.29969948119116269 0 0.36871223371641282 0.29817542324200702 0 0.36823835509664099 0.30133882906677939 0 0.36871223371641282 0.29817542324200702 0 0.37108481648816682 0.30013899891886681 0 0.36823835509664099 0.30133882906677939 0 0.37108481648816682 0.30013899891886681 0 0.36823835509664099 0.30133882906677939 0 0.36845835323010317 0.30596496181531441 0 0.36607900901995372 0.30349396637540749 0 0.36823835509664099 0.30133882906677939 0 0.36845835323010317 0.30596496181531441 0 0.37014896644917339 0.316543878568457 0 0.36630954626425261 0.31087512405144152 0 0.36845835323010317 0.30596496181531441 0 0.36812955944888692 0.28419813691800921 0 0.36084998839118931 0.2761252295017701 0 0.37969218042614078 0.28371066929036243 0 0.36152496379752869 0.28359539021876212 0 0.36812955944888692 0.28419813691800921 0 0.36084998839118931 0.2761252295017701 0 0.36414496955441777 0.28941104037434479 0 0.36911771796651938 0.28986917351547109 0 0.36812955944888692 0.28419813691800921 0 0.36152496379752869 0.28359539021876212 0 0.36414496955441777 0.28941104037434479 0 0.36812955944888692 0.28419813691800921 0 0.35722235408413222 0.28831366276426512 0 0.36152496379752869 0.28359539021876212 0 0.36414496955441777 0.28941104037434479 0 0.35722235408413222 0.28831366276426512 0 0.36091512844171192 0.29433704443458902 0 0.36414496955441777 0.28941104037434479 0 0.36558719123160882 0.29969948119116269 0 0.36091512844171192 0.29433704443458902 0 0.36734652779664789 0.29411680932906442 0 0.36091512844171192 0.29433704443458902 0 0.36414496955441777 0.28941104037434479 0 0.36734652779664789 0.29411680932906442 0 0.36414496955441777 0.28941104037434479 0 0.36911771796651938 0.28986917351547109 0 0.36734652779664789 0.29411680932906442 0 0.36911771796651938 0.28986917351547109 0 0.37026464520563152 0.29279186409727531 0 0.36734652779664789 0.29411680932906442 0 0.37108481648816682 0.30013899891886681 0 0.37306860395079622 0.29341917559567809 0 0.37763341047385651 0.29079382019339128 0 0.36911771796651938 0.28986917351547109 0 0.37026464520563152 0.29279186409727531 0 0.37237913536365119 0.29056320862162688 0 0.36871223371641282 0.29817542324200702 0 0.36734652779664789 0.29411680932906442 0 0.37014933742706652 0.29575476169949788 0 0.37026464520563152 0.29279186409727531 0 0.36734652779664789 0.29411680932906442 0 0.37014933742706652 0.29575476169949788 0 0.37108481648816682 0.30013899891886681 0 0.37014933742706652 0.29575476169949788 0 0.37306860395079622 0.29341917559567809 0 0.37026464520563152 0.29279186409727531 0 0.37014933742706652 0.29575476169949788 0 0.37306860395079622 0.29341917559567809 0 0.36911771796651938 0.28986917351547109 0 0.37237913536365119 0.29056320862162688 0 0.37333201972158658 0.2878654242033048 0 0.37306860395079622 0.29341917559567809 0 0.37237913536365119 0.29056320862162688 0 0.37763341047385651 0.29079382019339128 0 0.37237913536365119 0.29056320862162688 0 0.37333201972158658 0.2878654242033048 0 0.37763341047385651 0.29079382019339128 0 0.37026464520563152 0.29279186409727531 0 0.37306860395079622 0.29341917559567809 0 0.37237913536365119 0.29056320862162688 0 0.37333201972158658 0.2878654242033048 0 0.36812955944888692 0.28419813691800921 0 0.37969218042614078 0.28371066929036243 0 0.36911771796651938 0.28986917351547109 0 0.37333201972158658 0.2878654242033048 0 0.36812955944888692 0.28419813691800921 0 0.36084998839118931 0.2761252295017701 0 0.37969218042614078 0.28371066929036243 0 0.36084998839118931 0.2761252295017701 0 0.37017340450925651 0.266060206293324 0 0.3539366042426153 0.26554047293381039 0 0.36084998839118931 0.2761252295017701 0 0.38460708535355081 0.26680105137204091 0 0.36084998839118931 0.2761252295017701 0 0.37017340450925651 0.266060206293324 0 0.38460708535355081 0.26680105137204091 0 0.3539366042426153 0.26554047293381039 0 0.38129994004966872 0.25577407136566988 0 0.37169426656027921 0.24972740256563611 0 0.37017340450925651 0.266060206293324 0 0.3539366042426153 0.26554047293381039 0 0.38129994004966872 0.25577407136566988 0 0.3539366042426153 0.26554047293381039 0 0.37169426656027921 0.24972740256563611 0 0.36205361842742478 0.24882498742118489 0 0.3539366042426153 0.26554047293381039 0 0.38129994004966872 0.25577407136566988 0 0.3539366042426153 0.26554047293381039 0 0.35175757775775729 0.2532797976346674 0 0.36205361842742478 0.24882498742118489 0 0.3433555784436142 0.25004320974280247 0 0.35175757775775729 0.2532797976346674 0 0.34536281311255052 0.25941060478944128 0 0.33982225619875311 0.26765994074234428 0 0.3539366042426153 0.26554047293381039 0 0.34536281311255052 0.25941060478944128 0 0.3539366042426153 0.26554047293381039 0 0.35175757775775729 0.2532797976346674 0 0.34536281311255052 0.25941060478944128 0 0.33982225619875311 0.26765994074234428 0 0.36084998839118931 0.2761252295017701 0 0.33982225619875311 0.26765994074234428 0 0.36084998839118931 0.2761252295017701 0 0.3539366042426153 0.26554047293381039 0 0.33982225619875311 0.26765994074234428 0 0.36084998839118931 0.2761252295017701 0 0.35183199075491411 0.27966461044832719 0 0.33982225619875311 0.26765994074234428 0 0.34056182851336592 0.28206143899133118 0 0.35183199075491411 0.27966461044832719 0 0.36152496379752869 0.28359539021876212 0 0.36084998839118931 0.2761252295017701 0 0.35183199075491411 0.27966461044832719 0 0.36084998839118931 0.2761252295017701 0 0.35183199075491411 0.27966461044832719 0 0.39945440726228237 0.27350419034528239 0 0.38460708535355081 0.26680105137204091 0 0.40768566828284042 0.25774317622192677 0 0.39945440726228237 0.27350419034528239 0 0.4092682188351508 0.26816031590002881 0 0.40768566828284042 0.25774317622192677 0 0.39945440726228237 0.27350419034528239 0 0.38460708535355081 0.26680105137204091 0 0.3904751567012596 0.27530993325585928 0 0.39945440726228237 0.27350419034528239 0 0.3904751567012596 0.27530993325585928 0 0.39488150240831521 0.28173053148540511 0 0.39945440726228237 0.27350419034528239 0 0.40366985246608472 0.28285995447659418 0 0.40929088926209078 0.279020096056181 0 0.39945440726228237 0.27350419034528239 0 0.4092682188351508 0.26816031590002881 0 0.40929088926209078 0.279020096056181 0 0.39945440726228237 0.27350419034528239 0 0.39488150240831521 0.28173053148540511 0 0.40366985246608472 0.28285995447659418 0 0.38783836144724232 0.2556839199238965 0 0.38129994004966872 0.25577407136566988 0 0.40866327585672191 0.24600766979752939 0 0.38460708535355081 0.26680105137204091 0 0.40768566828284042 0.25774317622192677 0 0.38783836144724232 0.2556839199238965 0 0.40768566828284042 0.25774317622192677 0 0.40866327585672191 0.24600766979752939 0 0.38783836144724232 0.2556839199238965 0 0.38460708535355081 0.26680105137204091 0 0.40768566828284042 0.25774317622192677 0 0.38129994004966872 0.25577407136566988 0 0.40866327585672191 0.24600766979752939 0 0.38783836144724232 0.2556839199238965 0 0.38129994004966872 0.25577407136566988 0 0.38460708535355081 0.26680105137204091 0 0.38783836144724232 0.2556839199238965 0 0.38460708535355081 0.26680105137204091 0 0.38129994004966872 0.25577407136566988 0 0.37169426656027921 0.24972740256563611 0 0.38106847269238292 0.24536179082341181 0 0.37017340450925651 0.266060206293324 0 0.38129994004966872 0.25577407136566988 0 0.38460708535355081 0.26680105137204091 0 0.36084998839118931 0.2761252295017701 0 0.38460708535355081 0.26680105137204091 0 0.37969218042614078 0.28371066929036243 0 0.38460708535355081 0.26680105137204091 0 0.3904751567012596 0.27530993325585928 0 0.37969218042614078 0.28371066929036243 0 0.38460708535355081 0.26680105137204091 0 0.37969218042614078 0.28371066929036243 0 0.3904751567012596 0.27530993325585928 0 0.37969218042614078 0.28371066929036243 0 0.39488150240831521 0.28173053148540511 0 0.37969218042614078 0.28371066929036243 0 0.37763341047385651 0.29079382019339128 0 0.40259214502479168 0.29292967641552992 0 0.37763341047385651 0.29079382019339128 0 0.4027243230010164 0.30147339632314252 0 0.37969218042614078 0.28371066929036243 0 0.37763341047385651 0.29079382019339128 0 0.37333201972158658 0.2878654242033048 0 0.37969218042614078 0.28371066929036243 0 0.37763341047385651 0.29079382019339128 0 0.37763341047385651 0.29079382019339128 0 0.37695808612291098 0.31120865645681561 0 0.38599374742651271 0.30414296713942529 0 0.37763341047385651 0.29079382019339128 0 0.38599374742651271 0.30414296713942529 0 0.4027243230010164 0.30147339632314252 0 0.37695808612291098 0.31120865645681561 0 0.38599374742651271 0.30414296713942529 0 0.38754735899376969 0.31282171123814728 0 0.38599374742651271 0.30414296713942529 0 0.4027243230010164 0.30147339632314252 0 0.38754735899376969 0.31282171123814728 0 0.4027243230010164 0.30147339632314252 0 0.3956366020903157 0.32248231082130752 0 0.38754735899376969 0.31282171123814728 0 0.37969218042614078 0.28371066929036243 0 0.40259214502479168 0.29292967641552992 0 0.37969218042614078 0.28371066929036243 0 0.39488150240831521 0.28173053148540511 0 0.40259214502479168 0.29292967641552992 0 0.37763341047385651 0.29079382019339128 0 0.4027243230010164 0.30147339632314252 0 0.40259214502479168 0.29292967641552992 0 0.4027243230010164 0.30147339632314252 0 0.40259214502479168 0.29292967641552992 0 0.41139710839419091 0.29189735433941028 0 0.40259214502479168 0.29292967641552992 0 0.40366985246608472 0.28285995447659418 0 0.41139710839419091 0.29189735433941028 0 0.39488150240831521 0.28173053148540511 0 0.40259214502479168 0.29292967641552992 0 0.40366985246608472 0.28285995447659418 0 0.40366985246608472 0.28285995447659418 0 0.41139710839419091 0.29189735433941028 0 0.40929088926209078 0.279020096056181 0 0.41139710839419091 0.29189735433941028 0 0.42781523552817591 0.31215297245289481 0 0.42226183937510081 0.28327127115801121 0 0.41139710839419091 0.29189735433941028 0 0.42226183937510081 0.28327127115801121 0 0.40929088926209078 0.279020096056181 0 0.4027243230010164 0.30147339632314252 0 0.41139710839419091 0.29189735433941028 0 0.42781523552817591 0.31215297245289481 0 0.4027243230010164 0.30147339632314252 0 0.42781523552817591 0.31215297245289481 0 0.41357021602424721 0.32279281759874212 0 0.4027243230010164 0.30147339632314252 0 0.42781523552817591 0.31215297245289481 0 0.42781523552817591 0.31215297245289481 0 0.42226183937510081 0.28327127115801121 0 0.42781523552817591 0.31215297245289481 0 0.42226183937510081 0.28327127115801121 0 0.44120727567718632 0.28746005308771089 0 0.42226183937510081 0.28327127115801121 0 0.43023391716603732 0.27040224467912161 0 0.44120727567718632 0.28746005308771089 0 0.42226183937510081 0.28327127115801121 0 0.43023391716603732 0.27040224467912161 0 0.41664462513020523 0.25422696758609492 0 0.43023391716603732 0.27040224467912161 0 0.43692075095235122 0.26433370861442979 0 0.44373838257505849 0.27050131303512348 0 0.42226183937510081 0.28327127115801121 0 0.4092682188351508 0.26816031590002881 0 0.41664462513020523 0.25422696758609492 0 0.42226183937510081 0.28327127115801121 0 0.41664462513020523 0.25422696758609492 0 0.42226183937510081 0.28327127115801121 0 0.4092682188351508 0.26816031590002881 0 0.40929088926209078 0.279020096056181 0 0.40768566828284042 0.25774317622192677 0 0.41664462513020523 0.25422696758609492 0 0.40866327585672191 0.24600766979752939 0 0.40768566828284042 0.25774317622192677 0 0.41664462513020523 0.25422696758609492 0 0.4092682188351508 0.26816031590002881 0 0.40768566828284042 0.25774317622192677 0 0.41664462513020523 0.25422696758609492 0 0.42749544465446981 0.25699566217507153 0 0.45166362976964691 0.25106894999712381 0 0.43076425121212841 0.2486853010718087 0 0.41664462513020523 0.25422696758609492 0 0.42749544465446981 0.25699566217507153 0 0.43076425121212841 0.2486853010718087 0 0.43023391716603732 0.27040224467912161 0 0.41664462513020523 0.25422696758609492 0 0.42749544465446981 0.25699566217507153 0 0.41664462513020523 0.25422696758609492 0 0.43076425121212841 0.2486853010718087 0 0.42749544465446981 0.25699566217507153 0 0.43692075095235122 0.26433370861442979 0 0.44456450099631911 0.26043047377218492 0 0.43023391716603732 0.27040224467912161 0 0.42749544465446981 0.25699566217507153 0 0.43692075095235122 0.26433370861442979 0 0.42749544465446981 0.25699566217507153 0 0.45166362976964691 0.25106894999712381 0 0.42749544465446981 0.25699566217507153 0 0.44456450099631911 0.26043047377218492 0 0.45166362976964691 0.25106894999712381 0 0.43692075095235122 0.26433370861442979 0 0.44456450099631911 0.26043047377218492 0 0.44373838257505849 0.27050131303512348 0 0.44456450099631911 0.26043047377218492 0 0.44373838257505849 0.27050131303512348 0 0.45508065662597141 0.26402805921732958 0 0.44456450099631911 0.26043047377218492 0 0.45166362976964691 0.25106894999712381 0 0.45508065662597141 0.26402805921732958 0 0.44373838257505849 0.27050131303512348 0 0.45472874274978531 0.27586911806656422 0 0.44120727567718632 0.28746005308771089 0 0.43023391716603732 0.27040224467912161 0 0.44373838257505849 0.27050131303512348 0 0.44120727567718632 0.28746005308771089 0 0.44373838257505849 0.27050131303512348 0 0.45472874274978531 0.27586911806656422 0 0.45508065662597141 0.26402805921732958 0 0.45472874274978531 0.27586911806656422 0 0.46665275363318931 0.27127710252775639 0 0.46192346945889701 0.28817835066990299 0 0.45472874274978531 0.27586911806656422 0 0.46665275363318931 0.27127710252775639 0 0.45508065662597141 0.26402805921732958 0 0.45166362976964691 0.25106894999712381 0 0.46652816171208539 0.25830808769848879 0 0.47583181488482379 0.2451422378191761 0 0.45166362976964691 0.25106894999712381 0 0.45508065662597141 0.26402805921732958 0 0.46652816171208539 0.25830808769848879 0 0.46665275363318931 0.27127710252775639 0 0.45508065662597141 0.26402805921732958 0 0.46652816171208539 0.25830808769848879 0 0.46665275363318931 0.27127710252775639 0 0.46652816171208539 0.25830808769848879 0 0.48341195364679568 0.26002408893105827 0 0.46652816171208539 0.25830808769848879 0 0.48341195364679568 0.26002408893105827 0 0.47583181488482379 0.2451422378191761 0 0.46665275363318931 0.27127710252775639 0 0.48341195364679568 0.26002408893105827 0 0.48138518434246891 0.28130646820503019 0 0.46665275363318931 0.27127710252775639 0 0.48138518434246891 0.28130646820503019 0 0.46192346945889701 0.28817835066990299 0 0.5 0.26671351767664991 0 0.5 0.29421150971207138 0 0.48138518434246891 0.28130646820503019 0 0.48341195364679568 0.26002408893105827 0 0.5 0.26671351767664991 0 0.48138518434246891 0.28130646820503019 0 0.48341195364679568 0.26002408893105827 0 0.5 0.26671351767664991 0 0.50000000000000067 0.2392155256412283 0 0.5 0.29421150971207138 0 0.47556093647901088 0.30733800586058863 0 0.5 0.32170950174749302 0 0.5 0.29421150971207138 0 0.48138518434246891 0.28130646820503019 0 0.47556093647901088 0.30733800586058863 0 0.48138518434246891 0.28130646820503019 0 0.47556093647901088 0.30733800586058863 0 0.46192346945889701 0.28817835066990299 0 0.47556093647901088 0.30733800586058863 0 0.45214514511688908 0.30370412902975941 0 0.45421880844117613 0.32339126307769928 0 0.47556093647901088 0.30733800586058863 0 0.46192346945889701 0.28817835066990299 0 0.45214514511688908 0.30370412902975941 0 0.46192346945889701 0.28817835066990299 0 0.44120727567718632 0.28746005308771089 0 0.45214514511688908 0.30370412902975941 0 0.45472874274978531 0.27586911806656422 0 0.46192346945889701 0.28817835066990299 0 0.44120727567718632 0.28746005308771089 0 0.42781523552817591 0.31215297245289481 0 0.44120727567718632 0.28746005308771089 0 0.45214514511688908 0.30370412902975941 0 0.42781523552817591 0.31215297245289481 0 0.45421880844117613 0.32339126307769928 0 0.43298436918619881 0.33903622913929549 0 0.42781523552817591 0.31215297245289481 0 0.45214514511688908 0.30370412902975941 0 0.45421880844117613 0.32339126307769928 0 0.42781523552817591 0.31215297245289481 0 0.45421880844117613 0.32339126307769928 0 0.45421880844117613 0.32339126307769928 0 0.45970761232660212 0.34692044601787542 0 0.43298436918619881 0.33903622913929549 0 0.45421880844117613 0.32339126307769928 0 0.48062238135417568 0.33462955370250519 0 0.45421880844117613 0.32339126307769928 0 0.48062238135417568 0.33462955370250519 0 0.45970761232660212 0.34692044601787542 0 0.47556093647901088 0.30733800586058863 0 0.45421880844117613 0.32339126307769928 0 0.48062238135417568 0.33462955370250519 0 0.48062238135417568 0.33462955370250519 0 0.5 0.32170950174749302 0 0.5 0.34920749378291471 0 0.47556093647901088 0.30733800586058863 0 0.48062238135417568 0.33462955370250519 0 0.5 0.32170950174749302 0 0.5 0.34920749378291471 0 0.48254603458521478 0.3522402998402685 0 0.5 0.37670548581833618 0 0.48062238135417568 0.33462955370250519 0 0.5 0.34920749378291471 0 0.48254603458521478 0.3522402998402685 0 0.48254603458521478 0.3522402998402685 0 0.46972057754862501 0.36630584452178799 0 0.45970761232660212 0.34692044601787542 0 0.48062238135417568 0.33462955370250519 0 0.48254603458521478 0.3522402998402685 0 0.45970761232660212 0.34692044601787542 0 0.48254603458521478 0.3522402998402685 0 0.46972057754862501 0.36630584452178799 0 0.5 0.37670548581833618 0 0.46972057754862501 0.36630584452178799 0 0.43815350284422228 0.36591948582569622 0 0.45848938469160699 0.38276388730883248 0 0.46972057754862501 0.36630584452178799 0 0.45970761232660212 0.34692044601787542 0 0.43815350284422228 0.36591948582569622 0 0.45970761232660212 0.34692044601787542 0 0.43815350284422228 0.36591948582569622 0 0.43298436918619881 0.33903622913929549 0 0.43815350284422228 0.36591948582569622 0 0.4167242930516859 0.35972934744593471 0 0.42344095457037051 0.38268701701273461 0 0.4167242930516859 0.35972934744593471 0 0.40101385701800268 0.38518895784325291 0 0.4167242930516859 0.35972934744593471 0 0.40181680918128981 0.35947395412181382 0 0.40101385701800268 0.38518895784325291 0 0.4167242930516859 0.35972934744593471 0 0.40869055031553031 0.33881917925707022 0 0.40181680918128981 0.35947395412181382 0 0.4167242930516859 0.35972934744593471 0 0.43298436918619881 0.33903622913929549 0 0.40869055031553031 0.33881917925707022 0 0.43815350284422228 0.36591948582569622 0 0.4167242930516859 0.35972934744593471 0 0.43298436918619881 0.33903622913929549 0 0.43815350284422228 0.36591948582569622 0 0.43298436918619881 0.33903622913929549 0 0.42781523552817591 0.31215297245289481 0 0.43298436918619881 0.33903622913929549 0 0.42781523552817591 0.31215297245289481 0 0.43298436918619881 0.33903622913929549 0 0.41357021602424721 0.32279281759874212 0 0.43298436918619881 0.33903622913929549 0 0.41357021602424721 0.32279281759874212 0 0.40869055031553031 0.33881917925707022 0 0.40869055031553031 0.33881917925707022 0 0.39369601167170543 0.33564153172070438 0 0.39209274976778918 0.34814598654190299 0 0.40869055031553031 0.33881917925707022 0 0.39369601167170543 0.33564153172070438 0 0.3956366020903157 0.32248231082130752 0 0.39369601167170543 0.33564153172070438 0 0.3956366020903157 0.32248231082130752 0 0.38362385659697051 0.32926172455430031 0 0.39369601167170543 0.33564153172070438 0 0.38635485741833753 0.33883185827426582 0 0.39209274976778918 0.34814598654190299 0 0.41357021602424721 0.32279281759874212 0 0.40869055031553031 0.33881917925707022 0 0.3956366020903157 0.32248231082130752 0 0.4027243230010164 0.30147339632314252 0 0.41357021602424721 0.32279281759874212 0 0.3956366020903157 0.32248231082130752 0 0.3956366020903157 0.32248231082130752 0 0.38754735899376969 0.31282171123814728 0 0.38479800915553353 0.32074741934569512 0 0.38754735899376969 0.31282171123814728 0 0.38479800915553353 0.32074741934569512 0 0.37917338616632867 0.3168755173424983 0 0.3956366020903157 0.32248231082130752 0 0.38479800915553353 0.32074741934569512 0 0.38362385659697051 0.32926172455430031 0 0.38479800915553353 0.32074741934569512 0 0.37832625022041982 0.32264150287239662 0 0.38362385659697051 0.32926172455430031 0 0.37577016905582622 0.32787937856968757 0 0.37832625022041982 0.32264150287239662 0 0.38362385659697051 0.32926172455430031 0 0.37577016905582622 0.32787937856968757 0 0.37506056064123422 0.32471797871916308 0 0.37832625022041982 0.32264150287239662 0 0.37368960646642962 0.31911015363466272 0 0.37506056064123422 0.32471797871916308 0 0.37832625022041982 0.32264150287239662 0 0.37695808612291098 0.31120865645681561 0 0.38754735899376969 0.31282171123814728 0 0.37917338616632867 0.3168755173424983 0 0.38479800915553353 0.32074741934569512 0 0.37832625022041982 0.32264150287239662 0 0.37917338616632867 0.3168755173424983 0 0.37368960646642962 0.31911015363466272 0 0.37832625022041982 0.32264150287239662 0 0.37917338616632867 0.3168755173424983 0 0.37499251130121058 0.31593455150060828 0 0.37368960646642962 0.31911015363466272 0 0.37917338616632867 0.3168755173424983 0 0.37499251130121058 0.31593455150060828 0 0.37695808612291098 0.31120865645681561 0 0.37917338616632867 0.3168755173424983 0 0.38635485741833753 0.33883185827426582 0 0.3795813787571668 0.3363772241379393 0 0.38278029029805521 0.34473282441648212 0 0.39369601167170543 0.33564153172070438 0 0.38635485741833753 0.33883185827426582 0 0.38362385659697051 0.32926172455430031 0 0.38635485741833753 0.33883185827426582 0 0.38362385659697051 0.32926172455430031 0 0.3795813787571668 0.3363772241379393 0 0.37577016905582622 0.32787937856968757 0 0.38362385659697051 0.32926172455430031 0 0.37868435463470768 0.3315773541462857 0 0.38362385659697051 0.32926172455430031 0 0.37868435463470768 0.3315773541462857 0 0.3795813787571668 0.3363772241379393 0 0.37577016905582622 0.32787937856968757 0 0.37868435463470768 0.3315773541462857 0 0.375263113682131 0.33313320718557798 0 0.37868435463470768 0.3315773541462857 0 0.375263113682131 0.33313320718557798 0 0.3795813787571668 0.3363772241379393 0 0.37369311900952262 0.33836265764115908 0 0.3795813787571668 0.3363772241379393 0 0.37670219357667811 0.34177383067972761 0 0.3795813787571668 0.3363772241379393 0 0.37670219357667811 0.34177383067972761 0 0.38278029029805521 0.34473282441648212 0 0.37369311900952262 0.33836265764115908 0 0.375263113682131 0.33313320718557798 0 0.3795813787571668 0.3363772241379393 0 0.3809821990389497 0.35490418517770578 0 0.39056259575344082 0.36548629952090861 0 0.39209274976778918 0.34814598654190299 0 0.37486749369974542 0.34694596905823039 0 0.37670219357667811 0.34177383067972761 0 0.38278029029805521 0.34473282441648212 0 0.37486749369974542 0.34694596905823039 0 0.38278029029805521 0.34473282441648212 0 0.3809821990389497 0.35490418517770578 0 0.38278029029805521 0.34473282441648212 0 0.3809821990389497 0.35490418517770578 0 0.39209274976778918 0.34814598654190299 0 0.38635485741833753 0.33883185827426582 0 0.38278029029805521 0.34473282441648212 0 0.39209274976778918 0.34814598654190299 0 0.37228166628853332 0.35471301169251829 0 0.37486749369974542 0.34694596905823039 0 0.3809821990389497 0.35490418517770578 0 0.37414389550204002 0.36898578533419818 0 0.3809821990389497 0.35490418517770578 0 0.39056259575344082 0.36548629952090861 0 0.37414389550204002 0.36898578533419818 0 0.39056259575344082 0.36548629952090861 0 0.40101385701800268 0.38518895784325291 0 0.37414389550204002 0.36898578533419818 0 0.37228166628853332 0.35471301169251829 0 0.3809821990389497 0.35490418517770578 0 0.39056259575344082 0.36548629952090861 0 0.40181680918128981 0.35947395412181382 0 0.40101385701800268 0.38518895784325291 0 0.39056259575344082 0.36548629952090861 0 0.40181680918128981 0.35947395412181382 0 0.39209274976778918 0.34814598654190299 0 0.40869055031553031 0.33881917925707022 0 0.40181680918128981 0.35947395412181382 0 0.39209274976778918 0.34814598654190299 0 0.40101385701800268 0.38518895784325291 0 0.38530342098431941 0.41064856824057122 0 0.40101385701800268 0.38518895784325291 0 0.38530342098431941 0.41064856824057122 0 0.41521715527738928 0.40390661881175682 0 0.3736470799201031 0.39378130610698531 0 0.37414389550204002 0.36898578533419818 0 0.40101385701800268 0.38518895784325291 0 0.3736470799201031 0.39378130610698531 0 0.40101385701800268 0.38518895784325291 0 0.38530342098431941 0.41064856824057122 0 0.36959298495063608 0.43610817863788948 0 0.38530342098431941 0.41064856824057122 0 0.36959298495063608 0.43610817863788948 0 0.38530342098431941 0.41064856824057122 0 0.3889231515195431 0.43141286456833011 0 0.3889231515195431 0.43141286456833011 0 0.40362265567455102 0.42304679086704539 0 0.39942544658573009 0.43872588670818857 0 0.40362265567455102 0.42304679086704539 0 0.41248490446316177 0.43293377153942381 0 0.39942544658573009 0.43872588670818857 0 0.38530342098431941 0.41064856824057122 0 0.3889231515195431 0.43141286456833011 0 0.40362265567455102 0.42304679086704539 0 0.38530342098431941 0.41064856824057122 0 0.40362265567455102 0.42304679086704539 0 0.41521715527738928 0.40390661881175682 0 0.40362265567455102 0.42304679086704539 0 0.42233359500988371 0.42307221464191669 0 0.41521715527738928 0.40390661881175682 0 0.40362265567455102 0.42304679086704539 0 0.41248490446316177 0.43293377153942381 0 0.42233359500988371 0.42307221464191669 0 0.41248490446316177 0.43293377153942381 0 0.42233359500988371 0.42307221464191669 0 0.42326813014219627 0.43909650749986368 0 0.42233359500988371 0.42307221464191669 0 0.43681876433844857 0.43497208046478802 0 0.42326813014219627 0.43909650749986368 0 0.42233359500988371 0.42307221464191669 0 0.43681876433844857 0.43497208046478802 0 0.43655617137350622 0.42038510460191503 0 0.42233359500988371 0.42307221464191669 0 0.42830887421762198 0.41018013153495869 0 0.41521715527738928 0.40390661881175682 0 0.42233359500988371 0.42307221464191669 0 0.42830887421762198 0.41018013153495869 0 0.43655617137350622 0.42038510460191503 0 0.42830887421762198 0.41018013153495869 0 0.43655617137350622 0.42038510460191503 0 0.439625884597032 0.40642404903869822 0 0.42978568865087441 0.39901034440009059 0 0.42344095457037051 0.38268701701273461 0 0.4433226365022459 0.39280274251209668 0 0.42978568865087441 0.39901034440009059 0 0.41521715527738928 0.40390661881175682 0 0.42344095457037051 0.38268701701273461 0 0.42830887421762198 0.41018013153495869 0 0.42978568865087441 0.39901034440009059 0 0.439625884597032 0.40642404903869822 0 0.42830887421762198 0.41018013153495869 0 0.42978568865087441 0.39901034440009059 0 0.41521715527738928 0.40390661881175682 0 0.4167242930516859 0.35972934744593471 0 0.40101385701800268 0.38518895784325291 0 0.42344095457037051 0.38268701701273461 0 0.40101385701800268 0.38518895784325291 0 0.41521715527738928 0.40390661881175682 0 0.42344095457037051 0.38268701701273461 0 0.43815350284422228 0.36591948582569622 0 0.42344095457037051 0.38268701701273461 0 0.4433226365022459 0.39280274251209668 0 0.43815350284422228 0.36591948582569622 0 0.4433226365022459 0.39280274251209668 0 0.43815350284422228 0.36591948582569622 0 0.4433226365022459 0.39280274251209668 0 0.45848938469160699 0.38276388730883248 0 0.4433226365022459 0.39280274251209668 0 0.4587292321942566 0.40377894109977869 0 0.44849177016026981 0.41968599919849731 0 0.4433226365022459 0.39280274251209668 0 0.44849177016026981 0.41968599919849731 0 0.42978568865087441 0.39901034440009059 0 0.4433226365022459 0.39280274251209668 0 0.439625884597032 0.40642404903869822 0 0.4433226365022459 0.39280274251209668 0 0.4587292321942566 0.40377894109977869 0 0.45848938469160699 0.38276388730883248 0 0.4587292321942566 0.40377894109977869 0 0.45848938469160699 0.38276388730883248 0 0.47720201034463561 0.39055994944820821 0 0.46972057754862501 0.36630584452178799 0 0.45848938469160699 0.38276388730883248 0 0.47720201034463561 0.39055994944820821 0 0.46972057754862501 0.36630584452178799 0 0.47720201034463561 0.39055994944820821 0 0.5 0.37670548581833618 0 0.47720201034463561 0.39055994944820821 0 0.5 0.40420347785375749 0 0.47329291580914951 0.41490179660840648 0 0.4587292321942566 0.40377894109977869 0 0.47720201034463561 0.39055994944820821 0 0.47329291580914951 0.41490179660840648 0 0.47720201034463561 0.39055994944820821 0 0.5 0.40420347785375749 0 0.5 0.37670548581833618 0 0.48546521128148462 0.42572005307568972 0 0.49999999999999828 0.43170146988917901 0 0.48502495584706629 0.44181750450007778 0 0.49999999999999828 0.43170146988917901 0 0.48502495584706629 0.44181750450007778 0 0.5 0.40420347785375749 0 0.48546521128148462 0.42572005307568972 0 0.47329291580914951 0.41490179660840648 0 0.5 0.40420347785375749 0 0.48546521128148462 0.42572005307568972 0 0.49999999999999828 0.43170146988917901 0 0.48546521128148462 0.42572005307568972 0 0.47462076711180717 0.43403653248997731 0 0.48502495584706629 0.44181750450007778 0 0.47329291580914951 0.41490179660840648 0 0.47462076711180717 0.43403653248997731 0 0.45927084092720188 0.43580976915473651 0 0.48546521128148462 0.42572005307568972 0 0.47329291580914951 0.41490179660840648 0 0.47462076711180717 0.43403653248997731 0 0.45927084092720188 0.43580976915473651 0 0.44849177016026981 0.41968599919849731 0 0.47329291580914951 0.41490179660840648 0 0.45927084092720188 0.43580976915473651 0 0.44849177016026981 0.41968599919849731 0 0.45927084092720188 0.43580976915473651 0 0.44849177016026981 0.41968599919849731 0 0.45165089640657707 0.43611575462809582 0 0.4587292321942566 0.40377894109977869 0 0.47329291580914951 0.41490179660840648 0 0.44849177016026981 0.41968599919849731 0 0.4433226365022459 0.39280274251209668 0 0.44849177016026981 0.41968599919849731 0 0.439625884597032 0.40642404903869822 0 0.43655617137350622 0.42038510460191503 0 0.44849177016026981 0.41968599919849731 0 0.439625884597032 0.40642404903869822 0 0.44849177016026981 0.41968599919849731 0 0.439625884597032 0.40642404903869822 0 0.44849177016026981 0.41968599919849731 0 0.45165089640657707 0.43611575462809582 0 0.44386952542921521 0.4295111469185629 0 0.44849177016026981 0.41968599919849731 0 0.45165089640657707 0.43611575462809582 0 0.45165089640657707 0.43611575462809582 0 0.44386952542921521 0.4295111469185629 0 0.44519082659473158 0.43782150968735878 0 0.43655617137350622 0.42038510460191503 0 0.44849177016026981 0.41968599919849731 0 0.44386952542921521 0.4295111469185629 0 0.43681876433844857 0.43497208046478802 0 0.43655617137350622 0.42038510460191503 0 0.44386952542921521 0.4295111469185629 0 0.43681876433844857 0.43497208046478802 0 0.44386952542921521 0.4295111469185629 0 0.44519082659473158 0.43782150968735878 0 0.43681876433844857 0.43497208046478802 0 0.44519082659473158 0.43782150968735878 0 0.44362096681603608 0.44566090358066651 0 0.43681876433844857 0.43497208046478802 0 0.44362096681603608 0.44566090358066651 0 0.43343701099378978 0.44857281610427868 0 0.44362096681603608 0.44566090358066651 0 0.44110505044236059 0.45564825146568327 0 0.43343701099378978 0.44857281610427868 0 0.44362096681603608 0.44566090358066651 0 0.45255374853073171 0.45216262504332899 0 0.45221828903371142 0.44335246171580328 0 0.44362096681603608 0.44566090358066651 0 0.45255374853073171 0.45216262504332899 0 0.44110505044236059 0.45564825146568327 0 0.44519082659473158 0.43782150968735878 0 0.44362096681603608 0.44566090358066651 0 0.45221828903371142 0.44335246171580328 0 0.45165089640657707 0.43611575462809582 0 0.44519082659473158 0.43782150968735878 0 0.45221828903371142 0.44335246171580328 0 0.45255374853073171 0.45216262504332899 0 0.44518446721829791 0.46873079822848901 0 0.44110505044236059 0.45564825146568327 0 0.44518446721829791 0.46873079822848901 0 0.44110505044236059 0.45564825146568327 0 0.43072905865294731 0.46311411437165317 0 0.47284597636140308 0.45611600571247141 0 0.46302896313844299 0.47272331085799019 0 0.45255374853073171 0.45216262504332899 0 0.44518446721829791 0.46873079822848901 0 0.47004991169413368 0.45193353911097589 0 0.47004991169413368 0.45193353911097589 0 0.47284597636140308 0.45611600571247141 0 0.46302896313844299 0.47272331085799019 0 0.44518446721829791 0.46873079822848901 0 0.47004991169413368 0.45193353911097589 0 0.46302896313844299 0.47272331085799019 0 0.44518446721829791 0.46873079822848901 0 0.47004991169413368 0.45193353911097589 0 0.45927084092720188 0.43580976915473651 0 0.47004991169413368 0.45193353911097589 0 0.45927084092720188 0.43580976915473651 0 0.45930684530103161 0.44617181272829648 0 0.47004991169413368 0.45193353911097589 0 0.47462076711180717 0.43403653248997731 0 0.45927084092720188 0.43580976915473651 0 0.47004991169413368 0.45193353911097589 0 0.45255374853073171 0.45216262504332899 0 0.45930684530103161 0.44617181272829648 0 0.47004991169413368 0.45193353911097589 0 0.45927084092720188 0.43580976915473651 0 0.45221828903371142 0.44335246171580328 0 0.45930684530103161 0.44617181272829648 0 0.45927084092720188 0.43580976915473651 0 0.45165089640657707 0.43611575462809582 0 0.45221828903371142 0.44335246171580328 0 0.45255374853073171 0.45216262504332899 0 0.45221828903371142 0.44335246171580328 0 0.45930684530103161 0.44617181272829648 0 0.47462076711180717 0.43403653248997731 0 0.47004991169413368 0.45193353911097589 0 0.48502495584706629 0.44181750450007778 0 0.48189680466807888 0.45106209462173341 0 0.47450081081676521 0.45331654521044668 0 0.48502495584706629 0.44181750450007778 0 0.47004991169413368 0.45193353911097589 0 0.48502495584706629 0.44181750450007778 0 0.47004991169413368 0.45193353911097589 0 0.47450081081676521 0.45331654521044668 0 0.48502495584706629 0.44181750450007778 0 0.47284597636140308 0.45611600571247141 0 0.48050552008400071 0.46757346096286262 0 0.46302896313844299 0.47272331085799019 0 0.47004991169413368 0.45193353911097589 0 0.47284597636140308 0.45611600571247141 0 0.47004991169413368 0.45193353911097589 0 0.47450081081676521 0.45331654521044668 0 0.47284597636140308 0.45611600571247141 0 0.47450081081676521 0.45331654521044668 0 0.47284597636140308 0.45611600571247141 0 0.47951191807974908 0.45654698881850991 0 0.47450081081676521 0.45331654521044668 0 0.47284597636140308 0.45611600571247141 0 0.47284597636140308 0.45611600571247141 0 0.48050552008400071 0.46757346096286262 0 0.47284597636140308 0.45611600571247141 0 0.48050552008400071 0.46757346096286262 0 0.47951191807974908 0.45654698881850991 0 0.48189680466807888 0.45106209462173341 0 0.47951191807974908 0.45654698881850991 0 0.4878104784684959 0.4546668375850359 0 0.48050552008400071 0.46757346096286262 0 0.47951191807974908 0.45654698881850991 0 0.4878104784684959 0.4546668375850359 0 0.48189680466807888 0.45106209462173341 0 0.47450081081676521 0.45331654521044668 0 0.47951191807974908 0.45654698881850991 0 0.48050552008400071 0.46757346096286262 0 0.4878104784684959 0.4546668375850359 0 0.49999999999999928 0.46182898591187349 0 0.48050552008400071 0.46757346096286262 0 0.49999999999999928 0.46182898591187349 0 0.49999999999999828 0.43170146988917901 0 0.4878104784684959 0.4546668375850359 0 0.49999999999999928 0.46182898591187349 0 0.49999999999999828 0.43170146988917901 0 0.4878104784684959 0.4546668375850359 0 0.48502495584706629 0.44181750450007778 0 0.48189680466807888 0.45106209462173341 0 0.4878104784684959 0.4546668375850359 0 0.48502495584706629 0.44181750450007778 0 0.49999999999999928 0.46182898591187349 0 0.5 0.5 0 0.49753071700976492 0.4930404390193398 0 0.5 0.5 0 0.47501141284236448 0.48698608464618232 0 0.44690499747156931 0.4999999999999995 0 0.5 0.5 0 0.49753071700976492 0.4930404390193398 0 0.47501141284236448 0.48698608464618232 0 0.49753071700976492 0.4930404390193398 0 0.48901811854688337 0.4803069499911008 0 0.47501141284236448 0.48698608464618232 0 0.49753071700976492 0.4930404390193398 0 0.48901811854688337 0.4803069499911008 0 0.48050552008400071 0.46757346096286262 0 0.49999999999999928 0.46182898591187349 0 0.48901811854688337 0.4803069499911008 0 0.49999999999999928 0.46182898591187349 0 0.49753071700976492 0.4930404390193398 0 0.48901811854688337 0.4803069499911008 0 0.48050552008400071 0.46757346096286262 0 0.48901811854688337 0.4803069499911008 0 0.48050552008400071 0.46757346096286262 0 0.46302896313844299 0.47272331085799019 0 0.48901811854688337 0.4803069499911008 0 0.47689100365292297 0.47689745161453417 0 0.47501141284236448 0.48698608464618232 0 0.48050552008400071 0.46757346096286262 0 0.47689100365292297 0.47689745161453417 0 0.46302896313844299 0.47272331085799019 0 0.48050552008400071 0.46757346096286262 0 0.48901811854688337 0.4803069499911008 0 0.47689100365292297 0.47689745161453417 0 0.47689100365292297 0.47689745161453417 0 0.47501141284236448 0.48698608464618232 0 0.46302896313844299 0.47272331085799019 0 0.47501141284236448 0.48698608464618232 0 0.45496698030500621 0.48636165542899479 0 0.44690499747156931 0.4999999999999995 0 0.47501141284236448 0.48698608464618232 0 0.45496698030500621 0.48636165542899479 0 0.46302896313844299 0.47272331085799019 0 0.45496698030500621 0.48636165542899479 0 0.46302896313844299 0.47272331085799019 0 0.46302896313844299 0.47272331085799019 0 0.43620850627812668 0.48062654530969717 0 0.44518446721829791 0.46873079822848901 0 0.46302896313844299 0.47272331085799019 0 0.43620850627812668 0.48062654530969717 0 0.45496698030500621 0.48636165542899479 0 0.46302896313844299 0.47272331085799019 0 0.43620850627812668 0.48062654530969717 0 0.45496698030500621 0.48636165542899479 0 0.44690499747156931 0.4999999999999995 0 0.43620850627812668 0.48062654530969717 0 0.45496698030500621 0.48636165542899479 0 0.44690499747156931 0.4999999999999995 0 0.42031902274246069 0.48552805734600057 0 0.41743852268843429 0.5 0 0.43620850627812668 0.48062654530969717 0 0.44690499747156931 0.4999999999999995 0 0.41743852268843429 0.5 0 0.43620850627812668 0.48062654530969717 0 0.42031902274246069 0.48552805734600057 0 0.41743852268843429 0.5 0 0.40134209412993838 0.48520307466421098 0 0.42031902274246069 0.48552805734600057 0 0.40973563488985532 0.47579104778557152 0 0.40134209412993838 0.48520307466421098 0 0.42031902274246069 0.48552805734600057 0 0.40973563488985532 0.47579104778557152 0 0.41789473538963601 0.46705380048502582 0 0.44518446721829791 0.46873079822848901 0 0.42031902274246069 0.48552805734600057 0 0.43072905865294731 0.46311411437165317 0 0.44518446721829791 0.46873079822848901 0 0.42031902274246069 0.48552805734600057 0 0.43620850627812668 0.48062654530969717 0 0.44518446721829791 0.46873079822848901 0 0.42031902274246069 0.48552805734600057 0 0.42031902274246069 0.48552805734600057 0 0.43072905865294731 0.46311411437165317 0 0.41789473538963601 0.46705380048502582 0 0.44110505044236059 0.45564825146568327 0 0.43072905865294731 0.46311411437165317 0 0.43343701099378978 0.44857281610427868 0 0.43072905865294731 0.46311411437165317 0 0.43343701099378978 0.44857281610427868 0 0.42053980660522761 0.45341513910658388 0 0.43072905865294731 0.46311411437165317 0 0.41789473538963601 0.46705380048502582 0 0.42053980660522761 0.45341513910658388 0 0.43681876433844857 0.43497208046478802 0 0.43343701099378978 0.44857281610427868 0 0.42326813014219627 0.43909650749986368 0 0.43343701099378978 0.44857281610427868 0 0.42326813014219627 0.43909650749986368 0 0.42053980660522761 0.45341513910658388 0 0.41248490446316177 0.43293377153942381 0 0.42326813014219627 0.43909650749986368 0 0.41215324011006321 0.44426916471351768 0 0.42326813014219627 0.43909650749986368 0 0.41215324011006321 0.44426916471351768 0 0.42053980660522761 0.45341513910658388 0 0.41215324011006321 0.44426916471351768 0 0.42053980660522761 0.45341513910658388 0 0.40575666434273311 0.45838443146516472 0 0.41248490446316177 0.43293377153942381 0 0.41215324011006321 0.44426916471351768 0 0.39942544658573009 0.43872588670818857 0 0.40973563488985532 0.47579104778557152 0 0.41789473538963601 0.46705380048502582 0 0.40575666434273311 0.45838443146516472 0 0.41789473538963601 0.46705380048502582 0 0.42053980660522761 0.45341513910658388 0 0.40575666434273311 0.45838443146516472 0 0.40973563488985532 0.47579104778557152 0 0.40575666434273311 0.45838443146516472 0 0.39457326129307041 0.46924519202038539 0 0.40575666434273311 0.45838443146516472 0 0.38748492612950952 0.44892285829301931 0 0.39457326129307041 0.46924519202038539 0 0.40575666434273311 0.45838443146516472 0 0.39942544658573009 0.43872588670818857 0 0.38748492612950952 0.44892285829301931 0 0.3889231515195431 0.43141286456833011 0 0.39942544658573009 0.43872588670818857 0 0.38748492612950952 0.44892285829301931 0 0.41215324011006321 0.44426916471351768 0 0.40575666434273311 0.45838443146516472 0 0.39942544658573009 0.43872588670818857 0 0.36980735363827261 0.46050290225189661 0 0.36959298495063608 0.43610817863788948 0 0.38748492612950952 0.44892285829301931 0 0.36959298495063608 0.43610817863788948 0 0.3889231515195431 0.43141286456833011 0 0.38748492612950952 0.44892285829301931 0 0.36980735363827261 0.46050290225189661 0 0.38748492612950952 0.44892285829301931 0 0.39457326129307041 0.46924519202038539 0 0.36980735363827261 0.46050290225189661 0 0.37801407526051067 0.48065415083330842 0 0.39457326129307041 0.46924519202038539 0 0.37801407526051067 0.48065415083330842 0 0.38797204790529932 0.5 0 0.40134209412993838 0.48520307466421098 0 0.41743852268843429 0.5 0 0.38797204790529932 0.5 0 0.40134209412993838 0.48520307466421098 0 0.40973563488985532 0.47579104778557152 0 0.40134209412993838 0.48520307466421098 0 0.39457326129307041 0.46924519202038539 0 0.37801407526051067 0.48065415083330842 0 0.40134209412993838 0.48520307466421098 0 0.39457326129307041 0.46924519202038539 0 0.33471388977496319 0.083869725553476451 0 0.32003772732572838 0.080925826065863432 0 0.34163206045391592 0.099703108374672819 0 0.32003772732572838 0.080925826065863432 0 0.34163206045391592 0.099703108374672819 0 0.33471388977496319 0.083869725553476451 0 0.34163206045391592 0.099703108374672819 0 0.35085433501378249 0.086695181415402722 0 0.33471388977496319 0.083869725553476451 0 0.34209731100959018 0.06531632876058778 0 0.3490795063897344 0.076610282135673974 0 0.33471388977496319 0.083869725553476451 0 0.34209731100959018 0.06531632876058778 0 0.32721969837032222 0.069259436753723466 0 0.33471388977496319 0.083869725553476451 0 0.32721969837032222 0.069259436753723466 0 0.32003772732572838 0.080925826065863432 0 0.31518448171420999 0.065085558788002928 0 0.32721969837032222 0.069259436753723466 0 0.32003772732572838 0.080925826065863432 0 0.32003772732572838 0.080925826065863432 0 0.31657863646219547 0.093324099257994786 0 0.34163206045391592 0.099703108374672819 0 0.32003772732572838 0.080925826065863432 0 0.31657863646219547 0.093324099257994786 0 0.30227411453462139 0.089652133027170247 0 0.33471388977496319 0.083869725553476451 0 0.32003772732572838 0.080925826065863432 0 0.31657863646219547 0.093324099257994786 0 0.32025759602694659 0.1047776340902011 0 0.34163206045391592 0.099703108374672819 0 0.31657863646219547 0.093324099257994786 0 0.32025759602694659 0.1047776340902011 0 0.30640852481201453 0.1024735992044304 0 0.32025759602694659 0.1047776340902011 0 0.31114536757858358 0.11742006929579971 0 0.30640852481201453 0.1024735992044304 0 0.32606950933900308 0.1158177097477945 0 0.31114536757858358 0.11742006929579971 0 0.3195478300457561 0.1332621056988223 0 0.32025759602694659 0.1047776340902011 0 0.32606950933900308 0.1158177097477945 0 0.31114536757858358 0.11742006929579971 0 0.33761965874988609 0.1186889285033586 0 0.34163206045391592 0.099703108374672819 0 0.34956654336434939 0.1234914401014125 0 0.32606950933900308 0.1158177097477945 0 0.33761965874988609 0.1186889285033586 0 0.34163206045391592 0.099703108374672819 0 0.32606950933900308 0.1158177097477945 0 0.33761965874988609 0.1186889285033586 0 0.33436770153514289 0.13112975471366969 0 0.33761965874988609 0.1186889285033586 0 0.34956654336434939 0.1234914401014125 0 0.33436770153514289 0.13112975471366969 0 0.32025759602694659 0.1047776340902011 0 0.32606950933900308 0.1158177097477945 0 0.34163206045391592 0.099703108374672819 0 0.34163206045391592 0.099703108374672819 0 0.35755874922647762 0.098360434014750309 0 0.36322639358210312 0.11848039068348271 0 0.34163206045391592 0.099703108374672819 0 0.36322639358210312 0.11848039068348271 0 0.34163206045391592 0.099703108374672819 0 0.35755874922647762 0.098360434014750309 0 0.35085433501378249 0.086695181415402722 0 0.34163206045391592 0.099703108374672819 0 0.34956654336434939 0.1234914401014125 0 0.36322639358210312 0.11848039068348271 0 0.36322639358210312 0.11848039068348271 0 0.37045299287494049 0.09679375479102828 0 0.38005682511468147 0.12140739343396729 0 0.35755874922647762 0.098360434014750309 0 0.36322639358210312 0.11848039068348271 0 0.37045299287494049 0.09679375479102828 0 0.35755874922647762 0.098360434014750309 0 0.37045299287494049 0.09679375479102828 0 0.35979627253246887 0.087956112087811941 0 0.37045299287494049 0.09679375479102828 0 0.36986657419494789 0.075759843690150083 0 0.37682589963749002 0.081332762740894418 0 0.37045299287494049 0.09679375479102828 0 0.35979627253246887 0.087956112087811941 0 0.36084916063519962 0.072180116148089279 0 0.37045299287494049 0.09679375479102828 0 0.36084916063519962 0.072180116148089279 0 0.36986657419494789 0.075759843690150083 0 0.37045299287494049 0.09679375479102828 0 0.36084916063519962 0.072180116148089279 0 0.35755874922647762 0.098360434014750309 0 0.35979627253246887 0.087956112087811941 0 0.35085433501378249 0.086695181415402722 0 0.35979627253246887 0.087956112087811941 0 0.35560274156159061 0.081403828627082772 0 0.36084916063519962 0.072180116148089279 0 0.33471388977496319 0.083869725553476451 0 0.35085433501378249 0.086695181415402722 0 0.3490795063897344 0.076610282135673974 0 0.35979627253246887 0.087956112087811941 0 0.35560274156159061 0.081403828627082772 0 0.35085433501378249 0.086695181415402722 0 0.35560274156159061 0.081403828627082772 0 0.35085433501378249 0.086695181415402722 0 0.3490795063897344 0.076610282135673974 0 0.34209731100959018 0.06531632876058778 0 0.3490795063897344 0.076610282135673974 0 0.36084916063519962 0.072180116148089279 0 0.36448270712015302 0.068442951443566186 0 0.36084916063519962 0.072180116148089279 0 0.35124532839545858 0.047566477505150237 0 0.35560274156159061 0.081403828627082772 0 0.3490795063897344 0.076610282135673974 0 0.36084916063519962 0.072180116148089279 0 0.36448270712015302 0.068442951443566186 0 0.36084916063519962 0.072180116148089279 0 0.36986657419494789 0.075759843690150083 0 0.36986657419494789 0.075759843690150083 0 0.37596532967213542 0.069868995675824025 0 0.37682589963749002 0.081332762740894418 0 0.36448270712015302 0.068442951443566186 0 0.36986657419494789 0.075759843690150083 0 0.37084641292541748 0.06878424193773866 0 0.36986657419494789 0.075759843690150083 0 0.37084641292541748 0.06878424193773866 0 0.37596532967213542 0.069868995675824025 0 0.36448270712015302 0.068442951443566186 0 0.37084641292541748 0.06878424193773866 0 0.37307104071443398 0.061065176941414383 0 0.37084641292541748 0.06878424193773866 0 0.37307104071443398 0.061065176941414383 0 0.37596532967213542 0.069868995675824025 0 0.36448270712015302 0.068442951443566186 0 0.37307104071443398 0.061065176941414383 0 0.37146335928247548 0.04052602251159599 0 0.36448270712015302 0.068442951443566186 0 0.37146335928247548 0.04052602251159599 0 0.35124532839545858 0.047566477505150237 0 0.36448270712015302 0.068442951443566186 0 0.37146335928247548 0.04052602251159599 0 0.37146335928247548 0.04052602251159599 0 0.35572529983931911 0.032753521421585163 0 0.36312657459820519 0.022962182453169309 0 0.37146335928247548 0.04052602251159599 0 0.35572529983931911 0.032753521421585163 0 0.35124532839545858 0.047566477505150237 0 0.35572529983931911 0.032753521421585163 0 0.35124532839545858 0.047566477505150237 0 0.3321968515854315 0.028027004478648001 0 0.36084916063519962 0.072180116148089279 0 0.35124532839545858 0.047566477505150237 0 0.34209731100959018 0.06531632876058778 0 0.36084916063519962 0.072180116148089279 0 0.35124532839545858 0.047566477505150237 0 0.36312657459820519 0.022962182453169309 0 0.35936362748920009 0.0091271431172253586 0 0.37844401144479839 0.012609093579625891 0 0.35936362748920009 0.0091271431172253586 0 0.37844401144479839 0.012609093579625891 0 0.36665723294200347 -0.001883505129568449 0 0.35936362748920009 0.0091271431172253586 0 0.36665723294200347 -0.001883505129568449 0 0.35531676971978082 -0.0033532784323768001 0 0.37146335928247548 0.04052602251159599 0 0.36312657459820519 0.022962182453169309 0 0.37844401144479839 0.012609093579625891 0 0.37146335928247548 0.04052602251159599 0 0.37844401144479839 0.012609093579625891 0 0.35572529983931911 0.032753521421585163 0 0.35063657493523293 0.0197951316358141 0 0.3321968515854315 0.028027004478648001 0 0.35572529983931911 0.032753521421585163 0 0.36312657459820519 0.022962182453169309 0 0.35063657493523293 0.0197951316358141 0 0.36312657459820519 0.022962182453169309 0 0.35063657493523293 0.0197951316358141 0 0.35936362748920009 0.0091271431172253586 0 0.35936362748920009 0.0091271431172253586 0 0.33689267375143878 0.0039255003288513873 0 0.35531676971978082 -0.0033532784323768001 0 0.35063657493523293 0.0197951316358141 0 0.35936362748920009 0.0091271431172253586 0 0.33689267375143878 0.0039255003288513873 0 0.33689267375143878 0.0039255003288513873 0 0.3321968515854315 0.028027004478648001 0 0.30352242257352219 0.0039185454548519476 0 0.35063657493523293 0.0197951316358141 0 0.33689267375143878 0.0039255003288513873 0 0.3321968515854315 0.028027004478648001 0 0.3321968515854315 0.028027004478648001 0 0.32406508202711942 0.05109974460068676 0 0.30086563814790429 0.035038583275740692 0 0.34209731100959018 0.06531632876058778 0 0.32721969837032222 0.069259436753723466 0 0.32406508202711942 0.05109974460068676 0 0.34209731100959018 0.06531632876058778 0 0.35124532839545858 0.047566477505150237 0 0.32406508202711942 0.05109974460068676 0 0.35124532839545858 0.047566477505150237 0 0.3321968515854315 0.028027004478648001 0 0.32406508202711942 0.05109974460068676 0 0.31518448171420999 0.065085558788002928 0 0.32721969837032222 0.069259436753723466 0 0.32406508202711942 0.05109974460068676 0 0.31518448171420999 0.065085558788002928 0 0.32406508202711942 0.05109974460068676 0 0.29882370077581188 0.062479238108283437 0 0.32406508202711942 0.05109974460068676 0 0.29882370077581188 0.062479238108283437 0 0.30086563814790429 0.035038583275740692 0 0.32406508202711942 0.05109974460068676 0 0.30086563814790429 0.035038583275740692 0 0.30086563814790429 0.035038583275740692 0 0.28350496565293731 0.043820562147367653 0 0.27766619426868899 0.018977421950794569 0 0.29882370077581188 0.062479238108283437 0 0.30086563814790429 0.035038583275740692 0 0.28350496565293731 0.043820562147367653 0 0.29882370077581188 0.062479238108283437 0 0.28350496565293731 0.043820562147367653 0 0.28339325744793759 0.061338593161917712 0 0.3321968515854315 0.028027004478648001 0 0.30086563814790429 0.035038583275740692 0 0.30352242257352219 0.0039185454548519476 0 0.30086563814790429 0.035038583275740692 0 0.27766619426868899 0.018977421950794569 0 0.30086563814790429 0.035038583275740692 0 0.30352242257352219 0.0039185454548519476 0 0.27766619426868899 0.018977421950794569 0 0.30352242257352219 0.0039185454548519476 0 0.27766619426868899 0.018977421950794569 0 0.27708695819087842 -0.0025378708656911609 0 0.27766619426868899 0.018977421950794569 0 0.25446675038947358 0.0029162606258486688 0 0.27766619426868899 0.018977421950794569 0 0.26047117107291767 -0.0019720443344692288 0 0.27708695819087842 -0.0025378708656911609 0 0.27766619426868899 0.018977421950794569 0 0.2600935707136679 0.019574361616358959 0 0.26464981823601458 0.038183209123269009 0 0.2600935707136679 0.019574361616358959 0 0.26464981823601458 0.038183209123269009 0 0.25044211127373811 0.032849993626191502 0 0.27766619426868899 0.018977421950794569 0 0.2600935707136679 0.019574361616358959 0 0.25446675038947358 0.0029162606258486688 0 0.27766619426868899 0.018977421950794569 0 0.25446675038947358 0.0029162606258486688 0 0.26047117107291767 -0.0019720443344692288 0 0.25446675038947358 0.0029162606258486688 0 0.26047117107291767 -0.0019720443344692288 0 0.28339325744793759 0.061338593161917712 0 0.2699795556074106 0.054659435659755229 0 0.26514968559830832 0.069915803624621298 0 0.28350496565293731 0.043820562147367653 0 0.28339325744793759 0.061338593161917712 0 0.2699795556074106 0.054659435659755229 0 0.28350496565293731 0.043820562147367653 0 0.27766619426868899 0.018977421950794569 0 0.26464981823601458 0.038183209123269009 0 0.28350496565293731 0.043820562147367653 0 0.2699795556074106 0.054659435659755229 0 0.26464981823601458 0.038183209123269009 0 0.26464981823601458 0.038183209123269009 0 0.25174039047255609 0.044464402284776217 0 0.2585751734657834 0.052327775232976027 0 0.26464981823601458 0.038183209123269009 0 0.25044211127373811 0.032849993626191502 0 0.25174039047255609 0.044464402284776217 0 0.25174039047255609 0.044464402284776217 0 0.25102243244437311 0.053297338652025752 0 0.2585751734657834 0.052327775232976027 0 0.2699795556074106 0.054659435659755229 0 0.26464981823601458 0.038183209123269009 0 0.2585751734657834 0.052327775232976027 0 0.2699795556074106 0.054659435659755229 0 0.2585751734657834 0.052327775232976027 0 0.26000268679747079 0.061003988239662958 0 0.2699795556074106 0.054659435659755229 0 0.26000268679747079 0.061003988239662958 0 0.26514968559830832 0.069915803624621298 0 0.2585751734657834 0.052327775232976027 0 0.26000268679747079 0.061003988239662958 0 0.2530174900015254 0.0600809219264858 0 0.25102243244437311 0.053297338652025752 0 0.2585751734657834 0.052327775232976027 0 0.2530174900015254 0.0600809219264858 0 0.24751669685985911 0.059618880130872708 0 0.25102243244437311 0.053297338652025752 0 0.2530174900015254 0.0600809219264858 0 0.24853219730195361 0.063845178725116872 0 0.2530174900015254 0.0600809219264858 0 0.25274476311700622 0.067427493409812952 0 0.2530174900015254 0.0600809219264858 0 0.25274476311700622 0.067427493409812952 0 0.26000268679747079 0.061003988239662958 0 0.2530174900015254 0.0600809219264858 0 0.25274476311700622 0.067427493409812952 0 0.25274476311700622 0.067427493409812952 0 0.25243039498113262 0.075895774732197205 0 0.24842415088314279 0.069033451464499671 0 0.25274476311700622 0.067427493409812952 0 0.25243039498113262 0.075895774732197205 0 0.25274476311700622 0.067427493409812952 0 0.25243039498113262 0.075895774732197205 0 0.26514968559830832 0.069915803624621298 0 0.25243039498113262 0.075895774732197205 0 0.26514968559830832 0.069915803624621298 0 0.26417250328098718 0.085299079350852347 0 0.25243039498113262 0.075895774732197205 0 0.26514968559830832 0.069915803624621298 0 0.26000268679747079 0.061003988239662958 0 0.25274476311700622 0.067427493409812952 0 0.26514968559830832 0.069915803624621298 0 0.25274476311700622 0.067427493409812952 0 0.26514968559830832 0.069915803624621298 0 0.25243039498113262 0.075895774732197205 0 0.26417250328098718 0.085299079350852347 0 0.25158482098595109 0.098673396421397969 0 0.25243039498113262 0.075895774732197205 0 0.25158482098595109 0.098673396421397969 0 0.26417250328098718 0.085299079350852347 0 0.27563544099652842 0.091217529053328833 0 0.26597619666038957 0.098681263799979324 0 0.26417250328098718 0.085299079350852347 0 0.27658940398852799 0.081360569412953818 0 0.27563544099652842 0.091217529053328833 0 0.26514968559830832 0.069915803624621298 0 0.26417250328098718 0.085299079350852347 0 0.27658940398852799 0.081360569412953818 0 0.27658940398852799 0.081360569412953818 0 0.27563544099652842 0.091217529053328833 0 0.28742128170162778 0.087331448045782731 0 0.28339325744793759 0.061338593161917712 0 0.26514968559830832 0.069915803624621298 0 0.29259370646201821 0.075420814845242989 0 0.26514968559830832 0.069915803624621298 0 0.27658940398852799 0.081360569412953818 0 0.29259370646201821 0.075420814845242989 0 0.28339325744793759 0.061338593161917712 0 0.26514968559830832 0.069915803624621298 0 0.26514968559830832 0.069915803624621298 0 0.29259370646201821 0.075420814845242989 0 0.29882370077581188 0.062479238108283437 0 0.28339325744793759 0.061338593161917712 0 0.29259370646201821 0.075420814845242989 0 0.27658940398852799 0.081360569412953818 0 0.29259370646201821 0.075420814845242989 0 0.28742128170162778 0.087331448045782731 0 0.27563544099652842 0.091217529053328833 0 0.28742128170162778 0.087331448045782731 0 0.29001374252644291 0.099006193890217781 0 0.28742128170162778 0.087331448045782731 0 0.30227411453462139 0.089652133027170247 0 0.29001374252644291 0.099006193890217781 0 0.29259370646201821 0.075420814845242989 0 0.28742128170162778 0.087331448045782731 0 0.30227411453462139 0.089652133027170247 0 0.32003772732572838 0.080925826065863432 0 0.29259370646201821 0.075420814845242989 0 0.30227411453462139 0.089652133027170247 0 0.32003772732572838 0.080925826065863432 0 0.29259370646201821 0.075420814845242989 0 0.32003772732572838 0.080925826065863432 0 0.29882370077581188 0.062479238108283437 0 0.29259370646201821 0.075420814845242989 0 0.32003772732572838 0.080925826065863432 0 0.29882370077581188 0.062479238108283437 0 0.31518448171420999 0.065085558788002928 0 0.32003772732572838 0.080925826065863432 0 0.29882370077581188 0.062479238108283437 0 0.29818169174329712 0.11066146566519899 0 0.31114536757858358 0.11742006929579971 0 0.294250496481684 0.12267566802032639 0 0.31114536757858358 0.11742006929579971 0 0.294250496481684 0.12267566802032639 0 0.30313841955192899 0.13260249050964579 0 0.29818169174329712 0.11066146566519899 0 0.31114536757858358 0.11742006929579971 0 0.30640852481201453 0.1024735992044304 0 0.30227411453462139 0.089652133027170247 0 0.30640852481201453 0.1024735992044304 0 0.29001374252644291 0.099006193890217781 0 0.29818169174329712 0.11066146566519899 0 0.30640852481201453 0.1024735992044304 0 0.29001374252644291 0.099006193890217781 0 0.31657863646219547 0.093324099257994786 0 0.30227411453462139 0.089652133027170247 0 0.30640852481201453 0.1024735992044304 0 0.29818169174329712 0.11066146566519899 0 0.29001374252644291 0.099006193890217781 0 0.28729541733308872 0.1128284558108848 0 0.29001374252644291 0.099006193890217781 0 0.28729541733308872 0.1128284558108848 0 0.27577858748266387 0.1072301355245756 0 0.29818169174329712 0.11066146566519899 0 0.28729541733308872 0.1128284558108848 0 0.294250496481684 0.12267566802032639 0 0.28729541733308872 0.1128284558108848 0 0.294250496481684 0.12267566802032639 0 0.28067449336876182 0.1220521091494646 0 0.28067449336876182 0.1220521091494646 0 0.26956705708048567 0.1198361090660386 0 0.27577858748266387 0.1072301355245756 0 0.28729541733308872 0.1128284558108848 0 0.28067449336876182 0.1220521091494646 0 0.27577858748266387 0.1072301355245756 0 0.26956705708048567 0.1198361090660386 0 0.27577858748266387 0.1072301355245756 0 0.26270963055581759 0.11098617864974181 0 0.27563544099652842 0.091217529053328833 0 0.27577858748266387 0.1072301355245756 0 0.26597619666038957 0.098681263799979324 0 0.27563544099652842 0.091217529053328833 0 0.29001374252644291 0.099006193890217781 0 0.27577858748266387 0.1072301355245756 0 0.27577858748266387 0.1072301355245756 0 0.26597619666038957 0.098681263799979324 0 0.26270963055581759 0.11098617864974181 0 0.25158482098595109 0.098673396421397969 0 0.25094552198087999 0.11589449234768209 0 0.25158482098595109 0.098673396421397969 0 0.26270963055581759 0.11098617864974181 0 0.25094552198087999 0.11589449234768209 0 0.26417250328098718 0.085299079350852347 0 0.26597619666038957 0.098681263799979324 0 0.25158482098595109 0.098673396421397969 0 0.26597619666038957 0.098681263799979324 0 0.25158482098595109 0.098673396421397969 0 0.26270963055581759 0.11098617864974181 0 0.25158482098595109 0.098673396421397969 0 0.26270963055581759 0.11098617864974181 0 0.25094552198087999 0.11589449234768209 0 0.25030622297580962 0.13311558827396619 0 0.26022612795132161 0.12333036834530881 0 0.25094552198087999 0.11589449234768209 0 0.25030622297580962 0.13311558827396619 0 0.26956705708048567 0.1198361090660386 0 0.26022612795132161 0.12333036834530881 0 0.26270963055581759 0.11098617864974181 0 0.26022612795132161 0.12333036834530881 0 0.26270963055581759 0.11098617864974181 0 0.25094552198087999 0.11589449234768209 0 0.26956705708048567 0.1198361090660386 0 0.26022612795132161 0.12333036834530881 0 0.26675796828336718 0.1380571931171293 0 0.26022612795132161 0.12333036834530881 0 0.25030622297580962 0.13311558827396619 0 0.26675796828336718 0.1380571931171293 0 0.25030622297580962 0.13311558827396619 0 0.26675796828336718 0.1380571931171293 0 0.25030622297580962 0.13311558827396619 0 0.26675796828336718 0.1380571931171293 0 0.25638724149227848 0.14295410589973731 0 0.25004344172447263 0.14019424959050239 0 0.25030622297580962 0.13311558827396619 0 0.25638724149227848 0.14295410589973731 0 0.25004344172447263 0.14019424959050239 0 0.25030622297580962 0.13311558827396619 0 0.26675796828336718 0.1380571931171293 0 0.28320971359092417 0.1429987979602943 0 0.26675796828336718 0.1380571931171293 0 0.28666270206708028 0.1324408374186071 0 0.28320971359092417 0.1429987979602943 0 0.28067449336876182 0.1220521091494646 0 0.26956705708048567 0.1198361090660386 0 0.26675796828336718 0.1380571931171293 0 0.28067449336876182 0.1220521091494646 0 0.26675796828336718 0.1380571931171293 0 0.28666270206708028 0.1324408374186071 0 0.26675796828336718 0.1380571931171293 0 0.27436529468354132 0.15433220537778311 0 0.26010861073109098 0.15248373785575309 0 0.26675796828336718 0.1380571931171293 0 0.27436529468354132 0.15433220537778311 0 0.28320971359092417 0.1429987979602943 0 0.26675796828336718 0.1380571931171293 0 0.26010861073109098 0.15248373785575309 0 0.25638724149227848 0.14295410589973731 0 0.2496536413094039 0.15044712256699261 0 0.25004344172447263 0.14019424959050239 0 0.25638724149227848 0.14295410589973731 0 0.24653130607993951 0.16237692388552691 0 0.2496536413094039 0.15044712256699261 0 0.26010861073109098 0.15248373785575309 0 0.2496536413094039 0.15044712256699261 0 0.26010861073109098 0.15248373785575309 0 0.25638724149227848 0.14295410589973731 0 0.24653130607993951 0.16237692388552691 0 0.25292738168467233 0.17649485219682931 0 0.26638423851283249 0.16867758561061549 0 0.24653130607993951 0.16237692388552691 0 0.26010861073109098 0.15248373785575309 0 0.26638423851283249 0.16867758561061549 0 0.24528107816237801 0.1907036486386274 0 0.25292738168467233 0.17649485219682931 0 0.26633433714882182 0.18577592949096661 0 0.25292738168467233 0.17649485219682931 0 0.26633433714882182 0.18577592949096661 0 0.26638423851283249 0.16867758561061549 0 0.27723266788850742 0.181048228772968 0 0.26638423851283249 0.16867758561061549 0 0.28391425324491287 0.17071999404263091 0 0.26633433714882182 0.18577592949096661 0 0.27723266788850742 0.181048228772968 0 0.26638423851283249 0.16867758561061549 0 0.27436529468354132 0.15433220537778311 0 0.26010861073109098 0.15248373785575309 0 0.26638423851283249 0.16867758561061549 0 0.27436529468354132 0.15433220537778311 0 0.26638423851283249 0.16867758561061549 0 0.28391425324491287 0.17071999404263091 0 0.27436529468354132 0.15433220537778311 0 0.28391425324491287 0.17071999404263091 0 0.29097703849613438 0.15773848939083679 0 0.28391425324491287 0.17071999404263091 0 0.2931647794093819 0.16879209887591959 0 0.29097703849613438 0.15773848939083679 0 0.2931647794093819 0.16879209887591959 0 0.29097703849613438 0.15773848939083679 0 0.30040947706207388 0.16512632217721829 0 0.28391425324491287 0.17071999404263091 0 0.28743664533084129 0.187357279865842 0 0.29743995151898561 0.17866098634217961 0 0.27723266788850742 0.181048228772968 0 0.28391425324491287 0.17071999404263091 0 0.28743664533084129 0.187357279865842 0 0.28391425324491287 0.17071999404263091 0 0.2931647794093819 0.16879209887591959 0 0.29743995151898561 0.17866098634217961 0 0.28743664533084129 0.187357279865842 0 0.29743995151898561 0.17866098634217961 0 0.29971043857951379 0.19298806906372529 0 0.29743995151898561 0.17866098634217961 0 0.30929675685570829 0.1858318568065235 0 0.29971043857951379 0.19298806906372529 0 0.29743995151898561 0.17866098634217961 0 0.3101655001798202 0.17563615506282959 0 0.30040947706207388 0.16512632217721829 0 0.29743995151898561 0.17866098634217961 0 0.3101655001798202 0.17563615506282959 0 0.30929675685570829 0.1858318568065235 0 0.30040947706207388 0.16512632217721829 0 0.30453528129870422 0.15487579661148021 0 0.32848741365188411 0.1727716232507491 0 0.29097703849613438 0.15773848939083679 0 0.30040947706207388 0.16512632217721829 0 0.30453528129870422 0.15487579661148021 0 0.2931647794093819 0.16879209887591959 0 0.29743995151898561 0.17866098634217961 0 0.30040947706207388 0.16512632217721829 0 0.29097703849613438 0.15773848939083679 0 0.30453528129870422 0.15487579661148021 0 0.29618567382365713 0.14404403195872001 0 0.30453528129870422 0.15487579661148021 0 0.30873747279203018 0.14281046260302349 0 0.29618567382365713 0.14404403195872001 0 0.30453528129870422 0.15487579661148021 0 0.30873747279203018 0.14281046260302349 0 0.32007589174333823 0.14676000458717811 0 0.30873747279203018 0.14281046260302349 0 0.30313841955192899 0.13260249050964579 0 0.3195478300457561 0.1332621056988223 0 0.31114536757858358 0.11742006929579971 0 0.30313841955192899 0.13260249050964579 0 0.3195478300457561 0.1332621056988223 0 0.30873747279203018 0.14281046260302349 0 0.30313841955192899 0.13260249050964579 0 0.29618567382365713 0.14404403195872001 0 0.294250496481684 0.12267566802032639 0 0.30313841955192899 0.13260249050964579 0 0.28666270206708028 0.1324408374186071 0 0.30313841955192899 0.13260249050964579 0 0.28666270206708028 0.1324408374186071 0 0.29618567382365713 0.14404403195872001 0 0.294250496481684 0.12267566802032639 0 0.28067449336876182 0.1220521091494646 0 0.28666270206708028 0.1324408374186071 0 0.28666270206708028 0.1324408374186071 0 0.28320971359092417 0.1429987979602943 0 0.29618567382365713 0.14404403195872001 0 0.27436529468354132 0.15433220537778311 0 0.29097703849613438 0.15773848939083679 0 0.28320971359092417 0.1429987979602943 0 0.29097703849613438 0.15773848939083679 0 0.28320971359092417 0.1429987979602943 0 0.29618567382365713 0.14404403195872001 0 0.28119448123381058 0.25405304303149878 0 0.26221447651104962 0.2479993693513689 0 0.28440499104296979 0.23439140090611099 0 0.26221447651104962 0.2479993693513689 0 0.26853130556434218 0.23400660741274959 0 0.28440499104296979 0.23439140090611099 0 0.26221447651104962 0.2479993693513689 0 0.28440499104296979 0.23439140090611099 0 0.2457442494512444 0.24022391879071339 0 0.26221447651104962 0.2479993693513689 0 0.25511338863332461 0.22468137717712711 0 0.26221447651104962 0.2479993693513689 0 0.25511338863332461 0.22468137717712711 0 0.26853130556434218 0.23400660741274959 0 0.26221447651104962 0.2479993693513689 0 0.25511338863332461 0.22468137717712711 0 0.25511338863332461 0.22468137717712711 0 0.25242827713160498 0.21540237912569379 0 0.25511338863332461 0.22468137717712711 0 0.2794126892910288 0.21617120911671081 0 0.25511338863332461 0.22468137717712711 0 0.26853130556434218 0.23400660741274959 0 0.2794126892910288 0.21617120911671081 0 0.26853130556434218 0.23400660741274959 0 0.2794126892910288 0.21617120911671081 0 0.28440499104296979 0.23439140090611099 0 0.25511338863332461 0.22468137717712711 0 0.2794126892910288 0.21617120911671081 0 0.26644318031571418 0.20408753099865831 0 0.2794126892910288 0.21617120911671081 0 0.26644318031571418 0.20408753099865831 0 0.27722953884408802 0.19656269719262509 0 0.24528107816237801 0.1907036486386274 0 0.26644318031571418 0.20408753099865831 0 0.25242827713160498 0.21540237912569379 0 0.25511338863332461 0.22468137717712711 0 0.26644318031571418 0.20408753099865831 0 0.25242827713160498 0.21540237912569379 0 0.26644318031571418 0.20408753099865831 0 0.25242827713160498 0.21540237912569379 0 0.24528107816237801 0.1907036486386274 0 0.26633433714882182 0.18577592949096661 0 0.26644318031571418 0.20408753099865831 0 0.26633433714882182 0.18577592949096661 0 0.26644318031571418 0.20408753099865831 0 0.27722953884408802 0.19656269719262509 0 0.27723266788850742 0.181048228772968 0 0.28743664533084129 0.187357279865842 0 0.27722953884408802 0.19656269719262509 0 0.26633433714882182 0.18577592949096661 0 0.27723266788850742 0.181048228772968 0 0.27722953884408802 0.19656269719262509 0 0.28743664533084129 0.187357279865842 0 0.27722953884408802 0.19656269719262509 0 0.28939512316467059 0.2005252056429343 0 0.28743664533084129 0.187357279865842 0 0.28939512316467059 0.2005252056429343 0 0.29971043857951379 0.19298806906372529 0 0.30929675685570829 0.1858318568065235 0 0.29971043857951379 0.19298806906372529 0 0.31162694501442678 0.19735313208654229 0 0.29971043857951379 0.19298806906372529 0 0.31162694501442678 0.19735313208654229 0 0.30371198994873311 0.20766104105629449 0 0.28939512316467059 0.2005252056429343 0 0.29971043857951379 0.19298806906372529 0 0.30371198994873311 0.20766104105629449 0 0.2794126892910288 0.21617120911671081 0 0.30371198994873311 0.20766104105629449 0 0.2794126892910288 0.21617120911671081 0 0.30371198994873311 0.20766104105629449 0 0.30659550557489001 0.220783432460853 0 0.2794126892910288 0.21617120911671081 0 0.27722953884408802 0.19656269719262509 0 0.28939512316467059 0.2005252056429343 0 0.2794126892910288 0.21617120911671081 0 0.28939512316467059 0.2005252056429343 0 0.30371198994873311 0.20766104105629449 0 0.30659550557489001 0.220783432460853 0 0.28440499104296979 0.23439140090611099 0 0.2794126892910288 0.21617120911671081 0 0.30659550557489001 0.220783432460853 0 0.28440499104296979 0.23439140090611099 0 0.30659550557489001 0.220783432460853 0 0.30328699804120918 0.24394477185791469 0 0.28440499104296979 0.23439140090611099 0 0.30659550557489001 0.220783432460853 0 0.30328699804120918 0.24394477185791469 0 0.31607427666693672 0.2331905299380852 0 0.28119448123381058 0.25405304303149878 0 0.30328699804120918 0.24394477185791469 0 0.28440499104296979 0.23439140090611099 0 0.3433555784436142 0.25004320974280247 0 0.34183468199228573 0.23727684870966961 0 0.33092809789354199 0.24744869965648561 0 0.34183468199228573 0.23727684870966961 0 0.3288410404878227 0.2348757256337824 0 0.33092809789354199 0.24744869965648561 0 0.3288410404878227 0.2348757256337824 0 0.33092809789354199 0.24744869965648561 0 0.31845456220733243 0.24449663650262579 0 0.31879452400631653 0.25919465198291952 0 0.30328699804120918 0.24394477185791469 0 0.31845456220733243 0.24449663650262579 0 0.30328699804120918 0.24394477185791469 0 0.31845456220733243 0.24449663650262579 0 0.31607427666693672 0.2331905299380852 0 0.3288410404878227 0.2348757256337824 0 0.31845456220733243 0.24449663650262579 0 0.31607427666693672 0.2331905299380852 0 0.3288410404878227 0.2348757256337824 0 0.31607427666693672 0.2331905299380852 0 0.32372534117020862 0.22390137225637691 0 0.30659550557489001 0.220783432460853 0 0.31607427666693672 0.2331905299380852 0 0.32372534117020862 0.22390137225637691 0 0.3288410404878227 0.2348757256337824 0 0.32372534117020862 0.22390137225637691 0 0.33832986301458301 0.22348170923356889 0 0.34183468199228573 0.23727684870966961 0 0.3288410404878227 0.2348757256337824 0 0.33832986301458301 0.22348170923356889 0 0.32372534117020862 0.22390137225637691 0 0.33832986301458301 0.22348170923356889 0 0.32878602010681029 0.20717546401559489 0 0.33832986301458301 0.22348170923356889 0 0.32878602010681029 0.20717546401559489 0 0.35089693608391498 0.21212819010674691 0 0.32878602010681029 0.20717546401559489 0 0.35097653463873058 0.19356749557033681 0 0.35089693608391498 0.21212819010674691 0 0.30659550557489001 0.220783432460853 0 0.32372534117020862 0.22390137225637691 0 0.32878602010681029 0.20717546401559489 0 0.31162694501442678 0.19735313208654229 0 0.30371198994873311 0.20766104105629449 0 0.32878602010681029 0.20717546401559489 0 0.30371198994873311 0.20766104105629449 0 0.30659550557489001 0.220783432460853 0 0.32878602010681029 0.20717546401559489 0 0.30659550557489001 0.220783432460853 0 0.32878602010681029 0.20717546401559489 0 0.32878602010681029 0.20717546401559489 0 0.31972446529152482 0.19052244909679969 0 0.3336272658304279 0.18895925974375941 0 0.31162694501442678 0.19735313208654229 0 0.32878602010681029 0.20717546401559489 0 0.31972446529152482 0.19052244909679969 0 0.30929675685570829 0.1858318568065235 0 0.31162694501442678 0.19735313208654229 0 0.31972446529152482 0.19052244909679969 0 0.32878602010681029 0.20717546401559489 0 0.3336272658304279 0.18895925974375941 0 0.35097653463873058 0.19356749557033681 0 0.32878602010681029 0.20717546401559489 0 0.35097653463873058 0.19356749557033681 0 0.3336272658304279 0.18895925974375941 0 0.35097653463873058 0.19356749557033681 0 0.35656535024169428 0.1804169243242798 0 0.35097653463873058 0.19356749557033681 0 0.35896651107905142 0.20360726904620211 0 0.35089693608391498 0.21212819010674691 0 0.35097653463873058 0.19356749557033681 0 0.36405518175537521 0.19484170215684679 0 0.35896651107905142 0.20360726904620211 0 0.35097653463873058 0.19356749557033681 0 0.36405518175537521 0.19484170215684679 0 0.35656535024169428 0.1804169243242798 0 0.36405518175537521 0.19484170215684679 0 0.35656535024169428 0.1804169243242798 0 0.38464328683150451 0.18806222539781059 0 0.36405518175537521 0.19484170215684679 0 0.36923798170140371 0.20928007436804161 0 0.38464328683150451 0.18806222539781059 0 0.36405518175537521 0.19484170215684679 0 0.36923798170140371 0.20928007436804161 0 0.35896651107905142 0.20360726904620211 0 0.36923798170140371 0.20928007436804161 0 0.36132702422268731 0.21787493872225441 0 0.35896651107905142 0.20360726904620211 0 0.36923798170140371 0.20928007436804161 0 0.36132702422268731 0.21787493872225441 0 0.37292139258550783 0.22672254500020811 0 0.36132702422268731 0.21787493872225441 0 0.35896651107905142 0.20360726904620211 0 0.35089693608391498 0.21212819010674691 0 0.34183468199228573 0.23727684870966961 0 0.33832986301458301 0.22348170923356889 0 0.35524969613090918 0.22837961108452459 0 0.36132702422268731 0.21787493872225441 0 0.35089693608391498 0.21212819010674691 0 0.35524969613090918 0.22837961108452459 0 0.33832986301458301 0.22348170923356889 0 0.35089693608391498 0.21212819010674691 0 0.35524969613090918 0.22837961108452459 0 0.36132702422268731 0.21787493872225441 0 0.35524969613090918 0.22837961108452459 0 0.37292139258550783 0.22672254500020811 0 0.35524969613090918 0.22837961108452459 0 0.37292139258550783 0.22672254500020811 0 0.36587213359177301 0.2378375665458646 0 0.37292139258550783 0.22672254500020811 0 0.36587213359177301 0.2378375665458646 0 0.3757768555661396 0.240133652284411 0 0.36587213359177301 0.2378375665458646 0 0.37169426656027921 0.24972740256563611 0 0.3757768555661396 0.240133652284411 0 0.36587213359177301 0.2378375665458646 0 0.37169426656027921 0.24972740256563611 0 0.36205361842742478 0.24882498742118489 0 0.36587213359177301 0.2378375665458646 0 0.36205361842742478 0.24882498742118489 0 0.35356337405553911 0.24205426642971811 0 0.35175757775775729 0.2532797976346674 0 0.36205361842742478 0.24882498742118489 0 0.35356337405553911 0.24205426642971811 0 0.35524969613090918 0.22837961108452459 0 0.36587213359177301 0.2378375665458646 0 0.35356337405553911 0.24205426642971811 0 0.34183468199228573 0.23727684870966961 0 0.35524969613090918 0.22837961108452459 0 0.35356337405553911 0.24205426642971811 0 0.3433555784436142 0.25004320974280247 0 0.34183468199228573 0.23727684870966961 0 0.35356337405553911 0.24205426642971811 0 0.3433555784436142 0.25004320974280247 0 0.35175757775775729 0.2532797976346674 0 0.35356337405553911 0.24205426642971811 0 0.33379856680907583 0.1437068241164389 0 0.32007589174333823 0.14676000458717811 0 0.33365817402274128 0.15789089208148979 0 0.33379856680907583 0.1437068241164389 0 0.33365817402274128 0.15789089208148979 0 0.34780073530519279 0.14835628742565241 0 0.33379856680907583 0.1437068241164389 0 0.34780073530519279 0.14835628742565241 0 0.34586764947947463 0.1362539899128139 0 0.33379856680907583 0.1437068241164389 0 0.33436770153514289 0.13112975471366969 0 0.34586764947947463 0.1362539899128139 0 0.34956654336434939 0.1234914401014125 0 0.33436770153514289 0.13112975471366969 0 0.34586764947947463 0.1362539899128139 0 0.33379856680907583 0.1437068241164389 0 0.33436770153514289 0.13112975471366969 0 0.3195478300457561 0.1332621056988223 0 0.32606950933900308 0.1158177097477945 0 0.33436770153514289 0.13112975471366969 0 0.3195478300457561 0.1332621056988223 0 0.30873747279203018 0.14281046260302349 0 0.3195478300457561 0.1332621056988223 0 0.32007589174333823 0.14676000458717811 0 0.30453528129870422 0.15487579661148021 0 0.32007589174333823 0.14676000458717811 0 0.33365817402274128 0.15789089208148979 0 0.33379856680907583 0.1437068241164389 0 0.3195478300457561 0.1332621056988223 0 0.32007589174333823 0.14676000458717811 0 0.30453528129870422 0.15487579661148021 0 0.33365817402274128 0.15789089208148979 0 0.30453528129870422 0.15487579661148021 0 0.32848741365188411 0.1727716232507491 0 0.33365817402274128 0.15789089208148979 0 0.30040947706207388 0.16512632217721829 0 0.32848741365188411 0.1727716232507491 0 0.3101655001798202 0.17563615506282959 0 0.30040947706207388 0.16512632217721829 0 0.32848741365188411 0.1727716232507491 0 0.3101655001798202 0.17563615506282959 0 0.31983557186529732 0.18171103000860481 0 0.32848741365188411 0.1727716232507491 0 0.3336272658304279 0.18895925974375941 0 0.31983557186529732 0.18171103000860481 0 0.32848741365188411 0.1727716232507491 0 0.3101655001798202 0.17563615506282959 0 0.30929675685570829 0.1858318568065235 0 0.31983557186529732 0.18171103000860481 0 0.30929675685570829 0.1858318568065235 0 0.31972446529152482 0.19052244909679969 0 0.31983557186529732 0.18171103000860481 0 0.31972446529152482 0.19052244909679969 0 0.3336272658304279 0.18895925974375941 0 0.31983557186529732 0.18171103000860481 0 0.32848741365188411 0.1727716232507491 0 0.34507730906385942 0.16855187839241309 0 0.35656535024169428 0.1804169243242798 0 0.3336272658304279 0.18895925974375941 0 0.32848741365188411 0.1727716232507491 0 0.35656535024169428 0.1804169243242798 0 0.32848741365188411 0.1727716232507491 0 0.35656535024169428 0.1804169243242798 0 0.32848741365188411 0.1727716232507491 0 0.33365817402274128 0.15789089208148979 0 0.34507730906385942 0.16855187839241309 0 0.33365817402274128 0.15789089208148979 0 0.34507730906385942 0.16855187839241309 0 0.36278106674677829 0.1609059875514994 0 0.34507730906385942 0.16855187839241309 0 0.35656535024169428 0.1804169243242798 0 0.36278106674677829 0.1609059875514994 0 0.33365817402274128 0.15789089208148979 0 0.36278106674677829 0.1609059875514994 0 0.35656535024169428 0.1804169243242798 0 0.37356219856206202 0.1741215612114578 0 0.38464328683150451 0.18806222539781059 0 0.35656535024169428 0.1804169243242798 0 0.38464328683150451 0.18806222539781059 0 0.35656535024169428 0.1804169243242798 0 0.37356219856206202 0.1741215612114578 0 0.36278106674677829 0.1609059875514994 0 0.36278106674677829 0.1609059875514994 0 0.36531512046589693 0.1378839500987098 0 0.37680076681991098 0.15092733218095339 0 0.36278106674677829 0.1609059875514994 0 0.34780073530519279 0.14835628742565241 0 0.36531512046589693 0.1378839500987098 0 0.34780073530519279 0.14835628742565241 0 0.34586764947947463 0.1362539899128139 0 0.36531512046589693 0.1378839500987098 0 0.33365817402274128 0.15789089208148979 0 0.36278106674677829 0.1609059875514994 0 0.34780073530519279 0.14835628742565241 0 0.34956654336434939 0.1234914401014125 0 0.34586764947947463 0.1362539899128139 0 0.36531512046589693 0.1378839500987098 0 0.34956654336434939 0.1234914401014125 0 0.36322639358210312 0.11848039068348271 0 0.36531512046589693 0.1378839500987098 0 0.36322639358210312 0.11848039068348271 0 0.36531512046589693 0.1378839500987098 0 0.38482072671029011 0.13725767299229241 0 0.36322639358210312 0.11848039068348271 0 0.38482072671029011 0.13725767299229241 0 0.36322639358210312 0.11848039068348271 0 0.38482072671029011 0.13725767299229241 0 0.38005682511468147 0.12140739343396729 0 0.38482072671029011 0.13725767299229241 0 0.39398634319161102 0.12556361147638159 0 0.38005682511468147 0.12140739343396729 0 0.38482072671029011 0.13725767299229241 0 0.39398634319161102 0.12556361147638159 0 0.40386822996399702 0.1370092008917044 0 0.39398634319161102 0.12556361147638159 0 0.40386822996399702 0.1370092008917044 0 0.40630256149234217 0.12337914253670321 0 0.38482072671029011 0.13725767299229241 0 0.40641505983847698 0.15603495530110209 0 0.38482072671029011 0.13725767299229241 0 0.40386822996399702 0.1370092008917044 0 0.40641505983847698 0.15603495530110209 0 0.38482072671029011 0.13725767299229241 0 0.39190395947081519 0.16392108302150901 0 0.40641505983847698 0.15603495530110209 0 0.36531512046589693 0.1378839500987098 0 0.38482072671029011 0.13725767299229241 0 0.37680076681991098 0.15092733218095339 0 0.38482072671029011 0.13725767299229241 0 0.37680076681991098 0.15092733218095339 0 0.39190395947081519 0.16392108302150901 0 0.36278106674677829 0.1609059875514994 0 0.39190395947081519 0.16392108302150901 0 0.36278106674677829 0.1609059875514994 0 0.37680076681991098 0.15092733218095339 0 0.39190395947081519 0.16392108302150901 0 0.37356219856206202 0.1741215612114578 0 0.36278106674677829 0.1609059875514994 0 0.39190395947081519 0.16392108302150901 0 0.37356219856206202 0.1741215612114578 0 0.39190395947081519 0.16392108302150901 0 0.38464328683150451 0.18806222539781059 0 0.4059128807594603 0.17981630131623391 0 0.39190395947081519 0.16392108302150901 0 0.38464328683150451 0.18806222539781059 0 0.39190395947081519 0.16392108302150901 0 0.42102685219485209 0.16693617849151851 0 0.40641505983847698 0.15603495530110209 0 0.4059128807594603 0.17981630131623391 0 0.39190395947081519 0.16392108302150901 0 0.42102685219485209 0.16693617849151851 0 0.42102685219485209 0.16693617849151851 0 0.40641505983847698 0.15603495530110209 0 0.41490094777653419 0.14712571815411829 0 0.39190395947081519 0.16392108302150901 0 0.42102685219485209 0.16693617849151851 0 0.4059128807594603 0.17981630131623391 0 0.42102685219485209 0.16693617849151851 0 0.42759287120751482 0.1799189573059411 0 0.4059128807594603 0.17981630131623391 0 0.42759287120751482 0.1799189573059411 0 0.42045703890892938 0.19185412915784311 0 0.42102685219485209 0.16693617849151851 0 0.42759287120751482 0.1799189573059411 0 0.45014974491888898 0.16995127396152809 0 0.42759287120751482 0.1799189573059411 0 0.42045703890892938 0.19185412915784311 0 0.43799329450951457 0.1898848624547933 0 0.42102685219485209 0.16693617849151851 0 0.45014974491888898 0.16995127396152809 0 0.42102685219485209 0.16693617849151851 0 0.43641214087317609 0.15776157540708571 0 0.42820809332857229 0.14540676379554701 0 0.42102685219485209 0.16693617849151851 0 0.43641214087317609 0.15776157540708571 0 0.45014974491888898 0.16995127396152809 0 0.43641214087317609 0.15776157540708571 0 0.42820809332857229 0.14540676379554701 0 0.44305345270963392 0.14224085277467549 0 0.42820809332857229 0.14540676379554701 0 0.43267139290449452 0.12562392175117529 0 0.41815906511665779 0.13368892679480551 0 0.42820809332857229 0.14540676379554701 0 0.43267139290449452 0.12562392175117529 0 0.44305345270963392 0.14224085277467549 0 0.43267139290449452 0.12562392175117529 0 0.41815906511665779 0.13368892679480551 0 0.41840244549433692 0.1204435227777134 0 0.41815906511665779 0.13368892679480551 0 0.41840244549433692 0.1204435227777134 0 0.40630256149234217 0.12337914253670321 0 0.40386822996399702 0.1370092008917044 0 0.41815906511665779 0.13368892679480551 0 0.40630256149234217 0.12337914253670321 0 0.40386822996399702 0.1370092008917044 0 0.41815906511665779 0.13368892679480551 0 0.41490094777653419 0.14712571815411829 0 0.42102685219485209 0.16693617849151851 0 0.42820809332857229 0.14540676379554701 0 0.41490094777653419 0.14712571815411829 0 0.40386822996399702 0.1370092008917044 0 0.40641505983847698 0.15603495530110209 0 0.41490094777653419 0.14712571815411829 0 0.42820809332857229 0.14540676379554701 0 0.41815906511665779 0.13368892679480551 0 0.41490094777653419 0.14712571815411829 0 0.39196586341458151 0.242441409442547 0 0.40329821407583749 0.23025496453590971 0 0.40866327585672191 0.24600766979752939 0 0.38129994004966872 0.25577407136566988 0 0.39196586341458151 0.242441409442547 0 0.40866327585672191 0.24600766979752939 0 0.38129994004966872 0.25577407136566988 0 0.39196586341458151 0.242441409442547 0 0.38106847269238292 0.24536179082341181 0 0.37169426656027921 0.24972740256563611 0 0.38106847269238292 0.24536179082341181 0 0.3757768555661396 0.240133652284411 0 0.37292139258550783 0.22672254500020811 0 0.3757768555661396 0.240133652284411 0 0.38460543787124563 0.238732418458795 0 0.38106847269238292 0.24536179082341181 0 0.3757768555661396 0.240133652284411 0 0.38460543787124563 0.238732418458795 0 0.39196586341458151 0.242441409442547 0 0.38106847269238292 0.24536179082341181 0 0.38460543787124563 0.238732418458795 0 0.39196586341458151 0.242441409442547 0 0.38460543787124563 0.238732418458795 0 0.38844350160088592 0.2284985707660753 0 0.37292139258550783 0.22672254500020811 0 0.38460543787124563 0.238732418458795 0 0.38844350160088592 0.2284985707660753 0 0.37292139258550783 0.22672254500020811 0 0.38844350160088592 0.2284985707660753 0 0.38369130631537601 0.21297307403445409 0 0.38844350160088592 0.2284985707660753 0 0.39679964264504158 0.21937630878092959 0 0.38369130631537601 0.21297307403445409 0 0.38844350160088592 0.2284985707660753 0 0.39679964264504158 0.21937630878092959 0 0.40329821407583749 0.23025496453590971 0 0.39196586341458151 0.242441409442547 0 0.38844350160088592 0.2284985707660753 0 0.40329821407583749 0.23025496453590971 0 0.39679964264504158 0.21937630878092959 0 0.40329821407583749 0.23025496453590971 0 0.41066806580544729 0.2160617609406458 0 0.39598296716959969 0.20626700748070109 0 0.40513352984814438 0.19492560706685999 0 0.41066806580544729 0.2160617609406458 0 0.39679964264504158 0.21937630878092959 0 0.39598296716959969 0.20626700748070109 0 0.41066806580544729 0.2160617609406458 0 0.39679964264504158 0.21937630878092959 0 0.39598296716959969 0.20626700748070109 0 0.38369130631537601 0.21297307403445409 0 0.36923798170140371 0.20928007436804161 0 0.37292139258550783 0.22672254500020811 0 0.38369130631537601 0.21297307403445409 0 0.36923798170140371 0.20928007436804161 0 0.38369130631537601 0.21297307403445409 0 0.38464328683150451 0.18806222539781059 0 0.39598296716959969 0.20626700748070109 0 0.38369130631537601 0.21297307403445409 0 0.38464328683150451 0.18806222539781059 0 0.39598296716959969 0.20626700748070109 0 0.38464328683150451 0.18806222539781059 0 0.40513352984814438 0.19492560706685999 0 0.4059128807594603 0.17981630131623391 0 0.38464328683150451 0.18806222539781059 0 0.40513352984814438 0.19492560706685999 0 0.40513352984814438 0.19492560706685999 0 0.42045703890892938 0.19185412915784311 0 0.42444067869502011 0.20693424997503959 0 0.4059128807594603 0.17981630131623391 0 0.40513352984814438 0.19492560706685999 0 0.42045703890892938 0.19185412915784311 0 0.42045703890892938 0.19185412915784311 0 0.42444067869502011 0.20693424997503959 0 0.43799329450951457 0.1898848624547933 0 0.42444067869502011 0.20693424997503959 0 0.44184419378540352 0.2076794424592901 0 0.43799329450951457 0.1898848624547933 0 0.42444067869502011 0.20693424997503959 0 0.4302098735549707 0.2206458244329694 0 0.44184419378540352 0.2076794424592901 0 0.42444067869502011 0.20693424997503959 0 0.41066806580544729 0.2160617609406458 0 0.4302098735549707 0.2206458244329694 0 0.40513352984814438 0.19492560706685999 0 0.42444067869502011 0.20693424997503959 0 0.41066806580544729 0.2160617609406458 0 0.41066806580544729 0.2160617609406458 0 0.41777320819135039 0.22984229758728861 0 0.4302098735549707 0.2206458244329694 0 0.40329821407583749 0.23025496453590971 0 0.41066806580544729 0.2160617609406458 0 0.41777320819135039 0.22984229758728861 0 0.4302098735549707 0.2206458244329694 0 0.43602661166377499 0.2362412682293889 0 0.44584438813649652 0.2203436080528294 0 0.41777320819135039 0.22984229758728861 0 0.4302098735549707 0.2206458244329694 0 0.43602661166377499 0.2362412682293889 0 0.43602661166377499 0.2362412682293889 0 0.43076425121212841 0.2486853010718087 0 0.40866327585672191 0.24600766979752939 0 0.43602661166377499 0.2362412682293889 0 0.40866327585672191 0.24600766979752939 0 0.41777320819135039 0.22984229758728861 0 0.43602661166377499 0.2362412682293889 0 0.40866327585672191 0.24600766979752939 0 0.41664462513020523 0.25422696758609492 0 0.43076425121212841 0.2486853010718087 0 0.40866327585672191 0.24600766979752939 0 0.40329821407583749 0.23025496453590971 0 0.41777320819135039 0.22984229758728861 0 0.40866327585672191 0.24600766979752939 0 0.45166362976964691 0.25106894999712381 0 0.45384283414141641 0.23962742592169059 0 0.47583181488482379 0.2451422378191761 0 0.45166362976964691 0.25106894999712381 0 0.47583181488482379 0.2451422378191761 0 0.45384283414141641 0.23962742592169059 0 0.47692141707070451 0.23056955077157251 0 0.45166362976964691 0.25106894999712381 0 0.43076425121212841 0.2486853010718087 0 0.45384283414141641 0.23962742592169059 0 0.43602661166377499 0.2362412682293889 0 0.43076425121212841 0.2486853010718087 0 0.45384283414141641 0.23962742592169059 0 0.43076425121212841 0.2486853010718087 0 0.45384283414141641 0.23962742592169059 0 0.43602661166377499 0.2362412682293889 0 0.46338994747082818 0.22647486666124839 0 0.43602661166377499 0.2362412682293889 0 0.44584438813649652 0.2203436080528294 0 0.46338994747082818 0.22647486666124839 0 0.43602661166377499 0.2362412682293889 0 0.45384283414141641 0.23962742592169059 0 0.46338994747082818 0.22647486666124839 0 0.44584438813649652 0.2203436080528294 0 0.46338994747082818 0.22647486666124839 0 0.4574246187180494 0.20998202225832771 0 0.45384283414141641 0.23962742592169059 0 0.46338994747082818 0.22647486666124839 0 0.47692141707070451 0.23056955077157251 0 0.46338994747082818 0.22647486666124839 0 0.4574246187180494 0.20998202225832771 0 0.47311107537994651 0.21060674662752529 0 0.4574246187180494 0.20998202225832771 0 0.46861366351278472 0.19789432193598561 0 0.47311107537994651 0.21060674662752529 0 0.44584438813649652 0.2203436080528294 0 0.4574246187180494 0.20998202225832771 0 0.44184419378540352 0.2076794424592901 0 0.4302098735549707 0.2206458244329694 0 0.44584438813649652 0.2203436080528294 0 0.44184419378540352 0.2076794424592901 0 0.4574246187180494 0.20998202225832771 0 0.44184419378540352 0.2076794424592901 0 0.45120510308892831 0.19507838461398491 0 0.44184419378540352 0.2076794424592901 0 0.43799329450951457 0.1898848624547933 0 0.45120510308892831 0.19507838461398491 0 0.4574246187180494 0.20998202225832771 0 0.45120510308892831 0.19507838461398491 0 0.46861366351278472 0.19789432193598561 0 0.45120510308892831 0.19507838461398491 0 0.46861366351278472 0.19789432193598561 0 0.45014974491888898 0.16995127396152809 0 0.46861366351278472 0.19789432193598561 0 0.48377650321145821 0.20030440734603891 0 0.47890777313388699 0.17818810929941131 0 0.46861366351278472 0.19789432193598561 0 0.48377650321145821 0.20030440734603891 0 0.47311107537994651 0.21060674662752529 0 0.48377650321145821 0.20030440734603891 0 0.5 0.19442179120654851 0 0.47890777313388699 0.17818810929941131 0 0.48377650321145821 0.20030440734603891 0 0.5 0.19442179120654851 0 0.49075328327788142 0.2167084650931079 0 0.5 0.19442179120654851 0 0.49075328327788142 0.2167084650931079 0 0.49999999999999339 0.2215116756214566 0 0.48377650321145821 0.20030440734603891 0 0.49075328327788142 0.2167084650931079 0 0.47311107537994651 0.21060674662752529 0 0.46338994747082818 0.22647486666124839 0 0.49075328327788142 0.2167084650931079 0 0.47311107537994651 0.21060674662752529 0 0.46338994747082818 0.22647486666124839 0 0.49075328327788142 0.2167084650931079 0 0.46338994747082818 0.22647486666124839 0 0.49075328327788142 0.2167084650931079 0 0.47692141707070451 0.23056955077157251 0 0.47692141707070451 0.23056955077157251 0 0.49999999999999339 0.2215116756214566 0 0.50000000000000067 0.2392155256412283 0 0.49075328327788142 0.2167084650931079 0 0.47692141707070451 0.23056955077157251 0 0.49999999999999339 0.2215116756214566 0 0.47692141707070451 0.23056955077157251 0 0.49999999999999339 0.2215116756214566 0 0.50000000000000067 0.2392155256412283 0 0.47583181488482379 0.2451422378191761 0 0.48341195364679568 0.26002408893105827 0 0.50000000000000067 0.2392155256412283 0 0.47583181488482379 0.2451422378191761 0 0.47692141707070451 0.23056955077157251 0 0.50000000000000067 0.2392155256412283 0 0.47583181488482379 0.2451422378191761 0 0.45384283414141641 0.23962742592169059 0 0.47692141707070451 0.23056955077157251 0 0.47583181488482379 0.2451422378191761 0 0.46053260521531592 0.14091734283165991 0 0.45014974491888898 0.16995127396152809 0 0.47759274938693741 0.15337993901402261 0 0.46053260521531592 0.14091734283165991 0 0.47596637305353268 0.1236489788231635 0 0.45094723062946279 0.12208098845927939 0 0.46053260521531592 0.14091734283165991 0 0.44305345270963392 0.14224085277467549 0 0.45094723062946279 0.12208098845927939 0 0.43267139290449452 0.12562392175117529 0 0.44305345270963392 0.14224085277467549 0 0.45094723062946279 0.12208098845927939 0 0.46053260521531592 0.14091734283165991 0 0.44305345270963392 0.14224085277467549 0 0.45014974491888898 0.16995127396152809 0 0.43641214087317609 0.15776157540708571 0 0.44305345270963392 0.14224085277467549 0 0.45014974491888898 0.16995127396152809 0 0.42759287120751482 0.1799189573059411 0 0.43799329450951457 0.1898848624547933 0 0.45014974491888898 0.16995127396152809 0 0.43799329450951457 0.1898848624547933 0 0.45120510308892831 0.19507838461398491 0 0.45014974491888898 0.16995127396152809 0 0.46861366351278472 0.19789432193598561 0 0.45014974491888898 0.16995127396152809 0 0.47890777313388699 0.17818810929941131 0 0.45014974491888898 0.16995127396152809 0 0.47890777313388699 0.17818810929941131 0 0.47759274938693741 0.15337993901402261 0 0.5 0.19442179120654851 0 0.47890777313388699 0.17818810929941131 0 0.5 0.16733190679164031 0 0.47890777313388699 0.17818810929941131 0 0.5 0.16733190679164031 0 0.47759274938693741 0.15337993901402261 0 0.5 0.16733190679164031 0 0.47759274938693741 0.15337993901402261 0 0.5 0.14024202237673219 0 0.46053260521531592 0.14091734283165991 0 0.47759274938693741 0.15337993901402261 0 0.47596637305353268 0.1236489788231635 0 0.5 0.14024202237673219 0 0.5 0.11315213796182411 0 0.47596637305353268 0.1236489788231635 0 0.47759274938693741 0.15337993901402261 0 0.5 0.14024202237673219 0 0.47596637305353268 0.1236489788231635 0 0.5 0.11315213796182411 0 0.48146508414057748 0.097867616362435003 0 0.47596637305353268 0.1236489788231635 0 0.5 0.11315213796182411 0 0.48146508414057748 0.097867616362435003 0 0.5 0.08606225354691599 0 0.48146508414057748 0.097867616362435003 0 0.46684480345772023 0.083704774648097419 0 0.46085076100455152 0.1051260388446932 0 0.48146508414057748 0.097867616362435003 0 0.47596637305353268 0.1236489788231635 0 0.46085076100455152 0.1051260388446932 0 0.5 0.08606225354691599 0 0.48297411160829701 0.071419164250366693 0 0.5 0.058972369132007867 0 0.48146508414057748 0.097867616362435003 0 0.5 0.08606225354691599 0 0.48297411160829701 0.071419164250366693 0 0.48146508414057748 0.097867616362435003 0 0.48297411160829701 0.071419164250366693 0 0.46684480345772023 0.083704774648097419 0 0.48297411160829701 0.071419164250366693 0 0.46368779630991369 0.062884433647911922 0 0.46684480345772023 0.083704774648097419 0 0.46368779630991369 0.062884433647911922 0 0.4455316944648699 0.078385408113317706 0 0.46368779630991369 0.062884433647911922 0 0.46684480345772023 0.083704774648097419 0 0.4455316944648699 0.078385408113317706 0 0.46684480345772023 0.083704774648097419 0 0.4455316944648699 0.078385408113317706 0 0.46085076100455152 0.1051260388446932 0 0.4455316944648699 0.078385408113317706 0 0.46085076100455152 0.1051260388446932 0 0.43655847815144871 0.087567909291679069 0 0.4455316944648699 0.078385408113317706 0 0.43655847815144871 0.087567909291679069 0 0.43300293116684879 0.070359854062556224 0 0.4455316944648699 0.078385408113317706 0 0.43300293116684879 0.070359854062556224 0 0.44432728466234178 0.059795406129610977 0 0.46368779630991369 0.062884433647911922 0 0.4455316944648699 0.078385408113317706 0 0.44432728466234178 0.059795406129610977 0 0.47596637305353268 0.1236489788231635 0 0.46085076100455152 0.1051260388446932 0 0.45094723062946279 0.12208098845927939 0 0.46085076100455152 0.1051260388446932 0 0.43655847815144871 0.087567909291679069 0 0.46085076100455152 0.1051260388446932 0 0.43845481143497073 0.110031162788742 0 0.43302597451412722 0.09911942802672713 0 0.46085076100455152 0.1051260388446932 0 0.43302597451412722 0.09911942802672713 0 0.43655847815144871 0.087567909291679069 0 0.43267139290449452 0.12562392175117529 0 0.45094723062946279 0.12208098845927939 0 0.43845481143497073 0.110031162788742 0 0.46085076100455152 0.1051260388446932 0 0.45094723062946279 0.12208098845927939 0 0.43845481143497073 0.110031162788742 0 0.43267139290449452 0.12562392175117529 0 0.43845481143497073 0.110031162788742 0 0.42512360996164289 0.1101942667169049 0 0.43267139290449452 0.12562392175117529 0 0.42512360996164289 0.1101942667169049 0 0.41840244549433692 0.1204435227777134 0 0.42512360996164289 0.1101942667169049 0 0.41840244549433692 0.1204435227777134 0 0.41145911669595331 0.1096997076075869 0 0.41840244549433692 0.1204435227777134 0 0.41145911669595331 0.1096997076075869 0 0.40630256149234217 0.12337914253670321 0 0.41145911669595331 0.1096997076075869 0 0.41782870111656589 0.098086010242617663 0 0.40188519574572068 0.098349840232826835 0 0.41782870111656589 0.098086010242617663 0 0.41132824907511162 0.087668761689670915 0 0.40188519574572068 0.098349840232826835 0 0.42512360996164289 0.1101942667169049 0 0.41145911669595331 0.1096997076075869 0 0.41782870111656589 0.098086010242617663 0 0.41782870111656589 0.098086010242617663 0 0.43302597451412722 0.09911942802672713 0 0.42198136315300161 0.08812274721924529 0 0.42512360996164289 0.1101942667169049 0 0.41782870111656589 0.098086010242617663 0 0.43302597451412722 0.09911942802672713 0 0.43845481143497073 0.110031162788742 0 0.42512360996164289 0.1101942667169049 0 0.43302597451412722 0.09911942802672713 0 0.43655847815144871 0.087567909291679069 0 0.42198136315300161 0.08812274721924529 0 0.41226619529834591 0.070009779738664735 0 0.43655847815144871 0.087567909291679069 0 0.41226619529834591 0.070009779738664735 0 0.43302597451412722 0.09911942802672713 0 0.43655847815144871 0.087567909291679069 0 0.42198136315300161 0.08812274721924529 0 0.43300293116684879 0.070359854062556224 0 0.41226619529834591 0.070009779738664735 0 0.42739758089851382 0.054541393999090262 0 0.43655847815144871 0.087567909291679069 0 0.43300293116684879 0.070359854062556224 0 0.41226619529834591 0.070009779738664735 0 0.42198136315300161 0.08812274721924529 0 0.41226619529834591 0.070009779738664735 0 0.41132824907511162 0.087668761689670915 0 0.41226619529834591 0.070009779738664735 0 0.41132824907511162 0.087668761689670915 0 0.39992923875424519 0.082621500021195282 0 0.41782870111656589 0.098086010242617663 0 0.42198136315300161 0.08812274721924529 0 0.41132824907511162 0.087668761689670915 0 0.41132824907511162 0.087668761689670915 0 0.39992923875424519 0.082621500021195282 0 0.40188519574572068 0.098349840232826835 0 0.39992923875424519 0.082621500021195282 0 0.38759228221014619 0.095233220303727467 0 0.40188519574572068 0.098349840232826835 0 0.39992923875424519 0.082621500021195282 0 0.38759228221014619 0.095233220303727467 0 0.41226619529834591 0.070009779738664735 0 0.39707386889515511 0.070908779594843374 0 0.39683376059791597 0.058855427163935138 0 0.41226619529834591 0.070009779738664735 0 0.39683376059791597 0.058855427163935138 0 0.41226619529834591 0.070009779738664735 0 0.39992923875424519 0.082621500021195282 0 0.41226619529834591 0.070009779738664735 0 0.39992923875424519 0.082621500021195282 0 0.39707386889515511 0.070908779594843374 0 0.39992923875424519 0.082621500021195282 0 0.39707386889515511 0.070908779594843374 0 0.38583977896057609 0.075316135258006081 0 0.39707386889515511 0.070908779594843374 0 0.38282045226763678 0.060547433734587333 0 0.39683376059791597 0.058855427163935138 0 0.39707386889515511 0.070908779594843374 0 0.38583977896057609 0.075316135258006081 0 0.38282045226763678 0.060547433734587333 0 0.38583977896057609 0.075316135258006081 0 0.37596532967213542 0.069868995675824025 0 0.37682589963749002 0.081332762740894418 0 0.37307104071443398 0.061065176941414383 0 0.37596532967213542 0.069868995675824025 0 0.38282045226763678 0.060547433734587333 0 0.38583977896057609 0.075316135258006081 0 0.37596532967213542 0.069868995675824025 0 0.38282045226763678 0.060547433734587333 0 0.39992923875424519 0.082621500021195282 0 0.38412803848747967 0.086259474622970303 0 0.38759228221014619 0.095233220303727467 0 0.39992923875424519 0.082621500021195282 0 0.38583977896057609 0.075316135258006081 0 0.38412803848747967 0.086259474622970303 0 0.37045299287494049 0.09679375479102828 0 0.38412803848747967 0.086259474622970303 0 0.38759228221014619 0.095233220303727467 0 0.38583977896057609 0.075316135258006081 0 0.38412803848747967 0.086259474622970303 0 0.37682589963749002 0.081332762740894418 0 0.37045299287494049 0.09679375479102828 0 0.38412803848747967 0.086259474622970303 0 0.37682589963749002 0.081332762740894418 0 0.37045299287494049 0.09679375479102828 0 0.38005682511468147 0.12140739343396729 0 0.37045299287494049 0.09679375479102828 0 0.38759228221014619 0.095233220303727467 0 0.38890959528695412 0.1083938038889192 0 0.37045299287494049 0.09679375479102828 0 0.38890959528695412 0.1083938038889192 0 0.38005682511468147 0.12140739343396729 0 0.39398634319161102 0.12556361147638159 0 0.38890959528695412 0.1083938038889192 0 0.38005682511468147 0.12140739343396729 0 0.39398634319161102 0.12556361147638159 0 0.38890959528695412 0.1083938038889192 0 0.39948393258462489 0.11301500309558379 0 0.39398634319161102 0.12556361147638159 0 0.40630256149234217 0.12337914253670321 0 0.39948393258462489 0.11301500309558379 0 0.41145911669595331 0.1096997076075869 0 0.40630256149234217 0.12337914253670321 0 0.39948393258462489 0.11301500309558379 0 0.41145911669595331 0.1096997076075869 0 0.39948393258462489 0.11301500309558379 0 0.40188519574572068 0.098349840232826835 0 0.38759228221014619 0.095233220303727467 0 0.38890959528695412 0.1083938038889192 0 0.40188519574572068 0.098349840232826835 0 0.38890959528695412 0.1083938038889192 0 0.39948393258462489 0.11301500309558379 0 0.40188519574572068 0.098349840232826835 0 0.3912475249538237 0.025882868266216091 0 0.40325323122183843 0.024352223252143548 0 0.39536881189699241 0.01378873843063998 0 0.3912475249538237 0.025882868266216091 0 0.40325323122183843 0.024352223252143548 0 0.39805180056669343 0.032772735105760037 0 0.40325323122183843 0.024352223252143548 0 0.39805180056669343 0.032772735105760037 0 0.40655765028286611 0.035582104639029083 0 0.40325323122183843 0.024352223252143548 0 0.39536881189699241 0.01378873843063998 0 0.40720094273855439 0.01372602960598159 0 0.40060323373222451 0.0042547197705496897 0 0.39536881189699241 0.01378873843063998 0 0.40720094273855439 0.01372602960598159 0 0.40060323373222451 0.0042547197705496897 0 0.41081432206005303 0.0037114498956348132 0 0.4046584776842293 -0.0050702490882302163 0 0.40060323373222451 0.0042547197705496897 0 0.41081432206005303 0.0037114498956348132 0 0.40720094273855439 0.01372602960598159 0 0.40060323373222451 0.0042547197705496897 0 0.39025836247721268 0.0036292771787240202 0 0.39531848553630572 -0.0042569273994520467 0 0.40060323373222451 0.0042547197705496897 0 0.39536881189699241 0.01378873843063998 0 0.39025836247721268 0.0036292771787240202 0 0.37844401144479839 0.012609093579625891 0 0.38356146703633898 -0.0078565650350033434 0 0.37844401144479839 0.012609093579625891 0 0.39025836247721268 0.0036292771787240202 0 0.38356146703633898 -0.0078565650350033434 0 0.39536881189699241 0.01378873843063998 0 0.37844401144479839 0.012609093579625891 0 0.39025836247721268 0.0036292771787240202 0 0.3912475249538237 0.025882868266216091 0 0.37844401144479839 0.012609093579625891 0 0.38063223185621792 0.036578263657106522 0 0.37844401144479839 0.012609093579625891 0 0.38063223185621792 0.036578263657106522 0 0.37146335928247548 0.04052602251159599 0 0.37844401144479839 0.012609093579625891 0 0.38063223185621792 0.036578263657106522 0 0.3912475249538237 0.025882868266216091 0 0.39536881189699241 0.01378873843063998 0 0.37844401144479839 0.012609093579625891 0 0.37146335928247548 0.04052602251159599 0 0.38063223185621792 0.036578263657106522 0 0.38282045226763678 0.060547433734587333 0 0.3912475249538237 0.025882868266216091 0 0.38063223185621792 0.036578263657106522 0 0.3908528121234538 0.035995570554822158 0 0.38063223185621792 0.036578263657106522 0 0.38791705742610771 0.044539104287684539 0 0.3908528121234538 0.035995570554822158 0 0.38791705742610771 0.044539104287684539 0 0.38282045226763678 0.060547433734587333 0 0.39079668350586277 0.051215399393808793 0 0.37307104071443398 0.061065176941414383 0 0.37146335928247548 0.04052602251159599 0 0.38282045226763678 0.060547433734587333 0 0.38063223185621792 0.036578263657106522 0 0.38791705742610771 0.044539104287684539 0 0.38282045226763678 0.060547433734587333 0 0.38063223185621792 0.036578263657106522 0 0.38282045226763678 0.060547433734587333 0 0.38282045226763678 0.060547433734587333 0 0.39683376059791597 0.058855427163935138 0 0.39079668350586277 0.051215399393808793 0 0.41226619529834591 0.070009779738664735 0 0.39683376059791597 0.058855427163935138 0 0.40948896714378957 0.05055434744181983 0 0.39683376059791597 0.058855427163935138 0 0.39079668350586277 0.051215399393808793 0 0.39674782008621368 0.04348041067995833 0 0.39683376059791597 0.058855427163935138 0 0.39674782008621368 0.04348041067995833 0 0.40948896714378957 0.05055434744181983 0 0.3908528121234538 0.035995570554822158 0 0.39805180056669343 0.032772735105760037 0 0.39674782008621368 0.04348041067995833 0 0.3912475249538237 0.025882868266216091 0 0.3908528121234538 0.035995570554822158 0 0.39805180056669343 0.032772735105760037 0 0.38791705742610771 0.044539104287684539 0 0.3908528121234538 0.035995570554822158 0 0.39674782008621368 0.04348041067995833 0 0.38791705742610771 0.044539104287684539 0 0.39079668350586277 0.051215399393808793 0 0.39674782008621368 0.04348041067995833 0 0.39674782008621368 0.04348041067995833 0 0.40655765028286611 0.035582104639029083 0 0.40948896714378957 0.05055434744181983 0 0.39805180056669343 0.032772735105760037 0 0.39674782008621368 0.04348041067995833 0 0.40655765028286611 0.035582104639029083 0 0.40655765028286611 0.035582104639029083 0 0.41713079569888262 0.040856968430241461 0 0.41557099838193923 0.024039796491718179 0 0.41713079569888262 0.040856968430241461 0 0.42755741698364552 0.032815777208855347 0 0.41557099838193923 0.024039796491718179 0 0.40655765028286611 0.035582104639029083 0 0.41713079569888262 0.040856968430241461 0 0.40948896714378957 0.05055434744181983 0 0.41226619529834591 0.070009779738664735 0 0.40948896714378957 0.05055434744181983 0 0.42739758089851382 0.054541393999090262 0 0.41713079569888262 0.040856968430241461 0 0.40948896714378957 0.05055434744181983 0 0.42739758089851382 0.054541393999090262 0 0.41226619529834591 0.070009779738664735 0 0.42739758089851382 0.054541393999090262 0 0.43300293116684879 0.070359854062556224 0 0.42739758089851382 0.054541393999090262 0 0.44432728466234178 0.059795406129610977 0 0.41713079569888262 0.040856968430241461 0 0.42739758089851382 0.054541393999090262 0 0.42755741698364552 0.032815777208855347 0 0.42739758089851382 0.054541393999090262 0 0.42755741698364552 0.032815777208855347 0 0.44252896649868317 0.039073008259517338 0 0.42739758089851382 0.054541393999090262 0 0.44252896649868317 0.039073008259517338 0 0.42755741698364552 0.032815777208855347 0 0.4358194844604939 0.024219735287320941 0 0.44252896649868317 0.039073008259517338 0 0.42755741698364552 0.032815777208855347 0 0.41557099838193923 0.024039796491718179 0 0.4265644217351573 0.014684511896395219 0 0.4358194844604939 0.024219735287320941 0 0.4265644217351573 0.014684511896395219 0 0.44548351627008242 0.01642882659412407 0 0.42755741698364552 0.032815777208855347 0 0.4358194844604939 0.024219735287320941 0 0.4265644217351573 0.014684511896395219 0 0.41557099838193923 0.024039796491718179 0 0.4165272652869268 0.01155925859927168 0 0.4265644217351573 0.014684511896395219 0 0.41557099838193923 0.024039796491718179 0 0.40720094273855439 0.01372602960598159 0 0.4165272652869268 0.01155925859927168 0 0.40325323122183843 0.024352223252143548 0 0.41557099838193923 0.024039796491718179 0 0.40720094273855439 0.01372602960598159 0 0.40325323122183843 0.024352223252143548 0 0.40655765028286611 0.035582104639029083 0 0.41557099838193923 0.024039796491718179 0 0.41081432206005303 0.0037114498956348132 0 0.40720094273855439 0.01372602960598159 0 0.4165272652869268 0.01155925859927168 0 0.4165272652869268 0.01155925859927168 0 0.42248564151892998 0.0016345051066286029 0 0.4265644217351573 0.014684511896395219 0 0.41081432206005303 0.0037114498956348132 0 0.4165272652869268 0.01155925859927168 0 0.42248564151892998 0.0016345051066286029 0 0.42248564151892998 0.0016345051066286029 0 0.4265644217351573 0.014684511896395219 0 0.4382820622288856 -0.0014159552958160841 0 0.4265644217351573 0.014684511896395219 0 0.44548351627008242 0.01642882659412407 0 0.4382820622288856 -0.0014159552958160841 0 0.45100246047295739 0.0046664116742636159 0 0.44548351627008242 0.01642882659412407 0 0.4382820622288856 -0.0014159552958160841 0 0.45100246047295739 0.0046664116742636159 0 0.44548351627008242 0.01642882659412407 0 0.4580470330794123 0.0188547641718908 0 0.4358194844604939 0.024219735287320941 0 0.4514029071021442 0.02821869916314456 0 0.44548351627008242 0.01642882659412407 0 0.4358194844604939 0.024219735287320941 0 0.4514029071021442 0.02821869916314456 0 0.44252896649868317 0.039073008259517338 0 0.4514029071021442 0.02821869916314456 0 0.44548351627008242 0.01642882659412407 0 0.4580470330794123 0.0188547641718908 0 0.4514029071021442 0.02821869916314456 0 0.4580470330794123 0.0188547641718908 0 0.46553563141862692 0.027383902935855992 0 0.4580470330794123 0.0188547641718908 0 0.46553563141862692 0.027383902935855992 0 0.471035018561343 0.01684384088441979 0 0.4580470330794123 0.0188547641718908 0 0.4620271672997433 0.0081957990277541914 0 0.471035018561343 0.01684384088441979 0 0.4620271672997433 0.0081957990277541914 0 0.47207727543944228 0.0077163925679632076 0 0.45540766643685782 -0.0078732224449345398 0 0.4620271672997433 0.0081957990277541914 0 0.47207727543944228 0.0077163925679632076 0 0.471035018561343 0.01684384088441979 0 0.45100246047295739 0.0046664116742636159 0 0.4620271672997433 0.0081957990277541914 0 0.45540766643685782 -0.0078732224449345398 0 0.45100246047295739 0.0046664116742636159 0 0.4580470330794123 0.0188547641718908 0 0.4620271672997433 0.0081957990277541914 0 0.42739758089851382 0.054541393999090262 0 0.44432728466234178 0.059795406129610977 0 0.44252896649868317 0.039073008259517338 0 0.44432728466234178 0.059795406129610977 0 0.44252896649868317 0.039073008259517338 0 0.46100281088556699 0.043351957730158222 0 0.4514029071021442 0.02821869916314456 0 0.44252896649868317 0.039073008259517338 0 0.46100281088556699 0.043351957730158222 0 0.4514029071021442 0.02821869916314456 0 0.46553563141862692 0.027383902935855992 0 0.46100281088556699 0.043351957730158222 0 0.46553563141862692 0.027383902935855992 0 0.46100281088556699 0.043351957730158222 0 0.4764725540003833 0.035303178421407518 0 0.46368779630991369 0.062884433647911922 0 0.44432728466234178 0.059795406129610977 0 0.46100281088556699 0.043351957730158222 0 0.48297411160829701 0.071419164250366693 0 0.46368779630991369 0.062884433647911922 0 0.48184389815495748 0.047383459182506117 0 0.46368779630991369 0.062884433647911922 0 0.46100281088556699 0.043351957730158222 0 0.48184389815495748 0.047383459182506117 0 0.46368779630991369 0.062884433647911922 0 0.48184389815495748 0.047383459182506117 0 0.46100281088556699 0.043351957730158222 0 0.48184389815495748 0.047383459182506117 0 0.4764725540003833 0.035303178421407518 0 0.48184389815495748 0.047383459182506117 0 0.50000000000000089 0.031882484717099757 0 0.48184389815495748 0.047383459182506117 0 0.50000000000000089 0.031882484717099757 0 0.5 0.058972369132007867 0 0.48184389815495748 0.047383459182506117 0 0.4764725540003833 0.035303178421407518 0 0.50000000000000089 0.031882484717099757 0 0.48297411160829701 0.071419164250366693 0 0.48184389815495748 0.047383459182506117 0 0.5 0.058972369132007867 0 0.48173822001607031 0.002441982684480838 0 0.47207727543944228 0.0077163925679632076 0 0.45540766643685782 -0.0078732224449345398 0 0.48073089036299149 0.01447516008145705 0 0.48088876464914698 0.0066420825236524483 0 0.47207727543944228 0.0077163925679632076 0 0.48088876464914698 0.0066420825236524483 0 0.48173822001607031 0.002441982684480838 0 0.48944624590280772 0.014576472087587141 0 0.48073089036299149 0.01447516008145705 0 0.48088876464914698 0.0066420825236524483 0 0.48944624590280772 0.014576472087587141 0 0.48088876464914698 0.0066420825236524483 0 0.48173822001607031 0.002441982684480838 0 0.47207727543944228 0.0077163925679632076 0 0.48088876464914698 0.0066420825236524483 0 0.48173822001607031 0.002441982684480838 0 0.48073089036299149 0.01447516008145705 0 0.47207727543944228 0.0077163925679632076 0 0.471035018561343 0.01684384088441979 0 0.46553563141862692 0.027383902935855992 0 0.471035018561343 0.01684384088441979 0 0.48098968552297122 0.023479159592672289 0 0.46553563141862692 0.027383902935855992 0 0.4764725540003833 0.035303178421407518 0 0.48098968552297122 0.023479159592672289 0 0.48073089036299149 0.01447516008145705 0 0.471035018561343 0.01684384088441979 0 0.48098968552297122 0.023479159592672289 0 0.48073089036299149 0.01447516008145705 0 0.48098968552297122 0.023479159592672289 0 0.48944624590280772 0.014576472087587141 0 0.50000000000000089 0.031882484717099757 0 0.50000000000000044 0.0095961811708810997 0 0.48944624590280772 0.014576472087587141 0 0.4764725540003833 0.035303178421407518 0 0.50000000000000089 0.031882484717099757 0 0.48098968552297122 0.023479159592672289 0 0.50000000000000089 0.031882484717099757 0 0.48098968552297122 0.023479159592672289 0 0.48944624590280772 0.014576472087587141 0 0.48173822001607031 0.002441982684480838 0 0.50000000000000044 0.0095961811708810997 0 0.48944624590280772 0.014576472087587141 0 0.48173822001607031 0.002441982684480838 0 0.50000000000000044 0.0095961811708810997 0 0.48173822001607031 0.002441982684480838 0 0.50000000000000044 0.0095961811708810997 0 0.5 -0.01553848795347695 0 0.48173822001607031 0.002441982684480838 0 0.5 -0.01553848795347695 0 0.48723509010938909 -0.024737082977995831 0 0.48173822001607031 0.002441982684480838 0 0.48723509010938909 -0.024737082977995831 0 0.48173822001607031 0.002441982684480838 0 0.46944239540012012 -0.021901386132034111 0 0.45540766643685782 -0.0078732224449345398 0 0.48173822001607031 0.002441982684480838 0 0.46944239540012012 -0.021901386132034111 0 0.48723509010938909 -0.024737082977995831 0 0.46944239540012012 -0.021901386132034111 0 0.48723509010938909 -0.024737082977995831 0 0.47311684284700922 -0.039980301183512167 0 0.5 -0.01553848795347695 0 0.48723509010938909 -0.024737082977995831 0 0.5 -0.040673157077835087 0 0.48723509010938909 -0.024737082977995831 0 0.49273196020270971 -0.051916148640471983 0 0.48034048547664182 -0.050194577481915269 0 0.48723509010938909 -0.024737082977995831 0 0.49273196020270971 -0.051916148640471983 0 0.48723509010938909 -0.024737082977995831 0 0.5 -0.040673157077835087 0 0.49273196020270971 -0.051916148640471983 0 0.5 -0.040673157077835087 0 0.49273196020270971 -0.051916148640471983 0 0.5 -0.065807826202193331 0 0.49273196020270971 -0.051916148640471983 0 0.48384360039889979 -0.062204599920787272 0 0.48034048547664182 -0.050194577481915269 0 0.48034048547664182 -0.050194577481915269 0 0.47035120232490191 -0.060528185902064997 0 0.47311684284700922 -0.039980301183512167 0 0.47035120232490191 -0.060528185902064997 0 0.47311684284700922 -0.039980301183512167 0 0.48384360039889979 -0.062204599920787272 0 0.48034048547664182 -0.050194577481915269 0 0.47035120232490191 -0.060528185902064997 0 0.48723509010938909 -0.024737082977995831 0 0.48034048547664182 -0.050194577481915269 0 0.47311684284700922 -0.039980301183512167 0 0.46944239540012012 -0.021901386132034111 0 0.47311684284700922 -0.039980301183512167 0 0.44971415759127392 -0.039358306738208573 0 0.47035120232490191 -0.060528185902064997 0 0.47311684284700922 -0.039980301183512167 0 0.44971415759127392 -0.039358306738208573 0 0.47035120232490191 -0.060528185902064997 0 0.44971415759127392 -0.039358306738208573 0 0.47035120232490191 -0.060528185902064997 0 0.43963483674523918 -0.055334607978488382 0 0.44971415759127392 -0.039358306738208573 0 0.43963483674523918 -0.055334607978488382 0 0.44971415759127392 -0.039358306738208573 0 0.42419530264354072 -0.042652000491910397 0 0.46944239540012012 -0.021901386132034111 0 0.44971415759127392 -0.039358306738208573 0 0.45540766643685782 -0.0078732224449345398 0 0.44971415759127392 -0.039358306738208573 0 0.42907711285764621 -0.01818842757435184 0 0.44971415759127392 -0.039358306738208573 0 0.45540766643685782 -0.0078732224449345398 0 0.42907711285764621 -0.01818842757435184 0 0.45540766643685782 -0.0078732224449345398 0 0.42907711285764621 -0.01818842757435184 0 0.45100246047295739 0.0046664116742636159 0 0.4382820622288856 -0.0014159552958160841 0 0.45540766643685782 -0.0078732224449345398 0 0.4382820622288856 -0.0014159552958160841 0 0.45540766643685782 -0.0078732224449345398 0 0.42907711285764621 -0.01818842757435184 0 0.48173822001607031 0.002441982684480838 0 0.45540766643685782 -0.0078732224449345398 0 0.47129126618897188 -0.1223351355815797 0 0.47148248434309947 -0.114916285604633 0 0.48087269318342413 -0.1216818802472065 0 0.47148248434309947 -0.114916285604633 0 0.48087269318342413 -0.1216818802472065 0 0.47838814501791832 -0.1066654575105275 0 0.48087269318342413 -0.1216818802472065 0 0.48924328608656842 -0.1141618265083332 0 0.47838814501791832 -0.1066654575105275 0 0.5 -0.1122204549214597 0 0.48924328608656842 -0.1141618265083332 0 0.5 -0.13349841451636779 0 0.48087269318342413 -0.1216818802472065 0 0.48924328608656842 -0.1141618265083332 0 0.5 -0.13349841451636779 0 0.5 -0.1122204549214597 0 0.48924328608656842 -0.1141618265083332 0 0.48827073793524339 -0.097774102912636218 0 0.48924328608656842 -0.1141618265083332 0 0.48827073793524339 -0.097774102912636218 0 0.47838814501791832 -0.1066654575105275 0 0.5 -0.1122204549214597 0 0.48827073793524339 -0.097774102912636218 0 0.50000000000000266 -0.090942495326551576 0 0.47652975213937199 -0.091635549067057065 0 0.46683976751390588 -0.086617099886465918 0 0.46456669494636288 -0.10350535152343909 0 0.48827073793524339 -0.097774102912636218 0 0.47838814501791832 -0.1066654575105275 0 0.47652975213937199 -0.091635549067057065 0 0.47148248434309947 -0.114916285604633 0 0.47838814501791832 -0.1066654575105275 0 0.46456669494636288 -0.10350535152343909 0 0.47838814501791832 -0.1066654575105275 0 0.47652975213937199 -0.091635549067057065 0 0.46456669494636288 -0.10350535152343909 0 0.48827073793524339 -0.097774102912636218 0 0.47652975213937199 -0.091635549067057065 0 0.48517560116245317 -0.075735340614307423 0 0.47652975213937199 -0.091635549067057065 0 0.48517560116245317 -0.075735340614307423 0 0.46683976751390588 -0.086617099886465918 0 0.47652975213937199 -0.091635549067057065 0 0.46683976751390588 -0.086617099886465918 0 0.50000000000000266 -0.090942495326551576 0 0.49822883029603021 -0.079095214302948247 0 0.5 -0.065807826202193331 0 0.48827073793524339 -0.097774102912636218 0 0.50000000000000266 -0.090942495326551576 0 0.48517560116245317 -0.075735340614307423 0 0.50000000000000266 -0.090942495326551576 0 0.48517560116245317 -0.075735340614307423 0 0.50000000000000266 -0.090942495326551576 0 0.49822883029603021 -0.079095214302948247 0 0.48517560116245317 -0.075735340614307423 0 0.49273196020270971 -0.051916148640471983 0 0.49822883029603021 -0.079095214302948247 0 0.48384360039889979 -0.062204599920787272 0 0.49822883029603021 -0.079095214302948247 0 0.48517560116245317 -0.075735340614307423 0 0.49273196020270971 -0.051916148640471983 0 0.48384360039889979 -0.062204599920787272 0 0.49822883029603021 -0.079095214302948247 0 0.49273196020270971 -0.051916148640471983 0 0.49822883029603021 -0.079095214302948247 0 0.5 -0.065807826202193331 0 0.47035120232490191 -0.060528185902064997 0 0.48517560116245317 -0.075735340614307423 0 0.47035120232490191 -0.060528185902064997 0 0.48517560116245317 -0.075735340614307423 0 0.46683976751390588 -0.086617099886465918 0 0.48384360039889979 -0.062204599920787272 0 0.47035120232490191 -0.060528185902064997 0 0.48517560116245317 -0.075735340614307423 0 0.47035120232490191 -0.060528185902064997 0 0.46683976751390588 -0.086617099886465918 0 0.47035120232490191 -0.060528185902064997 0 0.44249197108241189 -0.074007360679063244 0 0.46683976751390588 -0.086617099886465918 0 0.47035120232490191 -0.060528185902064997 0 0.43963483674523918 -0.055334607978488382 0 0.44249197108241189 -0.074007360679063244 0 0.44249197108241189 -0.074007360679063244 0 0.46683976751390588 -0.086617099886465918 0 0.4490662803509099 -0.094083529251462475 0 0.44249197108241189 -0.074007360679063244 0 0.4490662803509099 -0.094083529251462475 0 0.42834270349958448 -0.099226311759436261 0 0.44249197108241189 -0.074007360679063244 0 0.46683976751390588 -0.086617099886465918 0 0.46683976751390588 -0.086617099886465918 0 0.46456669494636288 -0.10350535152343909 0 0.4490662803509099 -0.094083529251462475 0 0.46683976751390588 -0.086617099886465918 0 0.46456669494636288 -0.10350535152343909 0 0.46456669494636288 -0.10350535152343909 0 0.4490662803509099 -0.094083529251462475 0 0.44386094964032902 -0.11054798122052439 0 0.4490662803509099 -0.094083529251462475 0 0.44386094964032902 -0.11054798122052439 0 0.42834270349958448 -0.099226311759436261 0 0.44386094964032902 -0.11054798122052439 0 0.46257396642688631 -0.12529077885077469 0 0.45239247298790419 -0.125419693033265 0 0.44386094964032902 -0.11054798122052439 0 0.42916935431308728 -0.1205456085246996 0 0.4435038969132965 -0.12540022695152131 0 0.44386094964032902 -0.11054798122052439 0 0.45239247298790419 -0.125419693033265 0 0.4435038969132965 -0.12540022695152131 0 0.44386094964032902 -0.11054798122052439 0 0.46229362237882032 -0.1203936031604123 0 0.46257396642688631 -0.12529077885077469 0 0.46456669494636288 -0.10350535152343909 0 0.46229362237882032 -0.1203936031604123 0 0.46456669494636288 -0.10350535152343909 0 0.44386094964032902 -0.11054798122052439 0 0.46229362237882032 -0.1203936031604123 0 0.44386094964032902 -0.11054798122052439 0 0.46257396642688631 -0.12529077885077469 0 0.47148248434309947 -0.114916285604633 0 0.46456669494636288 -0.10350535152343909 0 0.46229362237882032 -0.1203936031604123 0 0.47129126618897188 -0.1223351355815797 0 0.46229362237882032 -0.1203936031604123 0 0.46257396642688631 -0.12529077885077469 0 0.47129126618897188 -0.1223351355815797 0 0.47148248434309947 -0.114916285604633 0 0.46229362237882032 -0.1203936031604123 0 0.44386094964032902 -0.11054798122052439 0 0.42916935431308728 -0.1205456085246996 0 0.42834270349958448 -0.099226311759436261 0 0.41143930547928681 -0.11934523636421419 0 0.42916935431308728 -0.1205456085246996 0 0.42834270349958448 -0.099226311759436261 0 0.41143930547928681 -0.11934523636421419 0 0.40555832972599831 -0.095826118330896617 0 0.41143930547928681 -0.11934523636421419 0 0.42834270349958448 -0.099226311759436261 0 0.40555832972599831 -0.095826118330896617 0 0.42834270349958448 -0.099226311759436261 0 0.41884290658632428 -0.080552882507727325 0 0.40555832972599831 -0.095826118330896617 0 0.41884290658632428 -0.080552882507727325 0 0.39967735397270959 -0.072307000297579083 0 0.40555832972599831 -0.095826118330896617 0 0.44249197108241189 -0.074007360679063244 0 0.42834270349958448 -0.099226311759436261 0 0.41884290658632428 -0.080552882507727325 0 0.44249197108241189 -0.074007360679063244 0 0.41814417465091752 -0.061397621471661459 0 0.43963483674523918 -0.055334607978488382 0 0.44249197108241189 -0.074007360679063244 0 0.41814417465091752 -0.061397621471661459 0 0.44249197108241189 -0.074007360679063244 0 0.41884290658632428 -0.080552882507727325 0 0.41814417465091752 -0.061397621471661459 0 0.41884290658632428 -0.080552882507727325 0 0.39967735397270959 -0.072307000297579083 0 0.41814417465091752 -0.061397621471661459 0 0.39967735397270959 -0.072307000297579083 0 0.38669795957132042 -0.057310603286660967 0 0.37240766699872252 -0.068318548019290964 0 0.39967735397270959 -0.072307000297579083 0 0.37781097748786241 -0.089314889372882261 0 0.37240766699872252 -0.068318548019290964 0 0.39967735397270959 -0.072307000297579083 0 0.37781097748786241 -0.089314889372882261 0 0.40555832972599831 -0.095826118330896617 0 0.39967735397270959 -0.072307000297579083 0 0.40555832972599831 -0.095826118330896617 0 0.40555832972599831 -0.095826118330896617 0 0.38953803654933628 -0.10754997095337659 0 0.39823574772599779 -0.11763079726210079 0 0.37781097748786241 -0.089314889372882261 0 0.40555832972599831 -0.095826118330896617 0 0.38953803654933628 -0.10754997095337659 0 0.37781097748786241 -0.089314889372882261 0 0.38953803654933628 -0.10754997095337659 0 0.37644505785585192 -0.1058120404938334 0 0.38953803654933628 -0.10754997095337659 0 0.37644505785585192 -0.1058120404938334 0 0.37720890243704291 -0.12310924361699779 0 0.38953803654933628 -0.10754997095337659 0 0.37720890243704291 -0.12310924361699779 0 0.38918813321375051 -0.12739880168557821 0 0.38953803654933628 -0.10754997095337659 0 0.39823574772599779 -0.11763079726210079 0 0.38918813321375051 -0.12739880168557821 0 0.41143930547928681 -0.11934523636421419 0 0.39823574772599779 -0.11763079726210079 0 0.40257569972698831 -0.13396225485532559 0 0.41143930547928681 -0.11934523636421419 0 0.40555832972599831 -0.095826118330896617 0 0.39823574772599779 -0.11763079726210079 0 0.42011428296152808 -0.02169968792975261 0 0.41401194260749391 -0.028450411104576211 0 0.41343304557213612 -0.018371446868227208 0 0.42011428296152808 -0.02169968792975261 0 0.41343304557213612 -0.018371446868227208 0 0.41928481904255338 -0.01548900553927589 0 0.42011428296152808 -0.02169968792975261 0 0.41928481904255338 -0.01548900553927589 0 0.42542521438275183 -0.0144422395697206 0 0.42011428296152808 -0.02169968792975261 0 0.41401194260749391 -0.028450411104576211 0 0.42742255973229643 -0.030069766767760062 0 0.41401194260749391 -0.028450411104576211 0 0.40522076275047969 -0.019933987949522329 0 0.40044964155059998 -0.029094842751199331 0 0.41401194260749391 -0.028450411104576211 0 0.41343304557213612 -0.018371446868227208 0 0.40522076275047969 -0.019933987949522329 0 0.41343304557213612 -0.018371446868227208 0 0.40806592415966281 -0.01253819616599721 0 0.40522076275047969 -0.019933987949522329 0 0.40806592415966281 -0.01253819616599721 0 0.4135204533098043 -0.0054466611181140526 0 0.41498054603746559 -0.011947546426581419 0 0.41343304557213612 -0.018371446868227208 0 0.40806592415966281 -0.01253819616599721 0 0.41498054603746559 -0.011947546426581419 0 0.41081432206005303 0.0037114498956348132 0 0.4135204533098043 -0.0054466611181140526 0 0.4046584776842293 -0.0050702490882302163 0 0.40806592415966281 -0.01253819616599721 0 0.4135204533098043 -0.0054466611181140526 0 0.4046584776842293 -0.0050702490882302163 0 0.41081432206005303 0.0037114498956348132 0 0.42248564151892998 0.0016345051066286029 0 0.4135204533098043 -0.0054466611181140526 0 0.42248564151892998 0.0016345051066286029 0 0.4135204533098043 -0.0054466611181140526 0 0.42119781252485211 -0.0083000839364812864 0 0.41343304557213612 -0.018371446868227208 0 0.41498054603746559 -0.011947546426581419 0 0.41928481904255338 -0.01548900553927589 0 0.4135204533098043 -0.0054466611181140526 0 0.41498054603746559 -0.011947546426581419 0 0.42119781252485211 -0.0083000839364812864 0 0.41498054603746559 -0.011947546426581419 0 0.42119781252485211 -0.0083000839364812864 0 0.41928481904255338 -0.01548900553927589 0 0.42542521438275183 -0.0144422395697206 0 0.42820760236351979 -0.0076976995852137747 0 0.42907711285764621 -0.01818842757435184 0 0.4382820622288856 -0.0014159552958160841 0 0.42820760236351979 -0.0076976995852137747 0 0.42907711285764621 -0.01818842757435184 0 0.42119781252485211 -0.0083000839364812864 0 0.41928481904255338 -0.01548900553927589 0 0.42542521438275183 -0.0144422395697206 0 0.42248564151892998 0.0016345051066286029 0 0.4382820622288856 -0.0014159552958160841 0 0.42820760236351979 -0.0076976995852137747 0 0.42119781252485211 -0.0083000839364812864 0 0.42542521438275183 -0.0144422395697206 0 0.42820760236351979 -0.0076976995852137747 0 0.42248564151892998 0.0016345051066286029 0 0.42119781252485211 -0.0083000839364812864 0 0.42820760236351979 -0.0076976995852137747 0 0.44971415759127392 -0.039358306738208573 0 0.42907711285764621 -0.01818842757435184 0 0.42742255973229643 -0.030069766767760062 0 0.42011428296152808 -0.02169968792975261 0 0.42907711285764621 -0.01818842757435184 0 0.42742255973229643 -0.030069766767760062 0 0.42011428296152808 -0.02169968792975261 0 0.42542521438275183 -0.0144422395697206 0 0.42907711285764621 -0.01818842757435184 0 0.42011428296152808 -0.02169968792975261 0 0.42907711285764621 -0.01818842757435184 0 0.42542521438275183 -0.0144422395697206 0 0.42907711285764621 -0.01818842757435184 0 0.44971415759127392 -0.039358306738208573 0 0.42742255973229643 -0.030069766767760062 0 0.42419530264354072 -0.042652000491910397 0 0.41401194260749391 -0.028450411104576211 0 0.42742255973229643 -0.030069766767760062 0 0.42419530264354072 -0.042652000491910397 0 0.43963483674523918 -0.055334607978488382 0 0.42419530264354072 -0.042652000491910397 0 0.41814417465091752 -0.061397621471661459 0 0.41814417465091752 -0.061397621471661459 0 0.41107184061272262 -0.047596707948501772 0 0.39379637821942232 -0.04878788226426127 0 0.42419530264354072 -0.042652000491910397 0 0.41814417465091752 -0.061397621471661459 0 0.41107184061272262 -0.047596707948501772 0 0.41401194260749391 -0.028450411104576211 0 0.42419530264354072 -0.042652000491910397 0 0.40815150693701141 -0.037549327566173699 0 0.42419530264354072 -0.042652000491910397 0 0.41107184061272262 -0.047596707948501772 0 0.40815150693701141 -0.037549327566173699 0 0.41401194260749391 -0.028450411104576211 0 0.40815150693701141 -0.037549327566173699 0 0.40044964155059998 -0.029094842751199331 0 0.41107184061272262 -0.047596707948501772 0 0.40815150693701141 -0.037549327566173699 0 0.39379637821942232 -0.04878788226426127 0 0.40815150693701141 -0.037549327566173699 0 0.39379637821942232 -0.04878788226426127 0 0.40044964155059998 -0.029094842751199331 0 0.39379637821942232 -0.04878788226426127 0 0.38867892262788012 -0.028322223649632432 0 0.39379637821942232 -0.04878788226426127 0 0.38867892262788012 -0.028322223649632432 0 0.40044964155059998 -0.029094842751199331 0 0.39967735397270959 -0.072307000297579083 0 0.39379637821942232 -0.04878788226426127 0 0.38669795957132042 -0.057310603286660967 0 0.41814417465091752 -0.061397621471661459 0 0.39379637821942232 -0.04878788226426127 0 0.39967735397270959 -0.072307000297579083 0 0.39379637821942232 -0.04878788226426127 0 0.39967735397270959 -0.072307000297579083 0 0.41814417465091752 -0.061397621471661459 0 0.39379637821942232 -0.04878788226426127 0 0.39379637821942232 -0.04878788226426127 0 0.38896036142985008 -0.046283306103098283 0 0.38669795957132042 -0.057310603286660967 0 0.37839056082150663 -0.050608978831784571 0 0.37240766699872252 -0.068318548019290964 0 0.38669795957132042 -0.057310603286660967 0 0.37839056082150663 -0.050608978831784571 0 0.38896036142985008 -0.046283306103098283 0 0.39379637821942232 -0.04878788226426127 0 0.38669795957132042 -0.057310603286660967 0 0.38896036142985008 -0.046283306103098283 0 0.39379637821942232 -0.04878788226426127 0 0.38896036142985008 -0.046283306103098283 0 0.38867892262788012 -0.028322223649632432 0 0.3834615598562825 -0.037386722635115492 0 0.38896036142985008 -0.046283306103098283 0 0.38867892262788012 -0.028322223649632432 0 0.37839056082150663 -0.050608978831784571 0 0.3834615598562825 -0.037386722635115492 0 0.38896036142985008 -0.046283306103098283 0 0.37839056082150663 -0.050608978831784571 0 0.3834615598562825 -0.037386722635115492 0 0.37356965880113402 -0.040783236975350308 0 0.38867892262788012 -0.028322223649632432 0 0.38356146703633898 -0.0078565650350033434 0 0.3834615598562825 -0.037386722635115492 0 0.37600683512296651 -0.014087071697862221 0 0.37356965880113402 -0.040783236975350308 0 0.3834615598562825 -0.037386722635115492 0 0.38867892262788012 -0.028322223649632432 0 0.37600683512296651 -0.014087071697862221 0 0.38867892262788012 -0.028322223649632432 0 0.37600683512296651 -0.014087071697862221 0 0.38356146703633898 -0.0078565650350033434 0 0.38867892262788012 -0.028322223649632432 0 0.39658225960386179 -0.014459285545308009 0 0.38356146703633898 -0.0078565650350033434 0 0.38867892262788012 -0.028322223649632432 0 0.40044964155059998 -0.029094842751199331 0 0.39658225960386179 -0.014459285545308009 0 0.40522076275047969 -0.019933987949522329 0 0.40044964155059998 -0.029094842751199331 0 0.39658225960386179 -0.014459285545308009 0 0.40806592415966281 -0.01253819616599721 0 0.40522076275047969 -0.019933987949522329 0 0.39658225960386179 -0.014459285545308009 0 0.40060323373222451 0.0042547197705496897 0 0.4046584776842293 -0.0050702490882302163 0 0.39531848553630572 -0.0042569273994520467 0 0.40806592415966281 -0.01253819616599721 0 0.4046584776842293 -0.0050702490882302163 0 0.39658225960386179 -0.014459285545308009 0 0.4046584776842293 -0.0050702490882302163 0 0.39658225960386179 -0.014459285545308009 0 0.39531848553630572 -0.0042569273994520467 0 0.39658225960386179 -0.014459285545308009 0 0.39531848553630572 -0.0042569273994520467 0 0.38356146703633898 -0.0078565650350033434 0 0.39025836247721268 0.0036292771787240202 0 0.39531848553630572 -0.0042569273994520467 0 0.38356146703633898 -0.0078565650350033434 0 0.37844401144479839 0.012609093579625891 0 0.37600683512296651 -0.014087071697862221 0 0.37844401144479839 0.012609093579625891 0 0.37600683512296651 -0.014087071697862221 0 0.38356146703633898 -0.0078565650350033434 0 0.37600683512296651 -0.014087071697862221 0 0.36665723294200347 -0.001883505129568449 0 0.35850646790810559 -0.01395473468271459 0 0.37844401144479839 0.012609093579625891 0 0.37600683512296651 -0.014087071697862221 0 0.36665723294200347 -0.001883505129568449 0 0.36665723294200347 -0.001883505129568449 0 0.35531676971978082 -0.0033532784323768001 0 0.35850646790810559 -0.01395473468271459 0 0.37600683512296651 -0.014087071697862221 0 0.37356965880113402 -0.040783236975350308 0 0.37600683512296651 -0.014087071697862221 0 0.36404947753274258 -0.026706798856440471 0 0.35850646790810559 -0.01395473468271459 0 0.37600683512296651 -0.014087071697862221 0 0.36404947753274258 -0.026706798856440471 0 0.37356965880113402 -0.040783236975350308 0 0.34748556133762742 -0.02738266599094942 0 0.35850646790810559 -0.01395473468271459 0 0.34370628527030811 -0.0115647124322744 0 0.36404947753274258 -0.026706798856440471 0 0.34748556133762742 -0.02738266599094942 0 0.35850646790810559 -0.01395473468271459 0 0.36404947753274258 -0.026706798856440471 0 0.34748556133762742 -0.02738266599094942 0 0.36012817770438982 -0.039413746555128387 0 0.33689267375143878 0.0039255003288513873 0 0.35531676971978082 -0.0033532784323768001 0 0.34370628527030811 -0.0115647124322744 0 0.35531676971978082 -0.0033532784323768001 0 0.35850646790810559 -0.01395473468271459 0 0.34370628527030811 -0.0115647124322744 0 0.33689267375143878 0.0039255003288513873 0 0.34370628527030811 -0.0115647124322744 0 0.32469666258817742 -0.019557632270551 0 0.33689267375143878 0.0039255003288513873 0 0.30352242257352219 0.0039185454548519476 0 0.32469666258817742 -0.019557632270551 0 0.34748556133762742 -0.02738266599094942 0 0.34370628527030811 -0.0115647124322744 0 0.32469666258817742 -0.019557632270551 0 0.34748556133762742 -0.02738266599094942 0 0.32469666258817742 -0.019557632270551 0 0.33457477032001748 -0.043965109755099818 0 0.31326255248553708 -0.043768501277314603 0 0.32924913997341337 -0.063603686862235317 0 0.31014365419524398 -0.06072536978512106 0 0.31326255248553708 -0.043768501277314603 0 0.32924913997341337 -0.063603686862235317 0 0.31326255248553708 -0.043768501277314603 0 0.33457477032001748 -0.043965109755099818 0 0.32924913997341337 -0.063603686862235317 0 0.32469666258817742 -0.019557632270551 0 0.31326255248553708 -0.043768501277314603 0 0.33457477032001748 -0.043965109755099818 0 0.33457477032001748 -0.043965109755099818 0 0.34313363496153881 -0.061193084728204693 0 0.35029003257871461 -0.048624574981710279 0 0.33457477032001748 -0.043965109755099818 0 0.34313363496153881 -0.061193084728204693 0 0.32924913997341337 -0.063603686862235317 0 0.35029003257871461 -0.048624574981710279 0 0.36524615827173029 -0.053571455971191423 0 0.35631850447425872 -0.066333179594821989 0 0.34313363496153881 -0.061193084728204693 0 0.35029003257871461 -0.048624574981710279 0 0.35631850447425872 -0.066333179594821989 0 0.35029003257871461 -0.048624574981710279 0 0.36012817770438982 -0.039413746555128387 0 0.36524615827173029 -0.053571455971191423 0 0.34748556133762742 -0.02738266599094942 0 0.33457477032001748 -0.043965109755099818 0 0.35029003257871461 -0.048624574981710279 0 0.34748556133762742 -0.02738266599094942 0 0.35029003257871461 -0.048624574981710279 0 0.36012817770438982 -0.039413746555128387 0 0.36404947753274258 -0.026706798856440471 0 0.36012817770438982 -0.039413746555128387 0 0.37356965880113402 -0.040783236975350308 0 0.36012817770438982 -0.039413746555128387 0 0.37356965880113402 -0.040783236975350308 0 0.36524615827173029 -0.053571455971191423 0 0.37839056082150663 -0.050608978831784571 0 0.36524615827173029 -0.053571455971191423 0 0.37240766699872252 -0.068318548019290964 0 0.37839056082150663 -0.050608978831784571 0 0.37356965880113402 -0.040783236975350308 0 0.36524615827173029 -0.053571455971191423 0 0.36524615827173029 -0.053571455971191423 0 0.37240766699872252 -0.068318548019290964 0 0.35631850447425872 -0.066333179594821989 0 0.37240766699872252 -0.068318548019290964 0 0.36259903827425999 -0.08213590949324566 0 0.35631850447425872 -0.066333179594821989 0 0.37781097748786241 -0.089314889372882261 0 0.37240766699872252 -0.068318548019290964 0 0.36259903827425999 -0.08213590949324566 0 0.37781097748786241 -0.089314889372882261 0 0.36259903827425999 -0.08213590949324566 0 0.3612223149491664 -0.1032740580320769 0 0.34523572746128989 -0.083438872447156087 0 0.3612223149491664 -0.1032740580320769 0 0.36259903827425999 -0.08213590949324566 0 0.34523572746128989 -0.083438872447156087 0 0.3612223149491664 -0.1032740580320769 0 0.34313363496153881 -0.061193084728204693 0 0.34523572746128989 -0.083438872447156087 0 0.35631850447425872 -0.066333179594821989 0 0.36259903827425999 -0.08213590949324566 0 0.34523572746128989 -0.083438872447156087 0 0.35631850447425872 -0.066333179594821989 0 0.37720890243704291 -0.12310924361699779 0 0.36253108037134668 -0.1248744885805331 0 0.3612223149491664 -0.1032740580320769 0 0.37644505785585192 -0.1058120404938334 0 0.37720890243704291 -0.12310924361699779 0 0.3612223149491664 -0.1032740580320769 0 0.37720890243704291 -0.12310924361699779 0 0.3612223149491664 -0.1032740580320769 0 0.37781097748786241 -0.089314889372882261 0 0.37644505785585192 -0.1058120404938334 0 0.3612223149491664 -0.1032740580320769 0 0.34523572746128989 -0.083438872447156087 0 0.3612223149491664 -0.1032740580320769 0 0.33932087337301742 -0.1007066993955318 0 0.3612223149491664 -0.1032740580320769 0 0.34941185211170689 -0.1127717253903176 0 0.33932087337301742 -0.1007066993955318 0 0.36253108037134668 -0.1248744885805331 0 0.33587402752894302 -0.122350175475488 0 0.36253108037134668 -0.1248744885805331 0 0.34941185211170689 -0.1127717253903176 0 0.33587402752894302 -0.122350175475488 0 0.36253108037134668 -0.1248744885805331 0 0.3612223149491664 -0.1032740580320769 0 0.34941185211170689 -0.1127717253903176 0 0.34941185211170689 -0.1127717253903176 0 0.33587402752894302 -0.122350175475488 0 0.33932087337301742 -0.1007066993955318 0 0.33587402752894302 -0.122350175475488 0 0.33932087337301742 -0.1007066993955318 0 0.31943204723016899 -0.10139701157958859 0 0.33932087337301742 -0.1007066993955318 0 0.31943204723016899 -0.10139701157958859 0 0.32474927095682959 -0.081008353448563344 0 0.33587402752894302 -0.122350175475488 0 0.31943204723016899 -0.10139701157958859 0 0.3092169746865393 -0.1198258623704429 0 0.33587402752894302 -0.122350175475488 0 0.3092169746865393 -0.1198258623704429 0 0.34523572746128989 -0.083438872447156087 0 0.32924913997341337 -0.063603686862235317 0 0.32474927095682959 -0.081008353448563344 0 0.34523572746128989 -0.083438872447156087 0 0.32924913997341337 -0.063603686862235317 0 0.34313363496153881 -0.061193084728204693 0 0.34523572746128989 -0.083438872447156087 0 0.32924913997341337 -0.063603686862235317 0 0.34523572746128989 -0.083438872447156087 0 0.33932087337301742 -0.1007066993955318 0 0.32474927095682959 -0.081008353448563344 0 0.31943204723016899 -0.10139701157958859 0 0.32474927095682959 -0.081008353448563344 0 0.31117343018006932 -0.08835554327446378 0 0.32474927095682959 -0.081008353448563344 0 0.30201438303726968 -0.075929904193525521 0 0.32474927095682959 -0.081008353448563344 0 0.30201438303726968 -0.075929904193525521 0 0.31117343018006932 -0.08835554327446378 0 0.32924913997341337 -0.063603686862235317 0 0.32474927095682959 -0.081008353448563344 0 0.31014365419524398 -0.06072536978512106 0 0.32474927095682959 -0.081008353448563344 0 0.30201438303726968 -0.075929904193525521 0 0.31014365419524398 -0.06072536978512106 0 0.30201438303726968 -0.075929904193525521 0 0.31014365419524398 -0.06072536978512106 0 0.29222542489931519 -0.060978945333093171 0 0.31117343018006932 -0.08835554327446378 0 0.29442961060618023 -0.089764156713605506 0 0.30306705175182019 -0.101009202806625 0 0.30201438303726968 -0.075929904193525521 0 0.31117343018006932 -0.08835554327446378 0 0.29442961060618023 -0.089764156713605506 0 0.29442961060618023 -0.089764156713605506 0 0.28691460331806928 -0.079185378374353493 0 0.27734124638624891 -0.089737863242296378 0 0.30201438303726968 -0.075929904193525521 0 0.29442961060618023 -0.089764156713605506 0 0.28691460331806928 -0.079185378374353493 0 0.30201438303726968 -0.075929904193525521 0 0.27927949511770961 -0.070851454938488739 0 0.29222542489931519 -0.060978945333093171 0 0.30201438303726968 -0.075929904193525521 0 0.27927949511770961 -0.070851454938488739 0 0.30201438303726968 -0.075929904193525521 0 0.28691460331806928 -0.079185378374353493 0 0.27927949511770961 -0.070851454938488739 0 0.28691460331806928 -0.079185378374353493 0 0.27927949511770961 -0.070851454938488739 0 0.27809334201771629 -0.079209584513290715 0 0.28691460331806928 -0.079185378374353493 0 0.27927949511770961 -0.070851454938488739 0 0.27927949511770961 -0.070851454938488739 0 0.27868582307562201 -0.055886184139343542 0 0.29222542489931519 -0.060978945333093171 0 0.31943204723016899 -0.10139701157958859 0 0.3092169746865393 -0.1198258623704429 0 0.30306705175182019 -0.101009202806625 0 0.3092169746865393 -0.1198258623704429 0 0.30306705175182019 -0.101009202806625 0 0.28879183359809052 -0.10393054527906551 0 0.31943204723016899 -0.10139701157958859 0 0.31117343018006932 -0.08835554327446378 0 0.30306705175182019 -0.101009202806625 0 0.28879183359809052 -0.10393054527906551 0 0.28255992184413548 -0.11730154926539781 0 0.27267591943638608 -0.1048970298088977 0 0.29442961060618023 -0.089764156713605506 0 0.28879183359809052 -0.10393054527906551 0 0.27734124638624891 -0.089737863242296378 0 0.29442961060618023 -0.089764156713605506 0 0.30306705175182019 -0.101009202806625 0 0.28879183359809052 -0.10393054527906551 0 0.3092169746865393 -0.1198258623704429 0 0.28255992184413548 -0.11730154926539781 0 0.3092169746865393 -0.1198258623704429 0 0.28879183359809052 -0.10393054527906551 0 0.28255992184413548 -0.11730154926539781 0 0.3092169746865393 -0.1198258623704429 0 0.28255992184413548 -0.11730154926539781 0 0.28721398294742878 -0.13035474923543569 0 0.28255992184413548 -0.11730154926539781 0 0.26776517015272971 -0.1222840496799191 0 0.28721398294742878 -0.13035474923543569 0 0.28255992184413548 -0.11730154926539781 0 0.26776517015272971 -0.1222840496799191 0 0.27267591943638608 -0.1048970298088977 0 0.26776517015272971 -0.1222840496799191 0 0.27267591943638608 -0.1048970298088977 0 0.26047800574605201 -0.11084537767631369 0 0.28879183359809052 -0.10393054527906551 0 0.27267591943638608 -0.1048970298088977 0 0.27734124638624891 -0.089737863242296378 0 0.27267591943638608 -0.1048970298088977 0 0.27734124638624891 -0.089737863242296378 0 0.26256105175446781 -0.092679464148907056 0 0.25771864553297669 -0.099620140202181948 0 0.26047800574605201 -0.11084537767631369 0 0.24375228786211539 -0.116580291014256 0 0.27267591943638608 -0.1048970298088977 0 0.25771864553297669 -0.099620140202181948 0 0.26256105175446781 -0.092679464148907056 0 0.25771864553297669 -0.099620140202181948 0 0.25304747237378489 -0.090741332181114118 0 0.24292322406264641 -0.096552741650977186 0 0.25771864553297669 -0.099620140202181948 0 0.26256105175446781 -0.092679464148907056 0 0.25304747237378489 -0.090741332181114118 0 0.27267591943638608 -0.1048970298088977 0 0.25771864553297669 -0.099620140202181948 0 0.26047800574605201 -0.11084537767631369 0 0.26776517015272971 -0.1222840496799191 0 0.26153006621115998 -0.13421007507225571 0 0.24375228786211539 -0.116580291014256 0 0.26776517015272971 -0.1222840496799191 0 0.24375228786211539 -0.116580291014256 0 0.26776517015272971 -0.1222840496799191 0 0.26047800574605201 -0.11084537767631369 0 0.24375228786211539 -0.116580291014256 0 0.27927949511770961 -0.070851454938488739 0 0.25811154610651499 -0.066123023671663908 0 0.26329678137076351 -0.053405898285071182 0 0.27927949511770961 -0.070851454938488739 0 0.25811154610651499 -0.066123023671663908 0 0.26883802324883782 -0.077063641498024305 0 0.27927949511770961 -0.070851454938488739 0 0.25811154610651499 -0.066123023671663908 0 0.26883802324883782 -0.077063641498024305 0 0.27927949511770961 -0.070851454938488739 0 0.27809334201771629 -0.079209584513290715 0 0.26883802324883782 -0.077063641498024305 0 0.27809334201771629 -0.079209584513290715 0 0.27734124638624891 -0.089737863242296378 0 0.26883802324883782 -0.077063641498024305 0 0.27734124638624891 -0.089737863242296378 0 0.25202197504294188 -0.078400955310045109 0 0.28691460331806928 -0.079185378374353493 0 0.27809334201771629 -0.079209584513290715 0 0.27734124638624891 -0.089737863242296378 0 0.27734124638624891 -0.089737863242296378 0 0.26256105175446781 -0.092679464148907056 0 0.25202197504294188 -0.078400955310045109 0 0.27734124638624891 -0.089737863242296378 0 0.25202197504294188 -0.078400955310045109 0 0.26256105175446781 -0.092679464148907056 0 0.25304747237378489 -0.090741332181114118 0 0.25202197504294188 -0.078400955310045109 0 0.25304747237378489 -0.090741332181114118 0 0.25202197504294188 -0.078400955310045109 0 0.24624903761231479 -0.086847438891893419 0 0.26883802324883782 -0.077063641498024305 0 0.25202197504294188 -0.078400955310045109 0 0.25811154610651499 -0.066123023671663908 0 0.25811154610651499 -0.066123023671663908 0 0.26329678137076351 -0.053405898285071182 0 0.24870160087168189 -0.052882304334001928 0 0.26329678137076351 -0.053405898285071182 0 0.24870160087168189 -0.052882304334001928 0 0.24731406762381819 -0.035960341631652723 0 0.27927949511770961 -0.070851454938488739 0 0.26329678137076351 -0.053405898285071182 0 0.27868582307562201 -0.055886184139343542 0 0.27927949511770961 -0.070851454938488739 0 0.26329678137076351 -0.053405898285071182 0 0.26329678137076351 -0.053405898285071182 0 0.27868582307562201 -0.055886184139343542 0 0.27337213238318842 -0.044040078526876879 0 0.27868582307562201 -0.055886184139343542 0 0.27337213238318842 -0.044040078526876879 0 0.28525528160713332 -0.050154543613187753 0 0.26329678137076351 -0.053405898285071182 0 0.27337213238318842 -0.044040078526876879 0 0.26311483972878968 -0.036713614733010089 0 0.27337213238318842 -0.044040078526876879 0 0.27217486102646721 -0.027861542379398439 0 0.28494473946257981 -0.034556038004921102 0 0.27337213238318842 -0.044040078526876879 0 0.26311483972878968 -0.036713614733010089 0 0.27217486102646721 -0.027861542379398439 0 0.27337213238318842 -0.044040078526876879 0 0.28525528160713332 -0.050154543613187753 0 0.28494473946257981 -0.034556038004921102 0 0.26311483972878968 -0.036713614733010089 0 0.25941635623971138 -0.02230021284205122 0 0.24731406762381819 -0.035960341631652723 0 0.26329678137076351 -0.053405898285071182 0 0.24731406762381819 -0.035960341631652723 0 0.26329678137076351 -0.053405898285071182 0 0.26311483972878968 -0.036713614733010089 0 0.24731406762381819 -0.035960341631652723 0 0.25941635623971138 -0.02230021284205122 0 0.24731406762381819 -0.035960341631652723 0 0.2482857443068576 -0.021714794414400052 0 0.25941635623971138 -0.02230021284205122 0 0.25508119948702751 -0.010083838205662381 0 0.2482857443068576 -0.021714794414400052 0 0.26311483972878968 -0.036713614733010089 0 0.25941635623971138 -0.02230021284205122 0 0.27217486102646721 -0.027861542379398439 0 0.2541426920980116 -0.0036136263454906951 0 0.25508119948702751 -0.010083838205662381 0 0.24138147174972829 -0.0061427828714447699 0 0.2541426920980116 -0.0036136263454906951 0 0.25508119948702751 -0.010083838205662381 0 0.26047117107291767 -0.0019720443344692288 0 0.25446675038947358 0.0029162606258486688 0 0.2541426920980116 -0.0036136263454906951 0 0.26047117107291767 -0.0019720443344692288 0 0.25941635623971138 -0.02230021284205122 0 0.25508119948702751 -0.010083838205662381 0 0.26474460583379889 -0.01023883548432745 0 0.25941635623971138 -0.02230021284205122 0 0.26474460583379889 -0.01023883548432745 0 0.27166734417845928 -0.01430021117376327 0 0.25508119948702751 -0.010083838205662381 0 0.26474460583379889 -0.01023883548432745 0 0.26047117107291767 -0.0019720443344692288 0 0.26474460583379889 -0.01023883548432745 0 0.26047117107291767 -0.0019720443344692288 0 0.27708695819087842 -0.0025378708656911609 0 0.26474460583379889 -0.01023883548432745 0 0.27166734417845928 -0.01430021117376327 0 0.27708695819087842 -0.0025378708656911609 0 0.27166734417845928 -0.01430021117376327 0 0.27708695819087842 -0.0025378708656911609 0 0.28469269166600031 -0.01545933141113482 0 0.27217486102646721 -0.027861542379398439 0 0.28469269166600031 -0.01545933141113482 0 0.28494473946257981 -0.034556038004921102 0 0.25941635623971138 -0.02230021284205122 0 0.27166734417845928 -0.01430021117376327 0 0.27217486102646721 -0.027861542379398439 0 0.27166734417845928 -0.01430021117376327 0 0.27217486102646721 -0.027861542379398439 0 0.28469269166600031 -0.01545933141113482 0 0.28469269166600031 -0.01545933141113482 0 0.29727596499766062 -0.023933315692393788 0 0.28494473946257981 -0.034556038004921102 0 0.30352242257352219 0.0039185454548519476 0 0.28469269166600031 -0.01545933141113482 0 0.29727596499766062 -0.023933315692393788 0 0.30352242257352219 0.0039185454548519476 0 0.27708695819087842 -0.0025378708656911609 0 0.28469269166600031 -0.01545933141113482 0 0.30352242257352219 0.0039185454548519476 0 0.32469666258817742 -0.019557632270551 0 0.29727596499766062 -0.023933315692393788 0 0.32469666258817742 -0.019557632270551 0 0.31326255248553708 -0.043768501277314603 0 0.29727596499766062 -0.023933315692393788 0 0.31326255248553708 -0.043768501277314603 0 0.29727596499766062 -0.023933315692393788 0 0.2968975050950291 -0.045887416406534938 0 0.31326255248553708 -0.043768501277314603 0 0.29727596499766062 -0.023933315692393788 0 0.31326255248553708 -0.043768501277314603 0 0.2968975050950291 -0.045887416406534938 0 0.31014365419524398 -0.06072536978512106 0 0.2968975050950291 -0.045887416406534938 0 0.31014365419524398 -0.06072536978512106 0 0.29222542489931519 -0.060978945333093171 0 0.2968975050950291 -0.045887416406534938 0 0.29222542489931519 -0.060978945333093171 0 0.28525528160713332 -0.050154543613187753 0 0.27868582307562201 -0.055886184139343542 0 0.29222542489931519 -0.060978945333093171 0 0.28525528160713332 -0.050154543613187753 0 0.2968975050950291 -0.045887416406534938 0 0.28525528160713332 -0.050154543613187753 0 0.28494473946257981 -0.034556038004921102 0 0.29727596499766062 -0.023933315692393788 0 0.2968975050950291 -0.045887416406534938 0 0.28494473946257981 -0.034556038004921102 0 0.29579617193404978 -0.19432558104056491 0 0.30588539897632072 -0.22256652654210629 0 0.2776594049058328 -0.2175861504380624 0 0.29579617193404978 -0.19432558104056491 0 0.2776594049058328 -0.2175861504380624 0 0.2764107852420567 -0.19644220614923899 0 0.29579617193404978 -0.19432558104056491 0 0.2764107852420567 -0.19644220614923899 0 0.2792899687438003 -0.18116405860585089 0 0.29579617193404978 -0.19432558104056491 0 0.31045946319455608 -0.20263901644370941 0 0.31057073564158039 -0.17760626025882659 0 0.29579617193404978 -0.19432558104056491 0 0.30588539897632072 -0.22256652654210629 0 0.31045946319455608 -0.20263901644370941 0 0.30588539897632072 -0.22256652654210629 0 0.32020032842118662 -0.2136972324735969 0 0.29579617193404978 -0.19432558104056491 0 0.31045946319455608 -0.20263901644370941 0 0.30588539897632072 -0.22256652654210629 0 0.29681701546221179 -0.23419681124085551 0 0.31597462601859122 -0.25080747204364812 0 0.30111904597271899 -0.2536098058489899 0 0.30588539897632072 -0.22256652654210629 0 0.29681701546221179 -0.23419681124085551 0 0.31597462601859122 -0.25080747204364812 0 0.30588539897632072 -0.22256652654210629 0 0.31597462601859122 -0.25080747204364812 0 0.29681701546221179 -0.23419681124085551 0 0.31597462601859122 -0.25080747204364812 0 0.29681701546221179 -0.23419681124085551 0 0.30111904597271899 -0.2536098058489899 0 0.28456511698073272 -0.25518130134833977 0 0.29681701546221179 -0.23419681124085551 0 0.27830026498091959 -0.23745462562099759 0 0.28456511698073272 -0.25518130134833977 0 0.30588539897632072 -0.22256652654210629 0 0.29681701546221179 -0.23419681124085551 0 0.2776594049058328 -0.2175861504380624 0 0.29681701546221179 -0.23419681124085551 0 0.27830026498091959 -0.23745462562099759 0 0.2776594049058328 -0.2175861504380624 0 0.29681701546221179 -0.23419681124085551 0 0.2776594049058328 -0.2175861504380624 0 0.26584409390649738 -0.23415831621220631 0 0.27830026498091959 -0.23745462562099759 0 0.2776594049058328 -0.2175861504380624 0 0.26584409390649738 -0.23415831621220631 0 0.25658827463044448 -0.2222138965281123 0 0.2776594049058328 -0.2175861504380624 0 0.27830026498091959 -0.23745462562099759 0 0.28456511698073272 -0.25518130134833977 0 0.26629969424128969 -0.25192769388052821 0 0.26584409390649738 -0.23415831621220631 0 0.27830026498091959 -0.23745462562099759 0 0.26629969424128969 -0.25192769388052821 0 0.26584409390649738 -0.23415831621220631 0 0.25037283077400019 -0.2416092145933311 0 0.26629969424128969 -0.25192769388052821 0 0.25037283077400019 -0.2416092145933311 0 0.25658827463044448 -0.2222138965281123 0 0.2446094219978813 -0.2276121794933563 0 0.26584409390649738 -0.23415831621220631 0 0.25037283077400019 -0.2416092145933311 0 0.25658827463044448 -0.2222138965281123 0 0.25658827463044448 -0.2222138965281123 0 0.2776594049058328 -0.2175861504380624 0 0.25850179434945381 -0.20097548963526929 0 0.25658827463044448 -0.2222138965281123 0 0.25850179434945381 -0.20097548963526929 0 0.23907695871134879 -0.21289681242661959 0 0.2776594049058328 -0.2175861504380624 0 0.25850179434945381 -0.20097548963526929 0 0.2776594049058328 -0.2175861504380624 0 0.2764107852420567 -0.19644220614923899 0 0.25850179434945381 -0.20097548963526929 0 0.2764107852420567 -0.19644220614923899 0 0.25850179434945381 -0.20097548963526929 0 0.26539786460737957 -0.18100391429238191 0 0.25850179434945381 -0.20097548963526929 0 0.26539786460737957 -0.18100391429238191 0 0.23934418379307471 -0.18436482883247621 0 0.26539786460737957 -0.18100391429238191 0 0.25449645062408999 -0.16331052089379791 0 0.23934418379307471 -0.18436482883247621 0 0.26539786460737957 -0.18100391429238191 0 0.25449645062408999 -0.16331052089379791 0 0.27043371620885309 -0.16438603764101259 0 0.25449645062408999 -0.16331052089379791 0 0.27043371620885309 -0.16438603764101259 0 0.2633734196266177 -0.15149826902969399 0 0.27043371620885309 -0.16438603764101259 0 0.2792899687438003 -0.18116405860585089 0 0.28570694489177878 -0.1660846355390232 0 0.27043371620885309 -0.16438603764101259 0 0.27930784456020519 -0.15183985913025491 0 0.28570694489177878 -0.1660846355390232 0 0.26539786460737957 -0.18100391429238191 0 0.27043371620885309 -0.16438603764101259 0 0.2792899687438003 -0.18116405860585089 0 0.2764107852420567 -0.19644220614923899 0 0.26539786460737957 -0.18100391429238191 0 0.2792899687438003 -0.18116405860585089 0 0.26153006621115998 -0.13421007507225571 0 0.24375228786211539 -0.116580291014256 0 0.24955680073527009 -0.143898101237383 0 0.26153006621115998 -0.13421007507225571 0 0.24375228786211539 -0.116580291014256 0 0.25449645062408999 -0.16331052089379791 0 0.2633734196266177 -0.15149826902969399 0 0.24955680073527009 -0.143898101237383 0 0.26153006621115998 -0.13421007507225571 0 0.2633734196266177 -0.15149826902969399 0 0.24955680073527009 -0.143898101237383 0 0.27043371620885309 -0.16438603764101259 0 0.2633734196266177 -0.15149826902969399 0 0.27930784456020519 -0.15183985913025491 0 0.27561771784950778 -0.13784369003748159 0 0.28570694489177878 -0.1660846355390232 0 0.26153006621115998 -0.13421007507225571 0 0.27930784456020519 -0.15183985913025491 0 0.27561771784950778 -0.13784369003748159 0 0.27930784456020519 -0.15183985913025491 0 0.27561771784950778 -0.13784369003748159 0 0.28570694489177878 -0.1660846355390232 0 0.26153006621115998 -0.13421007507225571 0 0.2633734196266177 -0.15149826902969399 0 0.27930784456020519 -0.15183985913025491 0 0.26153006621115998 -0.13421007507225571 0 0.27930784456020519 -0.15183985913025491 0 0.26776517015272971 -0.1222840496799191 0 0.27561771784950778 -0.13784369003748159 0 0.28721398294742878 -0.13035474923543569 0 0.26776517015272971 -0.1222840496799191 0 0.26153006621115998 -0.13421007507225571 0 0.27561771784950778 -0.13784369003748159 0 0.27561771784950778 -0.13784369003748159 0 0.28721398294742878 -0.13035474923543569 0 0.28891568690104508 -0.14625428249578579 0 0.28721398294742878 -0.13035474923543569 0 0.28891568690104508 -0.14625428249578579 0 0.29920842625061578 -0.1386190615635868 0 0.28891568690104508 -0.14625428249578579 0 0.29920842625061578 -0.1386190615635868 0 0.29789574789403661 -0.15876522012859751 0 0.27561771784950778 -0.13784369003748159 0 0.28891568690104508 -0.14625428249578579 0 0.28570694489177878 -0.1660846355390232 0 0.30985117626407932 -0.1486491484402036 0 0.29920842625061578 -0.1386190615635868 0 0.29789574789403661 -0.15876522012859751 0 0.30985117626407932 -0.1486491484402036 0 0.29789574789403661 -0.15876522012859751 0 0.3134799250960158 -0.16133035304856411 0 0.30985117626407932 -0.1486491484402036 0 0.29920842625061578 -0.1386190615635868 0 0.31980994510895661 -0.13408045692276491 0 0.3092169746865393 -0.1198258623704429 0 0.28721398294742878 -0.13035474923543569 0 0.29920842625061578 -0.1386190615635868 0 0.3092169746865393 -0.1198258623704429 0 0.29920842625061578 -0.1386190615635868 0 0.31980994510895661 -0.13408045692276491 0 0.29579617193404978 -0.19432558104056491 0 0.2792899687438003 -0.18116405860585089 0 0.28570694489177878 -0.1660846355390232 0 0.29579617193404978 -0.19432558104056491 0 0.28570694489177878 -0.1660846355390232 0 0.29579617193404978 -0.19432558104056491 0 0.28570694489177878 -0.1660846355390232 0 0.29784246694311001 -0.17248502473641619 0 0.28891568690104508 -0.14625428249578579 0 0.28570694489177878 -0.1660846355390232 0 0.29789574789403661 -0.15876522012859751 0 0.28570694489177878 -0.1660846355390232 0 0.29789574789403661 -0.15876522012859751 0 0.29784246694311001 -0.17248502473641619 0 0.29789574789403661 -0.15876522012859751 0 0.31057073564158039 -0.17760626025882659 0 0.3134799250960158 -0.16133035304856411 0 0.29789574789403661 -0.15876522012859751 0 0.31057073564158039 -0.17760626025882659 0 0.29784246694311001 -0.17248502473641619 0 0.29789574789403661 -0.15876522012859751 0 0.31057073564158039 -0.17760626025882659 0 0.29579617193404978 -0.19432558104056491 0 0.31057073564158039 -0.17760626025882659 0 0.29784246694311001 -0.17248502473641619 0 0.31057073564158039 -0.17760626025882659 0 0.33117051957001492 -0.16690810347740409 0 0.33960500058918919 -0.18923554211963439 0 0.31057073564158039 -0.17760626025882659 0 0.32324572338912438 -0.19644730038905581 0 0.3134799250960158 -0.16133035304856411 0 0.33117051957001492 -0.16690810347740409 0 0.32297156368297691 -0.15191279281852399 0 0.31057073564158039 -0.17760626025882659 0 0.3134799250960158 -0.16133035304856411 0 0.33117051957001492 -0.16690810347740409 0 0.33117051957001492 -0.16690810347740409 0 0.34312821131240068 -0.1490342399984359 0 0.35150112372442083 -0.17432517416681301 0 0.33117051957001492 -0.16690810347740409 0 0.35150112372442083 -0.17432517416681301 0 0.33960500058918919 -0.18923554211963439 0 0.33587402752894302 -0.122350175475488 0 0.3092169746865393 -0.1198258623704429 0 0.31980994510895661 -0.13408045692276491 0 0.30985117626407932 -0.1486491484402036 0 0.31980994510895661 -0.13408045692276491 0 0.32297156368297691 -0.15191279281852399 0 0.30985117626407932 -0.1486491484402036 0 0.3134799250960158 -0.16133035304856411 0 0.32297156368297691 -0.15191279281852399 0 0.33117051957001492 -0.16690810347740409 0 0.32297156368297691 -0.15191279281852399 0 0.34312821131240068 -0.1490342399984359 0 0.31980994510895661 -0.13408045692276491 0 0.32297156368297691 -0.15191279281852399 0 0.34312821131240068 -0.1490342399984359 0 0.33587402752894302 -0.122350175475488 0 0.31980994510895661 -0.13408045692276491 0 0.34312821131240068 -0.1490342399984359 0 0.36253108037134668 -0.1248744885805331 0 0.33587402752894302 -0.122350175475488 0 0.3555623608711499 -0.1359942506039106 0 0.33587402752894302 -0.122350175475488 0 0.34312821131240068 -0.1490342399984359 0 0.3555623608711499 -0.1359942506039106 0 0.34312821131240068 -0.1490342399984359 0 0.3555623608711499 -0.1359942506039106 0 0.36858459771950869 -0.15733985743645959 0 0.3555623608711499 -0.1359942506039106 0 0.36652086356581781 -0.12946943863695781 0 0.36858459771950869 -0.15733985743645959 0 0.36652086356581781 -0.12946943863695781 0 0.36858459771950869 -0.15733985743645959 0 0.36652086356581781 -0.12946943863695781 0 0.36858459771950869 -0.15733985743645959 0 0.3787995421462832 -0.1425544525875144 0 0.36652086356581781 -0.12946943863695781 0 0.37808333446084269 -0.1309391893982525 0 0.3787995421462832 -0.1425544525875144 0 0.36253108037134668 -0.1248744885805331 0 0.36652086356581781 -0.12946943863695781 0 0.37808333446084269 -0.1309391893982525 0 0.36253108037134668 -0.1248744885805331 0 0.3555623608711499 -0.1359942506039106 0 0.36652086356581781 -0.12946943863695781 0 0.35150112372442083 -0.17432517416681301 0 0.37064833187319962 -0.1852102762359614 0 0.35587008128221181 -0.19822302573298239 0 0.35150112372442083 -0.17432517416681301 0 0.35587008128221181 -0.19822302573298239 0 0.33960500058918919 -0.18923554211963439 0 0.34312821131240068 -0.1490342399984359 0 0.35150112372442083 -0.17432517416681301 0 0.36858459771950869 -0.15733985743645959 0 0.36858459771950869 -0.15733985743645959 0 0.37064833187319962 -0.1852102762359614 0 0.35150112372442083 -0.17432517416681301 0 0.36858459771950869 -0.15733985743645959 0 0.37064833187319962 -0.1852102762359614 0 0.36858459771950869 -0.15733985743645959 0 0.37064833187319962 -0.1852102762359614 0 0.3834788620725188 -0.17954848884060079 0 0.37064833187319962 -0.1852102762359614 0 0.37271206602689039 -0.21308069503546309 0 0.38139900114097952 -0.20469292352659629 0 0.37064833187319962 -0.1852102762359614 0 0.37271206602689039 -0.21308069503546309 0 0.37064833187319962 -0.1852102762359614 0 0.37271206602689039 -0.21308069503546309 0 0.35587008128221181 -0.19822302573298239 0 0.37271206602689039 -0.21308069503546309 0 0.35603419272415182 -0.2169366224123114 0 0.35587008128221181 -0.19822302573298239 0 0.35603419272415182 -0.2169366224123114 0 0.35587008128221181 -0.19822302573298239 0 0.33592071113666833 -0.21528834051928489 0 0.35587008128221181 -0.19822302573298239 0 0.33960500058918919 -0.18923554211963439 0 0.33592071113666833 -0.21528834051928489 0 0.33960500058918919 -0.18923554211963439 0 0.33592071113666833 -0.21528834051928489 0 0.32324572338912438 -0.19644730038905581 0 0.33592071113666833 -0.21528834051928489 0 0.32324572338912438 -0.19644730038905581 0 0.33592071113666833 -0.21528834051928489 0 0.32020032842118662 -0.2136972324735969 0 0.32324572338912438 -0.19644730038905581 0 0.31045946319455608 -0.20263901644370941 0 0.32020032842118662 -0.2136972324735969 0 0.32324572338912438 -0.19644730038905581 0 0.31057073564158039 -0.17760626025882659 0 0.33960500058918919 -0.18923554211963439 0 0.32324572338912438 -0.19644730038905581 0 0.31045946319455608 -0.20263901644370941 0 0.31057073564158039 -0.17760626025882659 0 0.32324572338912438 -0.19644730038905581 0 0.32549034540926353 -0.23154497847382799 0 0.33517615116993849 -0.24743488902137309 0 0.31597462601859122 -0.25080747204364812 0 0.30588539897632072 -0.22256652654210629 0 0.32549034540926353 -0.23154497847382799 0 0.31597462601859122 -0.25080747204364812 0 0.30588539897632072 -0.22256652654210629 0 0.32020032842118662 -0.2136972324735969 0 0.32549034540926353 -0.23154497847382799 0 0.33592071113666833 -0.21528834051928489 0 0.32020032842118662 -0.2136972324735969 0 0.32549034540926353 -0.23154497847382799 0 0.33592071113666833 -0.21528834051928489 0 0.32549034540926353 -0.23154497847382799 0 0.34859569888421221 -0.23412938064951411 0 0.33592071113666833 -0.21528834051928489 0 0.34859569888421221 -0.23412938064951411 0 0.32549034540926353 -0.23154497847382799 0 0.33517615116993849 -0.24743488902137309 0 0.34859569888421221 -0.23412938064951411 0 0.33517615116993849 -0.24743488902137309 0 0.34859569888421221 -0.23412938064951411 0 0.35185333732921159 -0.25428502110151557 0 0.34859569888421221 -0.23412938064951411 0 0.36075586336603621 -0.2426037127049111 0 0.35185333732921159 -0.25428502110151557 0 0.34859569888421221 -0.23412938064951411 0 0.36291464790978972 -0.22902601310760301 0 0.36075586336603621 -0.2426037127049111 0 0.35603419272415182 -0.2169366224123114 0 0.34859569888421221 -0.23412938064951411 0 0.36291464790978972 -0.22902601310760301 0 0.35603419272415182 -0.2169366224123114 0 0.33592071113666833 -0.21528834051928489 0 0.34859569888421221 -0.23412938064951411 0 0.37271206602689039 -0.21308069503546309 0 0.35603419272415182 -0.2169366224123114 0 0.36291464790978972 -0.22902601310760301 0 0.37271206602689039 -0.21308069503546309 0 0.37477580018058132 -0.24095111383496479 0 0.37555308153547928 -0.22286467051027881 0 0.37271206602689039 -0.21308069503546309 0 0.37477580018058132 -0.24095111383496479 0 0.37271206602689039 -0.21308069503546309 0 0.36291464790978972 -0.22902601310760301 0 0.37477580018058132 -0.24095111383496479 0 0.36075586336603621 -0.2426037127049111 0 0.37477580018058132 -0.24095111383496479 0 0.36563983252638571 -0.25462703483095822 0 0.36291464790978972 -0.22902601310760301 0 0.36075586336603621 -0.2426037127049111 0 0.37477580018058132 -0.24095111383496479 0 0.37477580018058132 -0.24095111383496479 0 0.39321551516580561 -0.23618023300957031 0 0.38725375881062551 -0.25185160038302579 0 0.39321551516580561 -0.23618023300957031 0 0.41087794879613182 -0.2494957955088617 0 0.40741230325918792 -0.23450562481703699 0 0.39321551516580561 -0.23618023300957031 0 0.41087794879613182 -0.2494957955088617 0 0.39321551516580561 -0.23618023300957031 0 0.38725375881062551 -0.25185160038302579 0 0.39640803358832022 -0.25154779433757402 0 0.39321551516580561 -0.23618023300957031 0 0.41087794879613182 -0.2494957955088617 0 0.39640803358832022 -0.25154779433757402 0 0.4055308246994358 -0.22407667781788709 0 0.39424069285124719 -0.22310079746779379 0 0.40434357831770951 -0.21487406561090469 0 0.4055308246994358 -0.22407667781788709 0 0.39424069285124719 -0.22310079746779379 0 0.40741230325918792 -0.23450562481703699 0 0.39321551516580561 -0.23618023300957031 0 0.39424069285124719 -0.22310079746779379 0 0.40741230325918792 -0.23450562481703699 0 0.37477580018058132 -0.24095111383496479 0 0.39321551516580561 -0.23618023300957031 0 0.37555308153547928 -0.22286467051027881 0 0.39424069285124719 -0.22310079746779379 0 0.37555308153547928 -0.22286467051027881 0 0.38300691860546521 -0.21527996176244341 0 0.39321551516580561 -0.23618023300957031 0 0.37555308153547928 -0.22286467051027881 0 0.39321551516580561 -0.23618023300957031 0 0.39424069285124719 -0.22310079746779379 0 0.37555308153547928 -0.22286467051027881 0 0.37271206602689039 -0.21308069503546309 0 0.37555308153547928 -0.22286467051027881 0 0.38300691860546521 -0.21527996176244341 0 0.37271206602689039 -0.21308069503546309 0 0.38139900114097952 -0.20469292352659629 0 0.38300691860546521 -0.21527996176244341 0 0.38139900114097952 -0.20469292352659629 0 0.39078770323730427 -0.19674260859680251 0 0.39112975147272949 -0.2126607222720846 0 0.38139900114097952 -0.20469292352659629 0 0.38300691860546521 -0.21527996176244341 0 0.39112975147272949 -0.2126607222720846 0 0.39424069285124719 -0.22310079746779379 0 0.38300691860546521 -0.21527996176244341 0 0.39112975147272949 -0.2126607222720846 0 0.37064833187319962 -0.1852102762359614 0 0.38139900114097952 -0.20469292352659629 0 0.39078770323730427 -0.19674260859680251 0 0.39078770323730427 -0.19674260859680251 0 0.40475141021500721 -0.1910589369573561 0 0.39510197637232292 -0.1839605883432579 0 0.39078770323730427 -0.19674260859680251 0 0.40426546228868082 -0.20108352786525729 0 0.397631623829106 -0.20634023108626229 0 0.39078770323730427 -0.19674260859680251 0 0.40426546228868082 -0.20108352786525729 0 0.40475141021500721 -0.1910589369573561 0 0.39078770323730427 -0.19674260859680251 0 0.39112975147272949 -0.2126607222720846 0 0.397631623829106 -0.20634023108626229 0 0.39112975147272949 -0.2126607222720846 0 0.397631623829106 -0.20634023108626229 0 0.40434357831770951 -0.21487406561090469 0 0.39424069285124719 -0.22310079746779379 0 0.39112975147272949 -0.2126607222720846 0 0.40434357831770951 -0.21487406561090469 0 0.40426546228868082 -0.20108352786525729 0 0.397631623829106 -0.20634023108626229 0 0.40434357831770951 -0.21487406561090469 0 0.40434357831770951 -0.21487406561090469 0 0.41713092845542321 -0.20900944133272009 0 0.41612672436959858 -0.22382622337581301 0 0.40426546228868082 -0.20108352786525729 0 0.40434357831770951 -0.21487406561090469 0 0.41713092845542321 -0.20900944133272009 0 0.41713092845542321 -0.20900944133272009 0 0.42330136258736267 -0.2174116668913772 0 0.41612672436959858 -0.22382622337581301 0 0.40475141021500721 -0.1910589369573561 0 0.41487892771890261 -0.19826025474908979 0 0.4146572714410397 -0.186958864794112 0 0.40426546228868082 -0.20108352786525729 0 0.41713092845542321 -0.20900944133272009 0 0.41487892771890261 -0.19826025474908979 0 0.40426546228868082 -0.20108352786525729 0 0.40475141021500721 -0.1910589369573561 0 0.41487892771890261 -0.19826025474908979 0 0.41713092845542321 -0.20900944133272009 0 0.41487892771890261 -0.19826025474908979 0 0.42701217502226602 -0.19751647228806199 0 0.41487892771890261 -0.19826025474908979 0 0.42053294087941678 -0.1923617771039739 0 0.42701217502226602 -0.19751647228806199 0 0.42053294087941678 -0.1923617771039739 0 0.4146572714410397 -0.186958864794112 0 0.42558338933545942 -0.1867115165846317 0 0.41487892771890261 -0.19826025474908979 0 0.42053294087941678 -0.1923617771039739 0 0.4146572714410397 -0.186958864794112 0 0.42701217502226602 -0.19751647228806199 0 0.43844209377108118 -0.18689286854296691 0 0.44355474576021348 -0.2050869029196882 0 0.42053294087941678 -0.1923617771039739 0 0.42701217502226602 -0.19751647228806199 0 0.42558338933545942 -0.1867115165846317 0 0.42701217502226602 -0.19751647228806199 0 0.42558338933545942 -0.1867115165846317 0 0.43844209377108118 -0.18689286854296691 0 0.42701217502226602 -0.19751647228806199 0 0.43006687167525981 -0.21185300334864521 0 0.44355474576021348 -0.2050869029196882 0 0.41713092845542321 -0.20900944133272009 0 0.42330136258736267 -0.2174116668913772 0 0.43006687167525981 -0.21185300334864521 0 0.42330136258736267 -0.2174116668913772 0 0.43006687167525981 -0.21185300334864521 0 0.42988092584916948 -0.2249579995083304 0 0.41713092845542321 -0.20900944133272009 0 0.42701217502226602 -0.19751647228806199 0 0.43006687167525981 -0.21185300334864521 0 0.43006687167525981 -0.21185300334864521 0 0.42988092584916948 -0.2249579995083304 0 0.44009267276725389 -0.2176624614444449 0 0.42330136258736267 -0.2174116668913772 0 0.42988092584916948 -0.2249579995083304 0 0.41612672436959858 -0.22382622337581301 0 0.42988092584916948 -0.2249579995083304 0 0.43458399188612801 -0.2397076170126072 0 0.42159465327244361 -0.23640953485310751 0 0.42988092584916948 -0.2249579995083304 0 0.42159465327244361 -0.23640953485310751 0 0.41612672436959858 -0.22382622337581301 0 0.42988092584916948 -0.2249579995083304 0 0.43458399188612801 -0.2397076170126072 0 0.44416109061426973 -0.22983272991065171 0 0.43458399188612801 -0.2397076170126072 0 0.42656562700980838 -0.24831468624349931 0 0.4372088962240912 -0.25169219704383999 0 0.43458399188612801 -0.2397076170126072 0 0.42656562700980838 -0.24831468624349931 0 0.42159465327244361 -0.23640953485310751 0 0.42656562700980838 -0.24831468624349931 0 0.42159465327244361 -0.23640953485310751 0 0.41087794879613182 -0.2494957955088617 0 0.42159465327244361 -0.23640953485310751 0 0.41087794879613182 -0.2494957955088617 0 0.40741230325918792 -0.23450562481703699 0 0.4055308246994358 -0.22407667781788709 0 0.40741230325918792 -0.23450562481703699 0 0.41612672436959858 -0.22382622337581301 0 0.4055308246994358 -0.22407667781788709 0 0.40434357831770951 -0.21487406561090469 0 0.41612672436959858 -0.22382622337581301 0 0.42159465327244361 -0.23640953485310751 0 0.40741230325918792 -0.23450562481703699 0 0.41612672436959858 -0.22382622337581301 0 0.39823574772599779 -0.11763079726210079 0 0.40257569972698831 -0.13396225485532559 0 0.38918813321375051 -0.12739880168557821 0 0.40257569972698831 -0.13396225485532559 0 0.38918813321375051 -0.12739880168557821 0 0.39017348084279901 -0.13955387731924049 0 0.38918813321375051 -0.12739880168557821 0 0.37808333446084269 -0.1309391893982525 0 0.39017348084279901 -0.13955387731924049 0 0.37720890243704291 -0.12310924361699779 0 0.36253108037134668 -0.1248744885805331 0 0.38918813321375051 -0.12739880168557821 0 0.36253108037134668 -0.1248744885805331 0 0.38918813321375051 -0.12739880168557821 0 0.37808333446084269 -0.1309391893982525 0 0.36253108037134668 -0.1248744885805331 0 0.38918813321375051 -0.12739880168557821 0 0.37808333446084269 -0.1309391893982525 0 0.39017348084279901 -0.13955387731924049 0 0.3787995421462832 -0.1425544525875144 0 0.36858459771950869 -0.15733985743645959 0 0.3787995421462832 -0.1425544525875144 0 0.38535727780346091 -0.1527557998392445 0 0.39017348084279901 -0.13955387731924049 0 0.3787995421462832 -0.1425544525875144 0 0.38535727780346091 -0.1527557998392445 0 0.40257569972698831 -0.13396225485532559 0 0.39822107621443897 -0.1501202070538992 0 0.41732028123257531 -0.14286435439753159 0 0.40257569972698831 -0.13396225485532559 0 0.39017348084279901 -0.13955387731924049 0 0.39822107621443897 -0.1501202070538992 0 0.39017348084279901 -0.13955387731924049 0 0.38535727780346091 -0.1527557998392445 0 0.39822107621443897 -0.1501202070538992 0 0.39822107621443897 -0.1501202070538992 0 0.39107178753907162 -0.16851380255406381 0 0.40713652226246821 -0.16744863749245631 0 0.39107178753907162 -0.16851380255406381 0 0.40713652226246821 -0.16744863749245631 0 0.38535727780346091 -0.1527557998392445 0 0.39822107621443897 -0.1501202070538992 0 0.39107178753907162 -0.16851380255406381 0 0.39107178753907162 -0.16851380255406381 0 0.40460499843718001 -0.17902112385493851 0 0.40713652226246821 -0.16744863749245631 0 0.36858459771950869 -0.15733985743645959 0 0.38535727780346091 -0.1527557998392445 0 0.39107178753907162 -0.16851380255406381 0 0.36858459771950869 -0.15733985743645959 0 0.39107178753907162 -0.16851380255406381 0 0.3834788620725188 -0.17954848884060079 0 0.39107178753907162 -0.16851380255406381 0 0.3834788620725188 -0.17954848884060079 0 0.39510197637232292 -0.1839605883432579 0 0.39078770323730427 -0.19674260859680251 0 0.3834788620725188 -0.17954848884060079 0 0.39510197637232292 -0.1839605883432579 0 0.37064833187319962 -0.1852102762359614 0 0.39078770323730427 -0.19674260859680251 0 0.3834788620725188 -0.17954848884060079 0 0.39107178753907162 -0.16851380255406381 0 0.39510197637232292 -0.1839605883432579 0 0.40460499843718001 -0.17902112385493851 0 0.40475141021500721 -0.1910589369573561 0 0.39510197637232292 -0.1839605883432579 0 0.40460499843718001 -0.17902112385493851 0 0.40475141021500721 -0.1910589369573561 0 0.40460499843718001 -0.17902112385493851 0 0.4146572714410397 -0.186958864794112 0 0.40460499843718001 -0.17902112385493851 0 0.41491102279317088 -0.17618591298838529 0 0.4146572714410397 -0.186958864794112 0 0.40460499843718001 -0.17902112385493851 0 0.41491102279317088 -0.17618591298838529 0 0.40713652226246821 -0.16744863749245631 0 0.41491102279317088 -0.17618591298838529 0 0.42527009306055918 -0.1746571334479238 0 0.4232012569858648 -0.16638347243084889 0 0.41491102279317088 -0.17618591298838529 0 0.42095079563492938 -0.18072636251124541 0 0.42527009306055918 -0.1746571334479238 0 0.41491102279317088 -0.17618591298838529 0 0.42095079563492938 -0.18072636251124541 0 0.4146572714410397 -0.186958864794112 0 0.42095079563492938 -0.18072636251124541 0 0.4146572714410397 -0.186958864794112 0 0.42558338933545942 -0.1867115165846317 0 0.43180268423531071 -0.1802632517690351 0 0.42527009306055918 -0.1746571334479238 0 0.44880083799057491 -0.164686103644653 0 0.42095079563492938 -0.18072636251124541 0 0.42558338933545942 -0.1867115165846317 0 0.43180268423531071 -0.1802632517690351 0 0.42558338933545942 -0.1867115165846317 0 0.43180268423531071 -0.1802632517690351 0 0.43844209377108118 -0.18689286854296691 0 0.42095079563492938 -0.18072636251124541 0 0.43180268423531071 -0.1802632517690351 0 0.42527009306055918 -0.1746571334479238 0 0.42527009306055918 -0.1746571334479238 0 0.4232012569858648 -0.16638347243084889 0 0.44880083799057491 -0.164686103644653 0 0.4232012569858648 -0.16638347243084889 0 0.43334283997313311 -0.15135273030925811 0 0.44880083799057491 -0.164686103644653 0 0.4232012569858648 -0.16638347243084889 0 0.44880083799057491 -0.164686103644653 0 0.42527009306055918 -0.1746571334479238 0 0.4232012569858648 -0.16638347243084889 0 0.4232012569858648 -0.16638347243084889 0 0.40713652226246821 -0.16744863749245631 0 0.41732028123257531 -0.14286435439753159 0 0.41491102279317088 -0.17618591298838529 0 0.4232012569858648 -0.16638347243084889 0 0.40713652226246821 -0.16744863749245631 0 0.4232012569858648 -0.16638347243084889 0 0.40713652226246821 -0.16744863749245631 0 0.4232012569858648 -0.16638347243084889 0 0.41732028123257531 -0.14286435439753159 0 0.39822107621443897 -0.1501202070538992 0 0.40713652226246821 -0.16744863749245631 0 0.41732028123257531 -0.14286435439753159 0 0.41732028123257531 -0.14286435439753159 0 0.43334283997313311 -0.15135273030925811 0 0.43763345530417341 -0.13584027725706749 0 0.4232012569858648 -0.16638347243084889 0 0.41732028123257531 -0.14286435439753159 0 0.43334283997313311 -0.15135273030925811 0 0.42916935431308728 -0.1205456085246996 0 0.41732028123257531 -0.14286435439753159 0 0.43763345530417341 -0.13584027725706749 0 0.42916935431308728 -0.1205456085246996 0 0.4435038969132965 -0.12540022695152131 0 0.43763345530417341 -0.13584027725706749 0 0.41143930547928681 -0.11934523636421419 0 0.42916935431308728 -0.1205456085246996 0 0.41732028123257531 -0.14286435439753159 0 0.41143930547928681 -0.11934523636421419 0 0.40257569972698831 -0.13396225485532559 0 0.41732028123257531 -0.14286435439753159 0 0.41143930547928681 -0.11934523636421419 0 0.41732028123257531 -0.14286435439753159 0 0.46257396642688631 -0.12529077885077469 0 0.46381730130484328 -0.1363472541609663 0 0.4585659370706795 -0.1308283620105129 0 0.46381730130484328 -0.1363472541609663 0 0.4585659370706795 -0.1308283620105129 0 0.45274550479158487 -0.1345999168850856 0 0.46381730130484328 -0.1363472541609663 0 0.45274550479158487 -0.1345999168850856 0 0.46138481906560302 -0.14686228775601681 0 0.46257396642688631 -0.12529077885077469 0 0.4585659370706795 -0.1308283620105129 0 0.45239247298790419 -0.125419693033265 0 0.4585659370706795 -0.1308283620105129 0 0.45239247298790419 -0.125419693033265 0 0.45274550479158487 -0.1345999168850856 0 0.45239247298790419 -0.125419693033265 0 0.4435038969132965 -0.12540022695152131 0 0.45274550479158487 -0.1345999168850856 0 0.4435038969132965 -0.12540022695152131 0 0.43763345530417341 -0.13584027725706749 0 0.45274550479158487 -0.1345999168850856 0 0.43763345530417341 -0.13584027725706749 0 0.45274550479158487 -0.1345999168850856 0 0.44678149142501389 -0.1466682631704162 0 0.43334283997313311 -0.15135273030925811 0 0.44678149142501389 -0.1466682631704162 0 0.44880083799057491 -0.164686103644653 0 0.44678149142501389 -0.1466682631704162 0 0.46138481906560302 -0.14686228775601681 0 0.44880083799057491 -0.164686103644653 0 0.43334283997313311 -0.15135273030925811 0 0.43763345530417341 -0.13584027725706749 0 0.44678149142501389 -0.1466682631704162 0 0.45274550479158487 -0.1345999168850856 0 0.44678149142501389 -0.1466682631704162 0 0.46138481906560302 -0.14686228775601681 0 0.46138481906560302 -0.14686228775601681 0 0.44880083799057491 -0.164686103644653 0 0.47440041899528501 -0.16298873485845719 0 0.44880083799057491 -0.164686103644653 0 0.46834799031954211 -0.17915452781490099 0 0.47440041899528501 -0.16298873485845719 0 0.44880083799057491 -0.164686103644653 0 0.47440041899528501 -0.16298873485845719 0 0.43180268423531071 -0.1802632517690351 0 0.44880083799057491 -0.164686103644653 0 0.43844209377108118 -0.18689286854296691 0 0.44880083799057491 -0.164686103644653 0 0.43844209377108118 -0.18689286854296691 0 0.45508032593701309 -0.1914137801830845 0 0.44880083799057491 -0.164686103644653 0 0.46834799031954211 -0.17915452781490099 0 0.45508032593701309 -0.1914137801830845 0 0.46834799031954211 -0.17915452781490099 0 0.48419704391512092 -0.17843144908975531 0 0.47440041899528501 -0.16298873485845719 0 0.46834799031954211 -0.17915452781490099 0 0.48419704391512092 -0.17843144908975531 0 0.47823681026078202 -0.19812675643970101 0 0.48419704391512092 -0.17843144908975531 0 0.49999999999999523 -0.16129136607226169 0 0.5 -0.1905958602634561 0 0.49999999999999523 -0.16129136607226169 0 0.47440041899528501 -0.16298873485845719 0 0.50000000000000067 -0.1547763741112759 0 0.48419704391512092 -0.17843144908975531 0 0.49999999999999523 -0.16129136607226169 0 0.47440041899528501 -0.16298873485845719 0 0.49999999999999523 -0.16129136607226169 0 0.47440041899528501 -0.16298873485845719 0 0.46138481906560302 -0.14686228775601681 0 0.47440041899528501 -0.16298873485845719 0 0.48128698321344371 -0.14003357648102521 0 0.46381730130484328 -0.1363472541609663 0 0.46138481906560302 -0.14686228775601681 0 0.48128698321344371 -0.14003357648102521 0 0.50000000000000067 -0.1547763741112759 0 0.48128698321344371 -0.14003357648102521 0 0.50000000000000067 -0.1547763741112759 0 0.5 -0.13349841451636779 0 0.48128698321344371 -0.14003357648102521 0 0.47440041899528501 -0.16298873485845719 0 0.50000000000000067 -0.1547763741112759 0 0.48128698321344371 -0.14003357648102521 0 0.48087269318342413 -0.1216818802472065 0 0.5 -0.13349841451636779 0 0.48128698321344371 -0.14003357648102521 0 0.46257396642688631 -0.12529077885077469 0 0.48128698321344371 -0.14003357648102521 0 0.46257396642688631 -0.12529077885077469 0 0.46381730130484328 -0.1363472541609663 0 0.48128698321344371 -0.14003357648102521 0 0.47129126618897188 -0.1223351355815797 0 0.48087269318342413 -0.1216818802472065 0 0.48128698321344371 -0.14003357648102521 0 0.47129126618897188 -0.1223351355815797 0 0.46257396642688631 -0.12529077885077469 0 0.48128698321344371 -0.14003357648102521 0 0.46029750420545162 -0.23134667767863379 0 0.45079963313025367 -0.219495204315066 0 0.46126535540865482 -0.21094244298034759 0 0.46029750420545162 -0.23134667767863379 0 0.46126535540865482 -0.21094244298034759 0 0.47937109712497578 -0.22608105856418539 0 0.46029750420545162 -0.23134667767863379 0 0.44856132313442931 -0.24393079079591279 0 0.47387431588802909 -0.25499376211151131 0 0.46029750420545162 -0.23134667767863379 0 0.44856132313442931 -0.24393079079591279 0 0.44416109061426973 -0.22983272991065171 0 0.43458399188612801 -0.2397076170126072 0 0.44856132313442931 -0.24393079079591279 0 0.4372088962240912 -0.25169219704383999 0 0.43458399188612801 -0.2397076170126072 0 0.44856132313442931 -0.24393079079591279 0 0.44416109061426973 -0.22983272991065171 0 0.46029750420545162 -0.23134667767863379 0 0.44416109061426973 -0.22983272991065171 0 0.45079963313025367 -0.219495204315066 0 0.44416109061426973 -0.22983272991065171 0 0.45079963313025367 -0.219495204315066 0 0.44009267276725389 -0.2176624614444449 0 0.42988092584916948 -0.2249579995083304 0 0.44416109061426973 -0.22983272991065171 0 0.44009267276725389 -0.2176624614444449 0 0.45079963313025367 -0.219495204315066 0 0.44355474576021348 -0.2050869029196882 0 0.46126535540865482 -0.21094244298034759 0 0.43006687167525981 -0.21185300334864521 0 0.44009267276725389 -0.2176624614444449 0 0.44355474576021348 -0.2050869029196882 0 0.45079963313025367 -0.219495204315066 0 0.44009267276725389 -0.2176624614444449 0 0.44355474576021348 -0.2050869029196882 0 0.43844209377108118 -0.18689286854296691 0 0.44355474576021348 -0.2050869029196882 0 0.45508032593701309 -0.1914137801830845 0 0.46834799031954211 -0.17915452781490099 0 0.45508032593701309 -0.1914137801830845 0 0.47823681026078202 -0.19812675643970101 0 0.44355474576021348 -0.2050869029196882 0 0.45508032593701309 -0.1914137801830845 0 0.46126535540865482 -0.21094244298034759 0 0.45508032593701309 -0.1914137801830845 0 0.46126535540865482 -0.21094244298034759 0 0.47823681026078202 -0.19812675643970101 0 0.46126535540865482 -0.21094244298034759 0 0.47823681026078202 -0.19812675643970101 0 0.47937109712497578 -0.22608105856418539 0 0.48419704391512092 -0.17843144908975531 0 0.47823681026078202 -0.19812675643970101 0 0.5 -0.1905958602634561 0 0.47823681026078202 -0.19812675643970101 0 0.5 -0.1905958602634561 0 0.5 -0.21990035445465039 0 0.47823681026078202 -0.19812675643970101 0 0.5 -0.21990035445465039 0 0.47937109712497578 -0.22608105856418539 0 0.5 -0.21990035445465039 0 0.47937109712497578 -0.22608105856418539 0 0.50000000000000444 -0.24920484864584491 0 0.46029750420545162 -0.23134667767863379 0 0.47937109712497578 -0.22608105856418539 0 0.47387431588802909 -0.25499376211151131 0 0.47937109712497578 -0.22608105856418539 0 0.50000000000000444 -0.24920484864584491 0 0.47387431588802909 -0.25499376211151131 0 0.50000000000000444 -0.24920484864584491 0 0.4915669900217115 -0.25615479242606781 0 0.5 -0.27170772691138367 0 0.50000000000000444 -0.24920484864584491 0 0.4915669900217115 -0.25615479242606781 0 0.47387431588802909 -0.25499376211151131 0 0.50000000000000444 -0.24920484864584491 0 0.47387431588802909 -0.25499376211151131 0 0.4915669900217115 -0.25615479242606781 0 0.48280749151585822 -0.27129304150170008 0 0.47954864786353962 -0.26301133191085868 0 0.4915669900217115 -0.25615479242606781 0 0.5 -0.27170772691138367 0 0.48280749151585822 -0.27129304150170008 0 0.5 -0.27170772691138367 0 0.48280749151585822 -0.27129304150170008 0 0.48951500520952212 -0.28458010338455908 0 0.48280749151585822 -0.27129304150170008 0 0.47474596181800061 -0.28621450290334632 0 0.48951500520952212 -0.28458010338455908 0 0.48280749151585822 -0.27129304150170008 0 0.47416229901770612 -0.26612875971404459 0 0.47954864786353962 -0.26301133191085868 0 0.48280749151585822 -0.27129304150170008 0 0.47416229901770612 -0.26612875971404459 0 0.47052118473631321 -0.27447720361836658 0 0.47416229901770612 -0.26612875971404459 0 0.47052118473631321 -0.27447720361836658 0 0.46319689217890331 -0.26835660325056299 0 0.48280749151585822 -0.27129304150170008 0 0.47052118473631321 -0.27447720361836658 0 0.47474596181800061 -0.28621450290334632 0 0.4915669900217115 -0.25615479242606781 0 0.46965781089888248 -0.25846873400162218 0 0.4915669900217115 -0.25615479242606781 0 0.47387431588802909 -0.25499376211151131 0 0.46965781089888248 -0.25846873400162218 0 0.4915669900217115 -0.25615479242606781 0 0.47954864786353962 -0.26301133191085868 0 0.46965781089888248 -0.25846873400162218 0 0.47416229901770612 -0.26612875971404459 0 0.47954864786353962 -0.26301133191085868 0 0.46965781089888248 -0.25846873400162218 0 0.47416229901770612 -0.26612875971404459 0 0.46965781089888248 -0.25846873400162218 0 0.46319689217890331 -0.26835660325056299 0 0.46965781089888248 -0.25846873400162218 0 0.46319689217890331 -0.26835660325056299 0 0.4477486317760534 -0.26078267557717671 0 0.44856132313442931 -0.24393079079591279 0 0.47387431588802909 -0.25499376211151131 0 0.4477486317760534 -0.26078267557717671 0 0.47387431588802909 -0.25499376211151131 0 0.4477486317760534 -0.26078267557717671 0 0.46965781089888248 -0.25846873400162218 0 0.4477486317760534 -0.26078267557717671 0 0.47387431588802909 -0.25499376211151131 0 0.46965781089888248 -0.25846873400162218 0 0.4477486317760534 -0.26078267557717671 0 0.47052118473631321 -0.27447720361836658 0 0.45389453446556111 -0.28192564334160541 0 0.47474596181800061 -0.28621450290334632 0 0.47052118473631321 -0.27447720361836658 0 0.46319689217890331 -0.26835660325056299 0 0.45389453446556111 -0.28192564334160541 0 0.46319689217890331 -0.26835660325056299 0 0.4477486317760534 -0.26078267557717671 0 0.45389453446556111 -0.28192564334160541 0 0.45389453446556111 -0.28192564334160541 0 0.430823863629894 -0.26453285558412298 0 0.45389453446556111 -0.28192564334160541 0 0.430823863629894 -0.26453285558412298 0 0.43570592202634773 -0.28205449164250063 0 0.4477486317760534 -0.26078267557717671 0 0.45389453446556111 -0.28192564334160541 0 0.430823863629894 -0.26453285558412298 0 0.4477486317760534 -0.26078267557717671 0 0.42854038242645709 -0.26281135800815408 0 0.44856132313442931 -0.24393079079591279 0 0.4477486317760534 -0.26078267557717671 0 0.4372088962240912 -0.25169219704383999 0 0.4477486317760534 -0.26078267557717671 0 0.42854038242645709 -0.26281135800815408 0 0.4372088962240912 -0.25169219704383999 0 0.4477486317760534 -0.26078267557717671 0 0.430823863629894 -0.26453285558412298 0 0.44815314542162782 -0.30273998798419938 0 0.44271266904340639 -0.31513600928105973 0 0.43092107089682352 -0.30573631325696571 0 0.44815314542162782 -0.30273998798419938 0 0.43874415768382158 -0.29310671547163403 0 0.43092107089682352 -0.30573631325696571 0 0.43874415768382158 -0.29310671547163403 0 0.45389453446556111 -0.28192564334160541 0 0.43570592202634773 -0.28205449164250063 0 0.44815314542162782 -0.30273998798419938 0 0.43874415768382158 -0.29310671547163403 0 0.45389453446556111 -0.28192564334160541 0 0.45389453446556111 -0.28192564334160541 0 0.46668010371271101 -0.29937682325086112 0 0.47474596181800061 -0.28621450290334632 0 0.44815314542162782 -0.30273998798419938 0 0.45389453446556111 -0.28192564334160541 0 0.46668010371271101 -0.29937682325086112 0 0.46668010371271101 -0.29937682325086112 0 0.45907432653114449 -0.32014896664993769 0 0.44815314542162782 -0.30273998798419938 0 0.46668010371271101 -0.29937682325086112 0 0.45907432653114449 -0.32014896664993769 0 0.46668010371271101 -0.29937682325086112 0 0.48375110351916628 -0.30725513966339157 0 0.45907432653114449 -0.32014896664993769 0 0.46668010371271101 -0.29937682325086112 0 0.48375110351916628 -0.30725513966339157 0 0.47474596181800061 -0.28621450290334632 0 0.48375110351916628 -0.30725513966339157 0 0.47474596181800061 -0.28621450290334632 0 0.48951500520952212 -0.28458010338455908 0 0.48375110351916628 -0.30725513966339157 0 0.5 -0.29421060517692271 0 0.48951500520952212 -0.28458010338455908 0 0.5 -0.27170772691138367 0 0.5 -0.29421060517692271 0 0.48951500520952212 -0.28458010338455908 0 0.48375110351916628 -0.30725513966339157 0 0.5 -0.29421060517692271 0 0.49999999999999972 -0.31671348344246159 0 0.48375110351916628 -0.30725513966339157 0 0.49999999999999972 -0.31671348344246159 0 0.48658745812515303 -0.32591538654610069 0 0.49999999999999972 -0.31671348344246159 0 0.49107839048707969 -0.33844651150006611 0 0.49999999999999972 -0.31671348344246159 0 0.48658745812515303 -0.32591538654610069 0 0.49107839048707969 -0.33844651150006611 0 0.49999999999999972 -0.31671348344246159 0 0.5 -0.34354646621870782 0 0.49107839048707969 -0.33844651150006611 0 0.48658745812515303 -0.32591538654610069 0 0.49107839048707969 -0.33844651150006611 0 0.48013111160135669 -0.33592777501669763 0 0.48658745812515303 -0.32591538654610069 0 0.48013111160135669 -0.33592777501669763 0 0.47588582758327369 -0.32632043512378739 0 0.48013111160135669 -0.33592777501669763 0 0.46883970942210401 -0.33989811375075968 0 0.47588582758327369 -0.32632043512378739 0 0.48375110351916628 -0.30725513966339157 0 0.48658745812515303 -0.32591538654610069 0 0.47588582758327369 -0.32632043512378739 0 0.48375110351916628 -0.30725513966339157 0 0.47588582758327369 -0.32632043512378739 0 0.45907432653114449 -0.32014896664993769 0 0.5 -0.37037944899495368 0 0.48466784746851571 -0.3739080713738358 0 0.48215678097416009 -0.36017953955767068 0 0.5 -0.34354646621870782 0 0.49107839048707969 -0.33844651150006611 0 0.48215678097416009 -0.36017953955767068 0 0.49107839048707969 -0.33844651150006611 0 0.48013111160135669 -0.33592777501669763 0 0.48215678097416009 -0.36017953955767068 0 0.5 -0.34354646621870782 0 0.5 -0.37037944899495368 0 0.48215678097416009 -0.36017953955767068 0 0.49107839048707969 -0.33844651150006611 0 0.48215678097416009 -0.36017953955767068 0 0.48013111160135669 -0.33592777501669763 0 0.46883970942210401 -0.33989811375075968 0 0.48215678097416009 -0.36017953955767068 0 0.46883970942210401 -0.33989811375075968 0 0.48215678097416009 -0.36017953955767068 0 0.46166172922915721 -0.35810144835948332 0 0.48215678097416009 -0.36017953955767068 0 0.47323517146124039 -0.38191256761527542 0 0.48215678097416009 -0.36017953955767068 0 0.4671179630262795 -0.37324494563770522 0 0.47323517146124039 -0.38191256761527542 0 0.48466784746851571 -0.3739080713738358 0 0.48215678097416009 -0.36017953955767068 0 0.47323517146124039 -0.38191256761527542 0 0.48215678097416009 -0.36017953955767068 0 0.4671179630262795 -0.37324494563770522 0 0.46166172922915721 -0.35810144835948332 0 0.45652460043480969 -0.37267172771365881 0 0.46166172922915721 -0.35810144835948332 0 0.44386277216801179 -0.36169325344809122 0 0.45652460043480969 -0.37267172771365881 0 0.4671179630262795 -0.37324494563770522 0 0.46166172922915721 -0.35810144835948332 0 0.46883970942210401 -0.33989811375075968 0 0.46166172922915721 -0.35810144835948332 0 0.45146854934957792 -0.34092111004901438 0 0.43963091224731599 -0.34751792105314822 0 0.44386277216801179 -0.36169325344809122 0 0.45146854934957792 -0.34092111004901438 0 0.44386277216801179 -0.36169325344809122 0 0.45146854934957792 -0.34092111004901438 0 0.46166172922915721 -0.35810144835948332 0 0.44386277216801179 -0.36169325344809122 0 0.45146854934957792 -0.34092111004901438 0 0.44386277216801179 -0.36169325344809122 0 0.43376943787959182 -0.36708850497004442 0 0.43808065797110041 -0.37748478958974491 0 0.45652460043480969 -0.37267172771365881 0 0.44386277216801179 -0.36169325344809122 0 0.44783900322824399 -0.38008781189722518 0 0.44386277216801179 -0.36169325344809122 0 0.43808065797110041 -0.37748478958974491 0 0.44386277216801179 -0.36169325344809122 0 0.43808065797110041 -0.37748478958974491 0 0.44783900322824399 -0.38008781189722518 0 0.45652460043480969 -0.37267172771365881 0 0.44386277216801179 -0.36169325344809122 0 0.46883970942210401 -0.33989811375075968 0 0.45907432653114449 -0.32014896664993769 0 0.45146854934957792 -0.34092111004901438 0 0.45907432653114449 -0.32014896664993769 0 0.45146854934957792 -0.34092111004901438 0 0.46883970942210401 -0.33989811375075968 0 0.47588582758327369 -0.32632043512378739 0 0.45907432653114449 -0.32014896664993769 0 0.43963091224731599 -0.34751792105314822 0 0.45146854934957792 -0.34092111004901438 0 0.43565299676263758 -0.3352386806192425 0 0.45146854934957792 -0.34092111004901438 0 0.44493724809618768 -0.32603283426431229 0 0.43565299676263758 -0.3352386806192425 0 0.45907432653114449 -0.32014896664993769 0 0.45146854934957792 -0.34092111004901438 0 0.44493724809618768 -0.32603283426431229 0 0.45907432653114449 -0.32014896664993769 0 0.44493724809618768 -0.32603283426431229 0 0.44271266904340639 -0.31513600928105973 0 0.44493724809618768 -0.32603283426431229 0 0.44271266904340639 -0.31513600928105973 0 0.43047755427124879 -0.32102194424988317 0 0.44815314542162782 -0.30273998798419938 0 0.45907432653114449 -0.32014896664993769 0 0.44271266904340639 -0.31513600928105973 0 0.44271266904340639 -0.31513600928105973 0 0.43047755427124879 -0.32102194424988317 0 0.43092107089682352 -0.30573631325696571 0 0.43047755427124879 -0.32102194424988317 0 0.41919911313656122 -0.31385112706466711 0 0.41739686236043672 -0.32199345155319897 0 0.43047755427124879 -0.32102194424988317 0 0.41919911313656122 -0.31385112706466711 0 0.43092107089682352 -0.30573631325696571 0 0.43047755427124879 -0.32102194424988317 0 0.42053718701310799 -0.32957674384091618 0 0.41739686236043672 -0.32199345155319897 0 0.44493724809618768 -0.32603283426431229 0 0.43047755427124879 -0.32102194424988317 0 0.43565299676263758 -0.3352386806192425 0 0.43565299676263758 -0.3352386806192425 0 0.42053718701310799 -0.32957674384091618 0 0.4250793590774925 -0.34540704162396091 0 0.43963091224731599 -0.34751792105314822 0 0.43565299676263758 -0.3352386806192425 0 0.4250793590774925 -0.34540704162396091 0 0.43047755427124879 -0.32102194424988317 0 0.43565299676263758 -0.3352386806192425 0 0.42053718701310799 -0.32957674384091618 0 0.4062959459869725 -0.32912082979983148 0 0.4250793590774925 -0.34540704162396091 0 0.41055923831377589 -0.34398547157316572 0 0.42053718701310799 -0.32957674384091618 0 0.4062959459869725 -0.32912082979983148 0 0.4250793590774925 -0.34540704162396091 0 0.4062959459869725 -0.32912082979983148 0 0.4250793590774925 -0.34540704162396091 0 0.42053718701310799 -0.32957674384091618 0 0.4062959459869725 -0.32912082979983148 0 0.40802480504278882 -0.32457497099322458 0 0.4062959459869725 -0.32912082979983148 0 0.40802480504278882 -0.32457497099322458 0 0.4062959459869725 -0.32912082979983148 0 0.40802480504278882 -0.32457497099322458 0 0.40572459905769331 -0.31910551143285631 0 0.40802480504278882 -0.32457497099322458 0 0.4119015194344513 -0.31818912214386269 0 0.41739686236043672 -0.32199345155319897 0 0.40802480504278882 -0.32457497099322458 0 0.4119015194344513 -0.31818912214386269 0 0.40572459905769331 -0.31910551143285631 0 0.4119015194344513 -0.31818912214386269 0 0.41919911313656122 -0.31385112706466711 0 0.40916221757477672 -0.31142054967536659 0 0.4119015194344513 -0.31818912214386269 0 0.40572459905769331 -0.31910551143285631 0 0.40916221757477672 -0.31142054967536659 0 0.4119015194344513 -0.31818912214386269 0 0.41919911313656122 -0.31385112706466711 0 0.41739686236043672 -0.32199345155319897 0 0.42053718701310799 -0.32957674384091618 0 0.40802480504278882 -0.32457497099322458 0 0.41739686236043672 -0.32199345155319897 0 0.44386277216801179 -0.36169325344809122 0 0.43376943787959182 -0.36708850497004442 0 0.42728564025893462 -0.35958684797927032 0 0.42489657602010461 -0.37065940299189432 0 0.43376943787959182 -0.36708850497004442 0 0.43808065797110041 -0.37748478958974491 0 0.42489657602010461 -0.37065940299189432 0 0.43376943787959182 -0.36708850497004442 0 0.42728564025893462 -0.35958684797927032 0 0.44386277216801179 -0.36169325344809122 0 0.4250793590774925 -0.34540704162396091 0 0.43963091224731599 -0.34751792105314822 0 0.44386277216801179 -0.36169325344809122 0 0.4250793590774925 -0.34540704162396091 0 0.44386277216801179 -0.36169325344809122 0 0.42728564025893462 -0.35958684797927032 0 0.4250793590774925 -0.34540704162396091 0 0.42728564025893462 -0.35958684797927032 0 0.4250793590774925 -0.34540704162396091 0 0.41069622259092692 -0.35617360609135817 0 0.4250793590774925 -0.34540704162396091 0 0.41055923831377589 -0.34398547157316572 0 0.41069622259092692 -0.35617360609135817 0 0.41055923831377589 -0.34398547157316572 0 0.41069622259092692 -0.35617360609135817 0 0.40016542559971202 -0.34524040877751239 0 0.42489657602010461 -0.37065940299189432 0 0.42728564025893462 -0.35958684797927032 0 0.41069622259092692 -0.35617360609135817 0 0.42489657602010461 -0.37065940299189432 0 0.41069622259092692 -0.35617360609135817 0 0.4070765621089808 -0.37107032214525337 0 0.42489657602010461 -0.37065940299189432 0 0.41069622259092692 -0.35617360609135817 0 0.39585190457779329 -0.37201308858561799 0 0.3940349052124521 -0.36135998775519362 0 0.38601585554704992 -0.38244526212700758 0 0.41069622259092692 -0.35617360609135817 0 0.4070765621089808 -0.37107032214525337 0 0.3940349052124521 -0.36135998775519362 0 0.4070765621089808 -0.37107032214525337 0 0.39585190457779329 -0.37201308858561799 0 0.3940349052124521 -0.36135998775519362 0 0.39585190457779329 -0.37201308858561799 0 0.3940349052124521 -0.36135998775519362 0 0.3940349052124521 -0.36135998775519362 0 0.40016542559971202 -0.34524040877751239 0 0.38974443050024338 -0.33620485529262373 0 0.3940349052124521 -0.36135998775519362 0 0.38974443050024338 -0.33620485529262373 0 0.3940349052124521 -0.36135998775519362 0 0.40016542559971202 -0.34524040877751239 0 0.41069622259092692 -0.35617360609135817 0 0.3940349052124521 -0.36135998775519362 0 0.40016542559971202 -0.34524040877751239 0 0.3940349052124521 -0.36135998775519362 0 0.38974443050024338 -0.33620485529262373 0 0.37368731816096312 -0.34897020548070451 0 0.3940349052124521 -0.36135998775519362 0 0.38601585554704992 -0.38244526212700758 0 0.3940349052124521 -0.36135998775519362 0 0.38601585554704992 -0.38244526212700758 0 0.3689120952668708 -0.37284951495870189 0 0.3940349052124521 -0.36135998775519362 0 0.3689120952668708 -0.37284951495870189 0 0.37368731816096312 -0.34897020548070451 0 0.4062959459869725 -0.32912082979983148 0 0.40572459905769331 -0.31910551143285631 0 0.39816778062817881 -0.31191488097197773 0 0.4062959459869725 -0.32912082979983148 0 0.38974443050024338 -0.33620485529262373 0 0.38545395578803499 -0.31104972283005378 0 0.4062959459869725 -0.32912082979983148 0 0.38545395578803499 -0.31104972283005378 0 0.4062959459869725 -0.32912082979983148 0 0.38545395578803499 -0.31104972283005378 0 0.39816778062817881 -0.31191488097197773 0 0.40572459905769331 -0.31910551143285631 0 0.39816778062817881 -0.31191488097197773 0 0.40916221757477672 -0.31142054967536659 0 0.4062959459869725 -0.32912082979983148 0 0.40016542559971202 -0.34524040877751239 0 0.38974443050024338 -0.33620485529262373 0 0.4062959459869725 -0.32912082979983148 0 0.40016542559971202 -0.34524040877751239 0 0.4062959459869725 -0.32912082979983148 0 0.41055923831377589 -0.34398547157316572 0 0.40016542559971202 -0.34524040877751239 0 0.38974443050024338 -0.33620485529262373 0 0.36945761595668469 -0.32738841673247931 0 0.37368731816096312 -0.34897020548070451 0 0.38974443050024338 -0.33620485529262373 0 0.38545395578803499 -0.31104972283005378 0 0.36945761595668469 -0.32738841673247931 0 0.38974443050024338 -0.33620485529262373 0 0.38545395578803499 -0.31104972283005378 0 0.38545395578803499 -0.31104972283005378 0 0.38245755150739558 -0.29348174920317632 0 0.37101427446782781 -0.29852975601036341 0 0.38545395578803499 -0.31104972283005378 0 0.38245755150739558 -0.29348174920317632 0 0.38545395578803499 -0.31104972283005378 0 0.37101427446782781 -0.29852975601036341 0 0.38545395578803499 -0.31104972283005378 0 0.39567659353887108 -0.29306988619604551 0 0.38245755150739558 -0.29348174920317632 0 0.39816778062817881 -0.31191488097197773 0 0.40563314249086863 -0.30155395497769039 0 0.39567659353887108 -0.29306988619604551 0 0.38545395578803499 -0.31104972283005378 0 0.39816778062817881 -0.31191488097197773 0 0.39567659353887108 -0.29306988619604551 0 0.39816778062817881 -0.31191488097197773 0 0.40563314249086863 -0.30155395497769039 0 0.40916221757477672 -0.31142054967536659 0 0.39567659353887108 -0.29306988619604551 0 0.40514250542832608 -0.27022331558021301 0 0.41160024963212011 -0.28933460066763711 0 0.40563314249086863 -0.30155395497769039 0 0.39567659353887108 -0.29306988619604551 0 0.41160024963212011 -0.28933460066763711 0 0.38245755150739558 -0.29348174920317632 0 0.37946114722675722 -0.27591377557629859 0 0.39567659353887108 -0.29306988619604551 0 0.38245755150739558 -0.29348174920317632 0 0.37946114722675722 -0.27591377557629859 0 0.38245755150739558 -0.29348174920317632 0 0.37795999762798671 -0.28395322059410122 0 0.37946114722675722 -0.27591377557629859 0 0.37519981906117678 -0.29055939022370142 0 0.38245755150739558 -0.29348174920317632 0 0.37101427446782781 -0.29852975601036341 0 0.37519981906117678 -0.29055939022370142 0 0.38245755150739558 -0.29348174920317632 0 0.37795999762798671 -0.28395322059410122 0 0.37795999762798671 -0.28395322059410122 0 0.37946114722675722 -0.27591377557629859 0 0.37739853904771847 -0.27637080706343392 0 0.37739853904771847 -0.27637080706343392 0 0.37683953433427181 -0.26882153263446662 0 0.37273728942595791 -0.27740364396778311 0 0.37795999762798671 -0.28395322059410122 0 0.37739853904771847 -0.27637080706343392 0 0.37273728942595791 -0.27740364396778311 0 0.37946114722675722 -0.27591377557629859 0 0.38774772661347989 -0.26664574742688191 0 0.3964002279028962 -0.26984905957103239 0 0.37946114722675722 -0.27591377557629859 0 0.3964002279028962 -0.26984905957103239 0 0.37795999762798671 -0.28395322059410122 0 0.37739853904771847 -0.27637080706343392 0 0.37739853904771847 -0.27637080706343392 0 0.37273728942595791 -0.27740364396778311 0 0.37946114722675722 -0.27591377557629859 0 0.37739853904771847 -0.27637080706343392 0 0.37683953433427181 -0.26882153263446662 0 0.37946114722675722 -0.27591377557629859 0 0.37739853904771847 -0.27637080706343392 0 0.37946114722675722 -0.27591377557629859 0 0.37843581040967561 -0.26746760801825881 0 0.38284686623937531 -0.26497045393317709 0 0.37946114722675722 -0.27591377557629859 0 0.37683953433427181 -0.26882153263446662 0 0.37843581040967561 -0.26746760801825881 0 0.37739853904771847 -0.27637080706343392 0 0.37683953433427181 -0.26882153263446662 0 0.37683953433427181 -0.26882153263446662 0 0.37843581040967561 -0.26746760801825881 0 0.37946114722675722 -0.27591377557629859 0 0.38774772661347989 -0.26664574742688191 0 0.38284686623937531 -0.26497045393317709 0 0.37477580018058132 -0.24095111383496479 0 0.37683953433427181 -0.26882153263446662 0 0.38107906364546162 -0.25934379353391329 0 0.37477580018058132 -0.24095111383496479 0 0.37683953433427181 -0.26882153263446662 0 0.37477580018058132 -0.24095111383496479 0 0.38107906364546162 -0.25934379353391329 0 0.38725375881062551 -0.25185160038302579 0 0.37843581040967561 -0.26746760801825881 0 0.38107906364546162 -0.25934379353391329 0 0.38284686623937531 -0.26497045393317709 0 0.37683953433427181 -0.26882153263446662 0 0.37843581040967561 -0.26746760801825881 0 0.38107906364546162 -0.25934379353391329 0 0.38107906364546162 -0.25934379353391329 0 0.38632261189823958 -0.26200045239958702 0 0.38284686623937531 -0.26497045393317709 0 0.38774772661347989 -0.26664574742688191 0 0.38632261189823958 -0.26200045239958702 0 0.38284686623937531 -0.26497045393317709 0 0.38774772661347989 -0.26664574742688191 0 0.38955528694719099 -0.2630172622662057 0 0.39295554709344072 -0.26445586107842978 0 0.38774772661347989 -0.26664574742688191 0 0.38632261189823958 -0.26200045239958702 0 0.38955528694719099 -0.2630172622662057 0 0.38632261189823958 -0.26200045239958702 0 0.38955528694719099 -0.2630172622662057 0 0.39119526218360401 -0.25896698815992442 0 0.38632261189823958 -0.26200045239958702 0 0.38725375881062551 -0.25185160038302579 0 0.39119526218360401 -0.25896698815992442 0 0.38107906364546162 -0.25934379353391329 0 0.38632261189823958 -0.26200045239958702 0 0.38725375881062551 -0.25185160038302579 0 0.40314688718896508 -0.2619981766022052 0 0.39707581272688741 -0.26613449373937459 0 0.41345304600685079 -0.26440480953867462 0 0.39707581272688741 -0.26613449373937459 0 0.41345304600685079 -0.26440480953867462 0 0.38725375881062551 -0.25185160038302579 0 0.39640803358832022 -0.25154779433757402 0 0.39119526218360401 -0.25896698815992442 0 0.39640803358832022 -0.25154779433757402 0 0.39702034872720737 -0.26014738253762237 0 0.39119526218360401 -0.25896698815992442 0 0.39702034872720737 -0.26014738253762237 0 0.39119526218360401 -0.25896698815992442 0 0.39295554709344072 -0.26445586107842978 0 0.38955528694719099 -0.2630172622662057 0 0.39119526218360401 -0.25896698815992442 0 0.39295554709344072 -0.26445586107842978 0 0.39702034872720737 -0.26014738253762237 0 0.39295554709344072 -0.26445586107842978 0 0.39707581272688741 -0.26613449373937459 0 0.39702034872720737 -0.26014738253762237 0 0.40314688718896508 -0.2619981766022052 0 0.39707581272688741 -0.26613449373937459 0 0.40314688718896508 -0.2619981766022052 0 0.40257909468765629 -0.25704117102420471 0 0.40998094690083942 -0.2590606397541646 0 0.39702034872720737 -0.26014738253762237 0 0.40314688718896508 -0.2619981766022052 0 0.40257909468765629 -0.25704117102420471 0 0.39640803358832022 -0.25154779433757402 0 0.39702034872720737 -0.26014738253762237 0 0.40257909468765629 -0.25704117102420471 0 0.41087794879613182 -0.2494957955088617 0 0.39640803358832022 -0.25154779433757402 0 0.40257909468765629 -0.25704117102420471 0 0.40514250542832608 -0.27022331558021301 0 0.3964002279028962 -0.26984905957103239 0 0.41345304600685079 -0.26440480953867462 0 0.37946114722675722 -0.27591377557629859 0 0.40514250542832608 -0.27022331558021301 0 0.3964002279028962 -0.26984905957103239 0 0.39707581272688741 -0.26613449373937459 0 0.3964002279028962 -0.26984905957103239 0 0.41345304600685079 -0.26440480953867462 0 0.37946114722675722 -0.27591377557629859 0 0.40514250542832608 -0.27022331558021301 0 0.3964002279028962 -0.26984905957103239 0 0.41345304600685079 -0.26440480953867462 0 0.39567659353887108 -0.29306988619604551 0 0.37946114722675722 -0.27591377557629859 0 0.40514250542832608 -0.27022331558021301 0 0.38774772661347989 -0.26664574742688191 0 0.39295554709344072 -0.26445586107842978 0 0.3964002279028962 -0.26984905957103239 0 0.39295554709344072 -0.26445586107842978 0 0.39707581272688741 -0.26613449373937459 0 0.3964002279028962 -0.26984905957103239 0 0.40514250542832608 -0.27022331558021301 0 0.41345304600685079 -0.26440480953867462 0 0.430823863629894 -0.26453285558412298 0 0.40514250542832608 -0.27022331558021301 0 0.430823863629894 -0.26453285558412298 0 0.40514250542832608 -0.27022331558021301 0 0.42166373126508722 -0.27984448092147479 0 0.41160024963212011 -0.28933460066763711 0 0.40514250542832608 -0.27022331558021301 0 0.42166373126508722 -0.27984448092147479 0 0.430823863629894 -0.26453285558412298 0 0.41087794879613182 -0.2494957955088617 0 0.41984775782459283 -0.2623632460968765 0 0.42854038242645709 -0.26281135800815408 0 0.41087794879613182 -0.2494957955088617 0 0.42854038242645709 -0.26281135800815408 0 0.41087794879613182 -0.2494957955088617 0 0.40257909468765629 -0.25704117102420471 0 0.40998094690083942 -0.2590606397541646 0 0.41087794879613182 -0.2494957955088617 0 0.40998094690083942 -0.2590606397541646 0 0.41984775782459283 -0.2623632460968765 0 0.40314688718896508 -0.2619981766022052 0 0.40998094690083942 -0.2590606397541646 0 0.41345304600685079 -0.26440480953867462 0 0.41345304600685079 -0.26440480953867462 0 0.41984775782459283 -0.2623632460968765 0 0.42854038242645709 -0.26281135800815408 0 0.40998094690083942 -0.2590606397541646 0 0.41345304600685079 -0.26440480953867462 0 0.41984775782459283 -0.2623632460968765 0 0.41345304600685079 -0.26440480953867462 0 0.42854038242645709 -0.26281135800815408 0 0.41345304600685079 -0.26440480953867462 0 0.41984775782459283 -0.2623632460968765 0 0.42656562700980838 -0.24831468624349931 0 0.41087794879613182 -0.2494957955088617 0 0.42854038242645709 -0.26281135800815408 0 0.4477486317760534 -0.26078267557717671 0 0.42854038242645709 -0.26281135800815408 0 0.430823863629894 -0.26453285558412298 0 0.41345304600685079 -0.26440480953867462 0 0.42854038242645709 -0.26281135800815408 0 0.430823863629894 -0.26453285558412298 0 0.42854038242645709 -0.26281135800815408 0 0.430823863629894 -0.26453285558412298 0 0.42656562700980838 -0.24831468624349931 0 0.42854038242645709 -0.26281135800815408 0 0.4372088962240912 -0.25169219704383999 0 0.42166373126508722 -0.27984448092147479 0 0.430823863629894 -0.26453285558412298 0 0.43570592202634773 -0.28205449164250063 0 0.42166373126508722 -0.27984448092147479 0 0.43570592202634773 -0.28205449164250063 0 0.42504611560874761 -0.29307714113289868 0 0.43874415768382158 -0.29310671547163403 0 0.43570592202634773 -0.28205449164250063 0 0.42504611560874761 -0.29307714113289868 0 0.43874415768382158 -0.29310671547163403 0 0.42504611560874761 -0.29307714113289868 0 0.43092107089682352 -0.30573631325696571 0 0.41919911313656122 -0.31385112706466711 0 0.43092107089682352 -0.30573631325696571 0 0.41692698488998292 -0.30249561446253759 0 0.42504611560874761 -0.29307714113289868 0 0.43092107089682352 -0.30573631325696571 0 0.41692698488998292 -0.30249561446253759 0 0.41919911313656122 -0.31385112706466711 0 0.41692698488998292 -0.30249561446253759 0 0.40916221757477672 -0.31142054967536659 0 0.40563314249086863 -0.30155395497769039 0 0.41692698488998292 -0.30249561446253759 0 0.40916221757477672 -0.31142054967536659 0 0.40563314249086863 -0.30155395497769039 0 0.41692698488998292 -0.30249561446253759 0 0.41160024963212011 -0.28933460066763711 0 0.42166373126508722 -0.27984448092147479 0 0.42504611560874761 -0.29307714113289868 0 0.41160024963212011 -0.28933460066763711 0 0.42504611560874761 -0.29307714113289868 0 0.41692698488998292 -0.30249561446253759 0 0.41160024963212011 -0.28933460066763711 0 0.5 -0.5 0 0.47532784176218862 -0.47257481327436679 0 0.43264288253940292 -0.48275234633568048 0 0.5 -0.5 0 0.41749257905485199 -0.50000000000000033 0 0.43264288253940292 -0.48275234633568048 0 0.47532784176218862 -0.47257481327436679 0 0.44779318602395363 -0.46550469267136052 0 0.43264288253940292 -0.48275234633568048 0 0.44779318602395363 -0.46550469267136052 0 0.43264288253940292 -0.48275234633568048 0 0.5 -0.5 0 0.47532784176218862 -0.47257481327436679 0 0.49999999999999828 -0.44642064777577001 0 0.47532784176218862 -0.47257481327436679 0 0.47918453573141367 -0.4495963838019249 0 0.46294348950850428 -0.44825703900704061 0 0.47532784176218862 -0.47257481327436679 0 0.49999999999999828 -0.44642064777577001 0 0.47918453573141367 -0.4495963838019249 0 0.49999999999999828 -0.44642064777577001 0 0.47846681165496419 -0.4311330351505217 0 0.49999999999999828 -0.44642064777577001 0 0.47918453573141367 -0.4495963838019249 0 0.47846681165496419 -0.4311330351505217 0 0.47918453573141367 -0.4495963838019249 0 0.46294348950850428 -0.44825703900704061 0 0.47846681165496419 -0.4311330351505217 0 0.46294348950850428 -0.44825703900704061 0 0.44442683605218691 -0.44583817528272968 0 0.45721208074107311 -0.43281318479414382 0 0.46294348950850428 -0.44825703900704061 0 0.44779318602395363 -0.46550469267136052 0 0.47532784176218862 -0.47257481327436679 0 0.46294348950850428 -0.44825703900704061 0 0.44779318602395363 -0.46550469267136052 0 0.44779318602395363 -0.46550469267136052 0 0.44442683605218691 -0.44583817528272968 0 0.43057418754349119 -0.46211781715143319 0 0.46294348950850428 -0.44825703900704061 0 0.44779318602395363 -0.46550469267136052 0 0.44442683605218691 -0.44583817528272968 0 0.44442683605218691 -0.44583817528272968 0 0.44324354583686831 -0.42153379012121539 0 0.45721208074107311 -0.43281318479414382 0 0.44442683605218691 -0.44583817528272968 0 0.44324354583686831 -0.42153379012121539 0 0.42653452723640378 -0.44279137365393179 0 0.44324354583686831 -0.42153379012121539 0 0.45693362330993059 -0.41584542252527262 0 0.45721208074107311 -0.43281318479414382 0 0.45693362330993059 -0.41584542252527262 0 0.4354004349648965 -0.40055780990002432 0 0.44324354583686831 -0.42153379012121539 0 0.45693362330993059 -0.41584542252527262 0 0.4354004349648965 -0.40055780990002432 0 0.45693362330993059 -0.41584542252527262 0 0.46461049463358839 -0.41117161714406408 0 0.47846681165496419 -0.4311330351505217 0 0.45693362330993059 -0.41584542252527262 0 0.46461049463358839 -0.41117161714406408 0 0.45329728287846061 -0.39963099679296588 0 0.46294348950850428 -0.44825703900704061 0 0.45721208074107311 -0.43281318479414382 0 0.47846681165496419 -0.4311330351505217 0 0.45693362330993059 -0.41584542252527262 0 0.45721208074107311 -0.43281318479414382 0 0.47846681165496419 -0.4311330351505217 0 0.45693362330993059 -0.41584542252527262 0 0.47846681165496419 -0.4311330351505217 0 0.49999999999999828 -0.44642064777577001 0 0.47846681165496419 -0.4311330351505217 0 0.5 -0.42181653977348488 0 0.5 -0.42181653977348488 0 0.48394518954555588 -0.41195106762427058 0 0.49999999999999789 -0.3972124317711998 0 0.47846681165496419 -0.4311330351505217 0 0.5 -0.42181653977348488 0 0.48394518954555588 -0.41195106762427058 0 0.46461049463358839 -0.41117161714406408 0 0.47846681165496419 -0.4311330351505217 0 0.48394518954555588 -0.41195106762427058 0 0.46461049463358839 -0.41117161714406408 0 0.48394518954555588 -0.41195106762427058 0 0.47664864143922919 -0.39842171428208217 0 0.47664864143922919 -0.39842171428208217 0 0.47975395238035062 -0.3854291032725421 0 0.46812846895096999 -0.38912968091376021 0 0.47664864143922919 -0.39842171428208217 0 0.49999999999999789 -0.3972124317711998 0 0.48779058149940679 -0.38751051868815611 0 0.48394518954555588 -0.41195106762427058 0 0.47664864143922919 -0.39842171428208217 0 0.49999999999999789 -0.3972124317711998 0 0.47664864143922919 -0.39842171428208217 0 0.49999999999999789 -0.3972124317711998 0 0.5 -0.37037944899495368 0 0.49999999999999789 -0.3972124317711998 0 0.48779058149940679 -0.38751051868815611 0 0.5 -0.37037944899495368 0 0.48466784746851571 -0.3739080713738358 0 0.48779058149940679 -0.38751051868815611 0 0.48466784746851571 -0.3739080713738358 0 0.47975395238035062 -0.3854291032725421 0 0.47323517146124039 -0.38191256761527542 0 0.48466784746851571 -0.3739080713738358 0 0.48779058149940679 -0.38751051868815611 0 0.47975395238035062 -0.3854291032725421 0 0.47664864143922919 -0.39842171428208217 0 0.48779058149940679 -0.38751051868815611 0 0.47975395238035062 -0.3854291032725421 0 0.47975395238035062 -0.3854291032725421 0 0.47323517146124039 -0.38191256761527542 0 0.46812846895096999 -0.38912968091376021 0 0.46918642870160698 -0.38365020197922722 0 0.47323517146124039 -0.38191256761527542 0 0.46812846895096999 -0.38912968091376021 0 0.4671179630262795 -0.37324494563770522 0 0.46918642870160698 -0.38365020197922722 0 0.47323517146124039 -0.38191256761527542 0 0.45652460043480969 -0.37267172771365881 0 0.4671179630262795 -0.37324494563770522 0 0.46918642870160698 -0.38365020197922722 0 0.45652460043480969 -0.37267172771365881 0 0.46918642870160698 -0.38365020197922722 0 0.45652460043480969 -0.37267172771365881 0 0.45606522570456098 -0.38599652494351028 0 0.44783900322824399 -0.38008781189722518 0 0.45652460043480969 -0.37267172771365881 0 0.46918642870160698 -0.38365020197922722 0 0.45606522570456098 -0.38599652494351028 0 0.46918642870160698 -0.38365020197922722 0 0.45606522570456098 -0.38599652494351028 0 0.46812846895096999 -0.38912968091376021 0 0.46461049463358839 -0.41117161714406408 0 0.47664864143922919 -0.39842171428208217 0 0.45329728287846061 -0.39963099679296588 0 0.47664864143922919 -0.39842171428208217 0 0.45329728287846061 -0.39963099679296588 0 0.47664864143922919 -0.39842171428208217 0 0.46812846895096999 -0.38912968091376021 0 0.45329728287846061 -0.39963099679296588 0 0.46461049463358839 -0.41117161714406408 0 0.45329728287846061 -0.39963099679296588 0 0.45606522570456098 -0.38599652494351028 0 0.46812846895096999 -0.38912968091376021 0 0.45329728287846061 -0.39963099679296588 0 0.45693362330993059 -0.41584542252527262 0 0.45329728287846061 -0.39963099679296588 0 0.4354004349648965 -0.40055780990002432 0 0.45329728287846061 -0.39963099679296588 0 0.4354004349648965 -0.40055780990002432 0 0.45329728287846061 -0.39963099679296588 0 0.4390969294492823 -0.3851451998924304 0 0.4354004349648965 -0.40055780990002432 0 0.45329728287846061 -0.39963099679296588 0 0.4390969294492823 -0.3851451998924304 0 0.45606522570456098 -0.38599652494351028 0 0.4390969294492823 -0.3851451998924304 0 0.44783900322824399 -0.38008781189722518 0 0.45606522570456098 -0.38599652494351028 0 0.45329728287846061 -0.39963099679296588 0 0.4390969294492823 -0.3851451998924304 0 0.4390969294492823 -0.3851451998924304 0 0.43808065797110041 -0.37748478958974491 0 0.44783900322824399 -0.38008781189722518 0 0.42782015831496062 -0.38505662608606978 0 0.4354004349648965 -0.40055780990002432 0 0.41188669282555868 -0.38386409155992901 0 0.42489657602010461 -0.37065940299189432 0 0.4390969294492823 -0.3851451998924304 0 0.42782015831496062 -0.38505662608606978 0 0.42489657602010461 -0.37065940299189432 0 0.4390969294492823 -0.3851451998924304 0 0.43808065797110041 -0.37748478958974491 0 0.42489657602010461 -0.37065940299189432 0 0.4390969294492823 -0.3851451998924304 0 0.4390969294492823 -0.3851451998924304 0 0.42782015831496062 -0.38505662608606978 0 0.4354004349648965 -0.40055780990002432 0 0.4354004349648965 -0.40055780990002432 0 0.41188669282555868 -0.38386409155992901 0 0.4354004349648965 -0.40055780990002432 0 0.40669862042327182 -0.40204417319942209 0 0.4354004349648965 -0.40055780990002432 0 0.40669862042327182 -0.40204417319942209 0 0.41188669282555868 -0.38386409155992901 0 0.42489657602010461 -0.37065940299189432 0 0.42782015831496062 -0.38505662608606978 0 0.41188669282555868 -0.38386409155992901 0 0.42489657602010461 -0.37065940299189432 0 0.4070765621089808 -0.37107032214525337 0 0.41188669282555868 -0.38386409155992901 0 0.4070765621089808 -0.37107032214525337 0 0.39585190457779329 -0.37201308858561799 0 0.39886607975096749 -0.38470810625682389 0 0.40669862042327182 -0.40204417319942209 0 0.41188669282555868 -0.38386409155992901 0 0.39886607975096749 -0.38470810625682389 0 0.4070765621089808 -0.37107032214525337 0 0.41188669282555868 -0.38386409155992901 0 0.39886607975096749 -0.38470810625682389 0 0.39585190457779329 -0.37201308858561799 0 0.39886607975096749 -0.38470810625682389 0 0.38601585554704992 -0.38244526212700758 0 0.39886607975096749 -0.38470810625682389 0 0.38601585554704992 -0.38244526212700758 0 0.37799680588164719 -0.40353053649882148 0 0.38601585554704992 -0.38244526212700758 0 0.37799680588164719 -0.40353053649882148 0 0.38601585554704992 -0.38244526212700758 0 0.37799680588164719 -0.40353053649882148 0 0.36816388811638329 -0.39545065246060412 0 0.37799680588164719 -0.40353053649882148 0 0.37635446215448021 -0.40784891206015261 0 0.37799680588164719 -0.40353053649882148 0 0.37505152225636262 -0.40368306209891941 0 0.37635446215448021 -0.40784891206015261 0 0.37799680588164719 -0.40353053649882148 0 0.37505152225636262 -0.40368306209891941 0 0.40669862042327182 -0.40204417319942209 0 0.39886607975096749 -0.38470810625682389 0 0.37799680588164719 -0.40353053649882148 0 0.40669862042327182 -0.40204417319942209 0 0.37799680588164719 -0.40353053649882148 0 0.40669862042327182 -0.40204417319942209 0 0.38553791301154328 -0.41840677215457472 0 0.40567792500840172 -0.4277251834563135 0 0.40669862042327182 -0.40204417319942209 0 0.37799680588164719 -0.40353053649882148 0 0.38553791301154328 -0.41840677215457472 0 0.38553791301154328 -0.41840677215457472 0 0.36905142820508552 -0.42917232846767789 0 0.37241381966677689 -0.417360225696081 0 0.38553791301154328 -0.41840677215457472 0 0.37635446215448021 -0.40784891206015261 0 0.37241381966677689 -0.417360225696081 0 0.37799680588164719 -0.40353053649882148 0 0.38553791301154328 -0.41840677215457472 0 0.37635446215448021 -0.40784891206015261 0 0.38553791301154328 -0.41840677215457472 0 0.38807715457860831 -0.4388905332329941 0 0.36905142820508552 -0.42917232846767789 0 0.38553791301154328 -0.41840677215457472 0 0.40567792500840172 -0.4277251834563135 0 0.38807715457860831 -0.4388905332329941 0 0.40567792500840172 -0.4277251834563135 0 0.42351101069396863 -0.41893046606618117 0 0.42653452723640378 -0.44279137365393179 0 0.4354004349648965 -0.40055780990002432 0 0.40669862042327182 -0.40204417319942209 0 0.42351101069396863 -0.41893046606618117 0 0.40669862042327182 -0.40204417319942209 0 0.40567792500840172 -0.4277251834563135 0 0.42351101069396863 -0.41893046606618117 0 0.44324354583686831 -0.42153379012121539 0 0.4354004349648965 -0.40055780990002432 0 0.42351101069396863 -0.41893046606618117 0 0.44324354583686831 -0.42153379012121539 0 0.42653452723640378 -0.44279137365393179 0 0.44324354583686831 -0.42153379012121539 0 0.42351101069396863 -0.41893046606618117 0 0.42653452723640378 -0.44279137365393179 0 0.44442683605218691 -0.44583817528272968 0 0.42653452723640378 -0.44279137365393179 0 0.43057418754349119 -0.46211781715143319 0 0.42653452723640378 -0.44279137365393179 0 0.43057418754349119 -0.46211781715143319 0 0.40982550863593931 -0.46404895718664829 0 0.42653452723640378 -0.44279137365393179 0 0.40982550863593931 -0.46404895718664829 0 0.42653452723640378 -0.44279137365393179 0 0.40982550863593931 -0.46404895718664829 0 0.4036378289262339 -0.44671034290208689 0 0.40567792500840172 -0.4277251834563135 0 0.42653452723640378 -0.44279137365393179 0 0.4036378289262339 -0.44671034290208689 0 0.40567792500840172 -0.4277251834563135 0 0.4036378289262339 -0.44671034290208689 0 0.38807715457860831 -0.4388905332329941 0 0.4036378289262339 -0.44671034290208689 0 0.38807715457860831 -0.4388905332329941 0 0.38807402917181633 -0.46009566698054732 0 0.38807715457860831 -0.4388905332329941 0 0.3733961412993268 -0.45022493016754961 0 0.36905142820508552 -0.42917232846767789 0 0.38807715457860831 -0.4388905332329941 0 0.38807402917181633 -0.46009566698054732 0 0.3733961412993268 -0.45022493016754961 0 0.38807402917181633 -0.46009566698054732 0 0.36593927904035028 -0.47432204071884282 0 0.3733961412993268 -0.45022493016754961 0 0.40982550863593931 -0.46404895718664829 0 0.4036378289262339 -0.44671034290208689 0 0.38807402917181633 -0.46009566698054732 0 0.40982550863593931 -0.46404895718664829 0 0.39311649003547477 -0.48530654071936469 0 0.40982550863593931 -0.46404895718664829 0 0.38807402917181633 -0.46009566698054732 0 0.39311649003547477 -0.48530654071936469 0 0.38807402917181633 -0.46009566698054732 0 0.39311649003547477 -0.48530654071936469 0 0.36593927904035028 -0.47432204071884282 0 0.37603974257992701 -0.49999999999999978 0 0.39311649003547477 -0.48530654071936469 0 0.36593927904035028 -0.47432204071884282 0 0.37603974257992701 -0.49999999999999978 0 0.39676616081738958 -0.5 0 0.39311649003547477 -0.48530654071936469 0 0.39676616081738958 -0.5 0 0.39311649003547477 -0.48530654071936469 0 0.41749257905485199 -0.50000000000000033 0 0.40982550863593931 -0.46404895718664829 0 0.41749257905485199 -0.50000000000000033 0 0.43264288253940292 -0.48275234633568048 0 0.40982550863593931 -0.46404895718664829 0 0.39311649003547477 -0.48530654071936469 0 0.41749257905485199 -0.50000000000000033 0 0.43057418754349119 -0.46211781715143319 0 0.40982550863593931 -0.46404895718664829 0 0.43264288253940292 -0.48275234633568048 0 0.44779318602395363 -0.46550469267136052 0 0.43057418754349119 -0.46211781715143319 0 0.43264288253940292 -0.48275234633568048 0 0.41749257905485199 -0.50000000000000033 0 0.43264288253940292 -0.48275234633568048 0 0.32215468257820618 -0.5 0 0.33760568703239408 -0.47417818032706111 0 0.31005432530219129 -0.48106067464861729 0 0.33760568703239408 -0.47417818032706111 0 0.3189449745883719 -0.46117016543644002 0 0.31005432530219129 -0.48106067464861729 0 0.32215468257820618 -0.5 0 0.33760568703239408 -0.47417818032706111 0 0.34909721257906662 -0.5 0 0.37603974257992701 -0.49999999999999978 0 0.34909721257906662 -0.5 0 0.36593927904035028 -0.47432204071884282 0 0.37603974257992701 -0.49999999999999978 0 0.36593927904035028 -0.47432204071884282 0 0.33760568703239408 -0.47417818032706111 0 0.34909721257906662 -0.5 0 0.36593927904035028 -0.47432204071884282 0 0.33760568703239408 -0.47417818032706111 0 0.36593927904035028 -0.47432204071884282 0 0.35583881550077368 -0.44864408143768569 0 0.36593927904035028 -0.47432204071884282 0 0.35583881550077368 -0.44864408143768569 0 0.36593927904035028 -0.47432204071884282 0 0.3733961412993268 -0.45022493016754961 0 0.35583881550077368 -0.44864408143768569 0 0.3733961412993268 -0.45022493016754961 0 0.35583881550077368 -0.44864408143768569 0 0.36905142820508552 -0.42917232846767789 0 0.35583881550077368 -0.44864408143768569 0 0.33540415989768779 -0.44905252560006492 0 0.34573835196119679 -0.42296612215652868 0 0.33760568703239408 -0.47417818032706111 0 0.35583881550077368 -0.44864408143768569 0 0.33540415989768779 -0.44905252560006492 0 0.33760568703239408 -0.47417818032706111 0 0.33540415989768779 -0.44905252560006492 0 0.3189449745883719 -0.46117016543644002 0 0.33540415989768779 -0.44905252560006492 0 0.3189449745883719 -0.46117016543644002 0 0.32126124445813709 -0.43429719032362252 0 0.3189449745883719 -0.46117016543644002 0 0.32126124445813709 -0.43429719032362252 0 0.30480654487456732 -0.44641521679941309 0 0.32126124445813709 -0.43429719032362252 0 0.3193156137706864 -0.40941365839269389 0 0.29937418247959258 -0.41817563384508599 0 0.3193156137706864 -0.40941365839269389 0 0.34573835196119679 -0.42296612215652868 0 0.33563788842162012 -0.39728816287537172 0 0.34573835196119679 -0.42296612215652868 0 0.33563788842162012 -0.39728816287537172 0 0.33540415989768779 -0.44905252560006492 0 0.32126124445813709 -0.43429719032362252 0 0.34573835196119679 -0.42296612215652868 0 0.32126124445813709 -0.43429719032362252 0 0.3193156137706864 -0.40941365839269389 0 0.34573835196119679 -0.42296612215652868 0 0.35583881550077368 -0.44864408143768569 0 0.34573835196119679 -0.42296612215652868 0 0.36905142820508552 -0.42917232846767789 0 0.35583881550077368 -0.44864408143768569 0 0.34573835196119679 -0.42296612215652868 0 0.36905142820508552 -0.42917232846767789 0 0.37241381966677689 -0.417360225696081 0 0.36195200988480669 -0.41065981681110758 0 0.36990343230398692 -0.40830781576793279 0 0.37241381966677689 -0.417360225696081 0 0.36195200988480669 -0.41065981681110758 0 0.37635446215448021 -0.40784891206015261 0 0.36990343230398692 -0.40830781576793279 0 0.37241381966677689 -0.417360225696081 0 0.37505152225636262 -0.40368306209891941 0 0.37635446215448021 -0.40784891206015261 0 0.36990343230398692 -0.40830781576793279 0 0.36990343230398692 -0.40830781576793279 0 0.36195200988480669 -0.41065981681110758 0 0.36876771314038492 -0.40452533678464098 0 0.34573835196119679 -0.42296612215652868 0 0.36195200988480669 -0.41065981681110758 0 0.35211107663302149 -0.40015425695529971 0 0.34573835196119679 -0.42296612215652868 0 0.36905142820508552 -0.42917232846767789 0 0.36195200988480669 -0.41065981681110758 0 0.34573835196119679 -0.42296612215652868 0 0.35211107663302149 -0.40015425695529971 0 0.33563788842162012 -0.39728816287537172 0 0.35211107663302149 -0.40015425695529971 0 0.35352794608594401 -0.38791341326287138 0 0.33563788842162012 -0.39728816287537172 0 0.35211107663302149 -0.40015425695529971 0 0.36816388811638329 -0.39545065246060412 0 0.35352794608594401 -0.38791341326287138 0 0.36195200988480669 -0.41065981681110758 0 0.36816388811638329 -0.39545065246060412 0 0.36876771314038492 -0.40452533678464098 0 0.36195200988480669 -0.41065981681110758 0 0.35211107663302149 -0.40015425695529971 0 0.36816388811638329 -0.39545065246060412 0 0.37505152225636262 -0.40368306209891941 0 0.36816388811638329 -0.39545065246060412 0 0.36876771314038492 -0.40452533678464098 0 0.37799680588164719 -0.40353053649882148 0 0.37505152225636262 -0.40368306209891941 0 0.36816388811638329 -0.39545065246060412 0 0.37505152225636262 -0.40368306209891941 0 0.36990343230398692 -0.40830781576793279 0 0.36876771314038492 -0.40452533678464098 0 0.38601585554704992 -0.38244526212700758 0 0.36816388811638329 -0.39545065246060412 0 0.3689120952668708 -0.37284951495870189 0 0.36816388811638329 -0.39545065246060412 0 0.35352794608594401 -0.38791341326287138 0 0.3689120952668708 -0.37284951495870189 0 0.35352794608594401 -0.38791341326287138 0 0.33563788842162012 -0.39728816287537172 0 0.34467783115022588 -0.37252705130409253 0 0.35352794608594401 -0.38791341326287138 0 0.3689120952668708 -0.37284951495870189 0 0.34467783115022588 -0.37252705130409253 0 0.33563788842162012 -0.39728816287537172 0 0.3255374248820434 -0.37161020359421471 0 0.33563788842162012 -0.39728816287537172 0 0.34467783115022588 -0.37252705130409253 0 0.3255374248820434 -0.37161020359421471 0 0.3193156137706864 -0.40941365839269389 0 0.33563788842162012 -0.39728816287537172 0 0.30534853388527528 -0.38930881101125692 0 0.33563788842162012 -0.39728816287537172 0 0.30534853388527528 -0.38930881101125692 0 0.3255374248820434 -0.37161020359421471 0 0.30534853388527528 -0.38930881101125692 0 0.3255374248820434 -0.37161020359421471 0 0.30525369772634148 -0.37164386163485291 0 0.30534853388527528 -0.38930881101125692 0 0.28783989868818821 -0.37644057584389279 0 0.30525369772634148 -0.37164386163485291 0 0.3193156137706864 -0.40941365839269389 0 0.30534853388527528 -0.38930881101125692 0 0.29937418247959258 -0.41817563384508599 0 0.30534853388527528 -0.38930881101125692 0 0.28922044672054198 -0.39637746652331562 0 0.29937418247959258 -0.41817563384508599 0 0.28922044672054198 -0.39637746652331562 0 0.27510086349567708 -0.39798721671617321 0 0.28320928432356041 -0.41012407252970262 0 0.28922044672054198 -0.39637746652331562 0 0.28783989868818821 -0.37644057584389279 0 0.27924907625512951 -0.38731579260330862 0 0.30534853388527528 -0.38930881101125692 0 0.28922044672054198 -0.39637746652331562 0 0.28783989868818821 -0.37644057584389279 0 0.30534853388527528 -0.38930881101125692 0 0.28783989868818821 -0.37644057584389279 0 0.28783989868818821 -0.37644057584389279 0 0.27447250226623809 -0.37821124143188289 0 0.27924907625512951 -0.38731579260330862 0 0.27447250226623809 -0.37821124143188289 0 0.27924907625512951 -0.38731579260330862 0 0.26961167010500181 -0.38756246250127813 0 0.27447250226623809 -0.37821124143188289 0 0.26961167010500181 -0.38756246250127813 0 0.26423397132697279 -0.37890457124200982 0 0.26961167010500181 -0.38756246250127813 0 0.26423397132697279 -0.37890457124200982 0 0.25687819372407023 -0.38903915957053298 0 0.26423397132697279 -0.37890457124200982 0 0.25687819372407023 -0.38903915957053298 0 0.24987622704845311 -0.37613765202982719 0 0.25108303853213881 -0.40002667887407228 0 0.26390234922262928 -0.39930308446362528 0 0.256136481120742 -0.41447562176841068 0 0.25687819372407023 -0.38903915957053298 0 0.25108303853213881 -0.40002667887407228 0 0.24309899287842279 -0.39271330151873202 0 0.25687819372407023 -0.38903915957053298 0 0.25108303853213881 -0.40002667887407228 0 0.26390234922262928 -0.39930308446362528 0 0.26961167010500181 -0.38756246250127813 0 0.25687819372407023 -0.38903915957053298 0 0.26390234922262928 -0.39930308446362528 0 0.26390234922262928 -0.39930308446362528 0 0.27510086349567708 -0.39798721671617321 0 0.2708804648698091 -0.41009655218672442 0 0.26961167010500181 -0.38756246250127813 0 0.26390234922262928 -0.39930308446362528 0 0.27510086349567708 -0.39798721671617321 0 0.28922044672054198 -0.39637746652331562 0 0.27924907625512951 -0.38731579260330862 0 0.27510086349567708 -0.39798721671617321 0 0.27924907625512951 -0.38731579260330862 0 0.26961167010500181 -0.38756246250127813 0 0.27510086349567708 -0.39798721671617321 0 0.27510086349567708 -0.39798721671617321 0 0.2708804648698091 -0.41009655218672442 0 0.28320928432356041 -0.41012407252970262 0 0.2708804648698091 -0.41009655218672442 0 0.256136481120742 -0.41447562176841068 0 0.27433621812851161 -0.42550461519375637 0 0.2708804648698091 -0.41009655218672442 0 0.27433621812851161 -0.42550461519375637 0 0.28320928432356041 -0.41012407252970262 0 0.26390234922262928 -0.39930308446362528 0 0.2708804648698091 -0.41009655218672442 0 0.256136481120742 -0.41447562176841068 0 0.25108303853213881 -0.40002667887407228 0 0.256136481120742 -0.41447562176841068 0 0.24629253832767661 -0.41022035877505542 0 0.256136481120742 -0.41447562176841068 0 0.25513396950241118 -0.43290986753561628 0 0.2453827316299185 -0.42192330194190181 0 0.256136481120742 -0.41447562176841068 0 0.25513396950241118 -0.43290986753561628 0 0.27433621812851161 -0.42550461519375637 0 0.25513396950241118 -0.43290986753561628 0 0.27433621812851161 -0.42550461519375637 0 0.26752346795397081 -0.44788636482661331 0 0.27433621812851161 -0.42550461519375637 0 0.29937418247959258 -0.41817563384508599 0 0.28546596250580908 -0.44246723239800262 0 0.29937418247959258 -0.41817563384508599 0 0.30480654487456732 -0.44641521679941309 0 0.28546596250580908 -0.44246723239800262 0 0.28922044672054198 -0.39637746652331562 0 0.28320928432356041 -0.41012407252970262 0 0.29937418247959258 -0.41817563384508599 0 0.27433621812851161 -0.42550461519375637 0 0.28320928432356041 -0.41012407252970262 0 0.29937418247959258 -0.41817563384508599 0 0.32126124445813709 -0.43429719032362252 0 0.29937418247959258 -0.41817563384508599 0 0.30480654487456732 -0.44641521679941309 0 0.3189449745883719 -0.46117016543644002 0 0.30480654487456732 -0.44641521679941309 0 0.28880919487484108 -0.4658549053918814 0 0.30480654487456732 -0.44641521679941309 0 0.28880919487484108 -0.4658549053918814 0 0.28546596250580908 -0.44246723239800262 0 0.27433621812851161 -0.42550461519375637 0 0.28546596250580908 -0.44246723239800262 0 0.26752346795397081 -0.44788636482661331 0 0.28880919487484108 -0.4658549053918814 0 0.28546596250580908 -0.44246723239800262 0 0.26752346795397081 -0.44788636482661331 0 0.25513396950241118 -0.43290986753561628 0 0.26752346795397081 -0.44788636482661331 0 0.24480843210435321 -0.45079661158300749 0 0.26752346795397081 -0.44788636482661331 0 0.2588368117714554 -0.46700690363883102 0 0.24480843210435321 -0.45079661158300749 0 0.28880919487484108 -0.4658549053918814 0 0.26752346795397081 -0.44788636482661331 0 0.2588368117714554 -0.46700690363883102 0 0.28880919487484108 -0.4658549053918814 0 0.2588368117714554 -0.46700690363883102 0 0.27227655507569209 -0.48076744006000099 0 0.2588368117714554 -0.46700690363883102 0 0.27227655507569209 -0.48076744006000099 0 0.25270961841775552 -0.48460016746525392 0 0.2588368117714554 -0.46700690363883102 0 0.25270961841775552 -0.48460016746525392 0 0.23949561189523169 -0.47426551941090739 0 0.25270961841775552 -0.48460016746525392 0 0.26826962257648529 -0.5 0 0.2413270925756249 -0.5 0 0.27227655507569209 -0.48076744006000099 0 0.25270961841775552 -0.48460016746525392 0 0.26826962257648529 -0.5 0 0.27227655507569209 -0.48076744006000099 0 0.26826962257648529 -0.5 0 0.29521215257734579 -0.5 0 0.28880919487484108 -0.4658549053918814 0 0.27227655507569209 -0.48076744006000099 0 0.29521215257734579 -0.5 0 0.28880919487484108 -0.4658549053918814 0 0.29521215257734579 -0.5 0 0.31005432530219129 -0.48106067464861729 0 0.3189449745883719 -0.46117016543644002 0 0.28880919487484108 -0.4658549053918814 0 0.31005432530219129 -0.48106067464861729 0 0.32215468257820618 -0.5 0 0.29521215257734579 -0.5 0 0.31005432530219129 -0.48106067464861729 0 0.33463237856908817 -0.28956894479377399 0 0.33485830675890288 -0.30442904333306592 0 0.35657459314761941 -0.2860097891906741 0 0.33463237856908817 -0.28956894479377399 0 0.32894302133540282 -0.28710755170783531 0 0.35195887039823659 -0.28200771363307098 0 0.32894302133540282 -0.28710755170783531 0 0.35195887039823659 -0.28200771363307098 0 0.32894302133540282 -0.28710755170783531 0 0.33255663915089151 -0.29722249741805129 0 0.33463237856908817 -0.28956894479377399 0 0.32894302133540282 -0.28710755170783531 0 0.33255663915089151 -0.29722249741805129 0 0.32894302133540282 -0.28710755170783531 0 0.33255663915089151 -0.29722249741805129 0 0.32301709761150521 -0.2972128627914089 0 0.33485830675890288 -0.30442904333306592 0 0.34824447571033601 -0.30253517369681238 0 0.34533870308018377 -0.31598934501886372 0 0.33485830675890288 -0.30442904333306592 0 0.33255663915089151 -0.29722249741805129 0 0.32434770264142349 -0.30499280498860082 0 0.33463237856908817 -0.28956894479377399 0 0.33485830675890288 -0.30442904333306592 0 0.33255663915089151 -0.29722249741805129 0 0.32301709761150521 -0.2972128627914089 0 0.32434770264142349 -0.30499280498860082 0 0.3171485971304504 -0.30589952111326829 0 0.32434770264142349 -0.30499280498860082 0 0.3171485971304504 -0.30589952111326829 0 0.31314202037018413 -0.32284829747545468 0 0.33485830675890288 -0.30442904333306592 0 0.32434770264142349 -0.30499280498860082 0 0.31314202037018413 -0.32284829747545468 0 0.33255663915089151 -0.29722249741805129 0 0.32301709761150521 -0.2972128627914089 0 0.32434770264142349 -0.30499280498860082 0 0.3171485971304504 -0.30589952111326829 0 0.31208952779935789 -0.2908419387292881 0 0.30833746379913463 -0.30503745501229762 0 0.32301709761150521 -0.2972128627914089 0 0.3171485971304504 -0.30589952111326829 0 0.31208952779935789 -0.2908419387292881 0 0.32894302133540282 -0.28710755170783531 0 0.31611371382327402 -0.28007222207304999 0 0.31208952779935789 -0.2908419387292881 0 0.32894302133540282 -0.28710755170783531 0 0.32301709761150521 -0.2972128627914089 0 0.31208952779935789 -0.2908419387292881 0 0.32894302133540282 -0.28710755170783531 0 0.31208952779935789 -0.2908419387292881 0 0.32894302133540282 -0.28710755170783531 0 0.32245882367699719 -0.26895751187574157 0 0.32894302133540282 -0.28710755170783531 0 0.31611371382327402 -0.28007222207304999 0 0.32245882367699719 -0.26895751187574157 0 0.31611371382327402 -0.28007222207304999 0 0.32245882367699719 -0.26895751187574157 0 0.30706455279928557 -0.27339796693147528 0 0.32245882367699719 -0.26895751187574157 0 0.30981211567343969 -0.26250129009931661 0 0.30706455279928557 -0.27339796693147528 0 0.32245882367699719 -0.26895751187574157 0 0.31597462601859122 -0.25080747204364812 0 0.32245882367699719 -0.26895751187574157 0 0.31597462601859122 -0.25080747204364812 0 0.30981211567343969 -0.26250129009931661 0 0.32245882367699719 -0.26895751187574157 0 0.31597462601859122 -0.25080747204364812 0 0.33396674820841349 -0.26640759283836002 0 0.31597462601859122 -0.25080747204364812 0 0.33396674820841349 -0.26640759283836002 0 0.33517615116993849 -0.24743488902137309 0 0.33396674820841349 -0.26640759283836002 0 0.35185333732921159 -0.25428502110151557 0 0.33517615116993849 -0.24743488902137309 0 0.31597462601859122 -0.25080747204364812 0 0.33396674820841349 -0.26640759283836002 0 0.32894302133540282 -0.28710755170783531 0 0.32245882367699719 -0.26895751187574157 0 0.33396674820841349 -0.26640759283836002 0 0.33396674820841349 -0.26640759283836002 0 0.35195887039823659 -0.28200771363307098 0 0.32894302133540282 -0.28710755170783531 0 0.33396674820841349 -0.26640759283836002 0 0.35195887039823659 -0.28200771363307098 0 0.33396674820841349 -0.26640759283836002 0 0.35159414215374007 -0.26901089914998932 0 0.35195887039823659 -0.28200771363307098 0 0.35159414215374007 -0.26901089914998932 0 0.36459381448795669 -0.2792080702757721 0 0.35195887039823659 -0.28200771363307098 0 0.36459381448795669 -0.2792080702757721 0 0.35195887039823659 -0.28200771363307098 0 0.33396674820841349 -0.26640759283836002 0 0.35159414215374007 -0.26901089914998932 0 0.35185333732921159 -0.25428502110151557 0 0.35159414215374007 -0.26901089914998932 0 0.35185333732921159 -0.25428502110151557 0 0.36435388824524378 -0.26651308148643732 0 0.37477580018058132 -0.24095111383496479 0 0.37683953433427181 -0.26882153263446662 0 0.36563983252638571 -0.25462703483095822 0 0.36075586336603621 -0.2426037127049111 0 0.35185333732921159 -0.25428502110151557 0 0.36563983252638571 -0.25462703483095822 0 0.35185333732921159 -0.25428502110151557 0 0.36563983252638571 -0.25462703483095822 0 0.36435388824524378 -0.26651308148643732 0 0.37683953433427181 -0.26882153263446662 0 0.36563983252638571 -0.25462703483095822 0 0.36435388824524378 -0.26651308148643732 0 0.36459381448795669 -0.2792080702757721 0 0.36308990924476459 -0.28048364807874221 0 0.35195887039823659 -0.28200771363307098 0 0.36459381448795669 -0.2792080702757721 0 0.36308990924476459 -0.28048364807874221 0 0.37273728942595791 -0.27740364396778311 0 0.36459381448795669 -0.2792080702757721 0 0.36308990924476459 -0.28048364807874221 0 0.35159414215374007 -0.26901089914998932 0 0.36459381448795669 -0.2792080702757721 0 0.36435388824524378 -0.26651308148643732 0 0.37683953433427181 -0.26882153263446662 0 0.36459381448795669 -0.2792080702757721 0 0.36435388824524378 -0.26651308148643732 0 0.36459381448795669 -0.2792080702757721 0 0.37273728942595791 -0.27740364396778311 0 0.37683953433427181 -0.26882153263446662 0 0.36459381448795669 -0.2792080702757721 0 0.37273728942595791 -0.27740364396778311 0 0.37683953433427181 -0.26882153263446662 0 0.36459381448795669 -0.2792080702757721 0 0.36308990924476459 -0.28048364807874221 0 0.37273728942595791 -0.27740364396778311 0 0.37795999762798671 -0.28395322059410122 0 0.37273728942595791 -0.27740364396778311 0 0.36936745264149701 -0.28627283508716472 0 0.35657459314761941 -0.2860097891906741 0 0.35620629985463748 -0.30371251724464648 0 0.37101427446782781 -0.29852975601036341 0 0.36308990924476459 -0.28048364807874221 0 0.37273728942595791 -0.27740364396778311 0 0.36936745264149701 -0.28627283508716472 0 0.37519981906117678 -0.29055939022370142 0 0.37795999762798671 -0.28395322059410122 0 0.36936745264149701 -0.28627283508716472 0 0.37519981906117678 -0.29055939022370142 0 0.36936745264149701 -0.28627283508716472 0 0.37101427446782781 -0.29852975601036341 0 0.36936745264149701 -0.28627283508716472 0 0.35657459314761941 -0.2860097891906741 0 0.37101427446782781 -0.29852975601036341 0 0.35657459314761941 -0.2860097891906741 0 0.37101427446782781 -0.29852975601036341 0 0.36308990924476459 -0.28048364807874221 0 0.36936745264149701 -0.28627283508716472 0 0.35657459314761941 -0.2860097891906741 0 0.36308990924476459 -0.28048364807874221 0 0.35657459314761941 -0.2860097891906741 0 0.36308990924476459 -0.28048364807874221 0 0.35366972758071469 -0.28349111722646431 0 0.33463237856908817 -0.28956894479377399 0 0.35366972758071469 -0.28349111722646431 0 0.33463237856908817 -0.28956894479377399 0 0.35366972758071469 -0.28349111722646431 0 0.35195887039823659 -0.28200771363307098 0 0.36308990924476459 -0.28048364807874221 0 0.35366972758071469 -0.28349111722646431 0 0.35195887039823659 -0.28200771363307098 0 0.33485830675890288 -0.30442904333306592 0 0.35657459314761941 -0.2860097891906741 0 0.36308990924476459 -0.28048364807874221 0 0.35366972758071469 -0.28349111722646431 0 0.35657459314761941 -0.2860097891906741 0 0.33463237856908817 -0.28956894479377399 0 0.35366972758071469 -0.28349111722646431 0 0.35657459314761941 -0.2860097891906741 0 0.35366972758071469 -0.28349111722646431 0 0.35657459314761941 -0.2860097891906741 0 0.35366972758071469 -0.28349111722646431 0 0.35195887039823659 -0.28200771363307098 0 0.35620629985463748 -0.30371251724464648 0 0.36380134767337091 -0.31365371592763602 0 0.34533870308018377 -0.31598934501886372 0 0.35657459314761941 -0.2860097891906741 0 0.34824447571033601 -0.30253517369681238 0 0.35620629985463748 -0.30371251724464648 0 0.33485830675890288 -0.30442904333306592 0 0.35657459314761941 -0.2860097891906741 0 0.34824447571033601 -0.30253517369681238 0 0.34824447571033601 -0.30253517369681238 0 0.35620629985463748 -0.30371251724464648 0 0.34533870308018377 -0.31598934501886372 0 0.38545395578803499 -0.31104972283005378 0 0.37101427446782781 -0.29852975601036341 0 0.36380134767337091 -0.31365371592763602 0 0.35620629985463748 -0.30371251724464648 0 0.37101427446782781 -0.29852975601036341 0 0.36380134767337091 -0.31365371592763602 0 0.38545395578803499 -0.31104972283005378 0 0.36380134767337091 -0.31365371592763602 0 0.36945761595668469 -0.32738841673247931 0 0.36380134767337091 -0.31365371592763602 0 0.36945761595668469 -0.32738841673247931 0 0.35533723689285712 -0.32525253772940937 0 0.36945761595668469 -0.32738841673247931 0 0.35618710249729552 -0.34088690244721892 0 0.35533723689285712 -0.32525253772940937 0 0.36945761595668469 -0.32738841673247931 0 0.35618710249729552 -0.34088690244721892 0 0.37368731816096312 -0.34897020548070451 0 0.35618710249729552 -0.34088690244721892 0 0.33810128782584858 -0.35072533414536311 0 0.34064131712366241 -0.33181983138849169 0 0.35618710249729552 -0.34088690244721892 0 0.35533723689285712 -0.32525253772940937 0 0.34064131712366241 -0.33181983138849169 0 0.34533870308018377 -0.31598934501886372 0 0.35533723689285712 -0.32525253772940937 0 0.34064131712366241 -0.33181983138849169 0 0.36380134767337091 -0.31365371592763602 0 0.34533870308018377 -0.31598934501886372 0 0.35533723689285712 -0.32525253772940937 0 0.3689120952668708 -0.37284951495870189 0 0.37368731816096312 -0.34897020548070451 0 0.35738528973841999 -0.35772904562383351 0 0.35618710249729552 -0.34088690244721892 0 0.37368731816096312 -0.34897020548070451 0 0.35738528973841999 -0.35772904562383351 0 0.35618710249729552 -0.34088690244721892 0 0.35738528973841999 -0.35772904562383351 0 0.33810128782584858 -0.35072533414536311 0 0.35738528973841999 -0.35772904562383351 0 0.34467783115022588 -0.37252705130409253 0 0.33810128782584858 -0.35072533414536311 0 0.3689120952668708 -0.37284951495870189 0 0.35738528973841999 -0.35772904562383351 0 0.34467783115022588 -0.37252705130409253 0 0.34467783115022588 -0.37252705130409253 0 0.33810128782584858 -0.35072533414536311 0 0.3255374248820434 -0.37161020359421471 0 0.31543696134246668 -0.34593224431305769 0 0.3255374248820434 -0.37161020359421471 0 0.30900602422585888 -0.35865430802761772 0 0.31543696134246668 -0.34593224431305769 0 0.3255374248820434 -0.37161020359421471 0 0.33810128782584858 -0.35072533414536311 0 0.31543696134246668 -0.34593224431305769 0 0.3255374248820434 -0.37161020359421471 0 0.3255374248820434 -0.37161020359421471 0 0.30525369772634148 -0.37164386163485291 0 0.30900602422585888 -0.35865430802761772 0 0.34533870308018377 -0.31598934501886372 0 0.33130220335757699 -0.32186248444176119 0 0.34064131712366241 -0.33181983138849169 0 0.33485830675890288 -0.30442904333306592 0 0.34533870308018377 -0.31598934501886372 0 0.33130220335757699 -0.32186248444176119 0 0.33810128782584858 -0.35072533414536311 0 0.34064131712366241 -0.33181983138849169 0 0.3268430880468266 -0.33457206034663262 0 0.33130220335757699 -0.32186248444176119 0 0.34064131712366241 -0.33181983138849169 0 0.3268430880468266 -0.33457206034663262 0 0.31543696134246668 -0.34593224431305769 0 0.3268430880468266 -0.33457206034663262 0 0.31314202037018413 -0.32284829747545468 0 0.33810128782584858 -0.35072533414536311 0 0.31543696134246668 -0.34593224431305769 0 0.3268430880468266 -0.33457206034663262 0 0.33130220335757699 -0.32186248444176119 0 0.3268430880468266 -0.33457206034663262 0 0.31314202037018413 -0.32284829747545468 0 0.33485830675890288 -0.30442904333306592 0 0.31314202037018413 -0.32284829747545468 0 0.3171485971304504 -0.30589952111326829 0 0.31314202037018413 -0.32284829747545468 0 0.3109911447756647 -0.31350988965823029 0 0.33485830675890288 -0.30442904333306592 0 0.33130220335757699 -0.32186248444176119 0 0.31314202037018413 -0.32284829747545468 0 0.31314202037018413 -0.32284829747545468 0 0.30533649780288991 -0.32025428503190068 0 0.3109911447756647 -0.31350988965823029 0 0.30533649780288991 -0.32025428503190068 0 0.3109911447756647 -0.31350988965823029 0 0.30833746379913463 -0.30503745501229762 0 0.31543696134246668 -0.34593224431305769 0 0.30533649780288991 -0.32025428503190068 0 0.30314188851555429 -0.3464145030398364 0 0.30533649780288991 -0.32025428503190068 0 0.29792146783109758 -0.32077626486014349 0 0.30314188851555429 -0.3464145030398364 0 0.31543696134246668 -0.34593224431305769 0 0.31314202037018413 -0.32284829747545468 0 0.30533649780288991 -0.32025428503190068 0 0.29792146783109758 -0.32077626486014349 0 0.30314188851555429 -0.3464145030398364 0 0.31543696134246668 -0.34593224431305769 0 0.30533649780288991 -0.32025428503190068 0 0.29792146783109758 -0.32077626486014349 0 0.29422135484035322 -0.33366994296298719 0 0.30314188851555429 -0.3464145030398364 0 0.29422135484035322 -0.33366994296298719 0 0.29546103181119637 -0.34185893253319311 0 0.30314188851555429 -0.3464145030398364 0 0.29422135484035322 -0.33366994296298719 0 0.29546103181119637 -0.34185893253319311 0 0.28827175492889229 -0.34275780055790278 0 0.29546103181119637 -0.34185893253319311 0 0.28827175492889229 -0.34275780055790278 0 0.29811044553331972 -0.34650788457159087 0 0.29422135484035322 -0.33366994296298719 0 0.28827175492889229 -0.34275780055790278 0 0.27955848846152698 -0.33666113426449551 0 0.29422135484035322 -0.33366994296298719 0 0.28744860979629389 -0.32474860906702402 0 0.27955848846152698 -0.33666113426449551 0 0.28744860979629389 -0.32474860906702402 0 0.29019889155513462 -0.31620785207956748 0 0.28097437988070417 -0.31138482246715898 0 0.29792146783109758 -0.32077626486014349 0 0.29019889155513462 -0.31620785207956748 0 0.29244758100571983 -0.32385066724243061 0 0.29422135484035322 -0.33366994296298719 0 0.28744860979629389 -0.32474860906702402 0 0.29244758100571983 -0.32385066724243061 0 0.29792146783109758 -0.32077626486014349 0 0.29422135484035322 -0.33366994296298719 0 0.29244758100571983 -0.32385066724243061 0 0.28744860979629389 -0.32474860906702402 0 0.29019889155513462 -0.31620785207956748 0 0.29244758100571983 -0.32385066724243061 0 0.30525369772634148 -0.37164386163485291 0 0.30031449930387721 -0.36082981960256849 0 0.30900602422585888 -0.35865430802761772 0 0.30525369772634148 -0.37164386163485291 0 0.30031449930387721 -0.36082981960256849 0 0.29483415024835152 -0.36747827247447862 0 0.30080593951138668 -0.35381036279877531 0 0.30900602422585888 -0.35865430802761772 0 0.30314188851555429 -0.3464145030398364 0 0.30080593951138668 -0.35381036279877531 0 0.29811044553331972 -0.34650788457159087 0 0.29345683997832372 -0.35664529875226292 0 0.30031449930387721 -0.36082981960256849 0 0.30080593951138668 -0.35381036279877531 0 0.30900602422585888 -0.35865430802761772 0 0.30031449930387721 -0.36082981960256849 0 0.30080593951138668 -0.35381036279877531 0 0.29345683997832372 -0.35664529875226292 0 0.31543696134246668 -0.34593224431305769 0 0.30900602422585888 -0.35865430802761772 0 0.30314188851555429 -0.3464145030398364 0 0.30080593951138668 -0.35381036279877531 0 0.30314188851555429 -0.3464145030398364 0 0.29811044553331972 -0.34650788457159087 0 0.29546103181119637 -0.34185893253319311 0 0.30314188851555429 -0.3464145030398364 0 0.29811044553331972 -0.34650788457159087 0 0.29811044553331972 -0.34650788457159087 0 0.29345683997832372 -0.35664529875226292 0 0.28122462644821988 -0.35688066365974619 0 0.28827175492889229 -0.34275780055790278 0 0.29811044553331972 -0.34650788457159087 0 0.28122462644821988 -0.35688066365974619 0 0.28827175492889229 -0.34275780055790278 0 0.28122462644821988 -0.35688066365974619 0 0.27955848846152698 -0.33666113426449551 0 0.29811044553331972 -0.34650788457159087 0 0.28122462644821988 -0.35688066365974619 0 0.29345683997832372 -0.35664529875226292 0 0.28676543400443838 -0.36101512068260139 0 0.28122462644821988 -0.35688066365974619 0 0.28676543400443838 -0.36101512068260139 0 0.28122462644821988 -0.35688066365974619 0 0.28783989868818821 -0.37644057584389279 0 0.30525369772634148 -0.37164386163485291 0 0.29483415024835152 -0.36747827247447862 0 0.28783989868818821 -0.37644057584389279 0 0.28676543400443838 -0.36101512068260139 0 0.27033126349110148 -0.36357234067652822 0 0.29357505063040601 -0.36145191270551408 0 0.28676543400443838 -0.36101512068260139 0 0.29483415024835152 -0.36747827247447862 0 0.30031449930387721 -0.36082981960256849 0 0.29357505063040601 -0.36145191270551408 0 0.29483415024835152 -0.36747827247447862 0 0.30031449930387721 -0.36082981960256849 0 0.29345683997832372 -0.35664529875226292 0 0.29357505063040601 -0.36145191270551408 0 0.29345683997832372 -0.35664529875226292 0 0.29357505063040601 -0.36145191270551408 0 0.28676543400443838 -0.36101512068260139 0 0.28783989868818821 -0.37644057584389279 0 0.28676543400443838 -0.36101512068260139 0 0.29483415024835152 -0.36747827247447862 0 0.28783989868818821 -0.37644057584389279 0 0.27033126349110148 -0.36357234067652822 0 0.28783989868818821 -0.37644057584389279 0 0.27447250226623809 -0.37821124143188289 0 0.27033126349110148 -0.36357234067652822 0 0.28676543400443838 -0.36101512068260139 0 0.27033126349110148 -0.36357234067652822 0 0.28122462644821988 -0.35688066365974619 0 0.27447250226623809 -0.37821124143188289 0 0.26423397132697279 -0.37890457124200982 0 0.27033126349110148 -0.36357234067652822 0 0.27033126349110148 -0.36357234067652822 0 0.28122462644821988 -0.35688066365974619 0 0.28122462644821988 -0.35688066365974619 0 0.26082083375001269 -0.34165569813656432 0 0.27033126349110148 -0.36357234067652822 0 0.28122462644821988 -0.35688066365974619 0 0.26082083375001269 -0.34165569813656432 0 0.28122462644821988 -0.35688066365974619 0 0.27955848846152698 -0.33666113426449551 0 0.26082083375001269 -0.34165569813656432 0 0.27033126349110148 -0.36357234067652822 0 0.25099839141978419 -0.34936335514031408 0 0.27033126349110148 -0.36357234067652822 0 0.25099839141978419 -0.34936335514031408 0 0.26082083375001269 -0.34165569813656432 0 0.27033126349110148 -0.36357234067652822 0 0.25099839141978419 -0.34936335514031408 0 0.24534349961555019 -0.36253701182870851 0 0.26423397132697279 -0.37890457124200982 0 0.27033126349110148 -0.36357234067652822 0 0.24987622704845311 -0.37613765202982719 0 0.27033126349110148 -0.36357234067652822 0 0.24534349961555019 -0.36253701182870851 0 0.24987622704845311 -0.37613765202982719 0 0.27033126349110148 -0.36357234067652822 0 0.24987622704845311 -0.37613765202982719 0 0.28744860979629389 -0.32474860906702402 0 0.26598899428458778 -0.32103793389256657 0 0.27955848846152698 -0.33666113426449551 0 0.28744860979629389 -0.32474860906702402 0 0.26598899428458778 -0.32103793389256657 0 0.28097437988070417 -0.31138482246715898 0 0.26598899428458778 -0.32103793389256657 0 0.27955848846152698 -0.33666113426449551 0 0.26082083375001269 -0.34165569813656432 0 0.26082083375001269 -0.34165569813656432 0 0.2404170410518052 -0.32643073261338312 0 0.26598899428458778 -0.32103793389256657 0 0.26082083375001269 -0.34165569813656432 0 0.2404170410518052 -0.32643073261338312 0 0.25099839141978419 -0.34936335514031408 0 0.26082083375001269 -0.34165569813656432 0 0.2404170410518052 -0.32643073261338312 0 0.26598899428458778 -0.32103793389256657 0 0.24423538898563429 -0.30587701823941071 0 0.2404170410518052 -0.32643073261338312 0 0.26846821806613752 -0.30050752245993012 0 0.24423538898563429 -0.30587701823941071 0 0.25301376652256202 -0.2892367573709661 0 0.26846821806613752 -0.30050752245993012 0 0.24423538898563429 -0.30587701823941071 0 0.26598899428458778 -0.32103793389256657 0 0.26846821806613752 -0.30050752245993012 0 0.24423538898563429 -0.30587701823941071 0 0.25301376652256202 -0.2892367573709661 0 0.26500420865911251 -0.28331687632378699 0 0.26846821806613752 -0.30050752245993012 0 0.25301376652256202 -0.2892367573709661 0 0.26500420865911251 -0.28331687632378699 0 0.2507153324002197 -0.27704953531328702 0 0.26500420865911251 -0.28331687632378699 0 0.27805302037335089 -0.28584974436810762 0 0.26846821806613752 -0.30050752245993012 0 0.27805302037335089 -0.28584974436810762 0 0.26846821806613752 -0.30050752245993012 0 0.29270104714664102 -0.29513802668045069 0 0.26500420865911251 -0.28331687632378699 0 0.27805302037335089 -0.28584974436810762 0 0.27342558025451552 -0.27498979272208851 0 0.26598899428458778 -0.32103793389256657 0 0.26846821806613752 -0.30050752245993012 0 0.28097437988070417 -0.31138482246715898 0 0.26846821806613752 -0.30050752245993012 0 0.28097437988070417 -0.31138482246715898 0 0.29270104714664102 -0.29513802668045069 0 0.26846821806613752 -0.30050752245993012 0 0.29270104714664102 -0.29513802668045069 0 0.29792146783109758 -0.32077626486014349 0 0.29270104714664102 -0.29513802668045069 0 0.29019889155513462 -0.31620785207956748 0 0.28097437988070417 -0.31138482246715898 0 0.29270104714664102 -0.29513802668045069 0 0.29792146783109758 -0.32077626486014349 0 0.29019889155513462 -0.31620785207956748 0 0.29270104714664102 -0.29513802668045069 0 0.29792146783109758 -0.32077626486014349 0 0.29270104714664102 -0.29513802668045069 0 0.29523603426331357 -0.29457632575074338 0 0.27805302037335089 -0.28584974436810762 0 0.29026987947112831 -0.28319821192468808 0 0.29270104714664102 -0.29513802668045069 0 0.27805302037335089 -0.28584974436810762 0 0.29026987947112831 -0.28319821192468808 0 0.28863308206368682 -0.27515966401439529 0 0.29026987947112831 -0.28319821192468808 0 0.29523603426331357 -0.29457632575074338 0 0.29026987947112831 -0.28319821192468808 0 0.29523603426331357 -0.29457632575074338 0 0.30320790951940702 -0.28313078900162059 0 0.29026987947112831 -0.28319821192468808 0 0.29270104714664102 -0.29513802668045069 0 0.29523603426331357 -0.29457632575074338 0 0.29026987947112831 -0.28319821192468808 0 0.29270104714664102 -0.29513802668045069 0 0.29270104714664102 -0.29513802668045069 0 0.29523603426331357 -0.29457632575074338 0 0.29523603426331357 -0.29457632575074338 0 0.31208952779935789 -0.2908419387292881 0 0.29523603426331357 -0.29457632575074338 0 0.30320790951940702 -0.28313078900162059 0 0.31208952779935789 -0.2908419387292881 0 0.29523603426331357 -0.29457632575074338 0 0.31208952779935789 -0.2908419387292881 0 0.30833746379913463 -0.30503745501229762 0 0.31611371382327402 -0.28007222207304999 0 0.30320790951940702 -0.28313078900162059 0 0.31208952779935789 -0.2908419387292881 0 0.30533649780288991 -0.32025428503190068 0 0.29523603426331357 -0.29457632575074338 0 0.30833746379913463 -0.30503745501229762 0 0.30533649780288991 -0.32025428503190068 0 0.29792146783109758 -0.32077626486014349 0 0.29523603426331357 -0.29457632575074338 0 0.30533649780288991 -0.32025428503190068 0 0.29523603426331357 -0.29457632575074338 0 0.3171485971304504 -0.30589952111326829 0 0.3109911447756647 -0.31350988965823029 0 0.30833746379913463 -0.30503745501229762 0 0.29812220868357159 -0.26533402464574418 0 0.30111904597271899 -0.2536098058489899 0 0.30981211567343969 -0.26250129009931661 0 0.31597462601859122 -0.25080747204364812 0 0.30111904597271899 -0.2536098058489899 0 0.30981211567343969 -0.26250129009931661 0 0.29812220868357159 -0.26533402464574418 0 0.30981211567343969 -0.26250129009931661 0 0.30706455279928557 -0.27339796693147528 0 0.31611371382327402 -0.28007222207304999 0 0.30320790951940702 -0.28313078900162059 0 0.30706455279928557 -0.27339796693147528 0 0.29026987947112831 -0.28319821192468808 0 0.30320790951940702 -0.28313078900162059 0 0.29755036247591721 -0.27602563541609298 0 0.30320790951940702 -0.28313078900162059 0 0.30706455279928557 -0.27339796693147528 0 0.29755036247591721 -0.27602563541609298 0 0.29812220868357159 -0.26533402464574418 0 0.30706455279928557 -0.27339796693147528 0 0.29755036247591721 -0.27602563541609298 0 0.29812220868357159 -0.26533402464574418 0 0.29755036247591721 -0.27602563541609298 0 0.28863308206368682 -0.27515966401439529 0 0.29026987947112831 -0.28319821192468808 0 0.28863308206368682 -0.27515966401439529 0 0.29026987947112831 -0.28319821192468808 0 0.29755036247591721 -0.27602563541609298 0 0.28863308206368682 -0.27515966401439529 0 0.28863308206368682 -0.27515966401439529 0 0.28456511698073272 -0.25518130134833977 0 0.29812220868357159 -0.26533402464574418 0 0.28863308206368682 -0.27515966401439529 0 0.28456511698073272 -0.25518130134833977 0 0.29812220868357159 -0.26533402464574418 0 0.30111904597271899 -0.2536098058489899 0 0.28456511698073272 -0.25518130134833977 0 0.28863308206368682 -0.27515966401439529 0 0.28456511698073272 -0.25518130134833977 0 0.27223885194073971 -0.26265851400849172 0 0.28456511698073272 -0.25518130134833977 0 0.27223885194073971 -0.26265851400849172 0 0.26629969424128969 -0.25192769388052821 0 0.27223885194073971 -0.26265851400849172 0 0.26629969424128969 -0.25192769388052821 0 0.2629172406837702 -0.26740365320709081 0 0.26500420865911251 -0.28331687632378699 0 0.27342558025451552 -0.27498979272208851 0 0.2629172406837702 -0.26740365320709081 0 0.28863308206368682 -0.27515966401439529 0 0.27223885194073971 -0.26265851400849172 0 0.27342558025451552 -0.27498979272208851 0 0.27805302037335089 -0.28584974436810762 0 0.28863308206368682 -0.27515966401439529 0 0.27342558025451552 -0.27498979272208851 0 0.27223885194073971 -0.26265851400849172 0 0.27342558025451552 -0.27498979272208851 0 0.2629172406837702 -0.26740365320709081 0 0.26500420865911251 -0.28331687632378699 0 0.2629172406837702 -0.26740365320709081 0 0.2507153324002197 -0.27704953531328702 0 0.2629172406837702 -0.26740365320709081 0 0.2507153324002197 -0.27704953531328702 0 0.2466218950091964 -0.26012473444713258 0 0.25037283077400019 -0.2416092145933311 0 0.26629969424128969 -0.25192769388052821 0 0.2466218950091964 -0.26012473444713258 0 0.26629969424128969 -0.25192769388052821 0 0.2629172406837702 -0.26740365320709081 0 0.2466218950091964 -0.26012473444713258 0 0.25037283077400019 -0.2416092145933311 0 0.2466218950091964 -0.26012473444713258 0 0.2339549802858914 -0.24933471903745599 0 0.2466218950091964 -0.26012473444713258 0 0.22717476572977791 -0.26325637954660608 0 0.2339549802858914 -0.24933471903745599 0 0.2466218950091964 -0.26012473444713258 0 0.23628574795648369 -0.27498419313581679 0 0.22717476572977791 -0.26325637954660608 0 0.2507153324002197 -0.27704953531328702 0 0.2466218950091964 -0.26012473444713258 0 0.23628574795648369 -0.27498419313581679 0 0.2507153324002197 -0.27704953531328702 0 0.23628574795648369 -0.27498419313581679 0 0.24044913557019401 -0.28723099739492908 0 0.2247339410531527 -0.27667652802353632 0 0.21554844428562811 -0.26491471108287651 0 0.21653111649902579 -0.28712771180040292 0 0.23628574795648369 -0.27498419313581679 0 0.2247339410531527 -0.27667652802353632 0 0.22717476572977791 -0.26325637954660608 0 0.2247339410531527 -0.27667652802353632 0 0.22717476572977791 -0.26325637954660608 0 0.21554844428562811 -0.26491471108287651 0 0.22717476572977791 -0.26325637954660608 0 0.22331750647786899 -0.25281133177650322 0 0.2339549802858914 -0.24933471903745599 0 0.22717476572977791 -0.26325637954660608 0 0.22331750647786899 -0.25281133177650322 0 0.21554844428562811 -0.26491471108287651 0 0.2084475354763706 -0.25511513831035743 0 0.21554844428562811 -0.26491471108287651 0 0.1982966667633215 -0.26354120971092698 0 0.21554844428562811 -0.26491471108287651 0 0.21456577207223029 -0.24270171036535029 0 0.22331750647786899 -0.25281133177650322 0 0.21554844428562811 -0.26491471108287651 0 0.21456577207223029 -0.24270171036535029 0 0.2084475354763706 -0.25511513831035743 0 0.21554844428562811 -0.26491471108287651 0 0.21336353465090491 -0.24693864317134839 0 0.21554844428562811 -0.26491471108287651 0 0.21336353465090491 -0.24693864317134839 0 0.21456577207223029 -0.24270171036535029 0 0.2084475354763706 -0.25511513831035743 0 0.1982966667633215 -0.26354120971092698 0 0.2080714594183444 -0.2424179483002232 0 0.1982966667633215 -0.26354120971092698 0 0.2080714594183444 -0.2424179483002232 0 0.21554844428562811 -0.26491471108287651 0 0.21653111649902579 -0.28712771180040292 0 0.21554844428562811 -0.26491471108287651 0 0.20859607852913339 -0.28093905456482821 0 0.21653111649902579 -0.28712771180040292 0 0.21554844428562811 -0.26491471108287651 0 0.20859607852913339 -0.28093905456482821 0 0.2011380539128553 -0.27767933622792518 0 0.21554844428562811 -0.26491471108287651 0 0.2011380539128553 -0.27767933622792518 0 0.1982966667633215 -0.26354120971092698 0 0.1982966667633215 -0.26354120971092698 0 0.18852187410829821 -0.28466447112163068 0 0.1982966667633215 -0.26354120971092698 0 0.18852187410829821 -0.28466447112163068 0 0.1845366839674035 -0.26640487959885623 0 0.2011380539128553 -0.27767933622792518 0 0.1982966667633215 -0.26354120971092698 0 0.18852187410829821 -0.28466447112163068 0 0.1982966667633215 -0.26354120971092698 0 0.2080714594183444 -0.2424179483002232 0 0.19254414318066221 -0.24961624770678509 0 0.1982966667633215 -0.26354120971092698 0 0.18706352147094041 -0.25756661524031438 0 0.1845366839674035 -0.26640487959885623 0 0.1982966667633215 -0.26354120971092698 0 0.18706352147094041 -0.25756661524031438 0 0.19254414318066221 -0.24961624770678509 0 0.18706352147094041 -0.25756661524031438 0 0.19254414318066221 -0.24961624770678509 0 0.18399505531774341 -0.24981832115951039 0 0.20249447748908611 -0.29813355613580778 0 0.1976485991634879 -0.30796138879627621 0 0.19462594870140809 -0.30164723750547567 0 0.20249447748908611 -0.29813355613580778 0 0.19462594870140809 -0.30164723750547567 0 0.19392418081794471 -0.29575522021664652 0 0.20249447748908611 -0.29813355613580778 0 0.1976485991634879 -0.30796138879627621 0 0.20782414549410869 -0.30817847155873718 0 0.1976485991634879 -0.30796138879627621 0 0.20782414549410869 -0.30817847155873718 0 0.20282381327660201 -0.31505297042611552 0 0.1976485991634879 -0.30796138879627621 0 0.19009702279388629 -0.3064242775921906 0 0.18802618722583669 -0.31833181955932999 0 0.1976485991634879 -0.30796138879627621 0 0.19009702279388629 -0.3064242775921906 0 0.19462594870140809 -0.30164723750547567 0 0.19009702279388629 -0.3064242775921906 0 0.19462594870140809 -0.30164723750547567 0 0.1880606218677118 -0.30022154946313712 0 0.19462594870140809 -0.30164723750547567 0 0.19110113081553529 -0.29631368747161629 0 0.19392418081794471 -0.29575522021664652 0 0.1880606218677118 -0.30022154946313712 0 0.19110113081553529 -0.29631368747161629 0 0.18734834214976739 -0.29514628785519947 0 0.19462594870140809 -0.30164723750547567 0 0.1880606218677118 -0.30022154946313712 0 0.19110113081553529 -0.29631368747161629 0 0.20249447748908611 -0.29813355613580778 0 0.18747516626574931 -0.28692639975368628 0 0.20249447748908611 -0.29813355613580778 0 0.19392418081794471 -0.29575522021664652 0 0.18747516626574931 -0.28692639975368628 0 0.19110113081553529 -0.29631368747161629 0 0.19392418081794471 -0.29575522021664652 0 0.18747516626574931 -0.28692639975368628 0 0.19110113081553529 -0.29631368747161629 0 0.18747516626574931 -0.28692639975368628 0 0.18734834214976739 -0.29514628785519947 0 0.18852187410829821 -0.28466447112163068 0 0.19787122383615691 -0.29172525818392958 0 0.18852187410829821 -0.28466447112163068 0 0.19731262536099689 -0.28481999283041842 0 0.19787122383615691 -0.29172525818392958 0 0.18852187410829821 -0.28466447112163068 0 0.19787122383615691 -0.29172525818392958 0 0.18747516626574931 -0.28692639975368628 0 0.18852187410829821 -0.28466447112163068 0 0.18747516626574931 -0.28692639975368628 0 0.2011380539128553 -0.27767933622792518 0 0.18852187410829821 -0.28466447112163068 0 0.19731262536099689 -0.28481999283041842 0 0.201719349586677 -0.2852109057881882 0 0.19787122383615691 -0.29172525818392958 0 0.206049533411369 -0.28982701925762389 0 0.19731262536099689 -0.28481999283041842 0 0.201719349586677 -0.2852109057881882 0 0.19787122383615691 -0.29172525818392958 0 0.2011380539128553 -0.27767933622792518 0 0.19731262536099689 -0.28481999283041842 0 0.201719349586677 -0.2852109057881882 0 0.20249447748908611 -0.29813355613580778 0 0.19787122383615691 -0.29172525818392958 0 0.18747516626574931 -0.28692639975368628 0 0.20249447748908611 -0.29813355613580778 0 0.19787122383615691 -0.29172525818392958 0 0.206049533411369 -0.28982701925762389 0 0.20249447748908611 -0.29813355613580778 0 0.206049533411369 -0.28982701925762389 0 0.20903552332543929 -0.29406903275804652 0 0.206049533411369 -0.28982701925762389 0 0.20903552332543929 -0.29406903275804652 0 0.21653111649902579 -0.28712771180040292 0 0.20249447748908611 -0.29813355613580778 0 0.20903552332543929 -0.29406903275804652 0 0.2123558614978226 -0.29827812898856709 0 0.20859607852913339 -0.28093905456482821 0 0.206049533411369 -0.28982701925762389 0 0.21653111649902579 -0.28712771180040292 0 0.20859607852913339 -0.28093905456482821 0 0.201719349586677 -0.2852109057881882 0 0.206049533411369 -0.28982701925762389 0 0.20859607852913339 -0.28093905456482821 0 0.2011380539128553 -0.27767933622792518 0 0.201719349586677 -0.2852109057881882 0 0.20903552332543929 -0.29406903275804652 0 0.21653111649902579 -0.28712771180040292 0 0.2123558614978226 -0.29827812898856709 0 0.21653111649902579 -0.28712771180040292 0 0.2175137887124228 -0.30934071251792922 0 0.21653111649902579 -0.28712771180040292 0 0.2123558614978226 -0.29827812898856709 0 0.2175137887124228 -0.30934071251792922 0 0.20249447748908611 -0.29813355613580778 0 0.2123558614978226 -0.29827812898856709 0 0.2175137887124228 -0.30934071251792922 0 0.20249447748908611 -0.29813355613580778 0 0.2175137887124228 -0.30934071251792922 0 0.20782414549410869 -0.30817847155873718 0 0.2176214393273678 -0.31177412129290383 0 0.20282381327660201 -0.31505297042611552 0 0.20249447748908611 -0.29813355613580778 0 0.20782414549410869 -0.30817847155873718 0 0.2175137887124228 -0.30934071251792922 0 0.20782414549410869 -0.30817847155873718 0 0.2175137887124228 -0.30934071251792922 0 0.2176214393273678 -0.31177412129290383 0 0.2175137887124228 -0.30934071251792922 0 0.2176214393273678 -0.31177412129290383 0 0.2175137887124228 -0.30934071251792922 0 0.2176214393273678 -0.31177412129290383 0 0.21999804566891551 -0.31122614102315033 0 0.21999804566891551 -0.31122614102315033 0 0.24423538898563429 -0.30587701823941071 0 0.2175137887124228 -0.30934071251792922 0 0.21999804566891551 -0.31122614102315033 0 0.22812963079484819 -0.29309964455197901 0 0.21999804566891551 -0.31122614102315033 0 0.22812963079484819 -0.29309964455197901 0 0.21999804566891551 -0.31122614102315033 0 0.22812963079484819 -0.29309964455197901 0 0.24423538898563429 -0.30587701823941071 0 0.2176214393273678 -0.31177412129290383 0 0.21999804566891551 -0.31122614102315033 0 0.2175137887124228 -0.30934071251792922 0 0.21999804566891551 -0.31122614102315033 0 0.23628574795648369 -0.27498419313581679 0 0.22812963079484819 -0.29309964455197901 0 0.2247339410531527 -0.27667652802353632 0 0.21653111649902579 -0.28712771180040292 0 0.22812963079484819 -0.29309964455197901 0 0.23628574795648369 -0.27498419313581679 0 0.2247339410531527 -0.27667652802353632 0 0.22812963079484819 -0.29309964455197901 0 0.21653111649902579 -0.28712771180040292 0 0.2175137887124228 -0.30934071251792922 0 0.22812963079484819 -0.29309964455197901 0 0.23628574795648369 -0.27498419313581679 0 0.22812963079484819 -0.29309964455197901 0 0.24044913557019401 -0.28723099739492908 0 0.25301376652256202 -0.2892367573709661 0 0.24044913557019401 -0.28723099739492908 0 0.24423538898563429 -0.30587701823941071 0 0.22812963079484819 -0.29309964455197901 0 0.24044913557019401 -0.28723099739492908 0 0.24423538898563429 -0.30587701823941071 0 0.25301376652256202 -0.2892367573709661 0 0.2507153324002197 -0.27704953531328702 0 0.24044913557019401 -0.28723099739492908 0 0.21999804566891551 -0.31122614102315033 0 0.24423538898563429 -0.30587701823941071 0 0.2404170410518052 -0.32643073261338312 0 0.25099839141978419 -0.34936335514031408 0 0.2316655193484673 -0.33515436960409939 0 0.25099839141978419 -0.34936335514031408 0 0.2404170410518052 -0.32643073261338312 0 0.2316655193484673 -0.33515436960409939 0 0.2404170410518052 -0.32643073261338312 0 0.2316655193484673 -0.33515436960409939 0 0.2247705650129608 -0.32491873692320528 0 0.2316655193484673 -0.33515436960409939 0 0.22208049410379579 -0.34309390150507102 0 0.22867514261462599 -0.34782526071452929 0 0.2316655193484673 -0.33515436960409939 0 0.22208049410379579 -0.34309390150507102 0 0.220555537226792 -0.33578323097752499 0 0.22208049410379579 -0.34309390150507102 0 0.220555537226792 -0.33578323097752499 0 0.21451162402718699 -0.34512658597487872 0 0.220555537226792 -0.33578323097752499 0 0.2247705650129608 -0.32491873692320528 0 0.21820242441149371 -0.32490710899175251 0 0.2316655193484673 -0.33515436960409939 0 0.220555537226792 -0.33578323097752499 0 0.2247705650129608 -0.32491873692320528 0 0.21999804566891551 -0.31122614102315033 0 0.2404170410518052 -0.32643073261338312 0 0.2247705650129608 -0.32491873692320528 0 0.21999804566891551 -0.31122614102315033 0 0.2404170410518052 -0.32643073261338312 0 0.2247705650129608 -0.32491873692320528 0 0.21780935440599439 -0.31602188338433101 0 0.21820242441149371 -0.32490710899175251 0 0.21999804566891551 -0.31122614102315033 0 0.2247705650129608 -0.32491873692320528 0 0.21780935440599439 -0.31602188338433101 0 0.21999804566891551 -0.31122614102315033 0 0.21780935440599439 -0.31602188338433101 0 0.23679608458568241 -0.3713456781615978 0 0.24534349961555019 -0.36253701182870851 0 0.24987622704845311 -0.37613765202982719 0 0.23679608458568241 -0.3713456781615978 0 0.24534349961555019 -0.36253701182870851 0 0.23133102347449649 -0.35950822589080189 0 0.25099839141978419 -0.34936335514031408 0 0.2316655193484673 -0.33515436960409939 0 0.23760271529458479 -0.35087764463569071 0 0.24534349961555019 -0.36253701182870851 0 0.23760271529458479 -0.35087764463569071 0 0.23133102347449649 -0.35950822589080189 0 0.25099839141978419 -0.34936335514031408 0 0.24534349961555019 -0.36253701182870851 0 0.23760271529458479 -0.35087764463569071 0 0.2316655193484673 -0.33515436960409939 0 0.23760271529458479 -0.35087764463569071 0 0.22867514261462599 -0.34782526071452929 0 0.22208049410379579 -0.34309390150507102 0 0.22076837523631451 -0.35267920974236072 0 0.21451162402718699 -0.34512658597487872 0 0.22208049410379579 -0.34309390150507102 0 0.22867514261462599 -0.34782526071452929 0 0.22076837523631451 -0.35267920974236072 0 0.22076837523631451 -0.35267920974236072 0 0.22341137818785181 -0.36337688942730773 0 0.21609027172906259 -0.36087537471117581 0 0.22076837523631451 -0.35267920974236072 0 0.23133102347449649 -0.35950822589080189 0 0.22341137818785181 -0.36337688942730773 0 0.22867514261462599 -0.34782526071452929 0 0.22076837523631451 -0.35267920974236072 0 0.23133102347449649 -0.35950822589080189 0 0.23760271529458479 -0.35087764463569071 0 0.22867514261462599 -0.34782526071452929 0 0.23133102347449649 -0.35950822589080189 0 0.23133102347449649 -0.35950822589080189 0 0.22341137818785181 -0.36337688942730773 0 0.22699371624108439 -0.37103399677892651 0 0.22341137818785181 -0.36337688942730773 0 0.22699371624108439 -0.37103399677892651 0 0.21663927632257499 -0.37152038636996992 0 0.22699371624108439 -0.37103399677892651 0 0.21663927632257499 -0.37152038636996992 0 0.22189277223980711 -0.38054577212349588 0 0.23679608458568241 -0.3713456781615978 0 0.22699371624108439 -0.37103399677892651 0 0.23010576568282681 -0.37607478874810818 0 0.23679608458568241 -0.3713456781615978 0 0.23133102347449649 -0.35950822589080189 0 0.22699371624108439 -0.37103399677892651 0 0.21663927632257499 -0.37152038636996992 0 0.20683644217058031 -0.36558797855932218 0 0.20576161095015591 -0.37595213443190167 0 0.22341137818785181 -0.36337688942730773 0 0.21663927632257499 -0.37152038636996992 0 0.21609027172906259 -0.36087537471117581 0 0.21609027172906259 -0.36087537471117581 0 0.20683644217058031 -0.36558797855932218 0 0.21089823393406021 -0.35324530101306001 0 0.21663927632257499 -0.37152038636996992 0 0.21609027172906259 -0.36087537471117581 0 0.20683644217058031 -0.36558797855932218 0 0.19940837682496099 -0.35689206815154528 0 0.20777431361625601 -0.33831058893907762 0 0.21089823393406021 -0.35324530101306001 0 0.19940837682496099 -0.35689206815154528 0 0.20777431361625601 -0.33831058893907762 0 0.20683644217058031 -0.36558797855932218 0 0.21089823393406021 -0.35324530101306001 0 0.19940837682496099 -0.35689206815154528 0 0.22076837523631451 -0.35267920974236072 0 0.21609027172906259 -0.36087537471117581 0 0.21089823393406021 -0.35324530101306001 0 0.21089823393406021 -0.35324530101306001 0 0.21451162402718699 -0.34512658597487872 0 0.20777431361625601 -0.33831058893907762 0 0.22076837523631451 -0.35267920974236072 0 0.21089823393406021 -0.35324530101306001 0 0.21451162402718699 -0.34512658597487872 0 0.1971616983813648 -0.34495631128618592 0 0.19940837682496099 -0.35689206815154528 0 0.20777431361625601 -0.33831058893907762 0 0.1971616983813648 -0.34495631128618592 0 0.18787137947787569 -0.35180034780069419 0 0.18864170350563411 -0.33720407153827198 0 0.1971616983813648 -0.34495631128618592 0 0.18787137947787569 -0.35180034780069419 0 0.19940837682496099 -0.35689206815154528 0 0.20683644217058031 -0.36558797855932218 0 0.20576161095015591 -0.37595213443190167 0 0.1910424400336663 -0.37547354736401328 0 0.18787137947787569 -0.35180034780069419 0 0.19940837682496099 -0.35689206815154528 0 0.1910424400336663 -0.37547354736401328 0 0.19940837682496099 -0.35689206815154528 0 0.1910424400336663 -0.37547354736401328 0 0.20683644217058031 -0.36558797855932218 0 0.19940837682496099 -0.35689206815154528 0 0.1910424400336663 -0.37547354736401328 0 0.21780935440599439 -0.31602188338433101 0 0.20777431361625601 -0.33831058893907762 0 0.21780935440599439 -0.31602188338433101 0 0.20777431361625601 -0.33831058893907762 0 0.20282381327660201 -0.31505297042611552 0 0.21780935440599439 -0.31602188338433101 0 0.21820242441149371 -0.32490710899175251 0 0.20777431361625601 -0.33831058893907762 0 0.2176214393273678 -0.31177412129290383 0 0.20282381327660201 -0.31505297042611552 0 0.2176214393273678 -0.31177412129290383 0 0.21780935440599439 -0.31602188338433101 0 0.20282381327660201 -0.31505297042611552 0 0.2176214393273678 -0.31177412129290383 0 0.21780935440599439 -0.31602188338433101 0 0.2176214393273678 -0.31177412129290383 0 0.21999804566891551 -0.31122614102315033 0 0.21780935440599439 -0.31602188338433101 0 0.21780935440599439 -0.31602188338433101 0 0.21820242441149371 -0.32490710899175251 0 0.220555537226792 -0.33578323097752499 0 0.21820242441149371 -0.32490710899175251 0 0.20777431361625601 -0.33831058893907762 0 0.220555537226792 -0.33578323097752499 0 0.21451162402718699 -0.34512658597487872 0 0.20777431361625601 -0.33831058893907762 0 0.21451162402718699 -0.34512658597487872 0 0.20777431361625601 -0.33831058893907762 0 0.1971616983813648 -0.34495631128618592 0 0.20777431361625601 -0.33831058893907762 0 0.18864170350563411 -0.33720407153827198 0 0.20777431361625601 -0.33831058893907762 0 0.18802618722583669 -0.31833181955932999 0 0.20777431361625601 -0.33831058893907762 0 0.18864170350563411 -0.33720407153827198 0 0.18802618722583669 -0.31833181955932999 0 0.20777431361625601 -0.33831058893907762 0 0.20282381327660201 -0.31505297042611552 0 0.18802618722583669 -0.31833181955932999 0 0.20282381327660201 -0.31505297042611552 0 0.18802618722583669 -0.31833181955932999 0 0.1976485991634879 -0.30796138879627621 0 0.20282381327660201 -0.31505297042611552 0 0.18802618722583669 -0.31833181955932999 0 0.18802618722583669 -0.31833181955932999 0 0.1791507244663583 -0.32983729973660558 0 0.16791254130802971 -0.3227885891963716 0 0.18802618722583669 -0.31833181955932999 0 0.17151825735526699 -0.31325416760549368 0 0.16791254130802971 -0.3227885891963716 0 0.18802618722583669 -0.31833181955932999 0 0.16791254130802971 -0.3227885891963716 0 0.18864170350563411 -0.33720407153827198 0 0.18802618722583669 -0.31833181955932999 0 0.1791507244663583 -0.32983729973660558 0 0.17202246582593331 -0.34102471865244838 0 0.1791507244663583 -0.32983729973660558 0 0.16791254130802971 -0.3227885891963716 0 0.18787137947787569 -0.35180034780069419 0 0.18864170350563411 -0.33720407153827198 0 0.17202246582593331 -0.34102471865244838 0 0.18864170350563411 -0.33720407153827198 0 0.17202246582593331 -0.34102471865244838 0 0.1791507244663583 -0.32983729973660558 0 0.17202246582593331 -0.34102471865244838 0 0.1546435437787094 -0.34381338892778002 0 0.1557586906108582 -0.32786840018592928 0 0.17202246582593331 -0.34102471865244838 0 0.16791254130802971 -0.3227885891963716 0 0.1557586906108582 -0.32786840018592928 0 0.16791254130802971 -0.3227885891963716 0 0.1557586906108582 -0.32786840018592928 0 0.1602411687519314 -0.31190927739118429 0 0.17151825735526699 -0.31325416760549368 0 0.16791254130802971 -0.3227885891963716 0 0.1602411687519314 -0.31190927739118429 0 0.18787137947787569 -0.35180034780069419 0 0.17662324672053431 -0.35795823269279659 0 0.1910424400336663 -0.37547354736401328 0 0.17662324672053431 -0.35795823269279659 0 0.17035242753357599 -0.36877211446365682 0 0.1910424400336663 -0.37547354736401328 0 0.17035242753357599 -0.36877211446365682 0 0.1910424400336663 -0.37547354736401328 0 0.1737051017910701 -0.38004230502140057 0 0.18787137947787569 -0.35180034780069419 0 0.17202246582593331 -0.34102471865244838 0 0.17662324672053431 -0.35795823269279659 0 0.17202246582593331 -0.34102471865244838 0 0.17662324672053431 -0.35795823269279659 0 0.16265844046108829 -0.35526087104265458 0 0.17202246582593331 -0.34102471865244838 0 0.16265844046108829 -0.35526087104265458 0 0.1546435437787094 -0.34381338892778002 0 0.17662324672053431 -0.35795823269279659 0 0.16265844046108829 -0.35526087104265458 0 0.17035242753357599 -0.36877211446365682 0 0.16265844046108829 -0.35526087104265458 0 0.1569593121701936 -0.36832063090657668 0 0.17035242753357599 -0.36877211446365682 0 0.1569593121701936 -0.36832063090657668 0 0.17035242753357599 -0.36877211446365682 0 0.16307541855137739 -0.37743582412871929 0 0.14536400873927011 -0.3681220756701501 0 0.1426630499740982 -0.35652090160864008 0 0.13524945632583441 -0.37311377610700652 0 0.16265844046108829 -0.35526087104265458 0 0.1569593121701936 -0.36832063090657668 0 0.1426630499740982 -0.35652090160864008 0 0.14536400873927011 -0.3681220756701501 0 0.13524945632583441 -0.37311377610700652 0 0.14973869037300869 -0.38096853745143089 0 0.1569593121701936 -0.36832063090657668 0 0.14536400873927011 -0.3681220756701501 0 0.14973869037300869 -0.38096853745143089 0 0.1569593121701936 -0.36832063090657668 0 0.14536400873927011 -0.3681220756701501 0 0.1426630499740982 -0.35652090160864008 0 0.1546435437787094 -0.34381338892778002 0 0.1426630499740982 -0.35652090160864008 0 0.1424354920479888 -0.33775294740649747 0 0.16265844046108829 -0.35526087104265458 0 0.1546435437787094 -0.34381338892778002 0 0.1426630499740982 -0.35652090160864008 0 0.13449730155472761 -0.34743155680512378 0 0.12784456261830821 -0.36308533366748658 0 0.123981461538115 -0.35128285539313481 0 0.1426630499740982 -0.35652090160864008 0 0.13449730155472761 -0.34743155680512378 0 0.1424354920479888 -0.33775294740649747 0 0.1426630499740982 -0.35652090160864008 0 0.13449730155472761 -0.34743155680512378 0 0.12784456261830821 -0.36308533366748658 0 0.13449730155472761 -0.34743155680512378 0 0.13051916655351839 -0.33696304048325831 0 0.123981461538115 -0.35128285539313481 0 0.1426630499740982 -0.35652090160864008 0 0.12784456261830821 -0.36308533366748658 0 0.13524945632583441 -0.37311377610700652 0 0.12784456261830821 -0.36308533366748658 0 0.13524945632583441 -0.37311377610700652 0 0.12609635470998201 -0.38402791619100712 0 0.14855409589738661 -0.31441038212804873 0 0.1557586906108582 -0.32786840018592928 0 0.1602411687519314 -0.31190927739118429 0 0.1445015266660287 -0.32337949759917511 0 0.14855409589738661 -0.31441038212804873 0 0.13871327718005111 -0.31332369293528212 0 0.1445015266660287 -0.32337949759917511 0 0.14855409589738661 -0.31441038212804873 0 0.1557586906108582 -0.32786840018592928 0 0.1546435437787094 -0.34381338892778002 0 0.1557586906108582 -0.32786840018592928 0 0.1424354920479888 -0.33775294740649747 0 0.1445015266660287 -0.32337949759917511 0 0.1557586906108582 -0.32786840018592928 0 0.1424354920479888 -0.33775294740649747 0 0.1445015266660287 -0.32337949759917511 0 0.1424354920479888 -0.33775294740649747 0 0.13219802669416811 -0.32498852212276208 0 0.1424354920479888 -0.33775294740649747 0 0.13051916655351839 -0.33696304048325831 0 0.13219802669416811 -0.32498852212276208 0 0.13449730155472761 -0.34743155680512378 0 0.1424354920479888 -0.33775294740649747 0 0.13051916655351839 -0.33696304048325831 0 0.13051916655351839 -0.33696304048325831 0 0.13219802669416811 -0.32498852212276208 0 0.12260601330919629 -0.33072698382653798 0 0.1445015266660287 -0.32337949759917511 0 0.13219802669416811 -0.32498852212276208 0 0.13871327718005111 -0.31332369293528212 0 0.13219802669416811 -0.32498852212276208 0 0.1265219532001009 -0.3124330460259736 0 0.1192961391526948 -0.32261879728377291 0 0.13219802669416811 -0.32498852212276208 0 0.13871327718005111 -0.31332369293528212 0 0.1265219532001009 -0.3124330460259736 0 0.1265219532001009 -0.3124330460259736 0 0.1332586495603032 -0.30031372317270688 0 0.1198701537204314 -0.30089140532399938 0 0.1332586495603032 -0.30031372317270688 0 0.1242383748246253 -0.29131174999725179 0 0.1198701537204314 -0.30089140532399938 0 0.13871327718005111 -0.31332369293528212 0 0.1265219532001009 -0.3124330460259736 0 0.1332586495603032 -0.30031372317270688 0 0.13871327718005111 -0.31332369293528212 0 0.1332586495603032 -0.30031372317270688 0 0.147245411062319 -0.30441698656302629 0 0.14855409589738661 -0.31441038212804873 0 0.13871327718005111 -0.31332369293528212 0 0.147245411062319 -0.30441698656302629 0 0.147245411062319 -0.30441698656302629 0 0.15432967412725099 -0.29846298066074151 0 0.14327492933615671 -0.29425024746867751 0 0.1332586495603032 -0.30031372317270688 0 0.147245411062319 -0.30441698656302629 0 0.14327492933615671 -0.29425024746867751 0 0.147245411062319 -0.30441698656302629 0 0.15432967412725099 -0.29846298066074151 0 0.1602411687519314 -0.31190927739118429 0 0.14855409589738661 -0.31441038212804873 0 0.147245411062319 -0.30441698656302629 0 0.1602411687519314 -0.31190927739118429 0 0.15432967412725099 -0.29846298066074151 0 0.1517600770447052 -0.28164214899084639 0 0.14327492933615671 -0.29425024746867751 0 0.1517600770447052 -0.28164214899084639 0 0.14327492933615671 -0.29425024746867751 0 0.13646338677899769 -0.28546266283427663 0 0.1332586495603032 -0.30031372317270688 0 0.14327492933615671 -0.29425024746867751 0 0.13646338677899769 -0.28546266283427663 0 0.1332586495603032 -0.30031372317270688 0 0.13646338677899769 -0.28546266283427663 0 0.1242383748246253 -0.29131174999725179 0 0.13646338677899769 -0.28546266283427663 0 0.1233023238440631 -0.28097148456094378 0 0.1242383748246253 -0.29131174999725179 0 0.1517600770447052 -0.28164214899084639 0 0.13646338677899769 -0.28546266283427663 0 0.1311170075682456 -0.27142576198599933 0 0.1517600770447052 -0.28164214899084639 0 0.1311170075682456 -0.27142576198599933 0 0.1364827709165429 -0.26618641562940759 0 0.13646338677899769 -0.28546266283427663 0 0.1311170075682456 -0.27142576198599933 0 0.1233023238440631 -0.28097148456094378 0 0.1311170075682456 -0.27142576198599933 0 0.1364827709165429 -0.26618641562940759 0 0.1212054647883809 -0.25073068226796852 0 0.1364827709165429 -0.26618641562940759 0 0.13217397618885759 -0.25462043987800831 0 0.1212054647883809 -0.25073068226796852 0 0.1364827709165429 -0.26618641562940759 0 0.1212054647883809 -0.25073068226796852 0 0.1364827709165429 -0.26618641562940759 0 0.13217397618885759 -0.25462043987800831 0 0.14275904560399111 -0.25945725309375861 0 0.13217397618885759 -0.25462043987800831 0 0.1429630926125974 -0.2502577086919005 0 0.14275904560399111 -0.25945725309375861 0 0.1429630926125974 -0.2502577086919005 0 0.16574248336044761 -0.26746108990676593 0 0.1429630926125974 -0.2502577086919005 0 0.15128247879849499 -0.26292486595599002 0 0.16574248336044761 -0.26746108990676593 0 0.1429630926125974 -0.2502577086919005 0 0.16574248336044761 -0.26746108990676593 0 0.16001236861667459 -0.2513654190734112 0 0.1429630926125974 -0.2502577086919005 0 0.14275904560399111 -0.25945725309375861 0 0.15128247879849499 -0.26292486595599002 0 0.1364827709165429 -0.26618641562940759 0 0.14275904560399111 -0.25945725309375861 0 0.15128247879849499 -0.26292486595599002 0 0.1517600770447052 -0.28164214899084639 0 0.1364827709165429 -0.26618641562940759 0 0.15128247879849499 -0.26292486595599002 0 0.1517600770447052 -0.28164214899084639 0 0.15128247879849499 -0.26292486595599002 0 0.15776774232478771 -0.26956647822523339 0 0.1517600770447052 -0.28164214899084639 0 0.1311170075682456 -0.27142576198599933 0 0.1517600770447052 -0.28164214899084639 0 0.1364827709165429 -0.26618641562940759 0 0.1517600770447052 -0.28164214899084639 0 0.16209364730358741 -0.27452888323759039 0 0.16594555478614451 -0.28284233368471318 0 0.1517600770447052 -0.28164214899084639 0 0.16209364730358741 -0.27452888323759039 0 0.15776774232478771 -0.26956647822523339 0 0.16209364730358741 -0.27452888323759039 0 0.15776774232478771 -0.26956647822523339 0 0.16574248336044761 -0.26746108990676593 0 0.15128247879849499 -0.26292486595599002 0 0.15776774232478771 -0.26956647822523339 0 0.16574248336044761 -0.26746108990676593 0 0.16209364730358741 -0.27452888323759039 0 0.16574248336044761 -0.26746108990676593 0 0.16920230535812411 -0.27329149954452342 0 0.16209364730358741 -0.27452888323759039 0 0.16920230535812411 -0.27329149954452342 0 0.16594555478614451 -0.28284233368471318 0 0.16920230535812411 -0.27329149954452342 0 0.1710222018321049 -0.28124575318360368 0 0.16594555478614451 -0.28284233368471318 0 0.16574248336044761 -0.26746108990676593 0 0.16001236861667459 -0.2513654190734112 0 0.16988601458932601 -0.2589500224365659 0 0.16574248336044761 -0.26746108990676593 0 0.16988601458932601 -0.2589500224365659 0 0.17628584543496439 -0.26683535894776161 0 0.16001236861667459 -0.2513654190734112 0 0.16988601458932601 -0.2589500224365659 0 0.16978669848249819 -0.25098739912941831 0 0.1767458594742066 -0.25730285456071711 0 0.17619278994504239 -0.24587918172992959 0 0.18399505531774341 -0.24981832115951039 0 0.16978669848249819 -0.25098739912941831 0 0.1767458594742066 -0.25730285456071711 0 0.17619278994504239 -0.24587918172992959 0 0.16988601458932601 -0.2589500224365659 0 0.16978669848249819 -0.25098739912941831 0 0.1767458594742066 -0.25730285456071711 0 0.16988601458932601 -0.2589500224365659 0 0.1767458594742066 -0.25730285456071711 0 0.17628584543496439 -0.26683535894776161 0 0.1767458594742066 -0.25730285456071711 0 0.17628584543496439 -0.26683535894776161 0 0.1845366839674035 -0.26640487959885623 0 0.1767458594742066 -0.25730285456071711 0 0.18706352147094041 -0.25756661524031438 0 0.1845366839674035 -0.26640487959885623 0 0.1767458594742066 -0.25730285456071711 0 0.18706352147094041 -0.25756661524031438 0 0.18399505531774341 -0.24981832115951039 0 0.18852187410829821 -0.28466447112163068 0 0.17628584543496439 -0.26683535894776161 0 0.1845366839674035 -0.26640487959885623 0 0.18852187410829821 -0.28466447112163068 0 0.16574248336044761 -0.26746108990676593 0 0.18852187410829821 -0.28466447112163068 0 0.16574248336044761 -0.26746108990676593 0 0.17628584543496439 -0.26683535894776161 0 0.16920230535812411 -0.27329149954452342 0 0.18747516626574931 -0.28692639975368628 0 0.17602993407772211 -0.2832030986568283 0 0.18852187410829821 -0.28466447112163068 0 0.16574248336044761 -0.26746108990676593 0 0.16920230535812411 -0.27329149954452342 0 0.16920230535812411 -0.27329149954452342 0 0.18747516626574931 -0.28692639975368628 0 0.16920230535812411 -0.27329149954452342 0 0.1710222018321049 -0.28124575318360368 0 0.17602993407772211 -0.2832030986568283 0 0.18747516626574931 -0.28692639975368628 0 0.1806905449634813 -0.28832929748571318 0 0.17602993407772211 -0.2832030986568283 0 0.18852187410829821 -0.28466447112163068 0 0.16920230535812411 -0.27329149954452342 0 0.18747516626574931 -0.28692639975368628 0 0.18747516626574931 -0.28692639975368628 0 0.1806905449634813 -0.28832929748571318 0 0.18301660310609241 -0.29114958545392738 0 0.17291101310642881 -0.28564608084835003 0 0.17864991096044419 -0.29495009963706692 0 0.16594555478614451 -0.28284233368471318 0 0.1806905449634813 -0.28832929748571318 0 0.17602993407772211 -0.2832030986568283 0 0.17673138357400531 -0.28840876668861409 0 0.17602993407772211 -0.2832030986568283 0 0.17673138357400531 -0.28840876668861409 0 0.17291101310642881 -0.28564608084835003 0 0.1710222018321049 -0.28124575318360368 0 0.17602993407772211 -0.2832030986568283 0 0.17291101310642881 -0.28564608084835003 0 0.17673138357400531 -0.28840876668861409 0 0.17291101310642881 -0.28564608084835003 0 0.17864991096044419 -0.29495009963706692 0 0.17673138357400531 -0.28840876668861409 0 0.17909088347012619 -0.29088019083727579 0 0.17864991096044419 -0.29495009963706692 0 0.1806905449634813 -0.28832929748571318 0 0.17673138357400531 -0.28840876668861409 0 0.17909088347012619 -0.29088019083727579 0 0.17909088347012619 -0.29088019083727579 0 0.17864991096044419 -0.29495009963706692 0 0.18114425154506539 -0.29221912984395187 0 0.18747516626574931 -0.28692639975368628 0 0.18734834214976739 -0.29514628785519947 0 0.1827564496500734 -0.29712351473235832 0 0.18747516626574931 -0.28692639975368628 0 0.18301660310609241 -0.29114958545392738 0 0.1827564496500734 -0.29712351473235832 0 0.18114425154506539 -0.29221912984395187 0 0.18301660310609241 -0.29114958545392738 0 0.1827564496500734 -0.29712351473235832 0 0.17864991096044419 -0.29495009963706692 0 0.18114425154506539 -0.29221912984395187 0 0.1827564496500734 -0.29712351473235832 0 0.18747516626574931 -0.28692639975368628 0 0.1827564496500734 -0.29712351473235832 0 0.1806905449634813 -0.28832929748571318 0 0.18114425154506539 -0.29221912984395187 0 0.18301660310609241 -0.29114958545392738 0 0.1806905449634813 -0.28832929748571318 0 0.17909088347012619 -0.29088019083727579 0 0.18114425154506539 -0.29221912984395187 0 0.18802618722583669 -0.31833181955932999 0 0.18221347423979239 -0.30458962683289892 0 0.1698931321352706 -0.29998698427508858 0 0.1880606218677118 -0.30022154946313712 0 0.18734834214976739 -0.29514628785519947 0 0.1827564496500734 -0.29712351473235832 0 0.19009702279388629 -0.3064242775921906 0 0.1880606218677118 -0.30022154946313712 0 0.18221347423979239 -0.30458962683289892 0 0.18802618722583669 -0.31833181955932999 0 0.17151825735526699 -0.31325416760549368 0 0.1698931321352706 -0.29998698427508858 0 0.1880606218677118 -0.30022154946313712 0 0.18221347423979239 -0.30458962683289892 0 0.1827564496500734 -0.29712351473235832 0 0.18802618722583669 -0.31833181955932999 0 0.1698931321352706 -0.29998698427508858 0 0.17864991096044419 -0.29495009963706692 0 0.1827564496500734 -0.29712351473235832 0 0.17837824174639511 -0.29916255636935318 0 0.18221347423979239 -0.30458962683289892 0 0.1827564496500734 -0.29712351473235832 0 0.17837824174639511 -0.29916255636935318 0 0.19009702279388629 -0.3064242775921906 0 0.18802618722583669 -0.31833181955932999 0 0.18221347423979239 -0.30458962683289892 0 0.18221347423979239 -0.30458962683289892 0 0.17837824174639511 -0.29916255636935318 0 0.1698931321352706 -0.29998698427508858 0 0.17864991096044419 -0.29495009963706692 0 0.17837824174639511 -0.29916255636935318 0 0.1698931321352706 -0.29998698427508858 0 0.17151825735526699 -0.31325416760549368 0 0.1698931321352706 -0.29998698427508858 0 0.1602411687519314 -0.31190927739118429 0 0.15432967412725099 -0.29846298066074151 0 0.1698931321352706 -0.29998698427508858 0 0.1602411687519314 -0.31190927739118429 0 0.1517600770447052 -0.28164214899084639 0 0.17864991096044419 -0.29495009963706692 0 0.1698931321352706 -0.29998698427508858 0 0.1517600770447052 -0.28164214899084639 0 0.1698931321352706 -0.29998698427508858 0 0.15432967412725099 -0.29846298066074151 0 0.1517600770447052 -0.28164214899084639 0 0.1698931321352706 -0.29998698427508858 0 0.1517600770447052 -0.28164214899084639 0 0.17864991096044419 -0.29495009963706692 0 0.1517600770447052 -0.28164214899084639 0 0.17864991096044419 -0.29495009963706692 0 0.16594555478614451 -0.28284233368471318 0 0.1710222018321049 -0.28124575318360368 0 0.17291101310642881 -0.28564608084835003 0 0.16594555478614451 -0.28284233368471318 0 0.21438456257476449 -0.5 0 0.2048745361024723 -0.48472171768082351 0 0.18744203257390391 -0.5 0 0.19122796324104871 -0.48466606029959602 0 0.2048745361024723 -0.48472171768082351 0 0.18744203257390391 -0.5 0 0.19122796324104871 -0.48466606029959602 0 0.20365346230900849 -0.47086657296764728 0 0.1938641377332887 -0.4633108835168005 0 0.19122796324104871 -0.48466606029959602 0 0.20365346230900849 -0.47086657296764728 0 0.2048745361024723 -0.48472171768082351 0 0.21766866328091511 -0.47157360957620892 0 0.2048745361024723 -0.48472171768082351 0 0.22288060450936709 -0.48400008360299168 0 0.20365346230900849 -0.47086657296764728 0 0.21766866328091511 -0.47157360957620892 0 0.2048745361024723 -0.48472171768082351 0 0.21438456257476449 -0.5 0 0.2048745361024723 -0.48472171768082351 0 0.22288060450936709 -0.48400008360299168 0 0.21438456257476449 -0.5 0 0.23633351028628971 -0.48712361601618398 0 0.2413270925756249 -0.5 0 0.21438456257476449 -0.5 0 0.23633351028628971 -0.48712361601618398 0 0.22288060450936709 -0.48400008360299168 0 0.25270961841775552 -0.48460016746525392 0 0.23633351028628971 -0.48712361601618398 0 0.2413270925756249 -0.5 0 0.25270961841775552 -0.48460016746525392 0 0.23633351028628971 -0.48712361601618398 0 0.23949561189523169 -0.47426551941090739 0 0.23949561189523169 -0.47426551941090739 0 0.22288060450936709 -0.48400008360299168 0 0.22545312399173489 -0.46028769725088831 0 0.21766866328091511 -0.47157360957620892 0 0.22288060450936709 -0.48400008360299168 0 0.22545312399173489 -0.46028769725088831 0 0.23633351028628971 -0.48712361601618398 0 0.23949561189523169 -0.47426551941090739 0 0.22288060450936709 -0.48400008360299168 0 0.22288060450936709 -0.48400008360299168 0 0.22545312399173489 -0.46028769725088831 0 0.21766866328091511 -0.47157360957620892 0 0.22545312399173489 -0.46028769725088831 0 0.2186728293425339 -0.44755637628226819 0 0.2588368117714554 -0.46700690363883102 0 0.23949561189523169 -0.47426551941090739 0 0.2409729068143365 -0.46262444708906358 0 0.22545312399173489 -0.46028769725088831 0 0.2409729068143365 -0.46262444708906358 0 0.24480843210435321 -0.45079661158300749 0 0.2588368117714554 -0.46700690363883102 0 0.2409729068143365 -0.46262444708906358 0 0.24480843210435321 -0.45079661158300749 0 0.23949561189523169 -0.47426551941090739 0 0.22545312399173489 -0.46028769725088831 0 0.2409729068143365 -0.46262444708906358 0 0.24480843210435321 -0.45079661158300749 0 0.22802564347410281 -0.43657531089878487 0 0.2418992233321238 -0.43333026798624508 0 0.25513396950241118 -0.43290986753561628 0 0.24480843210435321 -0.45079661158300749 0 0.2418992233321238 -0.43333026798624508 0 0.22545312399173489 -0.46028769725088831 0 0.22802564347410281 -0.43657531089878487 0 0.2186728293425339 -0.44755637628226819 0 0.21246462128442831 -0.43168381348743168 0 0.22802564347410281 -0.43657531089878487 0 0.22545312399173489 -0.46028769725088831 0 0.2186728293425339 -0.44755637628226819 0 0.22802564347410281 -0.43657531089878487 0 0.22545312399173489 -0.46028769725088831 0 0.24480843210435321 -0.45079661158300749 0 0.22802564347410281 -0.43657531089878487 0 0.20442019459899149 -0.44533796874460208 0 0.2186728293425339 -0.44755637628226819 0 0.21246462128442831 -0.43168381348743168 0 0.21766866328091511 -0.47157360957620892 0 0.20442019459899149 -0.44533796874460208 0 0.21766866328091511 -0.47157360957620892 0 0.20442019459899149 -0.44533796874460208 0 0.2186728293425339 -0.44755637628226819 0 0.20365346230900849 -0.47086657296764728 0 0.21766866328091511 -0.47157360957620892 0 0.20442019459899149 -0.44533796874460208 0 0.20365346230900849 -0.47086657296764728 0 0.20442019459899149 -0.44533796874460208 0 0.1938641377332887 -0.4633108835168005 0 0.20442019459899149 -0.44533796874460208 0 0.18484232774876749 -0.43033534366960768 0 0.18590039067086719 -0.44115637567916172 0 0.20442019459899149 -0.44533796874460208 0 0.18923595964957429 -0.45067509688328122 0 0.18590039067086719 -0.44115637567916172 0 0.20442019459899149 -0.44533796874460208 0 0.1938641377332887 -0.4633108835168005 0 0.18923595964957429 -0.45067509688328122 0 0.20442019459899149 -0.44533796874460208 0 0.1911717259170673 -0.41910232791299562 0 0.20473537155931409 -0.42802668409371708 0 0.20442019459899149 -0.44533796874460208 0 0.1911717259170673 -0.41910232791299562 0 0.20442019459899149 -0.44533796874460208 0 0.1911717259170673 -0.41910232791299562 0 0.18484232774876749 -0.43033534366960768 0 0.1911717259170673 -0.41910232791299562 0 0.21088494443676881 -0.41598262622983972 0 0.20473537155931409 -0.42802668409371708 0 0.18851111772050869 -0.41383358608972459 0 0.208966154163157 -0.40126827473642579 0 0.1911717259170673 -0.41910232791299562 0 0.21088494443676881 -0.41598262622983972 0 0.1911717259170673 -0.41910232791299562 0 0.18851111772050869 -0.41383358608972459 0 0.21088494443676881 -0.41598262622983972 0 0.18851111772050869 -0.41383358608972459 0 0.21088494443676881 -0.41598262622983972 0 0.208966154163157 -0.40126827473642579 0 0.1911717259170673 -0.41910232791299562 0 0.18851111772050869 -0.41383358608972459 0 0.21088494443676881 -0.41598262622983972 0 0.22155668588658281 -0.40529615173032069 0 0.208966154163157 -0.40126827473642579 0 0.21088494443676881 -0.41598262622983972 0 0.20473537155931409 -0.42802668409371708 0 0.21246462128442831 -0.43168381348743168 0 0.21088494443676881 -0.41598262622983972 0 0.21246462128442831 -0.43168381348743168 0 0.21959695705502991 -0.42408781639437282 0 0.20442019459899149 -0.44533796874460208 0 0.20473537155931409 -0.42802668409371708 0 0.21246462128442831 -0.43168381348743168 0 0.21246462128442831 -0.43168381348743168 0 0.21959695705502991 -0.42408781639437282 0 0.22802564347410281 -0.43657531089878487 0 0.22802564347410281 -0.43657531089878487 0 0.23614533994983331 -0.4244462479719151 0 0.23059816295646979 -0.4128629245466815 0 0.22802564347410281 -0.43657531089878487 0 0.23059816295646979 -0.4128629245466815 0 0.21959695705502991 -0.42408781639437282 0 0.22802564347410281 -0.43657531089878487 0 0.23059816295646979 -0.4128629245466815 0 0.22802564347410281 -0.43657531089878487 0 0.2418992233321238 -0.43333026798624508 0 0.23614533994983331 -0.4244462479719151 0 0.2418992233321238 -0.43333026798624508 0 0.23614533994983331 -0.4244462479719151 0 0.2453827316299185 -0.42192330194190181 0 0.25513396950241118 -0.43290986753561628 0 0.2418992233321238 -0.43333026798624508 0 0.2453827316299185 -0.42192330194190181 0 0.256136481120742 -0.41447562176841068 0 0.2453827316299185 -0.42192330194190181 0 0.24629253832767661 -0.41022035877505542 0 0.2453827316299185 -0.42192330194190181 0 0.24629253832767661 -0.41022035877505542 0 0.2366098857920339 -0.41191154353144788 0 0.23614533994983331 -0.4244462479719151 0 0.2366098857920339 -0.41191154353144788 0 0.23059816295646979 -0.4128629245466815 0 0.23614533994983331 -0.4244462479719151 0 0.2453827316299185 -0.42192330194190181 0 0.2366098857920339 -0.41191154353144788 0 0.24629253832767661 -0.41022035877505542 0 0.2366098857920339 -0.41191154353144788 0 0.2422505545635501 -0.40276464775944387 0 0.21088494443676881 -0.41598262622983972 0 0.23059816295646979 -0.4128629245466815 0 0.2366098857920339 -0.41191154353144788 0 0.23059816295646979 -0.4128629245466815 0 0.23156745731421779 -0.4039283829592023 0 0.23059816295646979 -0.4128629245466815 0 0.22155668588658281 -0.40529615173032069 0 0.23156745731421779 -0.4039283829592023 0 0.23059816295646979 -0.4128629245466815 0 0.23156745731421779 -0.4039283829592023 0 0.21088494443676881 -0.41598262622983972 0 0.23059816295646979 -0.4128629245466815 0 0.22155668588658281 -0.40529615173032069 0 0.21088494443676881 -0.41598262622983972 0 0.21959695705502991 -0.42408781639437282 0 0.23059816295646979 -0.4128629245466815 0 0.2366098857920339 -0.41191154353144788 0 0.23059816295646979 -0.4128629245466815 0 0.22155668588658281 -0.40529615173032069 0 0.22942119060580499 -0.38870296338312649 0 0.208966154163157 -0.40126827473642579 0 0.22155668588658281 -0.40529615173032069 0 0.23156745731421779 -0.4039283829592023 0 0.22942119060580499 -0.38870296338312649 0 0.22942119060580499 -0.38870296338312649 0 0.208966154163157 -0.40126827473642579 0 0.23156745731421779 -0.4039283829592023 0 0.24309899287842279 -0.39271330151873202 0 0.2422505545635501 -0.40276464775944387 0 0.2366098857920339 -0.41191154353144788 0 0.23156745731421779 -0.4039283829592023 0 0.2422505545635501 -0.40276464775944387 0 0.23156745731421779 -0.4039283829592023 0 0.24309899287842279 -0.39271330151873202 0 0.22942119060580499 -0.38870296338312649 0 0.25108303853213881 -0.40002667887407228 0 0.24629253832767661 -0.41022035877505542 0 0.2422505545635501 -0.40276464775944387 0 0.25108303853213881 -0.40002667887407228 0 0.24309899287842279 -0.39271330151873202 0 0.2422505545635501 -0.40276464775944387 0 0.24987622704845311 -0.37613765202982719 0 0.22942119060580499 -0.38870296338312649 0 0.24309899287842279 -0.39271330151873202 0 0.24987622704845311 -0.37613765202982719 0 0.22942119060580499 -0.38870296338312649 0 0.24987622704845311 -0.37613765202982719 0 0.23474048966473349 -0.38137370792841258 0 0.22942119060580499 -0.38870296338312649 0 0.25687819372407023 -0.38903915957053298 0 0.24309899287842279 -0.39271330151873202 0 0.24987622704845311 -0.37613765202982719 0 0.23679608458568241 -0.3713456781615978 0 0.24987622704845311 -0.37613765202982719 0 0.23474048966473349 -0.38137370792841258 0 0.23474048966473349 -0.38137370792841258 0 0.23010576568282681 -0.37607478874810818 0 0.22189277223980711 -0.38054577212349588 0 0.23474048966473349 -0.38137370792841258 0 0.22189277223980711 -0.38054577212349588 0 0.20961824525516401 -0.3936281247522696 0 0.23474048966473349 -0.38137370792841258 0 0.22942119060580499 -0.38870296338312649 0 0.20961824525516401 -0.3936281247522696 0 0.23679608458568241 -0.3713456781615978 0 0.23474048966473349 -0.38137370792841258 0 0.23010576568282681 -0.37607478874810818 0 0.23474048966473349 -0.38137370792841258 0 0.20961824525516401 -0.3936281247522696 0 0.22699371624108439 -0.37103399677892651 0 0.23010576568282681 -0.37607478874810818 0 0.22189277223980711 -0.38054577212349588 0 0.21663927632257499 -0.37152038636996992 0 0.22189277223980711 -0.38054577212349588 0 0.21119602619295649 -0.38157571206759561 0 0.21663927632257499 -0.37152038636996992 0 0.21119602619295649 -0.38157571206759561 0 0.20576161095015591 -0.37595213443190167 0 0.21119602619295649 -0.38157571206759561 0 0.20576161095015591 -0.37595213443190167 0 0.20229958674085519 -0.38616776423662919 0 0.21119602619295649 -0.38157571206759561 0 0.20961824525516401 -0.3936281247522696 0 0.20229958674085519 -0.38616776423662919 0 0.22189277223980711 -0.38054577212349588 0 0.21119602619295649 -0.38157571206759561 0 0.20961824525516401 -0.3936281247522696 0 0.22942119060580499 -0.38870296338312649 0 0.208966154163157 -0.40126827473642579 0 0.20961824525516401 -0.3936281247522696 0 0.20961824525516401 -0.3936281247522696 0 0.18449600084559339 -0.40588254157612419 0 0.20961824525516401 -0.3936281247522696 0 0.19262774622386039 -0.39991289132556063 0 0.20229958674085519 -0.38616776423662919 0 0.18851111772050869 -0.41383358608972459 0 0.20961824525516401 -0.3936281247522696 0 0.18449600084559339 -0.40588254157612419 0 0.19262774622386039 -0.39991289132556063 0 0.193172237845981 -0.38760648281860499 0 0.20229958674085519 -0.38616776423662919 0 0.20961824525516401 -0.3936281247522696 0 0.19262774622386039 -0.39991289132556063 0 0.18449600084559339 -0.40588254157612419 0 0.18851111772050869 -0.41383358608972459 0 0.208966154163157 -0.40126827473642579 0 0.20961824525516401 -0.3936281247522696 0 0.19262774622386039 -0.39991289132556063 0 0.18963514604776821 -0.39361523539988952 0 0.193172237845981 -0.38760648281860499 0 0.19262774622386039 -0.39991289132556063 0 0.18963514604776821 -0.39361523539988952 0 0.18221634088723479 -0.40136818287387582 0 0.18963514604776821 -0.39361523539988952 0 0.193172237845981 -0.38760648281860499 0 0.18267650324237161 -0.39405502657648112 0 0.193172237845981 -0.38760648281860499 0 0.1910424400336663 -0.37547354736401328 0 0.18267650324237161 -0.39405502657648112 0 0.20576161095015591 -0.37595213443190167 0 0.1910424400336663 -0.37547354736401328 0 0.20229958674085519 -0.38616776423662919 0 0.193172237845981 -0.38760648281860499 0 0.1910424400336663 -0.37547354736401328 0 0.20229958674085519 -0.38616776423662919 0 0.1910424400336663 -0.37547354736401328 0 0.17822948803450961 -0.38676940160015832 0 0.1737051017910701 -0.38004230502140057 0 0.1910424400336663 -0.37547354736401328 0 0.18267650324237161 -0.39405502657648112 0 0.1910424400336663 -0.37547354736401328 0 0.17822948803450961 -0.38676940160015832 0 0.18267650324237161 -0.39405502657648112 0 0.17822948803450961 -0.38676940160015832 0 0.17910183421640119 -0.39520059623836468 0 0.1646215608890387 -0.38907553280053181 0 0.17822948803450961 -0.38676940160015832 0 0.1737051017910701 -0.38004230502140057 0 0.1646215608890387 -0.38907553280053181 0 0.17822948803450961 -0.38676940160015832 0 0.18267650324237161 -0.39405502657648112 0 0.17910183421640119 -0.39520059623836468 0 0.18221634088723479 -0.40136818287387582 0 0.17910183421640119 -0.39520059623836468 0 0.15805845094365739 -0.40474493864538458 0 0.18963514604776821 -0.39361523539988952 0 0.18267650324237161 -0.39405502657648112 0 0.18221634088723479 -0.40136818287387582 0 0.18267650324237161 -0.39405502657648112 0 0.18221634088723479 -0.40136818287387582 0 0.17910183421640119 -0.39520059623836468 0 0.18221634088723479 -0.40136818287387582 0 0.17910183421640119 -0.39520059623836468 0 0.19262774622386039 -0.39991289132556063 0 0.18221634088723479 -0.40136818287387582 0 0.19262774622386039 -0.39991289132556063 0 0.18449600084559339 -0.40588254157612419 0 0.18221634088723479 -0.40136818287387582 0 0.18449600084559339 -0.40588254157612419 0 0.18221634088723479 -0.40136818287387582 0 0.17910183421640119 -0.39520059623836468 0 0.15805845094365739 -0.40474493864538458 0 0.1646215608890387 -0.38907553280053181 0 0.18221634088723479 -0.40136818287387582 0 0.15805845094365739 -0.40474493864538458 0 0.15805845094365739 -0.40474493864538458 0 0.1646215608890387 -0.38907553280053181 0 0.14706277844018539 -0.39464292458295508 0 0.1737051017910701 -0.38004230502140057 0 0.1646215608890387 -0.38907553280053181 0 0.16307541855137739 -0.37743582412871929 0 0.17035242753357599 -0.36877211446365682 0 0.1737051017910701 -0.38004230502140057 0 0.16307541855137739 -0.37743582412871929 0 0.1569593121701936 -0.36832063090657668 0 0.16307541855137739 -0.37743582412871929 0 0.14973869037300869 -0.38096853745143089 0 0.1646215608890387 -0.38907553280053181 0 0.16307541855137739 -0.37743582412871929 0 0.14973869037300869 -0.38096853745143089 0 0.1646215608890387 -0.38907553280053181 0 0.14973869037300869 -0.38096853745143089 0 0.14706277844018539 -0.39464292458295508 0 0.14973869037300869 -0.38096853745143089 0 0.1375772795987745 -0.38493757303029391 0 0.14706277844018539 -0.39464292458295508 0 0.13524945632583441 -0.37311377610700652 0 0.14973869037300869 -0.38096853745143089 0 0.1375772795987745 -0.38493757303029391 0 0.13524945632583441 -0.37311377610700652 0 0.1375772795987745 -0.38493757303029391 0 0.12609635470998201 -0.38402791619100712 0 0.1375772795987745 -0.38493757303029391 0 0.12609635470998201 -0.38402791619100712 0 0.13569313113510631 -0.39589912548093298 0 0.12645644117523869 -0.39722706905544619 0 0.13569313113510631 -0.39589912548093298 0 0.1339005610000801 -0.40812169441689322 0 0.12645644117523869 -0.39722706905544619 0 0.1339005610000801 -0.40812169441689322 0 0.1250254850364893 -0.40936224001308058 0 0.12609635470998201 -0.38402791619100712 0 0.12645644117523869 -0.39722706905544619 0 0.13569313113510631 -0.39589912548093298 0 0.1375772795987745 -0.38493757303029391 0 0.13569313113510631 -0.39589912548093298 0 0.14706277844018539 -0.39464292458295508 0 0.13569313113510631 -0.39589912548093298 0 0.14706277844018539 -0.39464292458295508 0 0.1339005610000801 -0.40812169441689322 0 0.13569313113510631 -0.39589912548093298 0 0.1339005610000801 -0.40812169441689322 0 0.15805845094365739 -0.40474493864538458 0 0.14706277844018539 -0.39464292458295508 0 0.1339005610000801 -0.40812169441689322 0 0.15805845094365739 -0.40474493864538458 0 0.1339005610000801 -0.40812169441689322 0 0.15805845094365739 -0.40474493864538458 0 0.15398562739609989 -0.414436145328195 0 0.14500783119440661 -0.41410657591589572 0 0.15805845094365739 -0.40474493864538458 0 0.14500783119440661 -0.41410657591589572 0 0.1339005610000801 -0.40812169441689322 0 0.15398562739609989 -0.414436145328195 0 0.15088002640467921 -0.42009116626417142 0 0.14500783119440661 -0.41410657591589572 0 0.15088002640467921 -0.42009116626417142 0 0.15979138776423191 -0.42406840149736191 0 0.15636365466176849 -0.41960526040447821 0 0.15398562739609989 -0.414436145328195 0 0.15088002640467921 -0.42009116626417142 0 0.15636365466176849 -0.41960526040447821 0 0.15088002640467921 -0.42009116626417142 0 0.14500783119440661 -0.41410657591589572 0 0.14354831806896931 -0.42663893719234869 0 0.14500783119440661 -0.41410657591589572 0 0.1339005610000801 -0.40812169441689322 0 0.13212255532719441 -0.42024495614079282 0 0.14500783119440661 -0.41410657591589572 0 0.13212255532719441 -0.42024495614079282 0 0.14354831806896931 -0.42663893719234869 0 0.1339005610000801 -0.40812169441689322 0 0.13212255532719441 -0.42024495614079282 0 0.13212255532719441 -0.42024495614079282 0 0.1250254850364893 -0.40936224001308058 0 0.117866085899093 -0.41583132647739651 0 0.13212255532719441 -0.42024495614079282 0 0.1250254850364893 -0.40936224001308058 0 0.1339005610000801 -0.40812169441689322 0 0.13212255532719441 -0.42024495614079282 0 0.1250254850364893 -0.40936224001308058 0 0.1339005610000801 -0.40812169441689322 0 0.1250254850364893 -0.40936224001308058 0 0.13212255532719441 -0.42024495614079282 0 0.14354831806896931 -0.42663893719234869 0 0.1460535583969573 -0.44160689079445481 0 0.13212255532719441 -0.42024495614079282 0 0.128223579302082 -0.44682997076052833 0 0.13212255532719441 -0.42024495614079282 0 0.128223579302082 -0.44682997076052833 0 0.1159996351348133 -0.43474120747525058 0 0.13212255532719441 -0.42024495614079282 0 0.1460535583969573 -0.44160689079445481 0 0.13212255532719441 -0.42024495614079282 0 0.1460535583969573 -0.44160689079445481 0 0.128223579302082 -0.44682997076052833 0 0.15088002640467921 -0.42009116626417142 0 0.14354831806896931 -0.42663893719234869 0 0.15979138776423191 -0.42406840149736191 0 0.14354831806896931 -0.42663893719234869 0 0.15979138776423191 -0.42406840149736191 0 0.14354831806896931 -0.42663893719234869 0 0.15423293294423909 -0.43386412417913311 0 0.1460535583969573 -0.44160689079445481 0 0.14354831806896931 -0.42663893719234869 0 0.15423293294423909 -0.43386412417913311 0 0.15979138776423191 -0.42406840149736191 0 0.15423293294423909 -0.43386412417913311 0 0.16088991666547389 -0.43196094602310392 0 0.16557730454712019 -0.44172028084172121 0 0.1713980071398 -0.42434598792645378 0 0.15979138776423191 -0.42406840149736191 0 0.1760344574594947 -0.42149786580237669 0 0.15423293294423909 -0.43386412417913311 0 0.16088991666547389 -0.43196094602310392 0 0.15979138776423191 -0.42406840149736191 0 0.15979138776423191 -0.42406840149736191 0 0.1760344574594947 -0.42149786580237669 0 0.16626302434537371 -0.43076979168845952 0 0.17509911994716071 -0.43336510097506958 0 0.16557730454712019 -0.44172028084172121 0 0.16088991666547389 -0.43196094602310392 0 0.16626302434537371 -0.43076979168845952 0 0.16557730454712019 -0.44172028084172121 0 0.16626302434537371 -0.43076979168845952 0 0.1713980071398 -0.42434598792645378 0 0.17509911994716071 -0.43336510097506958 0 0.16626302434537371 -0.43076979168845952 0 0.1713980071398 -0.42434598792645378 0 0.15979138776423191 -0.42406840149736191 0 0.16088991666547389 -0.43196094602310392 0 0.16626302434537371 -0.43076979168845952 0 0.15979138776423191 -0.42406840149736191 0 0.15636365466176849 -0.41960526040447821 0 0.16176651730702801 -0.41283252991975622 0 0.17042982775368151 -0.41274390099030239 0 0.18221634088723479 -0.40136818287387582 0 0.15805845094365739 -0.40474493864538458 0 0.17042982775368151 -0.41274390099030239 0 0.15979138776423191 -0.42406840149736191 0 0.15636365466176849 -0.41960526040447821 0 0.17042982775368151 -0.41274390099030239 0 0.15636365466176849 -0.41960526040447821 0 0.17042982775368151 -0.41274390099030239 0 0.15979138776423191 -0.42406840149736191 0 0.17042982775368151 -0.41274390099030239 0 0.1760344574594947 -0.42149786580237669 0 0.15398562739609989 -0.414436145328195 0 0.15636365466176849 -0.41960526040447821 0 0.16176651730702801 -0.41283252991975622 0 0.15805845094365739 -0.40474493864538458 0 0.15398562739609989 -0.414436145328195 0 0.16176651730702801 -0.41283252991975622 0 0.15805845094365739 -0.40474493864538458 0 0.16176651730702801 -0.41283252991975622 0 0.17042982775368151 -0.41274390099030239 0 0.17042982775368151 -0.41274390099030239 0 0.1760344574594947 -0.42149786580237669 0 0.17986785094481991 -0.4134894736146324 0 0.18449600084559339 -0.40588254157612419 0 0.17042982775368151 -0.41274390099030239 0 0.18449600084559339 -0.40588254157612419 0 0.18221634088723479 -0.40136818287387582 0 0.17042982775368151 -0.41274390099030239 0 0.18449600084559339 -0.40588254157612419 0 0.17042982775368151 -0.41274390099030239 0 0.17986785094481991 -0.4134894736146324 0 0.18851111772050869 -0.41383358608972459 0 0.18449600084559339 -0.40588254157612419 0 0.18851111772050869 -0.41383358608972459 0 0.18449600084559339 -0.40588254157612419 0 0.17986785094481991 -0.4134894736146324 0 0.18851111772050869 -0.41383358608972459 0 0.1760344574594947 -0.42149786580237669 0 0.1911717259170673 -0.41910232791299562 0 0.1760344574594947 -0.42149786580237669 0 0.18851111772050869 -0.41383358608972459 0 0.1760344574594947 -0.42149786580237669 0 0.17986785094481991 -0.4134894736146324 0 0.1911717259170673 -0.41910232791299562 0 0.18851111772050869 -0.41383358608972459 0 0.1760344574594947 -0.42149786580237669 0 0.1911717259170673 -0.41910232791299562 0 0.1760344574594947 -0.42149786580237669 0 0.18484232774876749 -0.43033534366960768 0 0.18484232774876749 -0.43033534366960768 0 0.17509911994716071 -0.43336510097506958 0 0.18590039067086719 -0.44115637567916172 0 0.18484232774876749 -0.43033534366960768 0 0.17509911994716071 -0.43336510097506958 0 0.17653319474121221 -0.42750765242104072 0 0.1713980071398 -0.42434598792645378 0 0.17509911994716071 -0.43336510097506958 0 0.17653319474121221 -0.42750765242104072 0 0.1760344574594947 -0.42149786580237669 0 0.18484232774876749 -0.43033534366960768 0 0.17653319474121221 -0.42750765242104072 0 0.1713980071398 -0.42434598792645378 0 0.1760344574594947 -0.42149786580237669 0 0.17653319474121221 -0.42750765242104072 0 0.1713980071398 -0.42434598792645378 0 0.1760344574594947 -0.42149786580237669 0 0.17791556380287959 -0.4455361086535346 0 0.17376504419967539 -0.46076368888843938 0 0.16557730454712019 -0.44172028084172121 0 0.17509911994716071 -0.43336510097506958 0 0.17791556380287959 -0.4455361086535346 0 0.18590039067086719 -0.44115637567916172 0 0.17509911994716071 -0.43336510097506958 0 0.17791556380287959 -0.4455361086535346 0 0.16557730454712019 -0.44172028084172121 0 0.18923595964957429 -0.45067509688328122 0 0.17791556380287959 -0.4455361086535346 0 0.18590039067086719 -0.44115637567916172 0 0.18923595964957429 -0.45067509688328122 0 0.17791556380287959 -0.4455361086535346 0 0.17376504419967539 -0.46076368888843938 0 0.1938641377332887 -0.4633108835168005 0 0.18923595964957429 -0.45067509688328122 0 0.17376504419967539 -0.46076368888843938 0 0.1938641377332887 -0.4633108835168005 0 0.17376504419967539 -0.46076368888843938 0 0.17718182015316611 -0.48165544175840053 0 0.17376504419967539 -0.46076368888843938 0 0.15550290350416551 -0.45157236434768988 0 0.1539044029471725 -0.46809795184702829 0 0.17376504419967539 -0.46076368888843938 0 0.16557730454712019 -0.44172028084172121 0 0.15550290350416551 -0.45157236434768988 0 0.15423293294423909 -0.43386412417913311 0 0.16557730454712019 -0.44172028084172121 0 0.15550290350416551 -0.45157236434768988 0 0.15423293294423909 -0.43386412417913311 0 0.15550290350416551 -0.45157236434768988 0 0.1460535583969573 -0.44160689079445481 0 0.15550290350416551 -0.45157236434768988 0 0.1460535583969573 -0.44160689079445481 0 0.14153074802588431 -0.45654190970348868 0 0.1460535583969573 -0.44160689079445481 0 0.128223579302082 -0.44682997076052833 0 0.14153074802588431 -0.45654190970348868 0 0.128223579302082 -0.44682997076052833 0 0.12432460327697011 -0.47341498538026422 0 0.128223579302082 -0.44682997076052833 0 0.14153074802588431 -0.45654190970348868 0 0.12432460327697011 -0.47341498538026422 0 0.1539044029471725 -0.46809795184702829 0 0.14153074802588431 -0.45654190970348868 0 0.12432460327697011 -0.47341498538026422 0 0.15550290350416551 -0.45157236434768988 0 0.1539044029471725 -0.46809795184702829 0 0.14153074802588431 -0.45654190970348868 0 0.1539044029471725 -0.46809795184702829 0 0.15048103374274721 -0.48484579871078243 0 0.12432460327697011 -0.47341498538026422 0 0.1404625649124509 -0.5 0 0.15048103374274721 -0.48484579871078243 0 0.12432460327697011 -0.47341498538026422 0 0.1404625649124509 -0.5 0 0.12042562725185831 -0.49999999999999989 0 0.12432460327697011 -0.47341498538026422 0 0.1404625649124509 -0.5 0 0.15048103374274721 -0.48484579871078243 0 0.16049950257304349 -0.50000000000000033 0 0.16049950257304349 -0.50000000000000033 0 0.17718182015316611 -0.48165544175840053 0 0.15048103374274721 -0.48484579871078243 0 0.16049950257304349 -0.50000000000000033 0 0.17718182015316611 -0.48165544175840053 0 0.17376504419967539 -0.46076368888843938 0 0.1539044029471725 -0.46809795184702829 0 0.17718182015316611 -0.48165544175840053 0 0.1539044029471725 -0.46809795184702829 0 0.15048103374274721 -0.48484579871078243 0 0.17718182015316611 -0.48165544175840053 0 0.1938641377332887 -0.4633108835168005 0 0.17718182015316611 -0.48165544175840053 0 0.19122796324104871 -0.48466606029959602 0 0.1938641377332887 -0.4633108835168005 0 0.17718182015316611 -0.48165544175840053 0 0.16049950257304349 -0.50000000000000033 0 0.17718182015316611 -0.48165544175840053 0 0.18744203257390391 -0.5 0 0.19122796324104871 -0.48466606029959602 0 0.17718182015316611 -0.48165544175840053 0 0.18744203257390391 -0.5 0 0.072018957471098571 -0.48629524479662273 0 0.069142552082564368 -0.5 0 0.082735946582200875 -0.4892045976485363 0 0.072018957471098571 -0.48629524479662273 0 0.079568506083734697 -0.4785915255016745 0 0.082735946582200875 -0.4892045976485363 0 0.072018957471098571 -0.48629524479662273 0 0.062670741706174135 -0.48944359682069549 0 0.064881374578912687 -0.4815757870058418 0 0.072018957471098571 -0.48629524479662273 0 0.069142552082564368 -0.5 0 0.062670741706174135 -0.48944359682069549 0 0.073180054077148754 -0.46968413697177741 0 0.079568506083734697 -0.4785915255016745 0 0.081395248040860374 -0.46160025678040811 0 0.067447632246636219 -0.45716428258124142 0 0.05849497948899289 -0.47642287528831911 0 0.061758178687080389 -0.47580514524370598 0 0.072018957471098571 -0.48629524479662273 0 0.064881374578912687 -0.4815757870058418 0 0.070673492561877091 -0.4782128222507579 0 0.064881374578912687 -0.4815757870058418 0 0.066280053791524171 -0.47680462027284459 0 0.061758178687080389 -0.47580514524370598 0 0.064881374578912687 -0.4815757870058418 0 0.066280053791524171 -0.47680462027284459 0 0.070673492561877091 -0.4782128222507579 0 0.066280053791524171 -0.47680462027284459 0 0.067807169338226503 -0.47162472659107291 0 0.061758178687080389 -0.47580514524370598 0 0.066280053791524171 -0.47680462027284459 0 0.067807169338226503 -0.47162472659107291 0 0.070673492561877091 -0.4782128222507579 0 0.067807169338226503 -0.47162472659107291 0 0.073180054077148754 -0.46968413697177741 0 0.070673492561877091 -0.4782128222507579 0 0.073180054077148754 -0.46968413697177741 0 0.070673492561877091 -0.4782128222507579 0 0.079568506083734697 -0.4785915255016745 0 0.072018957471098571 -0.48629524479662273 0 0.070673492561877091 -0.4782128222507579 0 0.079568506083734697 -0.4785915255016745 0 0.096876661376123455 -0.48080012839020431 0 0.081395248040860374 -0.46160025678040811 0 0.096876661376123455 -0.48080012839020431 0 0.095349939854524335 -0.46404107218864848 0 0.081395248040860374 -0.46160025678040811 0 0.079568506083734697 -0.4785915255016745 0 0.082735946582200875 -0.4892045976485363 0 0.096876661376123455 -0.48080012839020431 0 0.079568506083734697 -0.4785915255016745 0 0.096876661376123455 -0.48080012839020431 0 0.081395248040860374 -0.46160025678040811 0 0.090750313396975479 -0.5 0 0.082735946582200875 -0.4892045976485363 0 0.096876661376123455 -0.48080012839020431 0 0.069142552082564368 -0.5 0 0.090750313396975479 -0.5 0 0.082735946582200875 -0.4892045976485363 0 0.1123580747113867 -0.50000000000000033 0 0.1124728586670535 -0.48406595427175642 0 0.096876661376123455 -0.48080012839020431 0 0.090750313396975479 -0.5 0 0.1123580747113867 -0.50000000000000033 0 0.096876661376123455 -0.48080012839020431 0 0.1123580747113867 -0.50000000000000033 0 0.096876661376123455 -0.48080012839020431 0 0.1123580747113867 -0.50000000000000033 0 0.12042562725185831 -0.49999999999999989 0 0.1124728586670535 -0.48406595427175642 0 0.12042562725185831 -0.49999999999999989 0 0.1124728586670535 -0.48406595427175642 0 0.12432460327697011 -0.47341498538026422 0 0.12042562725185831 -0.49999999999999989 0 0.12432460327697011 -0.47341498538026422 0 0.1124728586670535 -0.48406595427175642 0 0.12432460327697011 -0.47341498538026422 0 0.1082250197838846 -0.46311527911574241 0 0.096876661376123455 -0.48080012839020431 0 0.095349939854524335 -0.46404107218864848 0 0.1082250197838846 -0.46311527911574241 0 0.1124728586670535 -0.48406595427175642 0 0.096876661376123455 -0.48080012839020431 0 0.1082250197838846 -0.46311527911574241 0 0.095349939854524335 -0.46404107218864848 0 0.1082250197838846 -0.46311527911574241 0 0.094902830217228867 -0.45064862446823939 0 0.128223579302082 -0.44682997076052833 0 0.12432460327697011 -0.47341498538026422 0 0.1082250197838846 -0.46311527911574241 0 0.128223579302082 -0.44682997076052833 0 0.1069391861142964 -0.44299064961396012 0 0.1159996351348133 -0.43474120747525058 0 0.128223579302082 -0.44682997076052833 0 0.1082250197838846 -0.46311527911574241 0 0.1069391861142964 -0.44299064961396012 0 0.1082250197838846 -0.46311527911574241 0 0.1069391861142964 -0.44299064961396012 0 0.094902830217228867 -0.45064862446823939 0 0.1069391861142964 -0.44299064961396012 0 0.091812697424993442 -0.4386357446441016 0 0.098414951810672224 -0.43233268446502993 0 0.1069391861142964 -0.44299064961396012 0 0.094902830217228867 -0.45064862446823939 0 0.091812697424993442 -0.4386357446441016 0 0.094902830217228867 -0.45064862446823939 0 0.091812697424993442 -0.4386357446441016 0 0.082434724511159588 -0.44537142502386151 0 0.094902830217228867 -0.45064862446823939 0 0.082434724511159588 -0.44537142502386151 0 0.081395248040860374 -0.46160025678040811 0 0.091812697424993442 -0.4386357446441016 0 0.082434724511159588 -0.44537142502386151 0 0.078149012167117934 -0.43357211405594609 0 0.095349939854524335 -0.46404107218864848 0 0.094902830217228867 -0.45064862446823939 0 0.081395248040860374 -0.46160025678040811 0 0.067447632246636219 -0.45716428258124142 0 0.065913834705597293 -0.44240038517061198 0 0.057068655694905858 -0.46015288389510001 0 0.067447632246636219 -0.45716428258124142 0 0.05849497948899289 -0.47642287528831911 0 0.067807169338226503 -0.47162472659107291 0 0.067447632246636219 -0.45716428258124142 0 0.061758178687080389 -0.47580514524370598 0 0.081395248040860374 -0.46160025678040811 0 0.067447632246636219 -0.45716428258124142 0 0.065913834705597293 -0.44240038517061198 0 0.073180054077148754 -0.46968413697177741 0 0.081395248040860374 -0.46160025678040811 0 0.067447632246636219 -0.45716428258124142 0 0.067807169338226503 -0.47162472659107291 0 0.073180054077148754 -0.46968413697177741 0 0.067447632246636219 -0.45716428258124142 0 0.081395248040860374 -0.46160025678040811 0 0.065913834705597293 -0.44240038517061198 0 0.082434724511159588 -0.44537142502386151 0 0.081395248040860374 -0.46160025678040811 0 0.065913834705597293 -0.44240038517061198 0 0.082434724511159588 -0.44537142502386151 0 0.065913834705597293 -0.44240038517061198 0 0.078149012167117934 -0.43357211405594609 0 0.065921365320016911 -0.4273577277455588 0 0.073982485551444349 -0.42005290588181732 0 0.078149012167117934 -0.43357211405594609 0 0.065913834705597293 -0.44240038517061198 0 0.065921365320016911 -0.4273577277455588 0 0.078149012167117934 -0.43357211405594609 0 0.073982485551444349 -0.42005290588181732 0 0.069775570718114244 -0.40426700169235308 0 0.060774245729122177 -0.41691050055794487 0 0.065921365320016911 -0.4273577277455588 0 0.073982485551444349 -0.42005290588181732 0 0.060774245729122177 -0.41691050055794487 0 0.073982485551444349 -0.42005290588181732 0 0.086447448161059384 -0.41120764722282821 0 0.069775570718114244 -0.40426700169235308 0 0.073982485551444349 -0.42005290588181732 0 0.086447448161059384 -0.41120764722282821 0 0.088692331433278357 -0.42535053834926723 0 0.086447448161059384 -0.41120764722282821 0 0.093827427438274241 -0.41775801958915132 0 0.099702730965631758 -0.41290181884877419 0 0.086447448161059384 -0.41120764722282821 0 0.088692331433278357 -0.42535053834926723 0 0.093827427438274241 -0.41775801958915132 0 0.088692331433278357 -0.42535053834926723 0 0.097645949564215143 -0.42435504664253748 0 0.093827427438274241 -0.41775801958915132 0 0.073982485551444349 -0.42005290588181732 0 0.088692331433278357 -0.42535053834926723 0 0.078149012167117934 -0.43357211405594609 0 0.091812697424993442 -0.4386357446441016 0 0.088692331433278357 -0.42535053834926723 0 0.078149012167117934 -0.43357211405594609 0 0.091812697424993442 -0.4386357446441016 0 0.088692331433278357 -0.42535053834926723 0 0.098414951810672224 -0.43233268446502993 0 0.098414951810672224 -0.43233268446502993 0 0.097645949564215143 -0.42435504664253748 0 0.1061961683754654 -0.43004895598907111 0 0.088692331433278357 -0.42535053834926723 0 0.098414951810672224 -0.43233268446502993 0 0.097645949564215143 -0.42435504664253748 0 0.1061961683754654 -0.43004895598907111 0 0.11152958735588871 -0.42539382439527612 0 0.1045809803654715 -0.42051706085107571 0 0.097645949564215143 -0.42435504664253748 0 0.1061961683754654 -0.43004895598907111 0 0.1045809803654715 -0.42051706085107571 0 0.1069391861142964 -0.44299064961396012 0 0.098414951810672224 -0.43233268446502993 0 0.1061961683754654 -0.43004895598907111 0 0.1061961683754654 -0.43004895598907111 0 0.1159996351348133 -0.43474120747525058 0 0.11152958735588871 -0.42539382439527612 0 0.13212255532719441 -0.42024495614079282 0 0.1159996351348133 -0.43474120747525058 0 0.11851153239627241 -0.42275952171654291 0 0.1069391861142964 -0.44299064961396012 0 0.1061961683754654 -0.43004895598907111 0 0.1159996351348133 -0.43474120747525058 0 0.1159996351348133 -0.43474120747525058 0 0.11152958735588871 -0.42539382439527612 0 0.11851153239627241 -0.42275952171654291 0 0.11152958735588871 -0.42539382439527612 0 0.11851153239627241 -0.42275952171654291 0 0.1123596205074209 -0.41890237594444008 0 0.1250254850364893 -0.40936224001308058 0 0.117866085899093 -0.41583132647739651 0 0.1096180349996463 -0.41151587164058129 0 0.1250254850364893 -0.40936224001308058 0 0.1096180349996463 -0.41151587164058129 0 0.13212255532719441 -0.42024495614079282 0 0.11851153239627241 -0.42275952171654291 0 0.117866085899093 -0.41583132647739651 0 0.117866085899093 -0.41583132647739651 0 0.1123596205074209 -0.41890237594444008 0 0.1096180349996463 -0.41151587164058129 0 0.11851153239627241 -0.42275952171654291 0 0.117866085899093 -0.41583132647739651 0 0.1123596205074209 -0.41890237594444008 0 0.11152958735588871 -0.42539382439527612 0 0.1123596205074209 -0.41890237594444008 0 0.1045809803654715 -0.42051706085107571 0 0.1123596205074209 -0.41890237594444008 0 0.1096180349996463 -0.41151587164058129 0 0.1065506547415149 -0.41613106226330793 0 0.1096180349996463 -0.41151587164058129 0 0.1065506547415149 -0.41613106226330793 0 0.099702730965631758 -0.41290181884877419 0 0.1096180349996463 -0.41151587164058129 0 0.099702730965631758 -0.41290181884877419 0 0.1096180349996463 -0.41151587164058129 0 0.099702730965631758 -0.41290181884877419 0 0.1041447551606165 -0.40305668800175581 0 0.1123596205074209 -0.41890237594444008 0 0.1065506547415149 -0.41613106226330793 0 0.1045809803654715 -0.42051706085107571 0 0.1065506547415149 -0.41613106226330793 0 0.1045809803654715 -0.42051706085107571 0 0.099702730965631758 -0.41290181884877419 0 0.1045809803654715 -0.42051706085107571 0 0.093827427438274241 -0.41775801958915132 0 0.099702730965631758 -0.41290181884877419 0 0.097645949564215143 -0.42435504664253748 0 0.1045809803654715 -0.42051706085107571 0 0.093827427438274241 -0.41775801958915132 0 0.086447448161059384 -0.41120764722282821 0 0.099702730965631758 -0.41290181884877419 0 0.095691580682652475 -0.39908469234235189 0 0.095691580682652475 -0.39908469234235189 0 0.1041447551606165 -0.40305668800175581 0 0.1115666739945345 -0.38872436917531578 0 0.099702730965631758 -0.41290181884877419 0 0.095691580682652475 -0.39908469234235189 0 0.1041447551606165 -0.40305668800175581 0 0.1096180349996463 -0.41151587164058129 0 0.1041447551606165 -0.40305668800175581 0 0.1115666739945345 -0.38872436917531578 0 0.1250254850364893 -0.40936224001308058 0 0.1115666739945345 -0.38872436917531578 0 0.1096180349996463 -0.41151587164058129 0 0.1115666739945345 -0.38872436917531578 0 0.1250254850364893 -0.40936224001308058 0 0.1096180349996463 -0.41151587164058129 0 0.1115666739945345 -0.38872436917531578 0 0.12645644117523869 -0.39722706905544619 0 0.1250254850364893 -0.40936224001308058 0 0.1115666739945345 -0.38872436917531578 0 0.12609635470998201 -0.38402791619100712 0 0.1115666739945345 -0.38872436917531578 0 0.113745377556003 -0.36324200547299851 0 0.1115666739945345 -0.38872436917531578 0 0.113745377556003 -0.36324200547299851 0 0.12609635470998201 -0.38402791619100712 0 0.12645644117523869 -0.39722706905544619 0 0.1115666739945345 -0.38872436917531578 0 0.1115666739945345 -0.38872436917531578 0 0.096372132326470572 -0.36542491223168638 0 0.1115666739945345 -0.38872436917531578 0 0.089853218628298884 -0.38394717958202601 0 0.096372132326470572 -0.36542491223168638 0 0.095691580682652475 -0.39908469234235189 0 0.1115666739945345 -0.38872436917531578 0 0.089853218628298884 -0.38394717958202601 0 0.089853218628298884 -0.38394717958202601 0 0.082924844884061683 -0.39714926844771359 0 0.072939106935086151 -0.38728773006234168 0 0.089853218628298884 -0.38394717958202601 0 0.072939106935086151 -0.38728773006234168 0 0.07582030708563034 -0.37256671738353597 0 0.095691580682652475 -0.39908469234235189 0 0.089853218628298884 -0.38394717958202601 0 0.082924844884061683 -0.39714926844771359 0 0.086447448161059384 -0.41120764722282821 0 0.082924844884061683 -0.39714926844771359 0 0.069775570718114244 -0.40426700169235308 0 0.086447448161059384 -0.41120764722282821 0 0.095691580682652475 -0.39908469234235189 0 0.082924844884061683 -0.39714926844771359 0 0.069775570718114244 -0.40426700169235308 0 0.072939106935086151 -0.38728773006234168 0 0.058313699768321348 -0.39007371912844929 0 0.082924844884061683 -0.39714926844771359 0 0.069775570718114244 -0.40426700169235308 0 0.072939106935086151 -0.38728773006234168 0 0.072939106935086151 -0.38728773006234168 0 0.05933500968155693 -0.37671477575793533 0 0.058313699768321348 -0.39007371912844929 0 0.072939106935086151 -0.38728773006234168 0 0.05933500968155693 -0.37671477575793533 0 0.07582030708563034 -0.37256671738353597 0 0.05933500968155693 -0.37671477575793533 0 0.043300396670470892 -0.38581293046691678 0 0.039079294002052851 -0.37065651216905859 0 0.05933500968155693 -0.37671477575793533 0 0.058313699768321348 -0.39007371912844929 0 0.043300396670470892 -0.38581293046691678 0 0.058313699768321348 -0.39007371912844929 0 0.0466875803122518 -0.39705513158652528 0 0.054373060569327003 -0.40663711634463268 0 0.069775570718114244 -0.40426700169235308 0 0.058313699768321348 -0.39007371912844929 0 0.054373060569327003 -0.40663711634463268 0 0.058313699768321348 -0.39007371912844929 0 0.054373060569327003 -0.40663711634463268 0 0.0466875803122518 -0.39705513158652528 0 0.042121557959679479 -0.40689397827368962 0 0.054373060569327003 -0.40663711634463268 0 0.058313699768321348 -0.39007371912844929 0 0.0466875803122518 -0.39705513158652528 0 0.043300396670470892 -0.38581293046691678 0 0.0466875803122518 -0.39705513158652528 0 0.032645317368698572 -0.39721328630736241 0 0.043300396670470892 -0.38581293046691678 0 0.0466875803122518 -0.39705513158652528 0 0.032645317368698572 -0.39721328630736241 0 0.042121557959679479 -0.40689397827368962 0 0.032645317368698572 -0.39721328630736241 0 0.043300396670470892 -0.38581293046691678 0 0.025542853711361019 -0.38384675294920401 0 0.043300396670470892 -0.38581293046691678 0 0.025542853711361019 -0.38384675294920401 0 0.039079294002052851 -0.37065651216905859 0 0.025542853711361019 -0.38384675294920401 0 0.009690974369139977 -0.39295199195252922 0 0.016784443680880379 -0.36713146693108112 0 -0.0064694903547723136 -0.38059021958606692 0 0.009690974369139977 -0.39295199195252922 0 0.016784443680880379 -0.36713146693108112 0 0.032645317368698572 -0.39721328630736241 0 0.009690974369139977 -0.39295199195252922 0 0.030062121183744069 -0.41560348860952728 0 0.032645317368698572 -0.39721328630736241 0 0.025542853711361019 -0.38384675294920401 0 0.009690974369139977 -0.39295199195252922 0 0.009690974369139977 -0.39295199195252922 0 0.030062121183744069 -0.41560348860952728 0 0.01224976062295041 -0.42183763890738629 0 -0.0080625817845775948 -0.40608726553411861 0 0.009690974369139977 -0.39295199195252922 0 0.01224976062295041 -0.42183763890738629 0 0.009690974369139977 -0.39295199195252922 0 0.01224976062295041 -0.42183763890738629 0 0.01224976062295041 -0.42183763890738629 0 0.01480854687676085 -0.45072328586224342 0 0.030062121183744069 -0.41560348860952728 0 0.01224976062295041 -0.42183763890738629 0 0.028535899264767479 -0.43733174884408438 0 0.01224976062295041 -0.42183763890738629 0 0.028535899264767479 -0.43733174884408438 0 0.01480854687676085 -0.45072328586224342 0 0.030062121183744069 -0.41560348860952728 0 0.028535899264767479 -0.43733174884408438 0 0.039909128579099777 -0.42893709763038412 0 0.039909128579099777 -0.42893709763038412 0 0.050432421370333713 -0.42320051356081623 0 0.04400553312424714 -0.45021417746364167 0 0.039909128579099777 -0.42893709763038412 0 0.046509667952406512 -0.41833555967385072 0 0.050432421370333713 -0.42320051356081623 0 0.032645317368698572 -0.39721328630736241 0 0.030062121183744069 -0.41560348860952728 0 0.042121557959679479 -0.40689397827368962 0 0.030062121183744069 -0.41560348860952728 0 0.039909128579099777 -0.42893709763038412 0 0.046509667952406512 -0.41833555967385072 0 0.030062121183744069 -0.41560348860952728 0 0.042121557959679479 -0.40689397827368962 0 0.046509667952406512 -0.41833555967385072 0 0.054373060569327003 -0.40663711634463268 0 0.050432421370333713 -0.42320051356081623 0 0.046509667952406512 -0.41833555967385072 0 0.054373060569327003 -0.40663711634463268 0 0.050432421370333713 -0.42320051356081623 0 0.054373060569327003 -0.40663711634463268 0 0.060774245729122177 -0.41691050055794487 0 0.050432421370333713 -0.42320051356081623 0 0.046509667952406512 -0.41833555967385072 0 0.050432421370333713 -0.42320051356081623 0 0.042121557959679479 -0.40689397827368962 0 0.046509667952406512 -0.41833555967385072 0 0.054373060569327003 -0.40663711634463268 0 0.069775570718114244 -0.40426700169235308 0 0.054373060569327003 -0.40663711634463268 0 0.060774245729122177 -0.41691050055794487 0 0.050432421370333713 -0.42320051356081623 0 0.04400553312424714 -0.45021417746364167 0 0.065913834705597293 -0.44240038517061198 0 0.050432421370333713 -0.42320051356081623 0 0.065913834705597293 -0.44240038517061198 0 0.065921365320016911 -0.4273577277455588 0 0.050432421370333713 -0.42320051356081623 0 0.065921365320016911 -0.4273577277455588 0 0.060774245729122177 -0.41691050055794487 0 0.050432421370333713 -0.42320051356081623 0 0.065913834705597293 -0.44240038517061198 0 0.050432421370333713 -0.42320051356081623 0 0.04400553312424714 -0.45021417746364167 0 0.065913834705597293 -0.44240038517061198 0 0.057068655694905858 -0.46015288389510001 0 0.04400553312424714 -0.45021417746364167 0 0.057068655694905858 -0.46015288389510001 0 0.048043393468649283 -0.46676160836513853 0 0.04400553312424714 -0.45021417746364167 0 0.067447632246636219 -0.45716428258124142 0 0.057068655694905858 -0.46015288389510001 0 0.05849497948899289 -0.47642287528831911 0 0.057068655694905858 -0.46015288389510001 0 0.048043393468649283 -0.46676160836513853 0 0.052635520687858477 -0.47072247146996382 0 0.04400553312424714 -0.45021417746364167 0 0.037578644878161642 -0.47722784136646751 0 0.048043393468649283 -0.46676160836513853 0 0.04400553312424714 -0.45021417746364167 0 0.037578644878161642 -0.47722784136646751 0 0.04400553312424714 -0.45021417746364167 0 0.030366658319331299 -0.45781827645911538 0 0.037578644878161642 -0.47722784136646751 0 0.028535899264767479 -0.43733174884408438 0 0.039909128579099777 -0.42893709763038412 0 0.04400553312424714 -0.45021417746364167 0 0.028535899264767479 -0.43733174884408438 0 0.04400553312424714 -0.45021417746364167 0 0.030366658319331299 -0.45781827645911538 0 0.028535899264767479 -0.43733174884408438 0 0.01480854687676085 -0.45072328586224342 0 0.030366658319331299 -0.45781827645911538 0 -0.008216644178786571 -0.4466179140804285 0 0.01224976062295041 -0.42183763890738629 0 0.01480854687676085 -0.45072328586224342 0 0.01480854687676085 -0.45072328586224342 0 0.017367333130571299 -0.47960893281710049 0 0.0084119176919832291 -0.471974008478943 0 -0.0021957942935651631 -0.46571035637089769 0 0.01480854687676085 -0.45072328586224342 0 0.0084119176919832291 -0.471974008478943 0 -0.008216644178786571 -0.4466179140804285 0 -0.0021957942935651631 -0.46571035637089769 0 0.01480854687676085 -0.45072328586224342 0 0.01480854687676085 -0.45072328586224342 0 0.017367333130571299 -0.47960893281710049 0 0.01480854687676085 -0.45072328586224342 0 0.030366658319331299 -0.45781827645911538 0 0.0269046674527194 -0.47359432875914009 0 0.01480854687676085 -0.45072328586224342 0 0.0269046674527194 -0.47359432875914009 0 0.017367333130571299 -0.47960893281710049 0 0.017367333130571299 -0.47960893281710049 0 0.012735562036971701 -0.48508522326900949 0 0.035615270762982369 -0.48075404927866472 0 0.012735562036971701 -0.48508522326900949 0 0.035615270762982369 -0.48075404927866472 0 0.0269046674527194 -0.47359432875914009 0 0.017367333130571299 -0.47960893281710049 0 0.035615270762982369 -0.48075404927866472 0 0.017367333130571299 -0.47960893281710049 0 0.0084119176919832291 -0.471974008478943 0 0.012735562036971701 -0.48508522326900949 0 -0.00065605929082254884 -0.47874224407546379 0 0.0084119176919832291 -0.471974008478943 0 0.012735562036971701 -0.48508522326900949 0 -0.0021957942935651631 -0.46571035637089769 0 -0.00065605929082254884 -0.47874224407546379 0 0.0084119176919832291 -0.471974008478943 0 -0.010144146689038991 -0.48941639725935437 0 -0.00065605929082254884 -0.47874224407546379 0 0.012735562036971701 -0.48508522326900949 0 -0.010144146689038991 -0.48941639725935437 0 0.012735562036971701 -0.48508522326900949 0 -0.011489863113854141 -0.5 0 0.012735562036971701 -0.48508522326900949 0 0.01802246382714956 -0.5 0 0.01802246382714956 -0.5 0 0.025329369399590369 -0.48901546815995378 0 0.047534790768153173 -0.50000000000000044 0 0.012735562036971701 -0.48508522326900949 0 0.025329369399590369 -0.48901546815995378 0 0.035615270762982369 -0.48075404927866472 0 0.012735562036971701 -0.48508522326900949 0 0.01802246382714956 -0.5 0 0.025329369399590369 -0.48901546815995378 0 0.025329369399590369 -0.48901546815995378 0 0.035615270762982369 -0.48075404927866472 0 0.047534790768153173 -0.50000000000000044 0 0.030366658319331299 -0.45781827645911538 0 0.0269046674527194 -0.47359432875914009 0 0.037578644878161642 -0.47722784136646751 0 0.0269046674527194 -0.47359432875914009 0 0.037578644878161642 -0.47722784136646751 0 0.035615270762982369 -0.48075404927866472 0 0.048043393468649283 -0.46676160836513853 0 0.037578644878161642 -0.47722784136646751 0 0.046296380844488463 -0.47463440362945558 0 0.035615270762982369 -0.48075404927866472 0 0.046296380844488463 -0.47463440362945558 0 0.049693011087844949 -0.4756354888466594 0 0.037578644878161642 -0.47722784136646751 0 0.035615270762982369 -0.48075404927866472 0 0.046296380844488463 -0.47463440362945558 0 0.057068655694905858 -0.46015288389510001 0 0.052635520687858477 -0.47072247146996382 0 0.05849497948899289 -0.47642287528831911 0 0.035615270762982369 -0.48075404927866472 0 0.049693011087844949 -0.4756354888466594 0 0.05849497948899289 -0.47642287528831911 0 0.035615270762982369 -0.48075404927866472 0 0.05849497948899289 -0.47642287528831911 0 0.048043393468649283 -0.46676160836513853 0 0.046296380844488463 -0.47463440362945558 0 0.052635520687858477 -0.47072247146996382 0 0.049693011087844949 -0.4756354888466594 0 0.052635520687858477 -0.47072247146996382 0 0.05849497948899289 -0.47642287528831911 0 0.046296380844488463 -0.47463440362945558 0 0.049693011087844949 -0.4756354888466594 0 0.052635520687858477 -0.47072247146996382 0 0.05849497948899289 -0.47642287528831911 0 0.061758178687080389 -0.47580514524370598 0 0.062670741706174135 -0.48944359682069549 0 0.064881374578912687 -0.4815757870058418 0 0.05849497948899289 -0.47642287528831911 0 0.064881374578912687 -0.4815757870058418 0 0.05849497948899289 -0.47642287528831911 0 0.061758178687080389 -0.47580514524370598 0 0.069142552082564368 -0.5 0 0.062670741706174135 -0.48944359682069549 0 0.047534790768153173 -0.50000000000000044 0 0.05849497948899289 -0.47642287528831911 0 0.047534790768153173 -0.50000000000000044 0 0.035615270762982369 -0.48075404927866472 0 0.05849497948899289 -0.47642287528831911 0 0.047534790768153173 -0.50000000000000044 0 0.062670741706174135 -0.48944359682069549 0 0.05849497948899289 -0.47642287528831911 0 0.047534790768153173 -0.50000000000000044 0 0.089727975817252392 -0.29646224842349211 0 0.069967983226982527 -0.30495776272600778 0 0.075483032258224086 -0.28815868119130272 0 0.089727975817252392 -0.29646224842349211 0 0.088503230311337153 -0.27716835087377989 0 0.101883582619993 -0.28460947857741209 0 0.089727975817252392 -0.29646224842349211 0 0.075483032258224086 -0.28815868119130272 0 0.088503230311337153 -0.27716835087377989 0 0.089727975817252392 -0.29646224842349211 0 0.086214248119208581 -0.31193359067875348 0 0.069967983226982527 -0.30495776272600778 0 0.089727975817252392 -0.29646224842349211 0 0.086214248119208581 -0.31193359067875348 0 0.10049372866807189 -0.31082656242210721 0 0.069967983226982527 -0.30495776272600778 0 0.075483032258224086 -0.28815868119130272 0 0.059449054433483903 -0.28956707473318272 0 0.075483032258224086 -0.28815868119130272 0 0.0646939085167762 -0.2722383315448984 0 0.059449054433483903 -0.28956707473318272 0 0.0646939085167762 -0.2722383315448984 0 0.077350866508299074 -0.27549126298099152 0 0.080723294946858856 -0.26439968831398508 0 0.075483032258224086 -0.28815868119130272 0 0.0646939085167762 -0.2722383315448984 0 0.077350866508299074 -0.27549126298099152 0 0.0646939085167762 -0.2722383315448984 0 0.070005134957367529 -0.25889031236374099 0 0.080723294946858856 -0.26439968831398508 0 0.070005134957367529 -0.25889031236374099 0 0.061490933840310687 -0.25382890142296882 0 0.070069103552599196 -0.24823964670048029 0 0.0646939085167762 -0.2722383315448984 0 0.070005134957367529 -0.25889031236374099 0 0.060614126731859473 -0.2624009925450973 0 0.070005134957367529 -0.25889031236374099 0 0.061490933840310687 -0.25382890142296882 0 0.060614126731859473 -0.2624009925450973 0 0.070005134957367529 -0.25889031236374099 0 0.080071368274292315 -0.25145738896057979 0 0.080723294946858856 -0.26439968831398508 0 0.070005134957367529 -0.25889031236374099 0 0.080071368274292315 -0.25145738896057979 0 0.070069103552599196 -0.24823964670048029 0 0.080071368274292315 -0.25145738896057979 0 0.080723294946858856 -0.26439968831398508 0 0.090706365013478091 -0.25245448435890872 0 0.080723294946858856 -0.26439968831398508 0 0.090706365013478091 -0.25245448435890872 0 0.095060577752172304 -0.26241188567384149 0 0.075483032258224086 -0.28815868119130272 0 0.077350866508299074 -0.27549126298099152 0 0.088503230311337153 -0.27716835087377989 0 0.077350866508299074 -0.27549126298099152 0 0.080723294946858856 -0.26439968831398508 0 0.088503230311337153 -0.27716835087377989 0 0.080723294946858856 -0.26439968831398508 0 0.088503230311337153 -0.27716835087377989 0 0.095060577752172304 -0.26241188567384149 0 0.088503230311337153 -0.27716835087377989 0 0.1016952336099234 -0.27235330725820578 0 0.101883582619993 -0.28460947857741209 0 0.088503230311337153 -0.27716835087377989 0 0.1016952336099234 -0.27235330725820578 0 0.095060577752172304 -0.26241188567384149 0 0.1016952336099234 -0.27235330725820578 0 0.1104739380917857 -0.2612093749811526 0 0.1125548392743288 -0.27636744618484282 0 0.1016952336099234 -0.27235330725820578 0 0.1125548392743288 -0.27636744618484282 0 0.101883582619993 -0.28460947857741209 0 0.090706365013478091 -0.25245448435890872 0 0.099550463170151926 -0.25262580003909579 0 0.095060577752172304 -0.26241188567384149 0 0.1016952336099234 -0.27235330725820578 0 0.095060577752172304 -0.26241188567384149 0 0.1104739380917857 -0.2612093749811526 0 0.099550463170151926 -0.25262580003909579 0 0.095060577752172304 -0.26241188567384149 0 0.1104739380917857 -0.2612093749811526 0 0.099550463170151926 -0.25262580003909579 0 0.1104739380917857 -0.2612093749811526 0 0.1078238037173969 -0.24832262031645649 0 0.1311170075682456 -0.27142576198599933 0 0.1104739380917857 -0.2612093749811526 0 0.1212054647883809 -0.25073068226796852 0 0.1104739380917857 -0.2612093749811526 0 0.1212054647883809 -0.25073068226796852 0 0.1078238037173969 -0.24832262031645649 0 0.1311170075682456 -0.27142576198599933 0 0.1104739380917857 -0.2612093749811526 0 0.1311170075682456 -0.27142576198599933 0 0.1104739380917857 -0.2612093749811526 0 0.1193620271946058 -0.27249351692823448 0 0.1104739380917857 -0.2612093749811526 0 0.1125548392743288 -0.27636744618484282 0 0.1193620271946058 -0.27249351692823448 0 0.1125548392743288 -0.27636744618484282 0 0.1193620271946058 -0.27249351692823448 0 0.1233023238440631 -0.28097148456094378 0 0.1311170075682456 -0.27142576198599933 0 0.1193620271946058 -0.27249351692823448 0 0.1233023238440631 -0.28097148456094378 0 0.1233023238440631 -0.28097148456094378 0 0.1242383748246253 -0.29131174999725179 0 0.1141297936923768 -0.28878453930630188 0 0.1242383748246253 -0.29131174999725179 0 0.1141297936923768 -0.28878453930630188 0 0.1198701537204314 -0.30089140532399938 0 0.1141297936923768 -0.28878453930630188 0 0.10622170970645189 -0.29895353846799488 0 0.1198701537204314 -0.30089140532399938 0 0.1125548392743288 -0.27636744618484282 0 0.1233023238440631 -0.28097148456094378 0 0.1141297936923768 -0.28878453930630188 0 0.1125548392743288 -0.27636744618484282 0 0.1141297936923768 -0.28878453930630188 0 0.101883582619993 -0.28460947857741209 0 0.089727975817252392 -0.29646224842349211 0 0.101883582619993 -0.28460947857741209 0 0.10622170970645189 -0.29895353846799488 0 0.1141297936923768 -0.28878453930630188 0 0.101883582619993 -0.28460947857741209 0 0.10622170970645189 -0.29895353846799488 0 0.089727975817252392 -0.29646224842349211 0 0.10049372866807189 -0.31082656242210721 0 0.10622170970645189 -0.29895353846799488 0 0.10049372866807189 -0.31082656242210721 0 0.10622170970645189 -0.29895353846799488 0 0.1134387524627216 -0.31086840579325631 0 0.10622170970645189 -0.29895353846799488 0 0.1134387524627216 -0.31086840579325631 0 0.1198701537204314 -0.30089140532399938 0 0.1265219532001009 -0.3124330460259736 0 0.1134387524627216 -0.31086840579325631 0 0.1198701537204314 -0.30089140532399938 0 0.1265219532001009 -0.3124330460259736 0 0.1134387524627216 -0.31086840579325631 0 0.1192961391526948 -0.32261879728377291 0 0.1134387524627216 -0.31086840579325631 0 0.1192961391526948 -0.32261879728377291 0 0.1082288303285789 -0.31948708523568958 0 0.1192961391526948 -0.32261879728377291 0 0.1093748658769356 -0.32997486192450581 0 0.1082288303285789 -0.31948708523568958 0 0.1192961391526948 -0.32261879728377291 0 0.1168506625355451 -0.3296807312869221 0 0.1093748658769356 -0.32997486192450581 0 0.1192961391526948 -0.32261879728377291 0 0.12260601330919629 -0.33072698382653798 0 0.1168506625355451 -0.3296807312869221 0 0.13219802669416811 -0.32498852212276208 0 0.1192961391526948 -0.32261879728377291 0 0.12260601330919629 -0.33072698382653798 0 0.13051916655351839 -0.33696304048325831 0 0.12260601330919629 -0.33072698382653798 0 0.1159240811174677 -0.33775964177068091 0 0.12260601330919629 -0.33072698382653798 0 0.1159240811174677 -0.33775964177068091 0 0.1161256318033537 -0.33540228211287182 0 0.12260601330919629 -0.33072698382653798 0 0.1168506625355451 -0.3296807312869221 0 0.1161256318033537 -0.33540228211287182 0 0.13051916655351839 -0.33696304048325831 0 0.1159240811174677 -0.33775964177068091 0 0.13051916655351839 -0.33696304048325831 0 0.1159240811174677 -0.33775964177068091 0 0.123981461538115 -0.35128285539313481 0 0.1159240811174677 -0.33775964177068091 0 0.1161256318033537 -0.33540228211287182 0 0.1168506625355451 -0.3296807312869221 0 0.1161256318033537 -0.33540228211287182 0 0.1093748658769356 -0.32997486192450581 0 0.1159240811174677 -0.33775964177068091 0 0.1161256318033537 -0.33540228211287182 0 0.1093748658769356 -0.32997486192450581 0 0.1159240811174677 -0.33775964177068091 0 0.092335912071574502 -0.33904708650077298 0 0.1159240811174677 -0.33775964177068091 0 0.1093748658769356 -0.32997486192450581 0 0.092335912071574502 -0.33904708650077298 0 0.1093748658769356 -0.32997486192450581 0 0.096347407600029022 -0.32440529872184809 0 0.092335912071574502 -0.33904708650077298 0 0.1159240811174677 -0.33775964177068091 0 0.10211321446004019 -0.35101158716873732 0 0.092335912071574502 -0.33904708650077298 0 0.086214248119208581 -0.31193359067875348 0 0.10049372866807189 -0.31082656242210721 0 0.096347407600029022 -0.32440529872184809 0 0.10049372866807189 -0.31082656242210721 0 0.1134387524627216 -0.31086840579325631 0 0.1082288303285789 -0.31948708523568958 0 0.10049372866807189 -0.31082656242210721 0 0.096347407600029022 -0.32440529872184809 0 0.1082288303285789 -0.31948708523568958 0 0.1093748658769356 -0.32997486192450581 0 0.096347407600029022 -0.32440529872184809 0 0.1082288303285789 -0.31948708523568958 0 0.12784456261830821 -0.36308533366748658 0 0.12609635470998201 -0.38402791619100712 0 0.113745377556003 -0.36324200547299851 0 0.1159240811174677 -0.33775964177068091 0 0.113745377556003 -0.36324200547299851 0 0.123981461538115 -0.35128285539313481 0 0.1159240811174677 -0.33775964177068091 0 0.113745377556003 -0.36324200547299851 0 0.1159240811174677 -0.33775964177068091 0 0.113745377556003 -0.36324200547299851 0 0.10211321446004019 -0.35101158716873732 0 0.12784456261830821 -0.36308533366748658 0 0.113745377556003 -0.36324200547299851 0 0.123981461538115 -0.35128285539313481 0 0.1115666739945345 -0.38872436917531578 0 0.113745377556003 -0.36324200547299851 0 0.096372132326470572 -0.36542491223168638 0 0.113745377556003 -0.36324200547299851 0 0.10211321446004019 -0.35101158716873732 0 0.096372132326470572 -0.36542491223168638 0 0.089853218628298884 -0.38394717958202601 0 0.096372132326470572 -0.36542491223168638 0 0.07582030708563034 -0.37256671738353597 0 0.096372132326470572 -0.36542491223168638 0 0.082110249222110576 -0.35466523699539548 0 0.07582030708563034 -0.37256671738353597 0 0.10211321446004019 -0.35101158716873732 0 0.096372132326470572 -0.36542491223168638 0 0.082110249222110576 -0.35466523699539548 0 0.082110249222110576 -0.35466523699539548 0 0.092335912071574502 -0.33904708650077298 0 0.068747743025681235 -0.34033453123086538 0 0.10211321446004019 -0.35101158716873732 0 0.082110249222110576 -0.35466523699539548 0 0.092335912071574502 -0.33904708650077298 0 0.082110249222110576 -0.35466523699539548 0 0.068747743025681235 -0.34033453123086538 0 0.057272186363266697 -0.35960658745677498 0 0.082110249222110576 -0.35466523699539548 0 0.07582030708563034 -0.37256671738353597 0 0.057272186363266697 -0.35960658745677498 0 0.05933500968155693 -0.37671477575793533 0 0.07582030708563034 -0.37256671738353597 0 0.057272186363266697 -0.35960658745677498 0 0.086214248119208581 -0.31193359067875348 0 0.096347407600029022 -0.32440529872184809 0 0.078030795921920637 -0.32434601069550512 0 0.092335912071574502 -0.33904708650077298 0 0.068747743025681235 -0.34033453123086538 0 0.078030795921920637 -0.32434601069550512 0 0.092335912071574502 -0.33904708650077298 0 0.068747743025681235 -0.34033453123086538 0 0.096347407600029022 -0.32440529872184809 0 0.092335912071574502 -0.33904708650077298 0 0.078030795921920637 -0.32434601069550512 0 0.068747743025681235 -0.34033453123086538 0 0.078030795921920637 -0.32434601069550512 0 0.053863538987460123 -0.3232816795844588 0 0.069967983226982527 -0.30495776272600778 0 0.078030795921920637 -0.32434601069550512 0 0.053863538987460123 -0.3232816795844588 0 0.086214248119208581 -0.31193359067875348 0 0.069967983226982527 -0.30495776272600778 0 0.078030795921920637 -0.32434601069550512 0 0.068747743025681235 -0.34033453123086538 0 0.045159573979787898 -0.34162197596095778 0 0.068747743025681235 -0.34033453123086538 0 0.053863538987460123 -0.3232816795844588 0 0.045159573979787898 -0.34162197596095778 0 0.053863538987460123 -0.3232816795844588 0 0.034832013842728909 -0.33032259781876938 0 0.045159573979787898 -0.34162197596095778 0 0.034832013842728909 -0.33032259781876938 0 0.045159573979787898 -0.34162197596095778 0 0.02157140493389462 -0.34290942069105018 0 0.045159573979787898 -0.34162197596095778 0 0.02157140493389462 -0.34290942069105018 0 0.053863538987460123 -0.3232816795844588 0 0.034832013842728909 -0.33032259781876938 0 0.03621734991660093 -0.31670946998547028 0 0.053863538987460123 -0.3232816795844588 0 0.03621734991660093 -0.31670946998547028 0 0.048768037075517537 -0.30442990221103089 0 0.05933500968155693 -0.37671477575793533 0 0.057272186363266697 -0.35960658745677498 0 0.039079294002052851 -0.37065651216905859 0 0.068747743025681235 -0.34033453123086538 0 0.045159573979787898 -0.34162197596095778 0 0.057272186363266697 -0.35960658745677498 0 0.045159573979787898 -0.34162197596095778 0 0.034512899630155462 -0.3545258348651717 0 0.02157140493389462 -0.34290942069105018 0 0.045159573979787898 -0.34162197596095778 0 0.057272186363266697 -0.35960658745677498 0 0.034512899630155462 -0.3545258348651717 0 0.057272186363266697 -0.35960658745677498 0 0.034512899630155462 -0.3545258348651717 0 0.039079294002052851 -0.37065651216905859 0 0.025542853711361019 -0.38384675294920401 0 0.039079294002052851 -0.37065651216905859 0 0.016784443680880379 -0.36713146693108112 0 0.034512899630155462 -0.3545258348651717 0 0.039079294002052851 -0.37065651216905859 0 0.016784443680880379 -0.36713146693108112 0 0.034512899630155462 -0.3545258348651717 0 0.016784443680880379 -0.36713146693108112 0 0.02157140493389462 -0.34290942069105018 0 -0.0043130761299947744 -0.35643483176966217 0 0.016784443680880379 -0.36713146693108112 0 0.02157140493389462 -0.34290942069105018 0 -0.0038616663111063101 -0.33241552487502413 0 -0.0043130761299947744 -0.35643483176966217 0 0.02157140493389462 -0.34290942069105018 0 -0.0043130761299947744 -0.35643483176966217 0 -0.0064694903547723136 -0.38059021958606692 0 0.016784443680880379 -0.36713146693108112 0 0.03621734991660093 -0.31670946998547028 0 0.020048637459846991 -0.32439583124448262 0 0.029165048793799431 -0.30349547286963757 0 0.034832013842728909 -0.33032259781876938 0 0.03621734991660093 -0.31670946998547028 0 0.020048637459846991 -0.32439583124448262 0 0.020048637459846991 -0.32439583124448262 0 0.0094652366165251054 -0.31053241408104548 0 0.029165048793799431 -0.30349547286963757 0 0.034832013842728909 -0.33032259781876938 0 0.020048637459846991 -0.32439583124448262 0 0.02157140493389462 -0.34290942069105018 0 -0.0038616663111063101 -0.33241552487502413 0 0.020048637459846991 -0.32439583124448262 0 0.02157140493389462 -0.34290942069105018 0 -0.0038616663111063101 -0.33241552487502413 0 0.020048637459846991 -0.32439583124448262 0 0.0094652366165251054 -0.31053241408104548 0 -0.01007927323019326 -0.3103345258507364 0 0.0094652366165251054 -0.31053241408104548 0 0.0017563221397047381 -0.2997067901486577 0 0.0094652366165251054 -0.31053241408104548 0 0.0017563221397047381 -0.2997067901486577 0 0.017453688627786131 -0.29322190620108468 0 0.0017563221397047381 -0.2997067901486577 0 0.0066437179820165657 -0.2861171845936395 0 0.017453688627786131 -0.29322190620108468 0 -0.0080748459131490501 -0.2914060437848453 0 0.0017563221397047381 -0.2997067901486577 0 0.0066437179820165657 -0.2861171845936395 0 0.0066437179820165657 -0.2861171845936395 0 0.017453688627786131 -0.29322190620108468 0 0.01908241754038794 -0.28073467218482329 0 0.017453688627786131 -0.29322190620108468 0 0.029398966714908509 -0.28692964748338379 0 0.029165048793799431 -0.30349547286963757 0 0.017453688627786131 -0.29322190620108468 0 0.029398966714908509 -0.28692964748338379 0 0.01908241754038794 -0.28073467218482329 0 0.0094652366165251054 -0.31053241408104548 0 0.017453688627786131 -0.29322190620108468 0 0.029165048793799431 -0.30349547286963757 0 0.03621734991660093 -0.31670946998547028 0 0.029165048793799431 -0.30349547286963757 0 0.048768037075517537 -0.30442990221103089 0 0.029165048793799431 -0.30349547286963757 0 0.043029943860180789 -0.28970337243015992 0 0.048768037075517537 -0.30442990221103089 0 0.029398966714908509 -0.28692964748338379 0 0.029165048793799431 -0.30349547286963757 0 0.043029943860180789 -0.28970337243015992 0 0.029398966714908509 -0.28692964748338379 0 0.043029943860180789 -0.28970337243015992 0 0.038396769586432553 -0.27977596087564799 0 0.043029943860180789 -0.28970337243015992 0 0.051749435803858171 -0.27840569125857739 0 0.038396769586432553 -0.27977596087564799 0 0.043029943860180789 -0.28970337243015992 0 0.059449054433483903 -0.28956707473318272 0 0.051749435803858171 -0.27840569125857739 0 0.043029943860180789 -0.28970337243015992 0 0.059449054433483903 -0.28956707473318272 0 0.048768037075517537 -0.30442990221103089 0 0.069967983226982527 -0.30495776272600778 0 0.059449054433483903 -0.28956707473318272 0 0.048768037075517537 -0.30442990221103089 0 0.069967983226982527 -0.30495776272600778 0 0.053863538987460123 -0.3232816795844588 0 0.048768037075517537 -0.30442990221103089 0 0.053380735395516472 -0.25867595766617779 0 0.04428054005230446 -0.26275141268032309 0 0.045372505498807933 -0.25408090721008542 0 0.053380735395516472 -0.25867595766617779 0 0.053158010572478251 -0.26777612517812432 0 0.04428054005230446 -0.26275141268032309 0 0.053380735395516472 -0.25867595766617779 0 0.045372505498807933 -0.25408090721008542 0 0.05268811686830014 -0.24901610311096159 0 0.053380735395516472 -0.25867595766617779 0 0.061490933840310687 -0.25382890142296882 0 0.05268811686830014 -0.24901610311096159 0 0.053380735395516472 -0.25867595766617779 0 0.060614126731859473 -0.2624009925450973 0 0.053158010572478251 -0.26777612517812432 0 0.053380735395516472 -0.25867595766617779 0 0.061490933840310687 -0.25382890142296882 0 0.060614126731859473 -0.2624009925450973 0 0.0646939085167762 -0.2722383315448984 0 0.060614126731859473 -0.2624009925450973 0 0.053158010572478251 -0.26777612517812432 0 0.0646939085167762 -0.2722383315448984 0 0.059449054433483903 -0.28956707473318272 0 0.051749435803858171 -0.27840569125857739 0 0.0646939085167762 -0.2722383315448984 0 0.051749435803858171 -0.27840569125857739 0 0.053158010572478251 -0.26777612517812432 0 0.053158010572478251 -0.26777612517812432 0 0.044229316934554799 -0.27218436537367241 0 0.04428054005230446 -0.26275141268032309 0 0.051749435803858171 -0.27840569125857739 0 0.053158010572478251 -0.26777612517812432 0 0.044229316934554799 -0.27218436537367241 0 0.044229316934554799 -0.27218436537367241 0 0.031885251388666561 -0.26470215361104171 0 0.04428054005230446 -0.26275141268032309 0 0.051749435803858171 -0.27840569125857739 0 0.044229316934554799 -0.27218436537367241 0 0.038396769586432553 -0.27977596087564799 0 0.044229316934554799 -0.27218436537367241 0 0.038396769586432553 -0.27977596087564799 0 0.029696712261103771 -0.27487286106778819 0 0.029398966714908509 -0.28692964748338379 0 0.038396769586432553 -0.27977596087564799 0 0.029696712261103771 -0.27487286106778819 0 0.044229316934554799 -0.27218436537367241 0 0.031885251388666561 -0.26470215361104171 0 0.029696712261103771 -0.27487286106778819 0 0.037315510146954597 -0.25849363249326118 0 0.031885251388666561 -0.26470215361104171 0 0.04428054005230446 -0.26275141268032309 0 0.037315510146954597 -0.25849363249326118 0 0.031885251388666561 -0.26470215361104171 0 0.03069464768829987 -0.25176037071845259 0 0.037315510146954597 -0.25849363249326118 0 0.04428054005230446 -0.26275141268032309 0 0.045372505498807933 -0.25408090721008542 0 0.045372505498807933 -0.25408090721008542 0 0.03069464768829987 -0.25176037071845259 0 0.042588116356466379 -0.2448823624008481 0 0.037315510146954597 -0.25849363249326118 0 0.045372505498807933 -0.25408090721008542 0 0.03069464768829987 -0.25176037071845259 0 0.031885251388666561 -0.26470215361104171 0 0.021199614426200629 -0.26114166245967918 0 0.019908913466960752 -0.27058631964059482 0 0.031885251388666561 -0.26470215361104171 0 0.03069464768829987 -0.25176037071845259 0 0.021199614426200629 -0.26114166245967918 0 0.03069464768829987 -0.25176037071845259 0 0.021199614426200629 -0.26114166245967918 0 0.016145176335298529 -0.25210595968411048 0 0.029398966714908509 -0.28692964748338379 0 0.029696712261103771 -0.27487286106778819 0 0.01908241754038794 -0.28073467218482329 0 0.031885251388666561 -0.26470215361104171 0 0.029696712261103771 -0.27487286106778819 0 0.019908913466960752 -0.27058631964059482 0 0.019908913466960752 -0.27058631964059482 0 0.01908241754038794 -0.28073467218482329 0 0.01128192931255503 -0.27464126756021451 0 0.029696712261103771 -0.27487286106778819 0 0.019908913466960752 -0.27058631964059482 0 0.01908241754038794 -0.28073467218482329 0 -0.01145854626600548 -0.26602311564559261 0 0.01128192931255503 -0.27464126756021451 0 0.0057158633005241696 -0.26337829885565528 0 0.0066437179820165657 -0.2861171845936395 0 0.01908241754038794 -0.28073467218482329 0 0.01128192931255503 -0.27464126756021451 0 0.019908913466960752 -0.27058631964059482 0 0.01128192931255503 -0.27464126756021451 0 0.0057158633005241696 -0.26337829885565528 0 -0.002848760243290064 -0.27761611820401882 0 0.0066437179820165657 -0.2861171845936395 0 0.01128192931255503 -0.27464126756021451 0 0.016145176335298529 -0.25210595968411048 0 0.0057158633005241696 -0.26337829885565528 0 0.0054759062840018038 -0.25064707341720888 0 0.021199614426200629 -0.26114166245967918 0 0.019908913466960752 -0.27058631964059482 0 0.0057158633005241696 -0.26337829885565528 0 0.021199614426200629 -0.26114166245967918 0 0.016145176335298529 -0.25210595968411048 0 0.0057158633005241696 -0.26337829885565528 0 -0.0009620894167222515 -0.25496392916579452 0 0.0057158633005241696 -0.26337829885565528 0 0.0054759062840018038 -0.25064707341720888 0 -0.0009620894167222515 -0.25496392916579452 0 -0.0029313858115674811 -0.24854412401401971 0 0.0054759062840018038 -0.25064707341720888 0 0.0054759062840018038 -0.25064707341720888 0 0.0026199421412959989 -0.2430643023623929 0 0.011589873569895199 -0.24127835128668559 0 -0.0029313858115674811 -0.24854412401401971 0 0.0054759062840018038 -0.25064707341720888 0 0.0026199421412959989 -0.2430643023623929 0 0.016145176335298529 -0.25210595968411048 0 0.0054759062840018038 -0.25064707341720888 0 0.011589873569895199 -0.24127835128668559 0 0.011589873569895199 -0.24127835128668559 0 0.010668172172219499 -0.2272828987723072 0 0.020574075722817331 -0.2351284197632682 0 0.0026199421412959989 -0.2430643023623929 0 0.011589873569895199 -0.24127835128668559 0 0.0017465435191736189 -0.23378549097037141 0 -0.00080535468136348092 -0.21995366459000901 0 0.010668172172219499 -0.2272828987723072 0 0.01016515501406726 -0.20926501301563591 0 -0.00080535468136348092 -0.21995366459000901 0 0.0017465435191736189 -0.23378549097037141 0 0.010668172172219499 -0.2272828987723072 0 0.010668172172219499 -0.2272828987723072 0 0.02170661161633574 -0.22145314359659171 0 0.01016515501406726 -0.20926501301563591 0 0.011589873569895199 -0.24127835128668559 0 0.0017465435191736189 -0.23378549097037141 0 0.010668172172219499 -0.2272828987723072 0 0.010668172172219499 -0.2272828987723072 0 0.02170661161633574 -0.22145314359659171 0 0.020574075722817331 -0.2351284197632682 0 0.02170661161633574 -0.22145314359659171 0 0.02866695829179056 -0.22960637228307629 0 0.036392787169896093 -0.22322562645731159 0 0.02170661161633574 -0.22145314359659171 0 0.02866695829179056 -0.22960637228307629 0 0.020574075722817331 -0.2351284197632682 0 0.02866695829179056 -0.22960637228307629 0 0.020574075722817331 -0.2351284197632682 0 0.032071787069821417 -0.24054619649286721 0 0.022195152742869501 -0.2444300013669817 0 0.020574075722817331 -0.2351284197632682 0 0.032071787069821417 -0.24054619649286721 0 0.03069464768829987 -0.25176037071845259 0 0.022195152742869501 -0.2444300013669817 0 0.032071787069821417 -0.24054619649286721 0 0.03069464768829987 -0.25176037071845259 0 0.016145176335298529 -0.25210595968411048 0 0.022195152742869501 -0.2444300013669817 0 0.016145176335298529 -0.25210595968411048 0 0.011589873569895199 -0.24127835128668559 0 0.022195152742869501 -0.2444300013669817 0 0.011589873569895199 -0.24127835128668559 0 0.022195152742869501 -0.2444300013669817 0 0.020574075722817331 -0.2351284197632682 0 -0.003739977245034012 -0.19168309442994089 0 0.010514116253606281 -0.1925853606064957 0 0.01016515501406726 -0.20926501301563591 0 0.010514116253606281 -0.1925853606064957 0 0.01016515501406726 -0.20926501301563591 0 0.018596641755985681 -0.20049862993462389 0 0.02170661161633574 -0.22145314359659171 0 0.01016515501406726 -0.20926501301563591 0 0.028304225500431591 -0.20785134554231141 0 0.01016515501406726 -0.20926501301563591 0 0.028304225500431591 -0.20785134554231141 0 0.018596641755985681 -0.20049862993462389 0 0.02170661161633574 -0.22145314359659171 0 0.028304225500431591 -0.20785134554231141 0 0.036392787169896093 -0.22322562645731159 0 0.028304225500431591 -0.20785134554231141 0 0.018596641755985681 -0.20049862993462389 0 0.02540307025583758 -0.19229280057405279 0 0.010514116253606281 -0.1925853606064957 0 0.018596641755985681 -0.20049862993462389 0 0.02540307025583758 -0.19229280057405279 0 0.010514116253606281 -0.1925853606064957 0 0.02540307025583758 -0.19229280057405279 0 0.015764016274472759 -0.1812646672695073 0 0.02540307025583758 -0.19229280057405279 0 0.041440672425083092 -0.19607701236864419 0 0.030421272951226121 -0.1778391783376792 0 0.028304225500431591 -0.20785134554231141 0 0.02540307025583758 -0.19229280057405279 0 0.041440672425083092 -0.19607701236864419 0 0.041440672425083092 -0.19607701236864419 0 0.042310424588804782 -0.2140630995529598 0 0.055497750511994078 -0.2086068857692274 0 0.028304225500431591 -0.20785134554231141 0 0.041440672425083092 -0.19607701236864419 0 0.042310424588804782 -0.2140630995529598 0 0.028304225500431591 -0.20785134554231141 0 0.042310424588804782 -0.2140630995529598 0 0.036392787169896093 -0.22322562645731159 0 0.042310424588804782 -0.2140630995529598 0 0.055497750511994078 -0.2086068857692274 0 0.052955454276687589 -0.2198291654371925 0 0.062338921595789062 -0.21792006704763969 0 0.055497750511994078 -0.2086068857692274 0 0.052955454276687589 -0.2198291654371925 0 0.062338921595789062 -0.21792006704763969 0 0.055497750511994078 -0.2086068857692274 0 0.067863046951983474 -0.20503048868511209 0 0.055497750511994078 -0.2086068857692274 0 0.056257937900538298 -0.19577788601322099 0 0.067863046951983474 -0.20503048868511209 0 0.041440672425083092 -0.19607701236864419 0 0.056257937900538298 -0.19577788601322099 0 0.051449240160577621 -0.1762857105508405 0 0.041440672425083092 -0.19607701236864419 0 0.055497750511994078 -0.2086068857692274 0 0.056257937900538298 -0.19577788601322099 0 0.040491861427302538 -0.2355872617630255 0 0.042588116356466379 -0.2448823624008481 0 0.052307832003780613 -0.23884346229351339 0 0.040491861427302538 -0.2355872617630255 0 0.045866106706223042 -0.22907627795895011 0 0.052307832003780613 -0.23884346229351339 0 0.03069464768829987 -0.25176037071845259 0 0.042588116356466379 -0.2448823624008481 0 0.032071787069821417 -0.24054619649286721 0 0.040491861427302538 -0.2355872617630255 0 0.042588116356466379 -0.2448823624008481 0 0.032071787069821417 -0.24054619649286721 0 0.02866695829179056 -0.22960637228307629 0 0.040491861427302538 -0.2355872617630255 0 0.032071787069821417 -0.24054619649286721 0 0.02866695829179056 -0.22960637228307629 0 0.040491861427302538 -0.2355872617630255 0 0.036392787169896093 -0.22322562645731159 0 0.042310424588804782 -0.2140630995529598 0 0.036392787169896093 -0.22322562645731159 0 0.045866106706223042 -0.22907627795895011 0 0.040491861427302538 -0.2355872617630255 0 0.036392787169896093 -0.22322562645731159 0 0.045866106706223042 -0.22907627795895011 0 0.045866106706223042 -0.22907627795895011 0 0.058764067980626958 -0.22947949685718549 0 0.052307832003780613 -0.23884346229351339 0 0.045866106706223042 -0.22907627795895011 0 0.052955454276687589 -0.2198291654371925 0 0.058764067980626958 -0.22947949685718549 0 0.042310424588804782 -0.2140630995529598 0 0.045866106706223042 -0.22907627795895011 0 0.052955454276687589 -0.2198291654371925 0 0.062338921595789062 -0.21792006704763969 0 0.058764067980626958 -0.22947949685718549 0 0.065719467571416057 -0.22489822263154319 0 0.062338921595789062 -0.21792006704763969 0 0.052955454276687589 -0.2198291654371925 0 0.058764067980626958 -0.22947949685718549 0 0.058764067980626958 -0.22947949685718549 0 0.062159259289524899 -0.2368834247622158 0 0.052307832003780613 -0.23884346229351339 0 0.062159259289524899 -0.2368834247622158 0 0.052307832003780613 -0.23884346229351339 0 0.061229972926465738 -0.2445427902389527 0 0.045372505498807933 -0.25408090721008542 0 0.042588116356466379 -0.2448823624008481 0 0.05268811686830014 -0.24901610311096159 0 0.042588116356466379 -0.2448823624008481 0 0.052307832003780613 -0.23884346229351339 0 0.05268811686830014 -0.24901610311096159 0 0.061490933840310687 -0.25382890142296882 0 0.05268811686830014 -0.24901610311096159 0 0.061229972926465738 -0.2445427902389527 0 0.052307832003780613 -0.23884346229351339 0 0.05268811686830014 -0.24901610311096159 0 0.061229972926465738 -0.2445427902389527 0 0.061490933840310687 -0.25382890142296882 0 0.061229972926465738 -0.2445427902389527 0 0.070069103552599196 -0.24823964670048029 0 0.061229972926465738 -0.2445427902389527 0 0.070069103552599196 -0.24823964670048029 0 0.069856411684105391 -0.23913895996007839 0 0.062159259289524899 -0.2368834247622158 0 0.061229972926465738 -0.2445427902389527 0 0.069856411684105391 -0.23913895996007839 0 0.062159259289524899 -0.2368834247622158 0 0.069856411684105391 -0.23913895996007839 0 0.067142239376285745 -0.23139328163069281 0 0.069856411684105391 -0.23913895996007839 0 0.077788170153509889 -0.24196191377257101 0 0.076767606518392539 -0.23187249677345001 0 0.080071368274292315 -0.25145738896057979 0 0.070069103552599196 -0.24823964670048029 0 0.077788170153509889 -0.24196191377257101 0 0.070069103552599196 -0.24823964670048029 0 0.069856411684105391 -0.23913895996007839 0 0.077788170153509889 -0.24196191377257101 0 0.080071368274292315 -0.25145738896057979 0 0.090706365013478091 -0.25245448435890872 0 0.085906732882507178 -0.24385162082211831 0 0.080071368274292315 -0.25145738896057979 0 0.077788170153509889 -0.24196191377257101 0 0.085906732882507178 -0.24385162082211831 0 0.077788170153509889 -0.24196191377257101 0 0.085906732882507178 -0.24385162082211831 0 0.083256636250354649 -0.23616880796388259 0 0.077788170153509889 -0.24196191377257101 0 0.083256636250354649 -0.23616880796388259 0 0.076767606518392539 -0.23187249677345001 0 0.085906732882507178 -0.24385162082211831 0 0.089657973372422345 -0.23730775202069579 0 0.094006026236525903 -0.2441335510050745 0 0.085906732882507178 -0.24385162082211831 0 0.083256636250354649 -0.23616880796388259 0 0.089657973372422345 -0.23730775202069579 0 0.083256636250354649 -0.23616880796388259 0 0.089657973372422345 -0.23730775202069579 0 0.089763789457938253 -0.2306791647953326 0 0.089657973372422345 -0.23730775202069579 0 0.089763789457938253 -0.2306791647953326 0 0.096012267649498176 -0.23702186761809721 0 0.089657973372422345 -0.23730775202069579 0 0.094006026236525903 -0.2441335510050745 0 0.096012267649498176 -0.23702186761809721 0 0.090706365013478091 -0.25245448435890872 0 0.085906732882507178 -0.24385162082211831 0 0.094006026236525903 -0.2441335510050745 0 0.086446736705125371 -0.22420087797706609 0 0.091303359373345411 -0.22339335178318359 0 0.089763789457938253 -0.2306791647953326 0 0.086446736705125371 -0.22420087797706609 0 0.091303359373345411 -0.22339335178318359 0 0.086853981468707001 -0.2185547472363609 0 0.091303359373345411 -0.22339335178318359 0 0.086853981468707001 -0.2185547472363609 0 0.09077468002378962 -0.21857675351640271 0 0.091303359373345411 -0.22339335178318359 0 0.09077468002378962 -0.21857675351640271 0 0.094530837428433365 -0.22086489816084981 0 0.091303359373345411 -0.22339335178318359 0 0.089763789457938253 -0.2306791647953326 0 0.098670227838192195 -0.22970514568366851 0 0.086446736705125371 -0.22420087797706609 0 0.089763789457938253 -0.2306791647953326 0 0.083020570332336119 -0.22791650227557511 0 0.083256636250354649 -0.23616880796388259 0 0.083020570332336119 -0.22791650227557511 0 0.076767606518392539 -0.23187249677345001 0 0.083256636250354649 -0.23616880796388259 0 0.089763789457938253 -0.2306791647953326 0 0.083020570332336119 -0.22791650227557511 0 0.083020570332336119 -0.22791650227557511 0 0.077930889523722374 -0.22519622511208121 0 0.076767606518392539 -0.23187249677345001 0 0.083020570332336119 -0.22791650227557511 0 0.081291982893300085 -0.22046062379487821 0 0.077930889523722374 -0.22519622511208121 0 0.086446736705125371 -0.22420087797706609 0 0.083020570332336119 -0.22791650227557511 0 0.081291982893300085 -0.22046062379487821 0 0.086446736705125371 -0.22420087797706609 0 0.081291982893300085 -0.22046062379487821 0 0.086853981468707001 -0.2185547472363609 0 0.081291982893300085 -0.22046062379487821 0 0.077930889523722374 -0.22519622511208121 0 0.073706539318973169 -0.21796036257100029 0 0.072234091795087663 -0.22574485878751241 0 0.065719467571416057 -0.22489822263154319 0 0.073706539318973169 -0.21796036257100029 0 0.077930889523722374 -0.22519622511208121 0 0.072234091795087663 -0.22574485878751241 0 0.073706539318973169 -0.21796036257100029 0 0.069856411684105391 -0.23913895996007839 0 0.076767606518392539 -0.23187249677345001 0 0.067142239376285745 -0.23139328163069281 0 0.072234091795087663 -0.22574485878751241 0 0.076767606518392539 -0.23187249677345001 0 0.067142239376285745 -0.23139328163069281 0 0.077930889523722374 -0.22519622511208121 0 0.072234091795087663 -0.22574485878751241 0 0.076767606518392539 -0.23187249677345001 0 0.058764067980626958 -0.22947949685718549 0 0.062159259289524899 -0.2368834247622158 0 0.067142239376285745 -0.23139328163069281 0 0.058764067980626958 -0.22947949685718549 0 0.067142239376285745 -0.23139328163069281 0 0.065719467571416057 -0.22489822263154319 0 0.072234091795087663 -0.22574485878751241 0 0.067142239376285745 -0.23139328163069281 0 0.065719467571416057 -0.22489822263154319 0 0.062338921595789062 -0.21792006704763969 0 0.065719467571416057 -0.22489822263154319 0 0.073706539318973169 -0.21796036257100029 0 0.062338921595789062 -0.21792006704763969 0 0.067863046951983474 -0.20503048868511209 0 0.073706539318973169 -0.21796036257100029 0 0.067863046951983474 -0.20503048868511209 0 0.073706539318973169 -0.21796036257100029 0 0.079094442607528917 -0.20913243433380641 0 0.067863046951983474 -0.20503048868511209 0 0.081482512553192915 -0.1953056794767786 0 0.079094442607528917 -0.20913243433380641 0 0.056257937900538298 -0.19577788601322099 0 0.067863046951983474 -0.20503048868511209 0 0.066040058368007956 -0.18964665730407451 0 0.067863046951983474 -0.20503048868511209 0 0.066040058368007956 -0.18964665730407451 0 0.081482512553192915 -0.1953056794767786 0 0.081482512553192915 -0.1953056794767786 0 0.095454742848087734 -0.19451486061966669 0 0.093505174579280592 -0.1731787749771625 0 0.081482512553192915 -0.1953056794767786 0 0.08833530696517819 -0.21036332105093219 0 0.095454742848087734 -0.19451486061966669 0 0.08833530696517819 -0.21036332105093219 0 0.097404311116896569 -0.21585094626217091 0 0.095454742848087734 -0.19451486061966669 0 0.081291982893300085 -0.22046062379487821 0 0.073706539318973169 -0.21796036257100029 0 0.082946926161669862 -0.2149195339015407 0 0.082946926161669862 -0.2149195339015407 0 0.079094442607528917 -0.20913243433380641 0 0.08833530696517819 -0.21036332105093219 0 0.073706539318973169 -0.21796036257100029 0 0.082946926161669862 -0.2149195339015407 0 0.079094442607528917 -0.20913243433380641 0 0.081291982893300085 -0.22046062379487821 0 0.082946926161669862 -0.2149195339015407 0 0.086853981468707001 -0.2185547472363609 0 0.081482512553192915 -0.1953056794767786 0 0.079094442607528917 -0.20913243433380641 0 0.08833530696517819 -0.21036332105093219 0 0.082946926161669862 -0.2149195339015407 0 0.08833530696517819 -0.21036332105093219 0 0.086853981468707001 -0.2185547472363609 0 0.08833530696517819 -0.21036332105093219 0 0.086853981468707001 -0.2185547472363609 0 0.09077468002378962 -0.21857675351640271 0 0.08833530696517819 -0.21036332105093219 0 0.09077468002378962 -0.21857675351640271 0 0.092213447725184278 -0.21529843562297729 0 0.08833530696517819 -0.21036332105093219 0 0.092213447725184278 -0.21529843562297729 0 0.097404311116896569 -0.21585094626217091 0 0.09077468002378962 -0.21857675351640271 0 0.094501608789943028 -0.21679829355882299 0 0.094530837428433365 -0.22086489816084981 0 0.09077468002378962 -0.21857675351640271 0 0.092213447725184278 -0.21529843562297729 0 0.094501608789943028 -0.21679829355882299 0 0.094501608789943028 -0.21679829355882299 0 0.097404311116896569 -0.21585094626217091 0 0.094530837428433365 -0.22086489816084981 0 0.092213447725184278 -0.21529843562297729 0 0.094501608789943028 -0.21679829355882299 0 0.097404311116896569 -0.21585094626217091 0 0.097404311116896569 -0.21585094626217091 0 0.095454742848087734 -0.19451486061966669 0 0.097404311116896569 -0.21585094626217091 0 0.1059898830346106 -0.20430933332548051 0 0.095454742848087734 -0.19451486061966669 0 0.097404311116896569 -0.21585094626217091 0 0.1089347031997706 -0.21297733173581901 0 0.1146171121197104 -0.21980430615730401 0 0.097404311116896569 -0.21585094626217091 0 0.1059898830346106 -0.20430933332548051 0 0.1089347031997706 -0.21297733173581901 0 0.095454742848087734 -0.19451486061966669 0 0.1128143282819509 -0.19216489626002589 0 0.10772522460311169 -0.17968171223372481 0 0.1059898830346106 -0.20430933332548051 0 0.095454742848087734 -0.19451486061966669 0 0.1128143282819509 -0.19216489626002589 0 0.1128143282819509 -0.19216489626002589 0 0.1237689835273371 -0.19605207676116951 0 0.1178461100078927 -0.20838697738218431 0 0.1059898830346106 -0.20430933332548051 0 0.1128143282819509 -0.19216489626002589 0 0.1178461100078927 -0.20838697738218431 0 0.1128143282819509 -0.19216489626002589 0 0.1237689835273371 -0.19605207676116951 0 0.1232013989280239 -0.1819146573535104 0 0.1089347031997706 -0.21297733173581901 0 0.1178461100078927 -0.20838697738218431 0 0.1146171121197104 -0.21980430615730401 0 0.1059898830346106 -0.20430933332548051 0 0.1089347031997706 -0.21297733173581901 0 0.1178461100078927 -0.20838697738218431 0 0.1178461100078927 -0.20838697738218431 0 0.1146171121197104 -0.21980430615730401 0 0.12895394136930069 -0.22163642029703709 0 0.1146171121197104 -0.21980430615730401 0 0.12018370186474731 -0.23305432747703519 0 0.12895394136930069 -0.22163642029703709 0 0.097404311116896569 -0.21585094626217091 0 0.1146171121197104 -0.21980430615730401 0 0.12018370186474731 -0.23305432747703519 0 0.1212054647883809 -0.25073068226796852 0 0.12018370186474731 -0.23305432747703519 0 0.1059281586602189 -0.23527494890652931 0 0.13217397618885759 -0.25462043987800831 0 0.1212054647883809 -0.25073068226796852 0 0.12018370186474731 -0.23305432747703519 0 0.1212054647883809 -0.25073068226796852 0 0.1059281586602189 -0.23527494890652931 0 0.1078238037173969 -0.24832262031645649 0 0.1212054647883809 -0.25073068226796852 0 0.1059281586602189 -0.23527494890652931 0 0.099550463170151926 -0.25262580003909579 0 0.1078238037173969 -0.24832262031645649 0 0.10103467245524091 -0.24298905409433241 0 0.1059281586602189 -0.23527494890652931 0 0.1078238037173969 -0.24832262031645649 0 0.10103467245524091 -0.24298905409433241 0 0.099550463170151926 -0.25262580003909579 0 0.10103467245524091 -0.24298905409433241 0 0.094006026236525903 -0.2441335510050745 0 0.090706365013478091 -0.25245448435890872 0 0.099550463170151926 -0.25262580003909579 0 0.094006026236525903 -0.2441335510050745 0 0.1059281586602189 -0.23527494890652931 0 0.10103467245524091 -0.24298905409433241 0 0.096012267649498176 -0.23702186761809721 0 0.10103467245524091 -0.24298905409433241 0 0.094006026236525903 -0.2441335510050745 0 0.096012267649498176 -0.23702186761809721 0 0.1059281586602189 -0.23527494890652931 0 0.096012267649498176 -0.23702186761809721 0 0.098670227838192195 -0.22970514568366851 0 0.089763789457938253 -0.2306791647953326 0 0.096012267649498176 -0.23702186761809721 0 0.098670227838192195 -0.22970514568366851 0 0.097404311116896569 -0.21585094626217091 0 0.12018370186474731 -0.23305432747703519 0 0.097404311116896569 -0.21585094626217091 0 0.12018370186474731 -0.23305432747703519 0 0.1059281586602189 -0.23527494890652931 0 0.097404311116896569 -0.21585094626217091 0 0.1059281586602189 -0.23527494890652931 0 0.098670227838192195 -0.22970514568366851 0 0.091303359373345411 -0.22339335178318359 0 0.098670227838192195 -0.22970514568366851 0 0.094530837428433365 -0.22086489816084981 0 0.097404311116896569 -0.21585094626217091 0 0.098670227838192195 -0.22970514568366851 0 0.094530837428433365 -0.22086489816084981 0 0.097404311116896569 -0.21585094626217091 0 0.098670227838192195 -0.22970514568366851 0 0.1071373084330472 -0.14482826815459701 0 0.1035248479174861 -0.15311019857333261 0 0.098760878024456711 -0.14050656481393209 0 0.1071373084330472 -0.14482826815459701 0 0.1035248479174861 -0.15311019857333261 0 0.1121477659277255 -0.1503271840913511 0 0.1035248479174861 -0.15311019857333261 0 0.098760878024456711 -0.14050656481393209 0 0.091560400862706559 -0.15189516094014111 0 0.098760878024456711 -0.14050656481393209 0 0.099399694252258627 -0.1328638184600745 0 0.089615627146132512 -0.13061154690311971 0 0.099399694252258627 -0.1328638184600745 0 0.099525338641528904 -0.12611341339503321 0 0.089615627146132512 -0.13061154690311971 0 0.099525338641528904 -0.12611341339503321 0 0.1096969331969164 -0.13422374872821319 0 0.1121708616464093 -0.1216807098986791 0 0.099399694252258627 -0.1328638184600745 0 0.099525338641528904 -0.12611341339503321 0 0.1096969331969164 -0.13422374872821319 0 0.098760878024456711 -0.14050656481393209 0 0.099399694252258627 -0.1328638184600745 0 0.1096969331969164 -0.13422374872821319 0 0.1071373084330472 -0.14482826815459701 0 0.098760878024456711 -0.14050656481393209 0 0.1096969331969164 -0.13422374872821319 0 0.1096969331969164 -0.13422374872821319 0 0.1155243526086871 -0.14484298486410191 0 0.12532898621889721 -0.13663811256420449 0 0.1096969331969164 -0.13422374872821319 0 0.11997683785091839 -0.1276371159963853 0 0.12532898621889721 -0.13663811256420449 0 0.1096969331969164 -0.13422374872821319 0 0.11997683785091839 -0.1276371159963853 0 0.1121708616464093 -0.1216807098986791 0 0.1217036921304827 -0.1482443959076799 0 0.1155243526086871 -0.14484298486410191 0 0.12532898621889721 -0.13663811256420449 0 0.1217036921304827 -0.1482443959076799 0 0.1155243526086871 -0.14484298486410191 0 0.1179114041550178 -0.15136128022523329 0 0.1071373084330472 -0.14482826815459701 0 0.1155243526086871 -0.14484298486410191 0 0.1121477659277255 -0.1503271840913511 0 0.1071373084330472 -0.14482826815459701 0 0.1096969331969164 -0.13422374872821319 0 0.1155243526086871 -0.14484298486410191 0 0.1035248479174861 -0.15311019857333261 0 0.1121477659277255 -0.1503271840913511 0 0.1169082366172023 -0.15609331882735419 0 0.1155243526086871 -0.14484298486410191 0 0.1121477659277255 -0.1503271840913511 0 0.1179114041550178 -0.15136128022523329 0 0.1121477659277255 -0.1503271840913511 0 0.1169082366172023 -0.15609331882735419 0 0.1179114041550178 -0.15136128022523329 0 0.1169082366172023 -0.15609331882735419 0 0.1179114041550178 -0.15136128022523329 0 0.12324902196630889 -0.15465793599018671 0 0.1217036921304827 -0.1482443959076799 0 0.1179114041550178 -0.15136128022523329 0 0.12324902196630889 -0.15465793599018671 0 0.1217036921304827 -0.1482443959076799 0 0.12324902196630889 -0.15465793599018671 0 0.12831016946945831 -0.1492440347933528 0 0.1035248479174861 -0.15311019857333261 0 0.12443417021765769 -0.1709717485187108 0 0.1227471198665283 -0.15880086614903269 0 0.12098675462827781 -0.16200852072179159 0 0.1290045142054978 -0.1612372837293575 0 0.1035248479174861 -0.15311019857333261 0 0.12443417021765769 -0.1709717485187108 0 0.12083528946942131 -0.1711597280255607 0 0.1035248479174861 -0.15311019857333261 0 0.12098675462827781 -0.16200852072179159 0 0.12443417021765769 -0.1709717485187108 0 0.1035248479174861 -0.15311019857333261 0 0.1169082366172023 -0.15609331882735419 0 0.12098675462827781 -0.16200852072179159 0 0.1169082366172023 -0.15609331882735419 0 0.1227471198665283 -0.15880086614903269 0 0.12098675462827781 -0.16200852072179159 0 0.1169082366172023 -0.15609331882735419 0 0.12324902196630889 -0.15465793599018671 0 0.1227471198665283 -0.15880086614903269 0 0.12098675462827781 -0.16200852072179159 0 0.12443417021765769 -0.1709717485187108 0 0.12715697753007521 -0.16591248018761531 0 0.1128143282819509 -0.19216489626002589 0 0.1232013989280239 -0.1819146573535104 0 0.1157139550245927 -0.18029465614444529 0 0.12083528946942131 -0.1711597280255607 0 0.1232013989280239 -0.1819146573535104 0 0.1157139550245927 -0.18029465614444529 0 0.12443417021765769 -0.1709717485187108 0 0.12083528946942131 -0.1711597280255607 0 0.1232013989280239 -0.1819146573535104 0 0.12083528946942131 -0.1711597280255607 0 0.1157139550245927 -0.18029465614444529 0 0.10772522460311169 -0.17968171223372481 0 0.1128143282819509 -0.19216489626002589 0 0.1157139550245927 -0.18029465614444529 0 0.10772522460311169 -0.17968171223372481 0 0.095454742848087734 -0.19451486061966669 0 0.10772522460311169 -0.17968171223372481 0 0.093505174579280592 -0.1731787749771625 0 0.12083528946942131 -0.1711597280255607 0 0.093505174579280592 -0.1731787749771625 0 0.095454742848087734 -0.19451486061966669 0 0.093505174579280592 -0.1731787749771625 0 0.12083528946942131 -0.1711597280255607 0 0.10772522460311169 -0.17968171223372481 0 0.093505174579280592 -0.1731787749771625 0 0.1035248479174861 -0.15311019857333261 0 0.093505174579280592 -0.1731787749771625 0 0.091560400862706559 -0.15189516094014111 0 0.1035248479174861 -0.15311019857333261 0 0.12083528946942131 -0.1711597280255607 0 0.093505174579280592 -0.1731787749771625 0 0.078133883947979807 -0.15717501910519549 0 0.093505174579280592 -0.1731787749771625 0 0.091560400862706559 -0.15189516094014111 0 0.078133883947979807 -0.15717501910519549 0 0.093505174579280592 -0.1731787749771625 0 0.072477207369929117 -0.17473224276400179 0 0.093505174579280592 -0.1731787749771625 0 0.091560400862706559 -0.15189516094014111 0 0.081482512553192915 -0.1953056794767786 0 0.093505174579280592 -0.1731787749771625 0 0.072477207369929117 -0.17473224276400179 0 0.093505174579280592 -0.1731787749771625 0 0.072477207369929117 -0.17473224276400179 0 0.066040058368007956 -0.18964665730407451 0 0.072477207369929117 -0.17473224276400179 0 0.051449240160577621 -0.1762857105508405 0 0.066040058368007956 -0.18964665730407451 0 0.081482512553192915 -0.1953056794767786 0 0.072477207369929117 -0.17473224276400179 0 0.078133883947979807 -0.15717501910519549 0 0.072477207369929117 -0.17473224276400179 0 0.063878974636528515 -0.16401540189567099 0 0.072477207369929117 -0.17473224276400179 0 0.063878974636528515 -0.16401540189567099 0 0.051449240160577621 -0.1762857105508405 0 0.078133883947979807 -0.15717501910519549 0 0.063878974636528515 -0.16401540189567099 0 0.06522271263887458 -0.15305574504012881 0 0.06522271263887458 -0.15305574504012881 0 0.069316279952888193 -0.14186668388360371 0 0.075278834721760557 -0.14616760919767161 0 0.06522271263887458 -0.15305574504012881 0 0.069316279952888193 -0.14186668388360371 0 0.05757515479497001 -0.1486962131740798 0 0.069316279952888193 -0.14186668388360371 0 0.075278834721760557 -0.14616760919767161 0 0.079765110473415279 -0.13788087003968491 0 0.078133883947979807 -0.15717501910519549 0 0.06522271263887458 -0.15305574504012881 0 0.075278834721760557 -0.14616760919767161 0 0.098760878024456711 -0.14050656481393209 0 0.091560400862706559 -0.15189516094014111 0 0.089615627146132512 -0.13061154690311971 0 0.078133883947979807 -0.15717501910519549 0 0.083611330147541921 -0.14459745320402559 0 0.091560400862706559 -0.15189516094014111 0 0.091560400862706559 -0.15189516094014111 0 0.089615627146132512 -0.13061154690311971 0 0.078133883947979807 -0.15717501910519549 0 0.075278834721760557 -0.14616760919767161 0 0.083611330147541921 -0.14459745320402559 0 0.083611330147541921 -0.14459745320402559 0 0.091560400862706559 -0.15189516094014111 0 0.089615627146132512 -0.13061154690311971 0 0.075278834721760557 -0.14616760919767161 0 0.083611330147541921 -0.14459745320402559 0 0.079765110473415279 -0.13788087003968491 0 0.099525338641528904 -0.12611341339503321 0 0.089615627146132512 -0.13061154690311971 0 0.081894058627025895 -0.12584863130967919 0 0.083611330147541921 -0.14459745320402559 0 0.089615627146132512 -0.13061154690311971 0 0.079765110473415279 -0.13788087003968491 0 0.089615627146132512 -0.13061154690311971 0 0.079765110473415279 -0.13788087003968491 0 0.081894058627025895 -0.12584863130967919 0 0.081894058627025895 -0.12584863130967919 0 0.065576399090336079 -0.13067912082877309 0 0.057907204523981459 -0.13951585418161591 0 0.081894058627025895 -0.12584863130967919 0 0.057907204523981459 -0.13951585418161591 0 0.069316279952888193 -0.14186668388360371 0 0.081894058627025895 -0.12584863130967919 0 0.057907204523981459 -0.13951585418161591 0 0.081894058627025895 -0.12584863130967919 0 0.068207364780656948 -0.12563827965844471 0 0.065576399090336079 -0.13067912082877309 0 0.069316279952888193 -0.14186668388360371 0 0.079765110473415279 -0.13788087003968491 0 0.081894058627025895 -0.12584863130967919 0 0.068207364780656948 -0.12563827965844471 0 0.065576399090336079 -0.13067912082877309 0 0.054296968429680029 -0.13171371816535249 0 0.054296968429680029 -0.13171371816535249 0 0.057907204523981459 -0.13951585418161591 0 0.034849001543539322 -0.1503583031021323 0 0.054296968429680029 -0.13171371816535249 0 0.045553716665441668 -0.12681104972785159 0 0.052448498866582129 -0.1166826243517366 0 0.065576399090336079 -0.13067912082877309 0 0.054296968429680029 -0.13171371816535249 0 0.057907204523981459 -0.13951585418161591 0 0.069316279952888193 -0.14186668388360371 0 0.057907204523981459 -0.13951585418161591 0 0.05757515479497001 -0.1486962131740798 0 0.06522271263887458 -0.15305574504012881 0 0.05757515479497001 -0.1486962131740798 0 0.052111829065281459 -0.15882829201818821 0 0.046808539919221563 -0.15014413002933799 0 0.052111829065281459 -0.15882829201818821 0 0.043031393960321331 -0.1571354857308308 0 0.05757515479497001 -0.1486962131740798 0 0.046808539919221563 -0.15014413002933799 0 0.052111829065281459 -0.15882829201818821 0 0.057907204523981459 -0.13951585418161591 0 0.05757515479497001 -0.1486962131740798 0 0.046808539919221563 -0.15014413002933799 0 0.057907204523981459 -0.13951585418161591 0 0.046808539919221563 -0.15014413002933799 0 0.033920350420936912 -0.1531830770535528 0 0.057907204523981459 -0.13951585418161591 0 0.034849001543539322 -0.1503583031021323 0 0.033920350420936912 -0.1531830770535528 0 0.054296968429680029 -0.13171371816535249 0 0.034849001543539322 -0.1503583031021323 0 0.038558521200612962 -0.14006542407622449 0 0.054296968429680029 -0.13171371816535249 0 0.034849001543539322 -0.1503583031021323 0 0.057907204523981459 -0.13951585418161591 0 0.033920350420936912 -0.1531830770535528 0 0.046808539919221563 -0.15014413002933799 0 0.040219483271594643 -0.15466785876887121 0 0.033920350420936912 -0.1531830770535528 0 0.046808539919221563 -0.15014413002933799 0 0.040219483271594643 -0.15466785876887121 0 0.043031393960321331 -0.1571354857308308 0 0.040219483271594643 -0.15466785876887121 0 0.033920350420936912 -0.1531830770535528 0 0.037117648785898759 -0.15820874226176301 0 0.034849001543539322 -0.1503583031021323 0 0.031672068294339203 -0.14528428076340441 0 0.030051573782975471 -0.15027594372919439 0 0.034849001543539322 -0.1503583031021323 0 0.033920350420936912 -0.1531830770535528 0 0.030051573782975471 -0.15027594372919439 0 0.034849001543539322 -0.1503583031021323 0 0.031672068294339203 -0.14528428076340441 0 0.038558521200612962 -0.14006542407622449 0 0.031672068294339203 -0.14528428076340441 0 0.038558521200612962 -0.14006542407622449 0 0.030566093298411881 -0.13865773310914861 0 0.054296968429680029 -0.13171371816535249 0 0.038558521200612962 -0.14006542407622449 0 0.040644455285911409 -0.1338393175667463 0 0.038558521200612962 -0.14006542407622449 0 0.040644455285911409 -0.1338393175667463 0 0.030566093298411881 -0.13865773310914861 0 0.034824944079593127 -0.12500853882757099 0 0.040644455285911409 -0.1338393175667463 0 0.030566093298411881 -0.13865773310914861 0 0.034824944079593127 -0.12500853882757099 0 0.045553716665441668 -0.12681104972785159 0 0.040644455285911409 -0.1338393175667463 0 0.054296968429680029 -0.13171371816535249 0 0.045553716665441668 -0.12681104972785159 0 0.040644455285911409 -0.1338393175667463 0 0.072477207369929117 -0.17473224276400179 0 0.051449240160577621 -0.1762857105508405 0 0.056257937900538298 -0.19577788601322099 0 0.066040058368007956 -0.18964665730407451 0 0.051449240160577621 -0.1762857105508405 0 0.063878974636528515 -0.16401540189567099 0 0.051449240160577621 -0.1762857105508405 0 0.052111829065281459 -0.15882829201818821 0 0.051449240160577621 -0.1762857105508405 0 0.052111829065281459 -0.15882829201818821 0 0.040502396519655252 -0.1663673850483231 0 0.063878974636528515 -0.16401540189567099 0 0.06522271263887458 -0.15305574504012881 0 0.052111829065281459 -0.15882829201818821 0 0.043031393960321331 -0.1571354857308308 0 0.037117648785898759 -0.15820874226176301 0 0.040502396519655252 -0.1663673850483231 0 0.052111829065281459 -0.15882829201818821 0 0.043031393960321331 -0.1571354857308308 0 0.040502396519655252 -0.1663673850483231 0 0.040219483271594643 -0.15466785876887121 0 0.043031393960321331 -0.1571354857308308 0 0.037117648785898759 -0.15820874226176301 0 0.033920350420936912 -0.1531830770535528 0 0.033509818979212957 -0.15868168045615499 0 0.027465449436243041 -0.1628752445715565 0 0.037117648785898759 -0.15820874226176301 0 0.034071859908748191 -0.1623715567021686 0 0.040502396519655252 -0.1663673850483231 0 0.033920350420936912 -0.1531830770535528 0 0.037117648785898759 -0.15820874226176301 0 0.033509818979212957 -0.15868168045615499 0 0.037117648785898759 -0.15820874226176301 0 0.033509818979212957 -0.15868168045615499 0 0.034071859908748191 -0.1623715567021686 0 0.033509818979212957 -0.15868168045615499 0 0.034071859908748191 -0.1623715567021686 0 0.027465449436243041 -0.1628752445715565 0 0.031586668938662611 -0.1691709391612749 0 0.040502396519655252 -0.1663673850483231 0 0.030421272951226121 -0.1778391783376792 0 0.034071859908748191 -0.1623715567021686 0 0.031586668938662611 -0.1691709391612749 0 0.040502396519655252 -0.1663673850483231 0 0.051449240160577621 -0.1762857105508405 0 0.040502396519655252 -0.1663673850483231 0 0.030421272951226121 -0.1778391783376792 0 0.041440672425083092 -0.19607701236864419 0 0.051449240160577621 -0.1762857105508405 0 0.030421272951226121 -0.1778391783376792 0 0.051449240160577621 -0.1762857105508405 0 0.030421272951226121 -0.1778391783376792 0 0.02540307025583758 -0.19229280057405279 0 0.015764016274472759 -0.1812646672695073 0 0.030421272951226121 -0.1778391783376792 0 0.031586668938662611 -0.1691709391612749 0 0.030421272951226121 -0.1778391783376792 0 0.021575687727073561 -0.1734893605992324 0 0.015764016274472759 -0.1812646672695073 0 0.021575687727073561 -0.1734893605992324 0 0.012676990919703311 -0.16924925594887871 0 0.015764016274472759 -0.1812646672695073 0 0.030421272951226121 -0.1778391783376792 0 0.021575687727073561 -0.1734893605992324 0 0.033920350420936912 -0.1531830770535528 0 0.009933496317892726 -0.16685029992549011 0 0.02294500892830088 -0.1542832107784407 0 0.033920350420936912 -0.1531830770535528 0 0.027465449436243041 -0.1628752445715565 0 0.009933496317892726 -0.16685029992549011 0 0.019596439448784399 -0.16744493330375371 0 0.027465449436243041 -0.1628752445715565 0 0.009933496317892726 -0.16685029992549011 0 0.033920350420936912 -0.1531830770535528 0 0.009933496317892726 -0.16685029992549011 0 0.021575687727073561 -0.1734893605992324 0 0.019596439448784399 -0.16744493330375371 0 0.012676990919703311 -0.16924925594887871 0 0.021575687727073561 -0.1734893605992324 0 0.019596439448784399 -0.16744493330375371 0 0.025540403417393751 -0.1677775419388785 0 0.031586668938662611 -0.1691709391612749 0 0.021575687727073561 -0.1734893605992324 0 0.025540403417393751 -0.1677775419388785 0 0.019596439448784399 -0.16744493330375371 0 0.025540403417393751 -0.1677775419388785 0 0.027465449436243041 -0.1628752445715565 0 0.034071859908748191 -0.1623715567021686 0 0.031586668938662611 -0.1691709391612749 0 0.027465449436243041 -0.1628752445715565 0 0.031586668938662611 -0.1691709391612749 0 0.025540403417393751 -0.1677775419388785 0 0.027465449436243041 -0.1628752445715565 0 0.009933496317892726 -0.16685029992549011 0 0.01648447247354291 -0.15404273338364399 0 0.02294500892830088 -0.1542832107784407 0 0.009933496317892726 -0.16685029992549011 0 0.01648447247354291 -0.15404273338364399 0 0.0068311679390763679 -0.1533437069849535 0 0.019596439448784399 -0.16744493330375371 0 0.009933496317892726 -0.16685029992549011 0 0.012676990919703311 -0.16924925594887871 0 0.009933496317892726 -0.16685029992549011 0 0.012676990919703311 -0.16924925594887871 0 0.0034571977838801569 -0.17702496179755631 0 0.009933496317892726 -0.16685029992549011 0 0.012676990919703311 -0.16924925594887871 0 -0.0085976242789068957 -0.177408956520272 0 0.009933496317892726 -0.16685029992549011 0 -0.0085976242789068957 -0.177408956520272 0 0.009933496317892726 -0.16685029992549011 0 0.0034571977838801569 -0.17702496179755631 0 0.015764016274472759 -0.1812646672695073 0 0.012676990919703311 -0.16924925594887871 0 0.0034571977838801569 -0.17702496179755631 0 -0.003739977245034012 -0.19168309442994089 0 0.010514116253606281 -0.1925853606064957 0 0.0034571977838801569 -0.17702496179755631 0 0.010514116253606281 -0.1925853606064957 0 0.015764016274472759 -0.1812646672695073 0 0.0034571977838801569 -0.17702496179755631 0 0.02166725362828328 -0.1398342401410575 0 0.019282665512654749 -0.1297026577714144 0 0.01241268948209219 -0.14437852502616319 0 0.034824944079593127 -0.12500853882757099 0 0.019282665512654749 -0.1297026577714144 0 0.030566093298411881 -0.13865773310914861 0 0.02166725362828328 -0.1398342401410575 0 0.019282665512654749 -0.1297026577714144 0 0.030566093298411881 -0.13865773310914861 0 0.031672068294339203 -0.14528428076340441 0 0.030566093298411881 -0.13865773310914861 0 0.024335151646156381 -0.14706399980032239 0 0.02166725362828328 -0.1398342401410575 0 0.030566093298411881 -0.13865773310914861 0 0.024335151646156381 -0.14706399980032239 0 0.031672068294339203 -0.14528428076340441 0 0.024335151646156381 -0.14706399980032239 0 0.030051573782975471 -0.15027594372919439 0 0.033920350420936912 -0.1531830770535528 0 0.030051573782975471 -0.15027594372919439 0 0.02294500892830088 -0.1542832107784407 0 0.024335151646156381 -0.14706399980032239 0 0.030051573782975471 -0.15027594372919439 0 0.02294500892830088 -0.1542832107784407 0 0.024335151646156381 -0.14706399980032239 0 0.01648447247354291 -0.15404273338364399 0 0.01241268948209219 -0.14437852502616319 0 0.024335151646156381 -0.14706399980032239 0 0.01648447247354291 -0.15404273338364399 0 0.02294500892830088 -0.1542832107784407 0 0.02166725362828328 -0.1398342401410575 0 0.024335151646156381 -0.14706399980032239 0 0.01241268948209219 -0.14437852502616319 0 -0.011505986517222349 -0.14810326960451681 0 0.01241268948209219 -0.14437852502616319 0 0.0068311679390763679 -0.1533437069849535 0 -0.011505986517222349 -0.14810326960451681 0 0.009933496317892726 -0.16685029992549011 0 0.0068311679390763679 -0.1533437069849535 0 -0.011505986517222349 -0.14810326960451681 0 0.01241268948209219 -0.14437852502616319 0 0.0027021066240326768 -0.1317064378292063 0 0.01648447247354291 -0.15404273338364399 0 0.01241268948209219 -0.14437852502616319 0 0.0068311679390763679 -0.1533437069849535 0 0.019282665512654749 -0.1297026577714144 0 0.01241268948209219 -0.14437852502616319 0 0.0027021066240326768 -0.1317064378292063 0 0.019282665512654749 -0.1297026577714144 0 0.0027021066240326768 -0.1317064378292063 0 0.005085065621477718 -0.1151057880332567 0 0.019282665512654749 -0.1297026577714144 0 0.005085065621477718 -0.1151057880332567 0 0.024129304522527751 -0.1089818526354679 0 0.034824944079593127 -0.12500853882757099 0 0.019282665512654749 -0.1297026577714144 0 0.024129304522527751 -0.1089818526354679 0 0.024129304522527751 -0.1089818526354679 0 0.01380815825635252 -0.094132232187142617 0 0.031293966725895003 -0.08518965294817829 0 -0.00044729776891663488 -0.1011528385718463 0 0.005085065621477718 -0.1151057880332567 0 0.01380815825635252 -0.094132232187142617 0 0.005085065621477718 -0.1151057880332567 0 0.024129304522527751 -0.1089818526354679 0 0.01380815825635252 -0.094132232187142617 0 0.01380815825635252 -0.094132232187142617 0 0.0042106568376920582 -0.081118225430045127 0 0.020039989671696231 -0.071989185162356889 0 -0.00044729776891663488 -0.1011528385718463 0 0.01380815825635252 -0.094132232187142617 0 0.0042106568376920582 -0.081118225430045127 0 0.0042106568376920582 -0.081118225430045127 0 0.0052181775422467033 -0.064346337314722044 0 0.020039989671696231 -0.071989185162356889 0 -0.0043762627118289626 -0.071729097412358583 0 0.0042106568376920582 -0.081118225430045127 0 0.0052181775422467033 -0.064346337314722044 0 0.0052181775422467033 -0.064346337314722044 0 0.020039989671696231 -0.071989185162356889 0 0.0052181775422467033 -0.064346337314722044 0 0.020039989671696231 -0.071989185162356889 0 0.017880224012190679 -0.058506375123621113 0 0.020039989671696231 -0.071989185162356889 0 0.017880224012190679 -0.058506375123621113 0 0.035073137211611732 -0.060365082031122411 0 0.020039989671696231 -0.071989185162356889 0 0.031293966725895003 -0.08518965294817829 0 0.035073137211611732 -0.060365082031122411 0 0.01380815825635252 -0.094132232187142617 0 0.020039989671696231 -0.071989185162356889 0 0.031293966725895003 -0.08518965294817829 0 0.031293966725895003 -0.08518965294817829 0 0.050629459546369923 -0.074776417317023003 0 0.042727201812981508 -0.099892478072297022 0 0.050629459546369923 -0.074776417317023003 0 0.042727201812981508 -0.099892478072297022 0 0.031293966725895003 -0.08518965294817829 0 0.050629459546369923 -0.074776417317023003 0 0.035073137211611732 -0.060365082031122411 0 0.050629459546369923 -0.074776417317023003 0 0.058531717279758283 -0.049660356561749108 0 0.072219385832792832 -0.066659644627356851 0 0.050629459546369923 -0.074776417317023003 0 0.042727201812981508 -0.099892478072297022 0 0.069701838591585213 -0.089386546866783212 0 0.059655618646742382 -0.10475769562984739 0 0.052448498866582129 -0.1166826243517366 0 0.042727201812981508 -0.099892478072297022 0 0.059655618646742382 -0.10475769562984739 0 0.042727201812981508 -0.099892478072297022 0 0.069701838591585213 -0.089386546866783212 0 0.054296968429680029 -0.13171371816535249 0 0.052448498866582129 -0.1166826243517366 0 0.073744935315820714 -0.1130691332285727 0 0.059655618646742382 -0.10475769562984739 0 0.052448498866582129 -0.1166826243517366 0 0.073744935315820714 -0.1130691332285727 0 0.034824944079593127 -0.12500853882757099 0 0.045553716665441668 -0.12681104972785159 0 0.052448498866582129 -0.1166826243517366 0 0.034824944079593127 -0.12500853882757099 0 0.052448498866582129 -0.1166826243517366 0 0.042727201812981508 -0.099892478072297022 0 0.034824944079593127 -0.12500853882757099 0 0.024129304522527751 -0.1089818526354679 0 0.042727201812981508 -0.099892478072297022 0 0.034824944079593127 -0.12500853882757099 0 0.042727201812981508 -0.099892478072297022 0 0.024129304522527751 -0.1089818526354679 0 0.031293966725895003 -0.08518965294817829 0 0.042727201812981508 -0.099892478072297022 0 0.034885408484197772 0.0062912350017927032 0 0.01265631079038235 -0.01012693536007268 0 0.042517259973231587 -0.011683923625132649 0 -0.00118246574067416 -0.01324232368796026 0 0.0012074066645448821 -0.00065723147797176382 0 0.01265631079038235 -0.01012693536007268 0 0.01265631079038235 -0.01012693536007268 0 0.02406773205363014 -0.026959444655171291 0 0.0015263381015913891 -0.033415212413580753 0 0.01265631079038235 -0.01012693536007268 0 0.0015263381015913891 -0.033415212413580753 0 -0.00118246574067416 -0.01324232368796026 0 0.01265631079038235 -0.01012693536007268 0 0.0015263381015913891 -0.033415212413580753 0 0.01265631079038235 -0.01012693536007268 0 0.02406773205363014 -0.026959444655171291 0 0.042517259973231587 -0.011683923625132649 0 0.02406773205363014 -0.026959444655171291 0 0.021771409900077709 -0.044354063799483319 0 0.04186734150286768 -0.035217088077587062 0 0.02406773205363014 -0.026959444655171291 0 0.021771409900077709 -0.044354063799483319 0 0.0015263381015913891 -0.033415212413580753 0 0.021771409900077709 -0.044354063799483319 0 0.0015263381015913891 -0.033415212413580753 0 0.007298405735321048 -0.051477207310420908 0 -0.0096036345872028556 -0.056703489467087059 0 0.0052181775422467033 -0.064346337314722044 0 0.007298405735321048 -0.051477207310420908 0 0.0052181775422467033 -0.064346337314722044 0 0.007298405735321048 -0.051477207310420908 0 0.017880224012190679 -0.058506375123621113 0 0.021771409900077709 -0.044354063799483319 0 0.017880224012190679 -0.058506375123621113 0 0.035073137211611732 -0.060365082031122411 0 0.021771409900077709 -0.044354063799483319 0 0.007298405735321048 -0.051477207310420908 0 0.017880224012190679 -0.058506375123621113 0 0.035073137211611732 -0.060365082031122411 0 0.058531717279758283 -0.049660356561749108 0 0.04186734150286768 -0.035217088077587062 0 0.050629459546369923 -0.074776417317023003 0 0.058531717279758283 -0.049660356561749108 0 0.050629459546369923 -0.074776417317023003 0 0.035073137211611732 -0.060365082031122411 0 0.058531717279758283 -0.049660356561749108 0 0.058531717279758283 -0.049660356561749108 0 0.066433975013146629 -0.02454429580647528 0 0.058531717279758283 -0.049660356561749108 0 0.04186734150286768 -0.035217088077587062 0 0.066433975013146629 -0.02454429580647528 0 0.021771409900077709 -0.044354063799483319 0 0.035073137211611732 -0.060365082031122411 0 0.04186734150286768 -0.035217088077587062 0 0.02406773205363014 -0.026959444655171291 0 0.04186734150286768 -0.035217088077587062 0 0.042517259973231587 -0.011683923625132649 0 0.04186734150286768 -0.035217088077587062 0 0.042517259973231587 -0.011683923625132649 0 0.066433975013146629 -0.02454429580647528 0 0.052968053050369737 0.0090809173488315582 0 0.042517259973231587 -0.011683923625132649 0 0.067492943165135169 -0.0019794682467893379 0 0.042517259973231587 -0.011683923625132649 0 0.067492943165135169 -0.0019794682467893379 0 0.066433975013146629 -0.02454429580647528 0 0.087040675587819916 -0.0096101539263870796 0 0.066433975013146629 -0.02454429580647528 0 0.098032226742104309 -0.02831505409649597 0 0.083930998993742512 0.0059737405228527038 0 0.087040675587819916 -0.0096101539263870796 0 0.067492943165135169 -0.0019794682467893379 0 0.083930998993742512 0.0059737405228527038 0 0.098495163759696414 0.0029673617968291321 0 0.087040675587819916 -0.0096101539263870796 0 0.087040675587819916 -0.0096101539263870796 0 0.067492943165135169 -0.0019794682467893379 0 0.066433975013146629 -0.02454429580647528 0 0.066433975013146629 -0.02454429580647528 0 0.080663194565618018 -0.042742664855397232 0 0.098032226742104309 -0.02831505409649597 0 0.080663194565618018 -0.042742664855397232 0 0.099119978598511321 -0.045144617550746849 0 0.098032226742104309 -0.02831505409649597 0 0.058531717279758283 -0.049660356561749108 0 0.066433975013146629 -0.02454429580647528 0 0.080663194565618018 -0.042742664855397232 0 0.058531717279758283 -0.049660356561749108 0 0.080663194565618018 -0.042742664855397232 0 0.072219385832792832 -0.066659644627356851 0 0.080663194565618018 -0.042742664855397232 0 0.091985945990252393 -0.059557823171565508 0 0.072219385832792832 -0.066659644627356851 0 0.080663194565618018 -0.042742664855397232 0 0.091985945990252393 -0.059557823171565508 0 0.099119978598511321 -0.045144617550746849 0 0.091985945990252393 -0.059557823171565508 0 0.109385226414503 -0.056941989317685793 0 0.099119978598511321 -0.045144617550746849 0 0.109385226414503 -0.056941989317685793 0 0.1174221699598199 -0.069046986946925279 0 0.12664898879935529 -0.055605769639440771 0 0.109385226414503 -0.056941989317685793 0 0.1155332992800789 -0.038165556312589707 0 0.12664898879935529 -0.055605769639440771 0 0.1155332992800789 -0.038165556312589707 0 0.12954193793015309 -0.041748568408345607 0 0.12664898879935529 -0.055605769639440771 0 0.1155332992800789 -0.038165556312589707 0 0.1294320674019063 -0.023146095115484211 0 0.12954193793015309 -0.041748568408345607 0 0.109385226414503 -0.056941989317685793 0 0.1155332992800789 -0.038165556312589707 0 0.099119978598511321 -0.045144617550746849 0 0.1155332992800789 -0.038165556312589707 0 0.099119978598511321 -0.045144617550746849 0 0.098032226742104309 -0.02831505409649597 0 0.1155332992800789 -0.038165556312589707 0 0.098032226742104309 -0.02831505409649597 0 0.1112777463759113 -0.012222875866518469 0 0.087040675587819916 -0.0096101539263870796 0 0.098032226742104309 -0.02831505409649597 0 0.1112777463759113 -0.012222875866518469 0 0.1155332992800789 -0.038165556312589707 0 0.1112777463759113 -0.012222875866518469 0 0.1294320674019063 -0.023146095115484211 0 0.1158546052028349 0.0064685721448778594 0 0.13464870039648349 0.00080453217212592717 0 0.1112777463759113 -0.012222875866518469 0 0.098495163759696414 0.0029673617968291321 0 0.087040675587819916 -0.0096101539263870796 0 0.1112777463759113 -0.012222875866518469 0 0.1158546052028349 0.0064685721448778594 0 0.098495163759696414 0.0029673617968291321 0 0.1112777463759113 -0.012222875866518469 0 0.093192902201961414 -0.094424548291792879 0 0.088899626305776192 -0.1113374325741409 0 0.073744935315820714 -0.1130691332285727 0 0.093192902201961414 -0.094424548291792879 0 0.073744935315820714 -0.1130691332285727 0 0.069701838591585213 -0.089386546866783212 0 0.093192902201961414 -0.094424548291792879 0 0.073744935315820714 -0.1130691332285727 0 0.081894058627025895 -0.12584863130967919 0 0.088899626305776192 -0.1113374325741409 0 0.09397493983509804 -0.11322330148444169 0 0.081894058627025895 -0.12584863130967919 0 0.079920122843727764 -0.11786127252462281 0 0.075141871126288284 -0.1211898929860986 0 0.081894058627025895 -0.12584863130967919 0 0.088899626305776192 -0.1113374325741409 0 0.079920122843727764 -0.11786127252462281 0 0.088899626305776192 -0.1113374325741409 0 0.079920122843727764 -0.11786127252462281 0 0.073744935315820714 -0.1130691332285727 0 0.068207364780656948 -0.12563827965844471 0 0.054296968429680029 -0.13171371816535249 0 0.073744935315820714 -0.1130691332285727 0 0.054296968429680029 -0.13171371816535249 0 0.073744935315820714 -0.1130691332285727 0 0.068207364780656948 -0.12563827965844471 0 0.073744935315820714 -0.1130691332285727 0 0.075141871126288284 -0.1211898929860986 0 0.079920122843727764 -0.11786127252462281 0 0.073744935315820714 -0.1130691332285727 0 0.075141871126288284 -0.1211898929860986 0 0.081894058627025895 -0.12584863130967919 0 0.068207364780656948 -0.12563827965844471 0 0.075141871126288284 -0.1211898929860986 0 0.059655618646742382 -0.10475769562984739 0 0.073744935315820714 -0.1130691332285727 0 0.069701838591585213 -0.089386546866783212 0 0.050629459546369923 -0.074776417317023003 0 0.069701838591585213 -0.089386546866783212 0 0.072219385832792832 -0.066659644627356851 0 0.069701838591585213 -0.089386546866783212 0 0.072219385832792832 -0.066659644627356851 0 0.089711563165187497 -0.078251462936863553 0 0.091985945990252393 -0.059557823171565508 0 0.072219385832792832 -0.066659644627356851 0 0.089711563165187497 -0.078251462936863553 0 0.093192902201961414 -0.094424548291792879 0 0.069701838591585213 -0.089386546866783212 0 0.089711563165187497 -0.078251462936863553 0 0.093192902201961414 -0.094424548291792879 0 0.089711563165187497 -0.078251462936863553 0 0.1048667032735431 -0.089595599910983495 0 0.089711563165187497 -0.078251462936863553 0 0.1048667032735431 -0.089595599910983495 0 0.1056935618466131 -0.072691272791708894 0 0.1048667032735431 -0.089595599910983495 0 0.1056935618466131 -0.072691272791708894 0 0.11564058922802831 -0.08068930143821873 0 0.091985945990252393 -0.059557823171565508 0 0.089711563165187497 -0.078251462936863553 0 0.1056935618466131 -0.072691272791708894 0 0.091985945990252393 -0.059557823171565508 0 0.109385226414503 -0.056941989317685793 0 0.1056935618466131 -0.072691272791708894 0 0.1174221699598199 -0.069046986946925279 0 0.12840026197867099 -0.078951386265116219 0 0.12664898879935529 -0.055605769639440771 0 0.109385226414503 -0.056941989317685793 0 0.1056935618466131 -0.072691272791708894 0 0.1174221699598199 -0.069046986946925279 0 0.1056935618466131 -0.072691272791708894 0 0.1174221699598199 -0.069046986946925279 0 0.11564058922802831 -0.08068930143821873 0 0.1174221699598199 -0.069046986946925279 0 0.11564058922802831 -0.08068930143821873 0 0.12840026197867099 -0.078951386265116219 0 0.1048667032735431 -0.089595599910983495 0 0.11564058922802831 -0.08068930143821873 0 0.1191358060176364 -0.092450830711447801 0 0.1191358060176364 -0.092450830711447801 0 0.12840026197867099 -0.078951386265116219 0 0.11564058922802831 -0.08068930143821873 0 0.1191358060176364 -0.092450830711447801 0 0.12840026197867099 -0.078951386265116219 0 0.1058809127300703 -0.11218140843774239 0 0.12023297736745781 -0.1110263554770618 0 0.12986776683311119 -0.098514185565799078 0 0.1058809127300703 -0.11218140843774239 0 0.12986776683311119 -0.098514185565799078 0 0.1048667032735431 -0.089595599910983495 0 0.1191358060176364 -0.092450830711447801 0 0.10987135005660249 -0.1059502751577799 0 0.10987135005660249 -0.1059502751577799 0 0.1058809127300703 -0.11218140843774239 0 0.12986776683311119 -0.098514185565799078 0 0.1191358060176364 -0.092450830711447801 0 0.10987135005660249 -0.1059502751577799 0 0.12986776683311119 -0.098514185565799078 0 0.1191358060176364 -0.092450830711447801 0 0.10987135005660249 -0.1059502751577799 0 0.093192902201961414 -0.094424548291792879 0 0.088899626305776192 -0.1113374325741409 0 0.099225161677519755 -0.1035257336162041 0 0.1048667032735431 -0.089595599910983495 0 0.10987135005660249 -0.1059502751577799 0 0.099225161677519755 -0.1035257336162041 0 0.10987135005660249 -0.1059502751577799 0 0.099225161677519755 -0.1035257336162041 0 0.1058809127300703 -0.11218140843774239 0 0.088899626305776192 -0.1113374325741409 0 0.099225161677519755 -0.1035257336162041 0 0.09397493983509804 -0.11322330148444169 0 0.093192902201961414 -0.094424548291792879 0 0.1048667032735431 -0.089595599910983495 0 0.099225161677519755 -0.1035257336162041 0 0.081894058627025895 -0.12584863130967919 0 0.1058809127300703 -0.11218140843774239 0 0.099525338641528904 -0.12611341339503321 0 0.081894058627025895 -0.12584863130967919 0 0.1058809127300703 -0.11218140843774239 0 0.081894058627025895 -0.12584863130967919 0 0.09397493983509804 -0.11322330148444169 0 0.1058809127300703 -0.11218140843774239 0 0.099225161677519755 -0.1035257336162041 0 0.09397493983509804 -0.11322330148444169 0 0.1058809127300703 -0.11218140843774239 0 0.099525338641528904 -0.12611341339503321 0 0.1058809127300703 -0.11218140843774239 0 0.1121708616464093 -0.1216807098986791 0 0.1058809127300703 -0.11218140843774239 0 0.1121708616464093 -0.1216807098986791 0 0.12023297736745781 -0.1110263554770618 0 0.11997683785091839 -0.1276371159963853 0 0.121067612134044 -0.1214532534018402 0 0.13188977167139071 -0.12546883223523481 0 0.12023297736745781 -0.1110263554770618 0 0.121067612134044 -0.1214532534018402 0 0.13188977167139071 -0.12546883223523481 0 0.11997683785091839 -0.1276371159963853 0 0.1121708616464093 -0.1216807098986791 0 0.121067612134044 -0.1214532534018402 0 0.1121708616464093 -0.1216807098986791 0 0.12023297736745781 -0.1110263554770618 0 0.121067612134044 -0.1214532534018402 0 0.12023297736745781 -0.1110263554770618 0 0.12986776683311119 -0.098514185565799078 0 0.13188977167139071 -0.12546883223523481 0 0.12986776683311119 -0.098514185565799078 0 0.13188977167139071 -0.12546883223523481 0 0.14925441928633251 -0.10969288085116551 0 0.13995942417209239 -0.1034127274713456 0 0.13188977167139071 -0.12546883223523481 0 0.14724036225017881 -0.1245170930860646 0 0.14925441928633251 -0.10969288085116551 0 0.13188977167139071 -0.12546883223523481 0 0.14925441928633251 -0.10969288085116551 0 0.15485465026004211 -0.11932571079310079 0 0.15999890680388329 -0.1096406796162286 0 0.14724036225017881 -0.1245170930860646 0 0.15485465026004211 -0.11932571079310079 0 0.15557261582888751 -0.13003178131142151 0 0.14724036225017881 -0.1245170930860646 0 0.14925441928633251 -0.10969288085116551 0 0.15485465026004211 -0.11932571079310079 0 0.14925441928633251 -0.10969288085116551 0 0.14348993397904131 -0.092765062884646393 0 0.1620153957752187 -0.097165399419701551 0 0.14348993397904131 -0.092765062884646393 0 0.1620153957752187 -0.097165399419701551 0 0.14925441928633251 -0.10969288085116551 0 0.13995942417209239 -0.1034127274713456 0 0.14348993397904131 -0.092765062884646393 0 0.13995942417209239 -0.1034127274713456 0 0.12986776683311119 -0.098514185565799078 0 0.13188977167139071 -0.12546883223523481 0 0.13995942417209239 -0.1034127274713456 0 0.12986776683311119 -0.098514185565799078 0 0.14348993397904131 -0.092765062884646393 0 0.12986776683311119 -0.098514185565799078 0 0.12840026197867099 -0.078951386265116219 0 0.1428482005174804 -0.076716741777837147 0 0.1191358060176364 -0.092450830711447801 0 0.12986776683311119 -0.098514185565799078 0 0.12840026197867099 -0.078951386265116219 0 0.12986776683311119 -0.098514185565799078 0 0.12840026197867099 -0.078951386265116219 0 0.12840026197867099 -0.078951386265116219 0 0.12664898879935529 -0.055605769639440771 0 0.12840026197867099 -0.078951386265116219 0 0.12664898879935529 -0.055605769639440771 0 0.14464694777039611 -0.055277979731059648 0 0.12840026197867099 -0.078951386265116219 0 0.1428482005174804 -0.076716741777837147 0 0.14464694777039611 -0.055277979731059648 0 0.12840026197867099 -0.078951386265116219 0 0.14464694777039611 -0.055277979731059648 0 0.1428482005174804 -0.076716741777837147 0 0.15680899227989839 -0.06637062400294011 0 0.14464694777039611 -0.055277979731059648 0 0.1428482005174804 -0.076716741777837147 0 0.15451703372532541 -0.084469533324270707 0 0.15680899227989839 -0.06637062400294011 0 0.12986776683311119 -0.098514185565799078 0 0.15451703372532541 -0.084469533324270707 0 0.12986776683311119 -0.098514185565799078 0 0.14348993397904131 -0.092765062884646393 0 0.15451703372532541 -0.084469533324270707 0 0.14348993397904131 -0.092765062884646393 0 0.15451703372532541 -0.084469533324270707 0 0.1620153957752187 -0.097165399419701551 0 0.12986776683311119 -0.098514185565799078 0 0.1428482005174804 -0.076716741777837147 0 0.15451703372532541 -0.084469533324270707 0 0.15451703372532541 -0.084469533324270707 0 0.1674193516126988 -0.088794767656503876 0 0.1620153957752187 -0.097165399419701551 0 0.15451703372532541 -0.084469533324270707 0 0.1674193516126988 -0.088794767656503876 0 0.16389165652408541 -0.076485311925560115 0 0.1674193516126988 -0.088794767656503876 0 0.16389165652408541 -0.076485311925560115 0 0.17613181446746839 -0.084287857658230353 0 0.15451703372532541 -0.084469533324270707 0 0.15680899227989839 -0.06637062400294011 0 0.16389165652408541 -0.076485311925560115 0 0.16389165652408541 -0.076485311925560115 0 0.1717227713635387 -0.067009979361705274 0 0.17613181446746839 -0.084287857658230353 0 0.15680899227989839 -0.06637062400294011 0 0.16389165652408541 -0.076485311925560115 0 0.1717227713635387 -0.067009979361705274 0 0.15680899227989839 -0.06637062400294011 0 0.1717227713635387 -0.067009979361705274 0 0.1652446184022294 -0.054500080927008407 0 0.1717227713635387 -0.067009979361705274 0 0.17613181446746839 -0.084287857658230353 0 0.1717227713635387 -0.067009979361705274 0 0.18346211879182289 -0.064955309332027283 0 0.18137547142311691 -0.085525622921553163 0 0.18346211879182289 -0.064955309332027283 0 0.18137547142311691 -0.085525622921553163 0 0.1952329782378138 -0.068464889048657496 0 0.1717227713635387 -0.067009979361705274 0 0.18137547142311691 -0.085525622921553163 0 0.1717227713635387 -0.067009979361705274 0 0.18346211879182289 -0.064955309332027283 0 0.1746283364613696 -0.057560297553190053 0 0.18137547142311691 -0.085525622921553163 0 0.17613181446746839 -0.084287857658230353 0 0.18054085757139629 -0.1015657359547559 0 0.17613181446746839 -0.084287857658230353 0 0.18054085757139629 -0.1015657359547559 0 0.1674193516126988 -0.088794767656503876 0 0.17613181446746839 -0.084287857658230353 0 0.18054085757139629 -0.1015657359547559 0 0.1717227713635387 -0.067009979361705274 0 0.18137547142311691 -0.085525622921553163 0 0.17613181446746839 -0.084287857658230353 0 0.18137547142311691 -0.085525622921553163 0 0.19100769245097829 -0.1040519139747048 0 0.18137547142311691 -0.085525622921553163 0 0.18054085757139629 -0.1015657359547559 0 0.19100769245097829 -0.1040519139747048 0 0.18054085757139629 -0.1015657359547559 0 0.1749190978293893 -0.1165979942053425 0 0.16884250162088479 -0.1080310140379921 0 0.18054085757139629 -0.1015657359547559 0 0.19100769245097829 -0.1040519139747048 0 0.18054085757139629 -0.1015657359547559 0 0.1862357176231304 -0.1238823921021804 0 0.1749190978293893 -0.1165979942053425 0 0.18054085757139629 -0.1015657359547559 0 0.1862357176231304 -0.1238823921021804 0 0.19100769245097829 -0.1040519139747048 0 0.18054085757139629 -0.1015657359547559 0 0.1862357176231304 -0.1238823921021804 0 0.1862357176231304 -0.1238823921021804 0 0.1749190978293893 -0.1165979942053425 0 0.17324983187337631 -0.13165498831909611 0 0.1749190978293893 -0.1165979942053425 0 0.16471491079178111 -0.1205264202314431 0 0.16884250162088479 -0.1080310140379921 0 0.16471491079178111 -0.1205264202314431 0 0.15999890680388329 -0.1096406796162286 0 0.16884250162088479 -0.1080310140379921 0 0.1749190978293893 -0.1165979942053425 0 0.16471491079178111 -0.1205264202314431 0 0.17324983187337631 -0.13165498831909611 0 0.15485465026004211 -0.11932571079310079 0 0.16471491079178111 -0.1205264202314431 0 0.15557261582888751 -0.13003178131142151 0 0.15485465026004211 -0.11932571079310079 0 0.16471491079178111 -0.1205264202314431 0 0.15999890680388329 -0.1096406796162286 0 0.18054085757139629 -0.1015657359547559 0 0.1620153957752187 -0.097165399419701551 0 0.1674193516126988 -0.088794767656503876 0 0.18054085757139629 -0.1015657359547559 0 0.1620153957752187 -0.097165399419701551 0 0.14925441928633251 -0.10969288085116551 0 0.15999890680388329 -0.1096406796162286 0 0.1620153957752187 -0.097165399419701551 0 0.15999890680388329 -0.1096406796162286 0 0.1620153957752187 -0.097165399419701551 0 0.16884250162088479 -0.1080310140379921 0 0.18054085757139629 -0.1015657359547559 0 0.1620153957752187 -0.097165399419701551 0 0.16884250162088479 -0.1080310140379921 0 0.13464870039648349 0.00080453217212592717 0 0.15480995508657039 -0.001084596553268768 0 0.14892696920713289 -0.018041582065753459 0 0.13464870039648349 0.00080453217212592717 0 0.1294320674019063 -0.023146095115484211 0 0.14892696920713289 -0.018041582065753459 0 0.13464870039648349 0.00080453217212592717 0 0.1112777463759113 -0.012222875866518469 0 0.1294320674019063 -0.023146095115484211 0 0.1294320674019063 -0.023146095115484211 0 0.14892696920713289 -0.018041582065753459 0 0.14270131340979469 -0.036531096068384838 0 0.14892696920713289 -0.018041582065753459 0 0.14270131340979469 -0.036531096068384838 0 0.16089363356212191 -0.031604573197003549 0 0.14270131340979469 -0.036531096068384838 0 0.14464694777039611 -0.055277979731059648 0 0.16089363356212191 -0.031604573197003549 0 0.14464694777039611 -0.055277979731059648 0 0.15561449558007559 -0.051164132387281437 0 0.16089363356212191 -0.031604573197003549 0 0.14464694777039611 -0.055277979731059648 0 0.16089363356212191 -0.031604573197003549 0 0.14270131340979469 -0.036531096068384838 0 0.12954193793015309 -0.041748568408345607 0 0.14464694777039611 -0.055277979731059648 0 0.1294320674019063 -0.023146095115484211 0 0.14270131340979469 -0.036531096068384838 0 0.12954193793015309 -0.041748568408345607 0 0.12954193793015309 -0.041748568408345607 0 0.12664898879935529 -0.055605769639440771 0 0.14464694777039611 -0.055277979731059648 0 0.15680899227989839 -0.06637062400294011 0 0.14464694777039611 -0.055277979731059648 0 0.15561449558007559 -0.051164132387281437 0 0.15680899227989839 -0.06637062400294011 0 0.15561449558007559 -0.051164132387281437 0 0.1652446184022294 -0.054500080927008407 0 0.15561449558007559 -0.051164132387281437 0 0.1652446184022294 -0.054500080927008407 0 0.1617942405007988 -0.043199732881276223 0 0.1652446184022294 -0.054500080927008407 0 0.1746283364613696 -0.057560297553190053 0 0.1617942405007988 -0.043199732881276223 0 0.1717227713635387 -0.067009979361705274 0 0.1652446184022294 -0.054500080927008407 0 0.1717227713635387 -0.067009979361705274 0 0.1652446184022294 -0.054500080927008407 0 0.1746283364613696 -0.057560297553190053 0 0.1746283364613696 -0.057560297553190053 0 0.1828119860636557 -0.050363577362968731 0 0.1617942405007988 -0.043199732881276223 0 0.18346211879182289 -0.064955309332027283 0 0.1746283364613696 -0.057560297553190053 0 0.1828119860636557 -0.050363577362968731 0 0.18346211879182289 -0.064955309332027283 0 0.1828119860636557 -0.050363577362968731 0 0.19188844298534441 -0.056659859735039647 0 0.1617942405007988 -0.043199732881276223 0 0.18853740735089011 -0.033706188378118708 0 0.1828119860636557 -0.050363577362968731 0 0.1617942405007988 -0.043199732881276223 0 0.18853740735089011 -0.033706188378118708 0 0.15561449558007559 -0.051164132387281437 0 0.16089363356212191 -0.031604573197003549 0 0.1617942405007988 -0.043199732881276223 0 0.16089363356212191 -0.031604573197003549 0 0.1617942405007988 -0.043199732881276223 0 0.18853740735089011 -0.033706188378118708 0 0.16089363356212191 -0.031604573197003549 0 0.17714031935384769 -0.0079311666629475405 0 0.14892696920713289 -0.018041582065753459 0 0.16089363356212191 -0.031604573197003549 0 0.17714031935384769 -0.0079311666629475405 0 0.16089363356212191 -0.031604573197003549 0 0.17714031935384769 -0.0079311666629475405 0 0.18853740735089011 -0.033706188378118708 0 0.1657030786406338 0.0084270166623369204 0 0.15480995508657039 -0.001084596553268768 0 0.17714031935384769 -0.0079311666629475405 0 0.15480995508657039 -0.001084596553268768 0 0.14892696920713289 -0.018041582065753459 0 0.17714031935384769 -0.0079311666629475405 0 0.21351355446813719 -0.0021103410187178909 0 0.2110126965438916 -0.012672932103663791 0 0.2228246624943325 -0.0092295053444410857 0 0.2110126965438916 -0.012672932103663791 0 0.21911622703360889 -0.015650702578479541 0 0.2228246624943325 -0.0092295053444410857 0 0.21351355446813719 -0.0021103410187178909 0 0.2110126965438916 -0.012672932103663791 0 0.19836939172364151 -0.01016904411482358 0 0.1998105265397013 0.00335350757378736 0 0.21351355446813719 -0.0021103410187178909 0 0.19836939172364151 -0.01016904411482358 0 0.1998105265397013 0.00335350757378736 0 0.17714031935384769 -0.0079311666629475405 0 0.19836939172364151 -0.01016904411482358 0 0.17714031935384769 -0.0079311666629475405 0 0.19836939172364151 -0.01016904411482358 0 0.18853740735089011 -0.033706188378118708 0 0.2110126965438916 -0.012672932103663791 0 0.19836939172364151 -0.01016904411482358 0 0.18853740735089011 -0.033706188378118708 0 0.21528057420098159 -0.024212643874961401 0 0.18853740735089011 -0.033706188378118708 0 0.2110126965438916 -0.012672932103663791 0 0.21528057420098159 -0.024212643874961401 0 0.18853740735089011 -0.033706188378118708 0 0.21528057420098159 -0.024212643874961401 0 0.20886364623554921 -0.031523512657201581 0 0.18853740735089011 -0.033706188378118708 0 0.2110126965438916 -0.012672932103663791 0 0.21528057420098159 -0.024212643874961401 0 0.21911622703360889 -0.015650702578479541 0 0.21528057420098159 -0.024212643874961401 0 0.2158000993154765 -0.027276596113623111 0 0.21360323626451261 -0.02858374534336202 0 0.21528057420098159 -0.024212643874961401 0 0.2158000993154765 -0.027276596113623111 0 0.21995729679401421 -0.029331280632926501 0 0.2158000993154765 -0.027276596113623111 0 0.21503400689837671 -0.030930810510401429 0 0.21995729679401421 -0.029331280632926501 0 0.2158000993154765 -0.027276596113623111 0 0.21503400689837671 -0.030930810510401429 0 0.21360323626451261 -0.02858374534336202 0 0.21528057420098159 -0.024212643874961401 0 0.21360323626451261 -0.02858374534336202 0 0.20886364623554921 -0.031523512657201581 0 0.21503400689837671 -0.030930810510401429 0 0.21360323626451261 -0.02858374534336202 0 0.20886364623554921 -0.031523512657201581 0 0.2128060919330283 -0.035124071741943173 0 0.2180191377477218 -0.035203133534298187 0 0.2167024847658664 -0.043974661413588162 0 0.21503400689837671 -0.030930810510401429 0 0.2128060919330283 -0.035124071741943173 0 0.20886364623554921 -0.031523512657201581 0 0.21503400689837671 -0.030930810510401429 0 0.2128060919330283 -0.035124071741943173 0 0.2180191377477218 -0.035203133534298187 0 0.21503400689837671 -0.030930810510401429 0 0.2180191377477218 -0.035203133534298187 0 0.21995729679401421 -0.029331280632926501 0 0.2167024847658664 -0.043974661413588162 0 0.20890374551960481 -0.040729144831228678 0 0.20897987019450001 -0.050060865146210963 0 0.2128060919330283 -0.035124071741943173 0 0.2167024847658664 -0.043974661413588162 0 0.20890374551960481 -0.040729144831228678 0 0.20890374551960481 -0.040729144831228678 0 0.19655169947710091 -0.043788383486002072 0 0.20897987019450001 -0.050060865146210963 0 0.2128060919330283 -0.035124071741943173 0 0.20890374551960481 -0.040729144831228678 0 0.20886364623554921 -0.031523512657201581 0 0.20890374551960481 -0.040729144831228678 0 0.20886364623554921 -0.031523512657201581 0 0.19655169947710091 -0.043788383486002072 0 0.1828119860636557 -0.050363577362968731 0 0.18853740735089011 -0.033706188378118708 0 0.19655169947710091 -0.043788383486002072 0 0.20886364623554921 -0.031523512657201581 0 0.18853740735089011 -0.033706188378118708 0 0.19655169947710091 -0.043788383486002072 0 0.19655169947710091 -0.043788383486002072 0 0.20138343235632811 -0.055727139445542639 0 0.20897987019450001 -0.050060865146210963 0 0.19655169947710091 -0.043788383486002072 0 0.19188844298534441 -0.056659859735039647 0 0.20138343235632811 -0.055727139445542639 0 0.1828119860636557 -0.050363577362968731 0 0.19655169947710091 -0.043788383486002072 0 0.19188844298534441 -0.056659859735039647 0 0.19188844298534441 -0.056659859735039647 0 0.20138343235632811 -0.055727139445542639 0 0.1952329782378138 -0.068464889048657496 0 0.20138343235632811 -0.055727139445542639 0 0.22670270369963491 -0.067064047377793826 0 0.20138343235632811 -0.055727139445542639 0 0.21577564808412511 -0.056666161138016313 0 0.22670270369963491 -0.067064047377793826 0 0.20138343235632811 -0.055727139445542639 0 0.20897987019450001 -0.050060865146210963 0 0.21577564808412511 -0.056666161138016313 0 0.2167024847658664 -0.043974661413588162 0 0.20897987019450001 -0.050060865146210963 0 0.21577564808412511 -0.056666161138016313 0 0.21577564808412511 -0.056666161138016313 0 0.23694359709532001 -0.061394592404840097 0 0.22670270369963491 -0.067064047377793826 0 0.21577564808412511 -0.056666161138016313 0 0.22648325856373289 -0.049317463857355977 0 0.23694359709532001 -0.061394592404840097 0 0.21577564808412511 -0.056666161138016313 0 0.23694359709532001 -0.061394592404840097 0 0.2167024847658664 -0.043974661413588162 0 0.21577564808412511 -0.056666161138016313 0 0.22648325856373289 -0.049317463857355977 0 0.22648325856373289 -0.049317463857355977 0 0.23694359709532001 -0.061394592404840097 0 0.23716366819637241 -0.046229271507985323 0 0.25811154610651499 -0.066123023671663908 0 0.23694359709532001 -0.061394592404840097 0 0.24870160087168189 -0.052882304334001928 0 0.23694359709532001 -0.061394592404840097 0 0.24870160087168189 -0.052882304334001928 0 0.23716366819637241 -0.046229271507985323 0 0.24870160087168189 -0.052882304334001928 0 0.23716366819637241 -0.046229271507985323 0 0.24731406762381819 -0.035960341631652723 0 0.23716366819637241 -0.046229271507985323 0 0.24731406762381819 -0.035960341631652723 0 0.23342582712955959 -0.033308149953783547 0 0.23342582712955959 -0.033308149953783547 0 0.2258308946769807 -0.038322632822349968 0 0.22548915127375299 -0.027513718828695861 0 0.22648325856373289 -0.049317463857355977 0 0.23716366819637241 -0.046229271507985323 0 0.2258308946769807 -0.038322632822349968 0 0.23716366819637241 -0.046229271507985323 0 0.23342582712955959 -0.033308149953783547 0 0.2258308946769807 -0.038322632822349968 0 0.2180191377477218 -0.035203133534298187 0 0.2167024847658664 -0.043974661413588162 0 0.2258308946769807 -0.038322632822349968 0 0.2167024847658664 -0.043974661413588162 0 0.22648325856373289 -0.049317463857355977 0 0.2258308946769807 -0.038322632822349968 0 0.2180191377477218 -0.035203133534298187 0 0.2258308946769807 -0.038322632822349968 0 0.21995729679401421 -0.029331280632926501 0 0.2258308946769807 -0.038322632822349968 0 0.22548915127375299 -0.027513718828695861 0 0.21995729679401421 -0.029331280632926501 0 0.21528057420098159 -0.024212643874961401 0 0.2313313538768734 -0.018514784978234038 0 0.22829619310998309 -0.01520182636873813 0 0.21528057420098159 -0.024212643874961401 0 0.2313313538768734 -0.018514784978234038 0 0.21528057420098159 -0.024212643874961401 0 0.22548915127375299 -0.027513718828695861 0 0.2313313538768734 -0.018514784978234038 0 0.21528057420098159 -0.024212643874961401 0 0.22548915127375299 -0.027513718828695861 0 0.21995729679401421 -0.029331280632926501 0 0.21528057420098159 -0.024212643874961401 0 0.22829619310998309 -0.01520182636873813 0 0.21528057420098159 -0.024212643874961401 0 0.21911622703360889 -0.015650702578479541 0 0.22829619310998309 -0.01520182636873813 0 0.2313313538768734 -0.018514784978234038 0 0.22829619310998309 -0.01520182636873813 0 0.23342582712955959 -0.033308149953783547 0 0.22548915127375299 -0.027513718828695861 0 0.2313313538768734 -0.018514784978234038 0 0.25508119948702751 -0.010083838205662381 0 0.2313313538768734 -0.018514784978234038 0 0.2482857443068576 -0.021714794414400052 0 0.24731406762381819 -0.035960341631652723 0 0.2313313538768734 -0.018514784978234038 0 0.2482857443068576 -0.021714794414400052 0 0.24731406762381819 -0.035960341631652723 0 0.23342582712955959 -0.033308149953783547 0 0.2313313538768734 -0.018514784978234038 0 0.24731406762381819 -0.035960341631652723 0 0.2313313538768734 -0.018514784978234038 0 0.25508119948702751 -0.010083838205662381 0 0.2313313538768734 -0.018514784978234038 0 0.24138147174972829 -0.0061427828714447699 0 0.25508119948702751 -0.010083838205662381 0 0.2313313538768734 -0.018514784978234038 0 0.24138147174972829 -0.0061427828714447699 0 0.22829619310998309 -0.01520182636873813 0 0.25446675038947358 0.0029162606258486688 0 0.2541426920980116 -0.0036136263454906951 0 0.24138147174972829 -0.0061427828714447699 0 0.25446675038947358 0.0029162606258486688 0 0.24138147174972829 -0.0061427828714447699 0 0.22999165343287109 0.0038227322559807589 0 0.24138147174972829 -0.0061427828714447699 0 0.23189167676904729 -0.0064153040848911828 0 0.22999165343287109 0.0038227322559807589 0 0.23189167676904729 -0.0064153040848911828 0 0.2228246624943325 -0.0092295053444410857 0 0.22999165343287109 0.0038227322559807589 0 0.21351355446813719 -0.0021103410187178909 0 0.2228246624943325 -0.0092295053444410857 0 0.23189167676904729 -0.0064153040848911828 0 0.22829619310998309 -0.01520182636873813 0 0.2228246624943325 -0.0092295053444410857 0 0.2313313538768734 -0.018514784978234038 0 0.24138147174972829 -0.0061427828714447699 0 0.22829619310998309 -0.01520182636873813 0 0.24138147174972829 -0.0061427828714447699 0 0.23189167676904729 -0.0064153040848911828 0 0.22829619310998309 -0.01520182636873813 0 0.21911622703360889 -0.015650702578479541 0 0.22829619310998309 -0.01520182636873813 0 0.2228246624943325 -0.0092295053444410857 0 0.22829619310998309 -0.01520182636873813 0 0.2228246624943325 -0.0092295053444410857 0 0.2084634723971549 -0.097930235578601213 0 0.21737999015654699 -0.1103161024944793 0 0.2275791846540145 -0.10054182369239011 0 0.21737999015654699 -0.1103161024944793 0 0.19100769245097829 -0.1040519139747048 0 0.2084634723971549 -0.097930235578601213 0 0.21140608144591419 -0.084503356370523836 0 0.2275791846540145 -0.10054182369239011 0 0.2084634723971549 -0.097930235578601213 0 0.21737999015654699 -0.1103161024944793 0 0.19100769245097829 -0.1040519139747048 0 0.21737999015654699 -0.1103161024944793 0 0.21277072480774051 -0.1248863227998855 0 0.20025029595199689 -0.1218288277367077 0 0.21737999015654699 -0.1103161024944793 0 0.21277072480774051 -0.1248863227998855 0 0.2239597136694004 -0.1277946194696456 0 0.1862357176231304 -0.1238823921021804 0 0.20025029595199689 -0.1218288277367077 0 0.19100769245097829 -0.1040519139747048 0 0.21737999015654699 -0.1103161024944793 0 0.20025029595199689 -0.1218288277367077 0 0.19100769245097829 -0.1040519139747048 0 0.20025029595199689 -0.1218288277367077 0 0.19100769245097829 -0.1040519139747048 0 0.2084634723971549 -0.097930235578601213 0 0.19100769245097829 -0.1040519139747048 0 0.19624682445825681 -0.08914472739044943 0 0.18137547142311691 -0.085525622921553163 0 0.19100769245097829 -0.1040519139747048 0 0.19624682445825681 -0.08914472739044943 0 0.19624682445825681 -0.08914472739044943 0 0.1952329782378138 -0.068464889048657496 0 0.21140608144591419 -0.084503356370523836 0 0.18137547142311691 -0.085525622921553163 0 0.19624682445825681 -0.08914472739044943 0 0.1952329782378138 -0.068464889048657496 0 0.20138343235632811 -0.055727139445542639 0 0.1952329782378138 -0.068464889048657496 0 0.21149591893834541 -0.070957707586151192 0 0.18346211879182289 -0.064955309332027283 0 0.19188844298534441 -0.056659859735039647 0 0.1952329782378138 -0.068464889048657496 0 0.1952329782378138 -0.068464889048657496 0 0.21140608144591419 -0.084503356370523836 0 0.20138343235632811 -0.055727139445542639 0 0.21149591893834541 -0.070957707586151192 0 0.22670270369963491 -0.067064047377793826 0 0.1952329782378138 -0.068464889048657496 0 0.21149591893834541 -0.070957707586151192 0 0.21140608144591419 -0.084503356370523836 0 0.2084634723971549 -0.097930235578601213 0 0.19624682445825681 -0.08914472739044943 0 0.21140608144591419 -0.084503356370523836 0 0.21149591893834541 -0.070957707586151192 0 0.21140608144591419 -0.084503356370523836 0 0.2227543989520358 -0.079029105688238177 0 0.21140608144591419 -0.084503356370523836 0 0.2275791846540145 -0.10054182369239011 0 0.2227543989520358 -0.079029105688238177 0 0.23449163343577681 -0.083610487294907485 0 0.2275791846540145 -0.10054182369239011 0 0.21140608144591419 -0.084503356370523836 0 0.2227543989520358 -0.079029105688238177 0 0.2275791846540145 -0.10054182369239011 0 0.2227543989520358 -0.079029105688238177 0 0.22670270369963491 -0.067064047377793826 0 0.23449163343577681 -0.083610487294907485 0 0.21149591893834541 -0.070957707586151192 0 0.2227543989520358 -0.079029105688238177 0 0.22670270369963491 -0.067064047377793826 0 0.25202197504294188 -0.078400955310045109 0 0.25811154610651499 -0.066123023671663908 0 0.23694359709532001 -0.061394592404840097 0 0.25202197504294188 -0.078400955310045109 0 0.22670270369963491 -0.067064047377793826 0 0.25202197504294188 -0.078400955310045109 0 0.22670270369963491 -0.067064047377793826 0 0.23449163343577681 -0.083610487294907485 0 0.25202197504294188 -0.078400955310045109 0 0.23694359709532001 -0.061394592404840097 0 0.22670270369963491 -0.067064047377793826 0 0.25811154610651499 -0.066123023671663908 0 0.23694359709532001 -0.061394592404840097 0 0.25202197504294188 -0.078400955310045109 0 0.23449163343577681 -0.083610487294907485 0 0.24624903761231479 -0.086847438891893419 0 0.23449163343577681 -0.083610487294907485 0 0.24292322406264641 -0.096552741650977186 0 0.2275791846540145 -0.10054182369239011 0 0.23449163343577681 -0.083610487294907485 0 0.24624903761231479 -0.086847438891893419 0 0.24292322406264641 -0.096552741650977186 0 0.25304747237378489 -0.090741332181114118 0 0.24624903761231479 -0.086847438891893419 0 0.24292322406264641 -0.096552741650977186 0 0.2275791846540145 -0.10054182369239011 0 0.24375228786211539 -0.116580291014256 0 0.24292322406264641 -0.096552741650977186 0 0.2275791846540145 -0.10054182369239011 0 0.24375228786211539 -0.116580291014256 0 0.25771864553297669 -0.099620140202181948 0 0.24292322406264641 -0.096552741650977186 0 0.24375228786211539 -0.116580291014256 0 0.21737999015654699 -0.1103161024944793 0 0.2275791846540145 -0.10054182369239011 0 0.24375228786211539 -0.116580291014256 0 0.21737999015654699 -0.1103161024944793 0 0.24375228786211539 -0.116580291014256 0 0.2239597136694004 -0.1277946194696456 0 0.21737999015654699 -0.1103161024944793 0 0.24375228786211539 -0.116580291014256 0 0.24375228786211539 -0.116580291014256 0 0.235054631712311 -0.13955626642273861 0 0.24955680073527009 -0.143898101237383 0 0.235054631712311 -0.13955626642273861 0 0.24955680073527009 -0.143898101237383 0 0.23627457688356679 -0.15840319400941011 0 0.25449645062408999 -0.16331052089379791 0 0.24955680073527009 -0.143898101237383 0 0.23627457688356679 -0.15840319400941011 0 0.235054631712311 -0.13955626642273861 0 0.22199130801810529 -0.1478171468904442 0 0.23627457688356679 -0.15840319400941011 0 0.24375228786211539 -0.116580291014256 0 0.235054631712311 -0.13955626642273861 0 0.2239597136694004 -0.1277946194696456 0 0.235054631712311 -0.13955626642273861 0 0.22199130801810529 -0.1478171468904442 0 0.2239597136694004 -0.1277946194696456 0 0.20025029595199689 -0.1218288277367077 0 0.20949289945301761 -0.1396057414987095 0 0.22199130801810529 -0.1478171468904442 0 0.2239597136694004 -0.1277946194696456 0 0.20949289945301761 -0.1396057414987095 0 0.21277072480774051 -0.1248863227998855 0 0.20025029595199689 -0.1218288277367077 0 0.20949289945301761 -0.1396057414987095 0 0.21277072480774051 -0.1248863227998855 0 0.2239597136694004 -0.1277946194696456 0 0.20949289945301761 -0.1396057414987095 0 0.22199130801810529 -0.1478171468904442 0 0.20949289945301761 -0.1396057414987095 0 0.2069794531536403 -0.1537888919124783 0 0.20949289945301761 -0.1396057414987095 0 0.2069794531536403 -0.1537888919124783 0 0.1919305776748628 -0.1461990482496055 0 0.2069794531536403 -0.1537888919124783 0 0.1919305776748628 -0.1461990482496055 0 0.19225769977326759 -0.16432491474026781 0 0.1862357176231304 -0.1238823921021804 0 0.1919305776748628 -0.1461990482496055 0 0.19714487019074359 -0.1333469628700395 0 0.20025029595199689 -0.1218288277367077 0 0.20949289945301761 -0.1396057414987095 0 0.19714487019074359 -0.1333469628700395 0 0.20949289945301761 -0.1396057414987095 0 0.1919305776748628 -0.1461990482496055 0 0.19714487019074359 -0.1333469628700395 0 0.1862357176231304 -0.1238823921021804 0 0.1919305776748628 -0.1461990482496055 0 0.1862357176231304 -0.1238823921021804 0 0.20025029595199689 -0.1218288277367077 0 0.19714487019074359 -0.1333469628700395 0 0.19629081049063871 -0.1815365299480412 0 0.19225769977326759 -0.16432491474026781 0 0.17982600751226671 -0.1762593337595659 0 0.19629081049063871 -0.1815365299480412 0 0.19225769977326759 -0.16432491474026781 0 0.22018657323669569 -0.16775416802968299 0 0.2069794531536403 -0.1537888919124783 0 0.19225769977326759 -0.16432491474026781 0 0.22018657323669569 -0.16775416802968299 0 0.22199130801810529 -0.1478171468904442 0 0.2069794531536403 -0.1537888919124783 0 0.22018657323669569 -0.16775416802968299 0 0.19629081049063871 -0.1815365299480412 0 0.22018657323669569 -0.16775416802968299 0 0.21237941264848451 -0.18810475376770611 0 0.22018657323669569 -0.16775416802968299 0 0.23934418379307471 -0.18436482883247621 0 0.22018657323669569 -0.16775416802968299 0 0.23934418379307471 -0.18436482883247621 0 0.21237941264848451 -0.18810475376770611 0 0.22018657323669569 -0.16775416802968299 0 0.23627457688356679 -0.15840319400941011 0 0.23934418379307471 -0.18436482883247621 0 0.22199130801810529 -0.1478171468904442 0 0.22018657323669569 -0.16775416802968299 0 0.23627457688356679 -0.15840319400941011 0 0.25449645062408999 -0.16331052089379791 0 0.23627457688356679 -0.15840319400941011 0 0.23934418379307471 -0.18436482883247621 0 0.25850179434945381 -0.20097548963526929 0 0.23934418379307471 -0.18436482883247621 0 0.25850179434945381 -0.20097548963526929 0 0.23934418379307471 -0.18436482883247621 0 0.23907695871134879 -0.21289681242661959 0 0.23907695871134879 -0.21289681242661959 0 0.22308479462261119 -0.20217133576560289 0 0.21722062693650279 -0.2226466586169516 0 0.23934418379307471 -0.18436482883247621 0 0.22308479462261119 -0.20217133576560289 0 0.21237941264848451 -0.18810475376770611 0 0.23934418379307471 -0.18436482883247621 0 0.23907695871134879 -0.21289681242661959 0 0.22308479462261119 -0.20217133576560289 0 0.25037283077400019 -0.2416092145933311 0 0.23239962387573149 -0.2337287944253621 0 0.2339549802858914 -0.24933471903745599 0 0.25658827463044448 -0.2222138965281123 0 0.23907695871134879 -0.21289681242661959 0 0.2446094219978813 -0.2276121794933563 0 0.25037283077400019 -0.2416092145933311 0 0.2446094219978813 -0.2276121794933563 0 0.23239962387573149 -0.2337287944253621 0 0.23907695871134879 -0.21289681242661959 0 0.2446094219978813 -0.2276121794933563 0 0.23239962387573149 -0.2337287944253621 0 0.23907695871134879 -0.21289681242661959 0 0.23239962387573149 -0.2337287944253621 0 0.21722062693650279 -0.2226466586169516 0 0.23239962387573149 -0.2337287944253621 0 0.2194561222393229 -0.23682627783696539 0 0.21722062693650279 -0.2226466586169516 0 0.23239962387573149 -0.2337287944253621 0 0.22502312889380549 -0.2426362774769398 0 0.2339549802858914 -0.24933471903745599 0 0.2194561222393229 -0.23682627783696539 0 0.22502312889380549 -0.2426362774769398 0 0.21456577207223029 -0.24270171036535029 0 0.23239962387573149 -0.2337287944253621 0 0.2194561222393229 -0.23682627783696539 0 0.22502312889380549 -0.2426362774769398 0 0.22331750647786899 -0.25281133177650322 0 0.22502312889380549 -0.2426362774769398 0 0.21456577207223029 -0.24270171036535029 0 0.22331750647786899 -0.25281133177650322 0 0.22502312889380549 -0.2426362774769398 0 0.2339549802858914 -0.24933471903745599 0 0.2084475354763706 -0.25511513831035743 0 0.2080714594183444 -0.2424179483002232 0 0.21336353465090491 -0.24693864317134839 0 0.2080714594183444 -0.2424179483002232 0 0.21336353465090491 -0.24693864317134839 0 0.2080714594183444 -0.2424179483002232 0 0.21336353465090491 -0.24693864317134839 0 0.21456577207223029 -0.24270171036535029 0 0.2194561222393229 -0.23682627783696539 0 0.2080714594183444 -0.2424179483002232 0 0.21456577207223029 -0.24270171036535029 0 0.21722062693650279 -0.2226466586169516 0 0.20244123733496699 -0.2260211367091485 0 0.19848523837712481 -0.2136299623964425 0 0.2080714594183444 -0.2424179483002232 0 0.21722062693650279 -0.2226466586169516 0 0.2194561222393229 -0.23682627783696539 0 0.2080714594183444 -0.2424179483002232 0 0.21722062693650279 -0.2226466586169516 0 0.2080714594183444 -0.2424179483002232 0 0.21722062693650279 -0.2226466586169516 0 0.20244123733496699 -0.2260211367091485 0 0.2080714594183444 -0.2424179483002232 0 0.18716213711817259 -0.22455639835484539 0 0.2080714594183444 -0.2424179483002232 0 0.20244123733496699 -0.2260211367091485 0 0.18716213711817259 -0.22455639835484539 0 0.20244123733496699 -0.2260211367091485 0 0.19848523837712481 -0.2136299623964425 0 0.18716213711817259 -0.22455639835484539 0 0.2080714594183444 -0.2424179483002232 0 0.19254414318066221 -0.24961624770678509 0 0.1866817818972302 -0.23981118877977231 0 0.2080714594183444 -0.2424179483002232 0 0.1866817818972302 -0.23981118877977231 0 0.18716213711817259 -0.22455639835484539 0 0.19254414318066221 -0.24961624770678509 0 0.18399505531774341 -0.24981832115951039 0 0.1866817818972302 -0.23981118877977231 0 0.21237941264848451 -0.18810475376770611 0 0.20793523744788639 -0.20366419955677639 0 0.19447652973028121 -0.19759128756789451 0 0.22308479462261119 -0.20217133576560289 0 0.21237941264848451 -0.18810475376770611 0 0.20793523744788639 -0.20366419955677639 0 0.22308479462261119 -0.20217133576560289 0 0.21722062693650279 -0.2226466586169516 0 0.20793523744788639 -0.20366419955677639 0 0.21722062693650279 -0.2226466586169516 0 0.20793523744788639 -0.20366419955677639 0 0.19848523837712481 -0.2136299623964425 0 0.19848523837712481 -0.2136299623964425 0 0.19447652973028121 -0.19759128756789451 0 0.1831457957419608 -0.2071674304332729 0 0.20793523744788639 -0.20366419955677639 0 0.19848523837712481 -0.2136299623964425 0 0.19447652973028121 -0.19759128756789451 0 0.19848523837712481 -0.2136299623964425 0 0.1831457957419608 -0.2071674304332729 0 0.18716213711817259 -0.22455639835484539 0 0.19629081049063871 -0.1815365299480412 0 0.19447652973028121 -0.19759128756789451 0 0.1840061663436266 -0.1900566622106199 0 0.19629081049063871 -0.1815365299480412 0 0.21237941264848451 -0.18810475376770611 0 0.19447652973028121 -0.19759128756789451 0 0.19447652973028121 -0.19759128756789451 0 0.1840061663436266 -0.1900566622106199 0 0.1831457957419608 -0.2071674304332729 0 0.1840061663436266 -0.1900566622106199 0 0.1831457957419608 -0.2071674304332729 0 0.16486725365112659 -0.18785963188663279 0 0.1831457957419608 -0.2071674304332729 0 0.16486725365112659 -0.18785963188663279 0 0.1831457957419608 -0.2071674304332729 0 0.16625281481800089 -0.2066948484094672 0 0.18716213711817259 -0.22455639835484539 0 0.16625281481800089 -0.2066948484094672 0 0.18716213711817259 -0.22455639835484539 0 0.16625281481800089 -0.2066948484094672 0 0.18716213711817259 -0.22455639835484539 0 0.16937657335138201 -0.22198425569814831 0 0.16625281481800089 -0.2066948484094672 0 0.15661990237239229 -0.21733625041789439 0 0.14909823278687431 -0.20687378182447139 0 0.16625281481800089 -0.2066948484094672 0 0.15661990237239229 -0.21733625041789439 0 0.16937657335138201 -0.22198425569814831 0 0.1831457957419608 -0.2071674304332729 0 0.16625281481800089 -0.2066948484094672 0 0.16486725365112659 -0.18785963188663279 0 0.16625281481800089 -0.2066948484094672 0 0.16486725365112659 -0.18785963188663279 0 0.14534349251782941 -0.188833298464089 0 0.17619278994504239 -0.24587918172992959 0 0.18399505531774341 -0.24981832115951039 0 0.1866817818972302 -0.23981118877977231 0 0.17619278994504239 -0.24587918172992959 0 0.17450151464944069 -0.23276490516368609 0 0.16609645978724119 -0.24143951784646769 0 0.17619278994504239 -0.24587918172992959 0 0.1866817818972302 -0.23981118877977231 0 0.17450151464944069 -0.23276490516368609 0 0.17450151464944069 -0.23276490516368609 0 0.18716213711817259 -0.22455639835484539 0 0.16937657335138201 -0.22198425569814831 0 0.1866817818972302 -0.23981118877977231 0 0.17450151464944069 -0.23276490516368609 0 0.18716213711817259 -0.22455639835484539 0 0.15661990237239229 -0.21733625041789439 0 0.1623464977989032 -0.22856887614484861 0 0.15090654410468329 -0.22688320449844629 0 0.15661990237239229 -0.21733625041789439 0 0.16937657335138201 -0.22198425569814831 0 0.1623464977989032 -0.22856887614484861 0 0.17450151464944069 -0.23276490516368609 0 0.1623464977989032 -0.22856887614484861 0 0.16609645978724119 -0.24143951784646769 0 0.17450151464944069 -0.23276490516368609 0 0.16937657335138201 -0.22198425569814831 0 0.1623464977989032 -0.22856887614484861 0 0.1623464977989032 -0.22856887614484861 0 0.16609645978724119 -0.24143951784646769 0 0.1528270009437688 -0.23836283418195289 0 0.16001236861667459 -0.2513654190734112 0 0.16609645978724119 -0.24143951784646769 0 0.1528270009437688 -0.23836283418195289 0 0.16978669848249819 -0.25098739912941831 0 0.17619278994504239 -0.24587918172992959 0 0.16609645978724119 -0.24143951784646769 0 0.16001236861667459 -0.2513654190734112 0 0.16978669848249819 -0.25098739912941831 0 0.16609645978724119 -0.24143951784646769 0 0.1429630926125974 -0.2502577086919005 0 0.16001236861667459 -0.2513654190734112 0 0.1528270009437688 -0.23836283418195289 0 0.1429630926125974 -0.2502577086919005 0 0.1528270009437688 -0.23836283418195289 0 0.13988621804673579 -0.23152362256679451 0 0.1528270009437688 -0.23836283418195289 0 0.15090654410468329 -0.22688320449844629 0 0.13988621804673579 -0.23152362256679451 0 0.1623464977989032 -0.22856887614484861 0 0.1528270009437688 -0.23836283418195289 0 0.15090654410468329 -0.22688320449844629 0 0.15661990237239229 -0.21733625041789439 0 0.15090654410468329 -0.22688320449844629 0 0.1428531013616163 -0.21862443918074129 0 0.15090654410468329 -0.22688320449844629 0 0.13988621804673579 -0.23152362256679451 0 0.1428531013616163 -0.21862443918074129 0 0.12018370186474731 -0.23305432747703519 0 0.12895394136930069 -0.22163642029703709 0 0.13988621804673579 -0.23152362256679451 0 0.12895394136930069 -0.22163642029703709 0 0.13988621804673579 -0.23152362256679451 0 0.1428531013616163 -0.21862443918074129 0 0.1429630926125974 -0.2502577086919005 0 0.12018370186474731 -0.23305432747703519 0 0.1429630926125974 -0.2502577086919005 0 0.12018370186474731 -0.23305432747703519 0 0.13988621804673579 -0.23152362256679451 0 0.13217397618885759 -0.25462043987800831 0 0.1429630926125974 -0.2502577086919005 0 0.12018370186474731 -0.23305432747703519 0 0.16625281481800089 -0.2066948484094672 0 0.14534349251782941 -0.188833298464089 0 0.16625281481800089 -0.2066948484094672 0 0.14534349251782941 -0.188833298464089 0 0.14909823278687431 -0.20687378182447139 0 0.14534349251782941 -0.188833298464089 0 0.14909823278687431 -0.20687378182447139 0 0.1346280568372662 -0.20359450925845249 0 0.15661990237239229 -0.21733625041789439 0 0.14909823278687431 -0.20687378182447139 0 0.1428531013616163 -0.21862443918074129 0 0.14909823278687431 -0.20687378182447139 0 0.1428531013616163 -0.21862443918074129 0 0.1346280568372662 -0.20359450925845249 0 0.1178461100078927 -0.20838697738218431 0 0.12895394136930069 -0.22163642029703709 0 0.1346280568372662 -0.20359450925845249 0 0.12895394136930069 -0.22163642029703709 0 0.1428531013616163 -0.21862443918074129 0 0.1346280568372662 -0.20359450925845249 0 0.14534349251782941 -0.188833298464089 0 0.1346280568372662 -0.20359450925845249 0 0.13128332926409281 -0.18787359724935929 0 0.1237689835273371 -0.19605207676116951 0 0.1178461100078927 -0.20838697738218431 0 0.1346280568372662 -0.20359450925845249 0 0.1237689835273371 -0.19605207676116951 0 0.1346280568372662 -0.20359450925845249 0 0.13128332926409281 -0.18787359724935929 0 0.1237689835273371 -0.19605207676116951 0 0.1232013989280239 -0.1819146573535104 0 0.13128332926409281 -0.18787359724935929 0 0.12443417021765769 -0.1709717485187108 0 0.14534349251782941 -0.188833298464089 0 0.12443417021765769 -0.1709717485187108 0 0.1232013989280239 -0.1819146573535104 0 0.13128332926409281 -0.18787359724935929 0 0.12443417021765769 -0.1709717485187108 0 0.14534349251782941 -0.188833298464089 0 0.13128332926409281 -0.18787359724935929 0 0.12443417021765769 -0.1709717485187108 0 0.14534349251782941 -0.188833298464089 0 0.13540865390058859 -0.1688207667960602 0 0.14534349251782941 -0.188833298464089 0 0.14658871156029241 -0.16855183333999291 0 0.13540865390058859 -0.1688207667960602 0 0.16486725365112659 -0.18785963188663279 0 0.14658871156029241 -0.16855183333999291 0 0.16486725365112659 -0.18785963188663279 0 0.14534349251782941 -0.188833298464089 0 0.14658871156029241 -0.16855183333999291 0 0.14658871156029241 -0.16855183333999291 0 0.13391177650968769 -0.15242347890466901 0 0.14971917460686079 -0.1530450482394467 0 0.14658871156029241 -0.16855183333999291 0 0.14971917460686079 -0.1530450482394467 0 0.16192904395431579 -0.15800089119817939 0 0.14658871156029241 -0.16855183333999291 0 0.13391177650968769 -0.15242347890466901 0 0.12831016946945831 -0.1492440347933528 0 0.14658871156029241 -0.16855183333999291 0 0.12831016946945831 -0.1492440347933528 0 0.14658871156029241 -0.16855183333999291 0 0.13540865390058859 -0.1688207667960602 0 0.1290045142054978 -0.1612372837293575 0 0.14658871156029241 -0.16855183333999291 0 0.1290045142054978 -0.1612372837293575 0 0.12831016946945831 -0.1492440347933528 0 0.13540865390058859 -0.1688207667960602 0 0.12715697753007521 -0.16591248018761531 0 0.1290045142054978 -0.1612372837293575 0 0.12443417021765769 -0.1709717485187108 0 0.13540865390058859 -0.1688207667960602 0 0.12715697753007521 -0.16591248018761531 0 0.12098675462827781 -0.16200852072179159 0 0.12715697753007521 -0.16591248018761531 0 0.1290045142054978 -0.1612372837293575 0 0.12324902196630889 -0.15465793599018671 0 0.1227471198665283 -0.15880086614903269 0 0.1290045142054978 -0.1612372837293575 0 0.13391177650968769 -0.15242347890466901 0 0.12831016946945831 -0.1492440347933528 0 0.12532898621889721 -0.13663811256420449 0 0.12324902196630889 -0.15465793599018671 0 0.1290045142054978 -0.1612372837293575 0 0.12831016946945831 -0.1492440347933528 0 0.1217036921304827 -0.1482443959076799 0 0.12831016946945831 -0.1492440347933528 0 0.12532898621889721 -0.13663811256420449 0 0.13391177650968769 -0.15242347890466901 0 0.13188977167139071 -0.12546883223523481 0 0.13391177650968769 -0.15242347890466901 0 0.13188977167139071 -0.12546883223523481 0 0.1446303542042412 -0.1380662602394005 0 0.13391177650968769 -0.15242347890466901 0 0.13188977167139071 -0.12546883223523481 0 0.12532898621889721 -0.13663811256420449 0 0.11997683785091839 -0.1276371159963853 0 0.13188977167139071 -0.12546883223523481 0 0.12532898621889721 -0.13663811256420449 0 0.1446303542042412 -0.1380662602394005 0 0.15557261582888751 -0.13003178131142151 0 0.1621281360659286 -0.14191921566573409 0 0.14724036225017881 -0.1245170930860646 0 0.13188977167139071 -0.12546883223523481 0 0.1446303542042412 -0.1380662602394005 0 0.14724036225017881 -0.1245170930860646 0 0.1446303542042412 -0.1380662602394005 0 0.15557261582888751 -0.13003178131142151 0 0.13391177650968769 -0.15242347890466901 0 0.1446303542042412 -0.1380662602394005 0 0.14971917460686079 -0.1530450482394467 0 0.1446303542042412 -0.1380662602394005 0 0.14971917460686079 -0.1530450482394467 0 0.1621281360659286 -0.14191921566573409 0 0.1621281360659286 -0.14191921566573409 0 0.17324983187337631 -0.13165498831909611 0 0.17651024624945799 -0.1485415537171802 0 0.14971917460686079 -0.1530450482394467 0 0.1621281360659286 -0.14191921566573409 0 0.16192904395431579 -0.15800089119817939 0 0.1621281360659286 -0.14191921566573409 0 0.17651024624945799 -0.1485415537171802 0 0.16192904395431579 -0.15800089119817939 0 0.16471491079178111 -0.1205264202314431 0 0.15557261582888751 -0.13003178131142151 0 0.1639163736399934 -0.1310331013819237 0 0.15557261582888751 -0.13003178131142151 0 0.1621281360659286 -0.14191921566573409 0 0.1639163736399934 -0.1310331013819237 0 0.1621281360659286 -0.14191921566573409 0 0.1639163736399934 -0.1310331013819237 0 0.17324983187337631 -0.13165498831909611 0 0.16471491079178111 -0.1205264202314431 0 0.1639163736399934 -0.1310331013819237 0 0.17324983187337631 -0.13165498831909611 0 0.1862357176231304 -0.1238823921021804 0 0.1919305776748628 -0.1461990482496055 0 0.17324983187337631 -0.13165498831909611 0 0.1919305776748628 -0.1461990482496055 0 0.17324983187337631 -0.13165498831909611 0 0.17651024624945799 -0.1485415537171802 0 0.1919305776748628 -0.1461990482496055 0 0.19225769977326759 -0.16432491474026781 0 0.17651024624945799 -0.1485415537171802 0 0.19225769977326759 -0.16432491474026781 0 0.17526083145963689 -0.16308053239281189 0 0.17982600751226671 -0.1762593337595659 0 0.19225769977326759 -0.16432491474026781 0 0.17651024624945799 -0.1485415537171802 0 0.17526083145963689 -0.16308053239281189 0 0.17526083145963689 -0.16308053239281189 0 0.17982600751226671 -0.1762593337595659 0 0.16627328335530381 -0.17069773137902189 0 0.1840061663436266 -0.1900566622106199 0 0.16486725365112659 -0.18785963188663279 0 0.17982600751226671 -0.1762593337595659 0 0.19629081049063871 -0.1815365299480412 0 0.1840061663436266 -0.1900566622106199 0 0.17982600751226671 -0.1762593337595659 0 0.16486725365112659 -0.18785963188663279 0 0.14658871156029241 -0.16855183333999291 0 0.16627328335530381 -0.17069773137902189 0 0.16486725365112659 -0.18785963188663279 0 0.17982600751226671 -0.1762593337595659 0 0.16627328335530381 -0.17069773137902189 0 0.14658871156029241 -0.16855183333999291 0 0.16192904395431579 -0.15800089119817939 0 0.16627328335530381 -0.17069773137902189 0 0.17526083145963689 -0.16308053239281189 0 0.16192904395431579 -0.15800089119817939 0 0.16627328335530381 -0.17069773137902189 0 0.17651024624945799 -0.1485415537171802 0 0.17526083145963689 -0.16308053239281189 0 0.16192904395431579 -0.15800089119817939 0 
</DataArray>
</Points>
<Cells>
<DataArray type="UInt32" Name="connectivity" format="ascii">
0 1 2 3 4 5 6 7 8 9 10 11 12 13 14 15 16 17 18 19 20 21 22 23 24 25 26 27 28 29 30 31 32 33 34 35 36 37 38 39 40 41 42 43 44 45 46 47 48 49 50 51 52 53 54 55 56 57 58 59 60 61 62 63 64 65 66 67 68 69 70 71 72 73 74 75 76 77 78 79 80 81 82 83 84 85 86 87 88 89 90 91 92 93 94 95 96 97 98 99 100 101 102 103 104 105 106 107 108 109 110 111 112 113 114 115 116 117 118 119 120 121 122 123 124 125 126 127 128 129 130 131 132 133 134 135 136 137 138 139 140 141 142 143 144 145 146 147 148 149 150 151 152 153 154 155 156 157 158 159 160 161 162 163 164 165 166 167 168 169 170 171 172 173 174 175 176 177 178 179 180 181 182 183 184 185 186 187 188 189 190 191 192 193 194 195 196 197 198 199 200 201 202 203 204 205 206 207 208 209 210 211 212 213 214 215 216 217 218 219 220 221 222 223 224 225 226 227 228 229 230 231 232 233 234 235 236 237 238 239 240 241 242 243 244 245 246 247 248 249 250 251 252 253 254 255 256 257 258 259 260 261 262 263 264 265 266 267 268 269 270 271 272 273 274 275 276 277 278 279 280 281 282 283 284 285 286 287 288 289 290 291 292 293 294 295 296 297 298 299 300 301 302 303 304 305 306 307 308 309 310 311 312 313 314 315 316 317 318 319 320 321 322 323 324 325 326 327 328 329 330 331 332 333 334 335 336 337 338 339 340 341 342 343 344 345 346 347 348 349 350 351 352 353 354 355 356 357 358 359 360 361 362 363 364 365 366 367 368 369 370 371 372 373 374 375 376 377 378 379 380 381 382 383 384 385 386 387 388 389 390 391 392 393 394 395 396 397 398 399 400 401 402 403 404 405 406 407 408 409 410 411 412 413 414 415 416 417 418 419 420 421 422 423 424 425 426 427 428 429 430 431 432 433 434 435 436 437 438 439 440 441 442 443 444 445 446 447 448 449 450 451 452 453 454 455 456 457 458 459 460 461 462 463 464 465 466 467 468 469 470 471 472 473 474 475 476 477 478 479 480 481 482 483 484 485 486 487 488 489 490 491 492 493 494 495 496 497 498 499 500 501 502 503 504 505 506 507 508 509 510 511 512 513 514 515 516 517 518 519 520 521 522 523 524 525 526 527 528 529 530 531 532 533 534 535 536 537 538 539 540 541 542 543 544 545 546 547 548 549 550 551 552 553 554 555 556 557 558 559 560 561 562 563 564 565 566 567 568 569 570 571 572 573 574 575 576 577 578 579 580 581 582 583 584 585 586 587 588 589 590 591 592 593 594 595 596 597 598 599 600 601 602 603 604 605 606 607 608 609 610 611 612 613 614 615 616 617 618 619 620 621 622 623 624 625 626 627 628 629 630 631 632 633 634 635 636 637 638 639 640 641 642 643 644 645 646 647 648 649 650 651 652 653 654 655 656 657 658 659 660 661 662 663 664 665 666 667 668 669 670 671 672 673 674 675 676 677 678 679 680 681 682 683 684 685 686 687 688 689 690 691 692 693 694 695 696 697 698 699 700 701 702 703 704 705 706 707 708 709 710 711 712 713 714 715 716 717 718 719 720 721 722 723 724 725 726 727 728 729 730 731 732 733 734 735 736 737 738 739 740 741 742 743 744 745 746 747 748 749 750 751 752 753 754 755 756 757 758 759 760 761 762 763 764 765 766 767 768 769 770 771 772 773 774 775 776 777 778 779 780 781 782 783 784 785 786 787 788 789 790 791 792 793 794 795 796 797 798 799 800 801 802 803 804 805 806 807 808 809 810 811 812 813 814 815 816 817 818 819 820 821 822 823 824 825 826 827 828 829 830 831 832 833 834 835 836 837 838 839 840 841 842 843 844 845 846 847 848 849 850 851 852 853 854 855 856 857 858 859 860 861 862 863 864 865 866 867 868 869 870 871 872 873 874 875 876 877 878 879 880 881 882 883 884 885 886 887 888 889 890 891 892 893 894 895 896 897 898 899 900 901 902 903 904 905 906 907 908 909 910 911 912 913 914 915 916 917 918 919 920 921 922 923 924 925 926 927 928 929 930 931 932 933 934 935 936 937 938 939 940 941 942 943 944 945 946 947 948 949 950 951 952 953 954 955 956 957 958 959 960 961 962 963 964 965 966 967 968 969 970 971 972 973 974 975 976 977 978 979 980 981 982 983 984 985 986 987 988 989 990 991 992 993 994 995 996 997 998 999 1000 1001 1002 1003 1004 1005 1006 1007 1008 1009 1010 1011 1012 1013 1014 1015 1016 1017 1018 1019 1020 1021 1022 1023 1024 1025 1026 1027 1028 1029 1030 1031 1032 1033 1034 1035 1036 1037 1038 1039 1040 1041 1042 1043 1044 1045 1046 1047 1048 1049 1050 1051 1052 1053 1054 1055 1056 1057 1058 1059 1060 1061 1062 1063 1064 1065 1066 1067 1068 1069 1070 1071 1072 1073 1074 1075 1076 1077 1078 1079 1080 1081 1082 1083 1084 1085 1086 1087 1088 1089 1090 1091 1092 1093 1094 1095 1096 1097 1098 1099 1100 1101 1102 1103 1104 1105 1106 1107 1108 1109 1110 1111 1112 1113 1114 1115 1116 1117 1118 1119 1120 1121 1122 1123 1124 1125 1126 1127 1128 1129 1130 1131 1132 1133 1134 1135 1136 1137 1138 1139 1140 1141 1142 1143 1144 1145 1146 1147 1148 1149 1150 1151 1152 1153 1154 1155 1156 1157 1158 1159 1160 1161 1162 1163 1164 1165 1166 1167 1168 1169 1170 1171 1172 1173 1174 1175 1176 1177 1178 1179 1180 1181 1182 1183 1184 1185 1186 1187 1188 1189 1190 1191 1192 1193 1194 1195 1196 1197 1198 1199 1200 1201 1202 1203 1204 1205 1206 1207 1208 1209 1210 1211 1212 1213 1214 1215 1216 1217 1218 1219 1220 1221 1222 1223 1224 1225 1226 1227 1228 1229 1230 1231 1232 1233 1234 1235 1236 1237 1238 1239 1240 1241 1242 1243 1244 1245 1246 1247 1248 1249 1250 1251 1252 1253 1254 1255 1256 1257 1258 1259 1260 1261 1262 1263 1264 1265 1266 1267 1268 1269 1270 1271 1272 1273 1274 1275 1276 1277 1278 1279 1280 1281 1282 1283 1284 1285 1286 1287 1288 1289 1290 1291 1292 1293 1294 1295 1296 1297 1298 1299 1300 1301 1302 1303 1304 1305 1306 1307 1308 1309 1310 1311 1312 1313 1314 1315 1316 1317 1318 1319 1320 1321 1322 1323 1324 1325 1326 1327 1328 1329 1330 1331 1332 1333 1334 1335 1336 1337 1338 1339 1340 1341 1342 1343 1344 1345 1346 1347 1348 1349 1350 1351 1352 1353 1354 1355 1356 1357 1358 1359 1360 1361 1362 1363 1364 1365 1366 1367 1368 1369 1370 1371 1372 1373 1374 1375 1376 1377 1378 1379 1380 1381 1382 1383 1384 1385 1386 1387 1388 1389 1390 1391 1392 1393 1394 1395 1396 1397 1398 1399 1400 1401 1402 1403 1404 1405 1406 1407 1408 1409 1410 1411 1412 1413 1414 1415 1416 1417 1418 1419 1420 1421 1422 1423 1424 1425 1426 1427 1428 1429 1430 1431 1432 1433 1434 1435 1436 1437 1438 1439 1440 1441 1442 1443 1444 1445 1446 1447 1448 1449 1450 1451 1452 1453 1454 1455 1456 1457 1458 1459 1460 1461 1462 1463 1464 1465 1466 1467 1468 1469 1470 1471 1472 1473 1474 1475 1476 1477 1478 1479 1480 1481 1482 1483 1484 1485 1486 1487 1488 1489 1490 1491 1492 1493 1494 1495 1496 1497 1498 1499 1500 1501 1502 1503 1504 1505 1506 1507 1508 1509 1510 1511 1512 1513 1514 1515 1516 1517 1518 1519 1520 1521 1522 1523 1524 1525 1526 1527 1528 1529 1530 1531 1532 1533 1534 1535 1536 1537 1538 1539 1540 1541 1542 1543 1544 1545 1546 1547 1548 1549 1550 1551 1552 1553 1554 1555 1556 1557 1558 1559 1560 1561 1562 1563 1564 1565 1566 1567 1568 1569 1570 1571 1572 1573 1574 1575 1576 1577 1578 1579 1580 1581 1582 1583 1584 1585 1586 1587 1588 1589 1590 1591 1592 1593 1594 1595 1596 1597 1598 1599 1600 1601 1602 1603 1604 1605 1606 1607 1608 1609 1610 1611 1612 1613 1614 1615 1616 1617 1618 1619 1620 1621 1622 1623 1624 1625 1626 1627 1628 1629 1630 1631 1632 1633 1634 1635 1636 1637 1638 1639 1640 1641 1642 1643 1644 1645 1646 1647 1648 1649 1650 1651 1652 1653 1654 1655 1656 1657 1658 1659 1660 1661 1662 1663 1664 1665 1666 1667 1668 1669 1670 1671 1672 1673 1674 1675 1676 1677 1678 1679 1680 1681 1682 1683 1684 1685 1686 1687 1688 1689 1690 1691 1692 1693 1694 1695 1696 1697 1698 1699 1700 1701 1702 1703 1704 1705 1706 1707 1708 1709 1710 1711 1712 1713 1714 1715 1716 1717 1718 1719 1720 1721 1722 1723 1724 1725 1726 1727 1728 1729 1730 1731 1732 1733 1734 1735 1736 1737 1738 1739 1740 1741 1742 1743 1744 1745 1746 1747 1748 1749 1750 1751 1752 1753 1754 1755 1756 1757 1758 1759 1760 1761 1762 1763 1764 1765 1766 1767 1768 1769 1770 1771 1772 1773 1774 1775 1776 1777 1778 1779 1780 1781 1782 1783 1784 1785 1786 1787 1788 1789 1790 1791 1792 1793 1794 1795 1796 1797 1798 1799 1800 1801 1802 1803 1804 1805 1806 1807 1808 1809 1810 1811 1812 1813 1814 1815 1816 1817 1818 1819 1820 1821 1822 1823 1824 1825 1826 1827 1828 1829 1830 1831 1832 1833 1834 1835 1836 1837 1838 1839 1840 1841 1842 1843 1844 1845 1846 1847 1848 1849 1850 1851 1852 1853 1854 1855 1856 1857 1858 1859 1860 1861 1862 1863 1864 1865 1866 1867 1868 1869 1870 1871 1872 1873 1874 1875 1876 1877 1878 1879 1880 1881 1882 1883 1884 1885 1886 1887 1888 1889 1890 1891 1892 1893 1894 1895 1896 1897 1898 1899 1900 1901 1902 1903 1904 1905 1906 1907 1908 1909 1910 1911 1912 1913 1914 1915 1916 1917 1918 1919 1920 1921 1922 1923 1924 1925 1926 1927 1928 1929 1930 1931 1932 1933 1934 1935 1936 1937 1938 1939 1940 1941 1942 1943 1944 1945 1946 1947 1948 1949 1950 1951 1952 1953 1954 1955 1956 1957 1958 1959 1960 1961 1962 1963 1964 1965 1966 1967 1968 1969 1970 1971 1972 1973 1974 1975 1976 1977 1978 1979 1980 1981 1982 1983 1984 1985 1986 1987 1988 1989 1990 1991 1992 1993 1994 1995 1996 1997 1998 1999 2000 2001 2002 2003 2004 2005 2006 2007 2008 2009 2010 2011 2012 2013 2014 2015 2016 2017 2018 2019 2020 2021 2022 2023 2024 2025 2026 2027 2028 2029 2030 2031 2032 2033 2034 2035 2036 2037 2038 2039 2040 2041 2042 2043 2044 2045 2046 2047 2048 2049 2050 2051 2052 2053 2054 2055 2056 2057 2058 2059 2060 2061 2062 2063 2064 2065 2066 2067 2068 2069 2070 2071 2072 2073 2074 2075 2076 2077 2078 2079 2080 2081 2082 2083 2084 2085 2086 2087 2088 2089 2090 2091 2092 2093 2094 2095 2096 2097 2098 2099 2100 2101 2102 2103 2104 2105 2106 2107 2108 2109 2110 2111 2112 2113 2114 2115 2116 2117 2118 2119 2120 2121 2122 2123 2124 2125 2126 2127 2128 2129 2130 2131 2132 2133 2134 2135 2136 2137 2138 2139 2140 2141 2142 2143 2144 2145 2146 2147 2148 2149 2150 2151 2152 2153 2154 2155 2156 2157 2158 2159 2160 2161 2162 2163 2164 2165 2166 2167 2168 2169 2170 2171 2172 2173 2174 2175 2176 2177 2178 2179 2180 2181 2182 2183 2184 2185 2186 2187 2188 2189 2190 2191 2192 2193 2194 2195 2196 2197 2198 2199 2200 2201 2202 2203 2204 2205 2206 2207 2208 2209 2210 2211 2212 2213 2214 2215 2216 2217 2218 2219 2220 2221 2222 2223 2224 2225 2226 2227 2228 2229 2230 2231 2232 2233 2234 2235 2236 2237 2238 2239 2240 2241 2242 2243 2244 2245 2246 2247 2248 2249 2250 2251 2252 2253 2254 2255 2256 2257 2258 2259 2260 2261 2262 2263 2264 2265 2266 2267 2268 2269 2270 2271 2272 2273 2274 2275 2276 2277 2278 2279 2280 2281 2282 2283 2284 2285 2286 2287 2288 2289 2290 2291 2292 2293 2294 2295 2296 2297 2298 2299 2300 2301 2302 2303 2304 2305 2306 2307 2308 2309 2310 2311 2312 2313 2314 2315 2316 2317 2318 2319 2320 2321 2322 2323 2324 2325 2326 2327 2328 2329 2330 2331 2332 2333 2334 2335 2336 2337 2338 2339 2340 2341 2342 2343 2344 2345 2346 2347 2348 2349 2350 2351 2352 2353 2354 2355 2356 2357 2358 2359 2360 2361 2362 2363 2364 2365 2366 2367 2368 2369 2370 2371 2372 2373 2374 2375 2376 2377 2378 2379 2380 2381 2382 2383 2384 2385 2386 2387 2388 2389 2390 2391 2392 2393 2394 2395 2396 2397 2398 2399 2400 2401 2402 2403 2404 2405 2406 2407 2408 2409 2410 2411 2412 2413 2414 2415 2416 2417 2418 2419 2420 2421 2422 2423 2424 2425 2426 2427 2428 2429 2430 2431 2432 2433 2434 2435 2436 2437 2438 2439 2440 2441 2442 2443 2444 2445 2446 2447 2448 2449 2450 2451 2452 2453 2454 2455 2456 2457 2458 2459 2460 2461 2462 2463 2464 2465 2466 2467 2468 2469 2470 2471 2472 2473 2474 2475 2476 2477 2478 2479 2480 2481 2482 2483 2484 2485 2486 2487 2488 2489 2490 2491 2492 2493 2494 2495 2496 2497 2498 2499 2500 2501 2502 2503 2504 2505 2506 2507 2508 2509 2510 2511 2512 2513 2514 2515 2516 2517 2518 2519 2520 2521 2522 2523 2524 2525 2526 2527 2528 2529 2530 2531 2532 2533 2534 2535 2536 2537 2538 2539 2540 2541 2542 2543 2544 2545 2546 2547 2548 2549 2550 2551 2552 2553 2554 2555 2556 2557 2558 2559 2560 2561 2562 2563 2564 2565 2566 2567 2568 2569 2570 2571 2572 2573 2574 2575 2576 2577 2578 2579 2580 2581 2582 2583 2584 2585 2586 2587 2588 2589 2590 2591 2592 2593 2594 2595 2596 2597 2598 2599 2600 2601 2602 2603 2604 2605 2606 2607 2608 2609 2610 2611 2612 2613 2614 2615 2616 2617 2618 2619 2620 2621 2622 2623 2624 2625 2626 2627 2628 2629 2630 2631 2632 2633 2634 2635 2636 2637 2638 2639 2640 2641 2642 2643 2644 2645 2646 2647 2648 2649 2650 2651 2652 2653 2654 2655 2656 2657 2658 2659 2660 2661 2662 2663 2664 2665 2666 2667 2668 2669 2670 2671 2672 2673 2674 2675 2676 2677 2678 2679 2680 2681 2682 2683 2684 2685 2686 2687 2688 2689 2690 2691 2692 2693 2694 2695 2696 2697 2698 2699 2700 2701 2702 2703 2704 2705 2706 2707 2708 2709 2710 2711 2712 2713 2714 2715 2716 2717 2718 2719 2720 2721 2722 2723 2724 2725 2726 2727 2728 2729 2730 2731 2732 2733 2734 2735 2736 2737 2738 2739 2740 2741 2742 2743 2744 2745 2746 2747 2748 2749 2750 2751 2752 2753 2754 2755 2756 2757 2758 2759 2760 2761 2762 2763 2764 2765 2766 2767 2768 2769 2770 2771 2772 2773 2774 2775 2776 2777 2778 2779 2780 2781 2782 2783 2784 2785 2786 2787 2788 2789 2790 2791 2792 2793 2794 2795 2796 2797 2798 2799 2800 2801 2802 2803 2804 2805 2806 2807 2808 2809 2810 2811 2812 2813 2814 2815 2816 2817 2818 2819 2820 2821 2822 2823 2824 2825 2826 2827 2828 2829 2830 2831 2832 2833 2834 2835 2836 2837 2838 2839 2840 2841 2842 2843 2844 2845 2846 2847 2848 2849 2850 2851 2852 2853 2854 2855 2856 2857 2858 2859 2860 2861 2862 2863 2864 2865 2866 2867 2868 2869 2870 2871 2872 2873 2874 2875 2876 2877 2878 2879 2880 2881 2882 2883 2884 2885 2886 2887 2888 2889 2890 2891 2892 2893 2894 2895 2896 2897 2898 2899 2900 2901 2902 2903 2904 2905 2906 2907 2908 2909 2910 2911 2912 2913 2914 2915 2916 2917 2918 2919 2920 2921 2922 2923 2924 2925 2926 2927 2928 2929 2930 2931 2932 2933 2934 2935 2936 2937 2938 2939 2940 2941 2942 2943 2944 2945 2946 2947 2948 2949 2950 2951 2952 2953 2954 2955 2956 2957 2958 2959 2960 2961 2962 2963 2964 2965 2966 2967 2968 2969 2970 2971 2972 2973 2974 2975 2976 2977 2978 2979 2980 2981 2982 2983 2984 2985 2986 2987 2988 2989 2990 2991 2992 2993 2994 2995 2996 2997 2998 2999 3000 3001 3002 3003 3004 3005 3006 3007 3008 3009 3010 3011 3012 3013 3014 3015 3016 3017 3018 3019 3020 3021 3022 3023 3024 3025 3026 3027 3028 3029 3030 3031 3032 3033 3034 3035 3036 3037 3038 3039 3040 3041 3042 3043 3044 3045 3046 3047 3048 3049 3050 3051 3052 3053 3054 3055 3056 3057 3058 3059 3060 3061 3062 3063 3064 3065 3066 3067 3068 3069 3070 3071 3072 3073 3074 3075 3076 3077 3078 3079 3080 3081 3082 3083 3084 3085 3086 3087 3088 3089 3090 3091 3092 3093 3094 3095 3096 3097 3098 3099 3100 3101 3102 3103 3104 3105 3106 3107 3108 3109 3110 3111 3112 3113 3114 3115 3116 3117 3118 3119 3120 3121 3122 3123 3124 3125 3126 3127 3128 3129 3130 3131 3132 3133 3134 3135 3136 3137 3138 3139 3140 3141 3142 3143 3144 3145 3146 3147 3148 3149 3150 3151 3152 3153 3154 3155 3156 3157 3158 3159 3160 3161 3162 3163 3164 3165 3166 3167 3168 3169 3170 3171 3172 3173 3174 3175 3176 3177 3178 3179 3180 3181 3182 3183 3184 3185 3186 3187 3188 3189 3190 3191 3192 3193 3194 3195 3196 3197 3198 3199 3200 3201 3202 3203 3204 3205 3206 3207 3208 3209 3210 3211 3212 3213 3214 3215 3216 3217 3218 3219 3220 3221 3222 3223 3224 3225 3226 3227 3228 3229 3230 3231 3232 3233 3234 3235 3236 3237 3238 3239 3240 3241 3242 3243 3244 3245 3246 3247 3248 3249 3250 3251 3252 3253 3254 3255 3256 3257 3258 3259 3260 3261 3262 3263 3264 3265 3266 3267 3268 3269 3270 3271 3272 3273 3274 3275 3276 3277 3278 3279 3280 3281 3282 3283 3284 3285 3286 3287 3288 3289 3290 3291 3292 3293 3294 3295 3296 3297 3298 3299 3300 3301 3302 3303 3304 3305 3306 3307 3308 3309 3310 3311 3312 3313 3314 3315 3316 3317 3318 3319 3320 3321 3322 3323 3324 3325 3326 3327 3328 3329 3330 3331 3332 3333 3334 3335 3336 3337 3338 3339 3340 3341 3342 3343 3344 3345 3346 3347 3348 3349 3350 3351 3352 3353 3354 3355 3356 3357 3358 3359 3360 3361 3362 3363 3364 3365 3366 3367 3368 3369 3370 3371 3372 3373 3374 3375 3376 3377 3378 3379 3380 3381 3382 3383 3384 3385 3386 3387 3388 3389 3390 3391 3392 3393 3394 3395 3396 3397 3398 3399 3400 3401 3402 3403 3404 3405 3406 3407 3408 3409 3410 3411 3412 3413 3414 3415 3416 3417 3418 3419 3420 3421 3422 3423 3424 3425 3426 3427 3428 3429 3430 3431 3432 3433 3434 3435 3436 3437 3438 3439 3440 3441 3442 3443 3444 3445 3446 3447 3448 3449 3450 3451 3452 3453 3454 3455 3456 3457 3458 3459 3460 3461 3462 3463 3464 3465 3466 3467 3468 3469 3470 3471 3472 3473 3474 3475 3476 3477 3478 3479 3480 3481 3482 3483 3484 3485 3486 3487 3488 3489 3490 3491 3492 3493 3494 3495 3496 3497 3498 3499 3500 3501 3502 3503 3504 3505 3506 3507 3508 3509 3510 3511 3512 3513 3514 3515 3516 3517 3518 3519 3520 3521 3522 3523 3524 3525 3526 3527 3528 3529 3530 3531 3532 3533 3534 3535 3536 3537 3538 3539 3540 3541 3542 3543 3544 3545 3546 3547 3548 3549 3550 3551 3552 3553 3554 3555 3556 3557 3558 3559 3560 3561 3562 3563 3564 3565 3566 3567 3568 3569 3570 3571 3572 3573 3574 3575 3576 3577 3578 3579 3580 3581 3582 3583 3584 3585 3586 3587 3588 3589 3590 3591 3592 3593 3594 3595 3596 3597 3598 3599 3600 3601 3602 3603 3604 3605 3606 3607 3608 3609 3610 3611 3612 3613 3614 3615 3616 3617 3618 3619 3620 3621 3622 3623 3624 3625 3626 3627 3628 3629 3630 3631 3632 3633 3634 3635 3636 3637 3638 3639 3640 3641 3642 3643 3644 3645 3646 3647 3648 3649 3650 3651 3652 3653 3654 3655 3656 3657 3658 3659 3660 3661 3662 3663 3664 3665 3666 3667 3668 3669 3670 3671 3672 3673 3674 3675 3676 3677 3678 3679 3680 3681 3682 3683 3684 3685 3686 3687 3688 3689 3690 3691 3692 3693 3694 3695 3696 3697 3698 3699 3700 3701 3702 3703 3704 3705 3706 3707 3708 3709 3710 3711 3712 3713 3714 3715 3716 3717 3718 3719 3720 3721 3722 3723 3724 3725 3726 3727 3728 3729 3730 3731 3732 3733 3734 3735 3736 3737 3738 3739 3740 3741 3742 3743 3744 3745 3746 3747 3748 3749 3750 3751 3752 3753 3754 3755 3756 3757 3758 3759 3760 3761 3762 3763 3764 3765 3766 3767 3768 3769 3770 3771 3772 3773 3774 3775 3776 3777 3778 3779 3780 3781 3782 3783 3784 3785 3786 3787 3788 3789 3790 3791 3792 3793 3794 3795 3796 3797 3798 3799 3800 3801 3802 3803 3804 3805 3806 3807 3808 3809 3810 3811 3812 3813 3814 3815 3816 3817 3818 3819 3820 3821 3822 3823 3824 3825 3826 3827 3828 3829 3830 3831 3832 3833 3834 3835 3836 3837 3838 3839 3840 3841 3842 3843 3844 3845 3846 3847 3848 3849 3850 3851 3852 3853 3854 3855 3856 3857 3858 3859 3860 3861 3862 3863 3864 3865 3866 3867 3868 3869 3870 3871 3872 3873 3874 3875 3876 3877 3878 3879 3880 3881 3882 3883 3884 3885 3886 3887 3888 3889 3890 3891 3892 3893 3894 3895 3896 3897 3898 3899 3900 3901 3902 3903 3904 3905 3906 3907 3908 3909 3910 3911 3912 3913 3914 3915 3916 3917 3918 3919 3920 3921 3922 3923 3924 3925 3926 3927 3928 3929 3930 3931 3932 3933 3934 3935 3936 3937 3938 3939 3940 3941 3942 3943 3944 3945 3946 3947 3948 3949 3950 3951 3952 3953 3954 3955 3956 3957 3958 3959 3960 3961 3962 3963 3964 3965 3966 3967 3968 3969 3970 3971 3972 3973 3974 3975 3976 3977 3978 3979 3980 3981 3982 3983 3984 3985 3986 3987 3988 3989 3990 3991 3992 3993 3994 3995 3996 3997 3998 3999 4000 4001 4002 4003 4004 4005 4006 4007 4008 4009 4010 4011 4012 4013 4014 4015 4016 4017 4018 4019 4020 4021 4022 4023 4024 4025 4026 4027 4028 4029 4030 4031 4032 4033 4034 4035 4036 4037 4038 4039 4040 4041 4042 4043 4044 4045 4046 4047 4048 4049 4050 4051 4052 4053 4054 4055 4056 4057 4058 4059 4060 4061 4062 4063 4064 4065 4066 4067 4068 4069 4070 4071 4072 4073 4074 4075 4076 4077 4078 4079 4080 4081 4082 4083 4084 4085 4086 4087 4088 4089 4090 4091 4092 4093 4094 4095 4096 4097 4098 4099 4100 4101 4102 4103 4104 4105 4106 4107 4108 4109 4110 4111 4112 4113 4114 4115 4116 4117 4118 4119 4120 4121 4122 4123 4124 4125 4126 4127 4128 4129 4130 4131 4132 4133 4134 4135 4136 4137 4138 4139 4140 4141 4142 4143 4144 4145 4146 4147 4148 4149 4150 4151 4152 4153 4154 4155 4156 4157 4158 4159 4160 4161 4162 4163 4164 4165 4166 4167 4168 4169 4170 4171 4172 4173 4174 4175 4176 4177 4178 4179 4180 4181 4182 4183 4184 4185 4186 4187 4188 4189 4190 4191 4192 4193 4194 4195 4196 4197 4198 4199 4200 4201 4202 4203 4204 4205 4206 4207 4208 4209 4210 4211 4212 4213 4214 4215 4216 4217 4218 4219 4220 4221 4222 4223 4224 4225 4226 4227 4228 4229 4230 4231 4232 4233 4234 4235 4236 4237 4238 4239 4240 4241 4242 4243 4244 4245 4246 4247 4248 4249 4250 4251 4252 4253 4254 4255 4256 4257 4258 4259 4260 4261 4262 4263 4264 4265 4266 4267 4268 4269 4270 4271 4272 4273 4274 4275 4276 4277 4278 4279 4280 4281 4282 4283 4284 4285 4286 4287 4288 4289 4290 4291 4292 4293 4294 4295 4296 4297 4298 4299 4300 4301 4302 4303 4304 4305 4306 4307 4308 4309 4310 4311 4312 4313 4314 4315 4316 4317 4318 4319 4320 4321 4322 4323 4324 4325 4326 4327 4328 4329 4330 4331 4332 4333 4334 4335 4336 4337 4338 4339 4340 4341 4342 4343 4344 4345 4346 4347 4348 4349 4350 4351 4352 4353 4354 4355 4356 4357 4358 4359 4360 4361 4362 4363 4364 4365 4366 4367 4368 4369 4370 4371 4372 4373 4374 4375 4376 4377 4378 4379 4380 4381 4382 4383 4384 4385 4386 4387 4388 4389 4390 4391 4392 4393 4394 4395 4396 4397 4398 4399 4400 4401 4402 4403 4404 4405 4406 4407 4408 4409 4410 4411 4412 4413 4414 4415 4416 4417 4418 4419 4420 4421 4422 4423 4424 4425 4426 4427 4428 4429 4430 4431 4432 4433 4434 4435 4436 4437 4438 4439 4440 4441 4442 4443 4444 4445 4446 4447 4448 4449 4450 4451 4452 4453 4454 4455 4456 4457 4458 4459 4460 4461 4462 4463 4464 4465 4466 4467 4468 4469 4470 4471 4472 4473 4474 4475 4476 4477 4478 4479 4480 4481 4482 4483 4484 4485 4486 4487 4488 4489 4490 4491 4492 4493 4494 4495 4496 4497 4498 4499 4500 4501 4502 4503 4504 4505 4506 4507 4508 4509 4510 4511 4512 4513 4514 4515 4516 4517 4518 4519 4520 4521 4522 4523 4524 4525 4526 4527 4528 4529 4530 4531 4532 4533 4534 4535 4536 4537 4538 4539 4540 4541 4542 4543 4544 4545 4546 4547 4548 4549 4550 4551 4552 4553 4554 4555 4556 4557 4558 4559 4560 4561 4562 4563 4564 4565 4566 4567 4568 4569 4570 4571 4572 4573 4574 4575 4576 4577 4578 4579 4580 4581 4582 4583 4584 4585 4586 4587 4588 4589 4590 4591 4592 4593 4594 4595 4596 4597 4598 4599 4600 4601 4602 4603 4604 4605 4606 4607 4608 4609 4610 4611 4612 4613 4614 4615 4616 4617 4618 4619 4620 4621 4622 4623 4624 4625 4626 4627 4628 4629 4630 4631 4632 4633 4634 4635 4636 4637 4638 4639 4640 4641 4642 4643 4644 4645 4646 4647 4648 4649 4650 4651 4652 4653 4654 4655 4656 4657 4658 4659 4660 4661 4662 4663 4664 4665 4666 4667 4668 4669 4670 4671 4672 4673 4674 4675 4676 4677 4678 4679 4680 4681 4682 4683 4684 4685 4686 4687 4688 4689 4690 4691 4692 4693 4694 4695 4696 4697 4698 4699 4700 4701 4702 4703 4704 4705 4706 4707 4708 4709 4710 4711 4712 4713 4714 4715 4716 4717 4718 4719 4720 4721 4722 4723 4724 4725 4726 4727 4728 4729 4730 4731 4732 4733 4734 4735 4736 4737 4738 4739 4740 4741 4742 4743 4744 4745 4746 4747 4748 4749 4750 4751 4752 4753 4754 4755 4756 4757 4758 4759 4760 4761 4762 4763 4764 4765 4766 4767 4768 4769 4770 4771 4772 4773 4774 4775 4776 4777 4778 4779 4780 4781 4782 4783 4784 4785 4786 4787 4788 4789 4790 4791 4792 4793 4794 4795 4796 4797 4798 4799 4800 4801 4802 4803 4804 4805 4806 4807 4808 4809 4810 4811 4812 4813 4814 4815 4816 4817 4818 4819 4820 4821 4822 4823 4824 4825 4826 4827 4828 4829 4830 4831 4832 4833 4834 4835 4836 4837 4838 4839 4840 4841 4842 4843 4844 4845 4846 4847 4848 4849 4850 4851 4852 4853 4854 4855 4856 4857 4858 4859 4860 4861 4862 4863 4864 4865 4866 4867 4868 4869 4870 4871 4872 4873 4874 4875 4876 4877 4878 4879 4880 4881 4882 4883 4884 4885 4886 4887 4888 4889 4890 4891 4892 4893 4894 4895 4896 4897 4898 4899 4900 4901 4902 4903 4904 4905 4906 4907 4908 4909 4910 4911 4912 4913 4914 4915 4916 4917 4918 4919 4920 4921 4922 4923 4924 4925 4926 4927 4928 4929 4930 4931 4932 4933 4934 4935 4936 4937 4938 4939 4940 4941 4942 4943 4944 4945 4946 4947 4948 4949 4950 4951 4952 4953 4954 4955 4956 4957 4958 4959 4960 4961 4962 4963 4964 4965 4966 4967 4968 4969 4970 4971 4972 4973 4974 4975 4976 4977 4978 4979 4980 4981 4982 4983 4984 4985 4986 4987 4988 4989 4990 4991 4992 4993 4994 4995 4996 4997 4998 4999 5000 5001 5002 5003 5004 5005 5006 5007 5008 5009 5010 5011 5012 5013 5014 5015 5016 5017 5018 5019 5020 5021 5022 5023 5024 5025 5026 5027 5028 5029 5030 5031 5032 5033 5034 5035 5036 5037 5038 5039 5040 5041 5042 5043 5044 5045 5046 5047 5048 5049 5050 5051 5052 5053 5054 5055 5056 5057 5058 5059 5060 5061 5062 5063 5064 5065 5066 5067 5068 5069 5070 5071 5072 5073 5074 5075 5076 5077 5078 5079 5080 5081 5082 5083 5084 5085 5086 5087 5088 5089 5090 5091 5092 5093 5094 5095 5096 5097 5098 5099 5100 5101 5102 5103 5104 5105 5106 5107 5108 5109 5110 5111 5112 5113 5114 5115 5116 5117 5118 5119 5120 5121 5122 5123 5124 5125 5126 5127 5128 5129 5130 5131 5132 5133 5134 5135 5136 5137 5138 5139 5140 5141 5142 5143 5144 5145 5146 5147 5148 5149 5150 5151 5152 5153 5154 5155 5156 5157 5158 5159 5160 5161 5162 5163 5164 5165 5166 5167 5168 5169 5170 5171 5172 5173 5174 5175 5176 5177 5178 5179 5180 5181 5182 5183 5184 5185 5186 5187 5188 5189 5190 5191 5192 5193 5194 5195 5196 5197 5198 5199 5200 5201 5202 5203 5204 5205 5206 5207 5208 5209 5210 5211 5212 5213 5214 5215 5216 5217 5218 5219 5220 5221 5222 5223 5224 5225 5226 5227 5228 5229 5230 5231 5232 5233 5234 5235 5236 5237 5238 5239 5240 5241 5242 5243 5244 5245 5246 5247 5248 5249 5250 5251 5252 5253 5254 5255 5256 5257 5258 5259 5260 5261 5262 5263 5264 5265 5266 5267 5268 5269 5270 5271 5272 5273 5274 5275 5276 5277 5278 5279 5280 5281 5282 5283 5284 5285 5286 5287 5288 5289 5290 5291 5292 5293 5294 5295 5296 5297 5298 5299 5300 5301 5302 5303 5304 5305 5306 5307 5308 5309 5310 5311 5312 5313 5314 5315 5316 5317 5318 5319 5320 5321 5322 5323 5324 5325 5326 5327 5328 5329 5330 5331 5332 5333 5334 5335 5336 5337 5338 5339 5340 5341 5342 5343 5344 5345 5346 5347 5348 5349 5350 5351 5352 5353 5354 5355 5356 5357 5358 5359 5360 5361 5362 5363 5364 5365 5366 5367 5368 5369 5370 5371 5372 5373 5374 5375 5376 5377 5378 5379 5380 5381 5382 5383 5384 5385 5386 5387 5388 5389 5390 5391 5392 5393 5394 5395 5396 5397 5398 5399 5400 5401 5402 5403 5404 5405 5406 5407 5408 5409 5410 5411 5412 5413 5414 5415 5416 5417 5418 5419 5420 5421 5422 5423 5424 5425 5426 5427 5428 5429 5430 5431 5432 5433 5434 5435 5436 5437 5438 5439 5440 5441 5442 5443 5444 5445 5446 5447 5448 5449 5450 5451 5452 5453 5454 5455 5456 5457 5458 5459 5460 5461 5462 5463 5464 5465 5466 5467 5468 5469 5470 5471 5472 5473 5474 5475 5476 5477 5478 5479 5480 5481 5482 5483 5484 5485 5486 5487 5488 5489 5490 5491 5492 5493 5494 5495 5496 5497 5498 5499 5500 5501 5502 5503 5504 5505 5506 5507 5508 5509 5510 5511 5512 5513 5514 5515 5516 5517 5518 5519 5520 5521 5522 5523 5524 5525 5526 5527 5528 5529 5530 5531 5532 5533 5534 5535 5536 5537 5538 5539 5540 5541 5542 5543 5544 5545 5546 5547 5548 5549 5550 5551 5552 5553 5554 5555 5556 5557 5558 5559 5560 5561 5562 5563 5564 5565 5566 5567 5568 5569 5570 5571 5572 5573 5574 5575 5576 5577 5578 5579 5580 5581 5582 5583 5584 5585 5586 5587 5588 5589 5590 5591 5592 5593 5594 5595 5596 5597 5598 5599 5600 5601 5602 5603 5604 5605 5606 5607 5608 5609 5610 5611 5612 5613 5614 5615 5616 5617 5618 5619 5620 5621 5622 5623 5624 5625 5626 5627 5628 5629 5630 5631 5632 5633 5634 5635 5636 5637 5638 5639 5640 5641 5642 5643 5644 5645 5646 5647 5648 5649 5650 5651 5652 5653 5654 5655 5656 5657 5658 5659 5660 5661 5662 5663 5664 5665 5666 5667 5668 5669 5670 5671 5672 5673 5674 5675 5676 5677 5678 5679 5680 5681 5682 5683 5684 5685 5686 5687 5688 5689 5690 5691 5692 5693 5694 5695 5696 5697 5698 5699 5700 5701 5702 5703 5704 5705 5706 5707 5708 5709 5710 5711 5712 5713 5714 5715 5716 5717 5718 5719 5720 5721 5722 5723 5724 5725 5726 5727 5728 5729 5730 5731 5732 5733 5734 5735 5736 5737 5738 5739 5740 5741 5742 5743 5744 5745 5746 5747 5748 5749 5750 5751 5752 5753 5754 5755 5756 5757 5758 5759 5760 5761 5762 5763 5764 5765 5766 5767 5768 5769 5770 5771 5772 5773 5774 5775 5776 5777 5778 5779 5780 5781 5782 5783 5784 5785 5786 5787 5788 5789 5790 5791 5792 5793 5794 5795 5796 5797 5798 5799 5800 5801 5802 5803 5804 5805 5806 5807 5808 5809 5810 5811 5812 5813 5814 5815 5816 5817 5818 5819 5820 5821 5822 5823 5824 5825 5826 5827 5828 5829 5830 5831 5832 5833 5834 5835 5836 5837 5838 5839 5840 5841 5842 5843 5844 5845 5846 5847 5848 5849 5850 5851 5852 5853 5854 5855 5856 5857 5858 5859 5860 5861 5862 5863 5864 5865 5866 5867 5868 5869 5870 5871 5872 5873 5874 5875 5876 5877 5878 5879 5880 5881 5882 5883 5884 5885 5886 5887 5888 5889 5890 5891 5892 5893 5894 5895 5896 5897 5898 5899 5900 5901 5902 5903 5904 5905 5906 5907 5908 5909 5910 5911 5912 5913 5914 5915 5916 5917 5918 5919 5920 5921 5922 5923 5924 5925 5926 5927 5928 5929 5930 5931 5932 5933 5934 5935 5936 5937 5938 5939 5940 5941 5942 5943 5944 5945 5946 5947 5948 5949 5950 5951 5952 5953 5954 5955 5956 5957 5958 5959 5960 5961 5962 5963 5964 5965 5966 5967 5968 5969 5970 5971 5972 5973 5974 5975 5976 5977 5978 5979 5980 5981 5982 5983 5984 5985 5986 5987 5988 5989 5990 5991 5992 5993 5994 5995 5996 5997 5998 5999 6000 6001 6002 6003 6004 6005 6006 6007 6008 6009 6010 6011 6012 6013 6014 6015 6016 6017 6018 6019 6020 6021 6022 6023 6024 6025 6026 6027 6028 6029 6030 6031 6032 6033 6034 6035 6036 6037 6038 6039 6040 6041 6042 6043 6044 6045 6046 6047 6048 6049 6050 6051 6052 6053 6054 6055 6056 6057 6058 6059 6060 6061 6062 6063 6064 6065 6066 6067 6068 6069 6070 6071 6072 6073 6074 6075 6076 6077 6078 6079 6080 6081 6082 6083 6084 6085 6086 6087 6088 6089 6090 6091 6092 6093 6094 6095 6096 6097 6098 6099 6100 6101 6102 6103 6104 6105 6106 6107 6108 6109 6110 6111 6112 6113 6114 6115 6116 6117 6118 6119 6120 6121 6122 6123 6124 6125 6126 6127 6128 6129 6130 6131 6132 6133 6134 6135 6136 6137 6138 6139 6140 6141 6142 6143 6144 6145 6146 6147 6148 6149 6150 6151 6152 6153 6154 6155 6156 6157 6158 6159 6160 6161 6162 6163 6164 6165 6166 6167 6168 6169 6170 6171 6172 6173 6174 6175 6176 6177 6178 6179 6180 6181 6182 6183 6184 6185 6186 6187 6188 6189 6190 6191 6192 6193 6194 6195 6196 6197 6198 6199 6200 6201 6202 6203 6204 6205 6206 6207 6208 6209 6210 6211 6212 6213 6214 6215 6216 6217 6218 6219 6220 6221 6222 6223 6224 6225 6226 6227 6228 6229 6230 6231 6232 6233 6234 6235 6236 6237 6238 6239 6240 6241 6242 6243 6244 6245 6246 6247 6248 6249 6250 6251 6252 6253 6254 6255 6256 6257 6258 6259 6260 6261 6262 6263 6264 6265 6266 6267 6268 6269 6270 6271 6272 6273 6274 6275 6276 6277 6278 6279 6280 6281 6282 6283 6284 6285 6286 6287 6288 6289 6290 6291 6292 6293 6294 6295 6296 6297 6298 6299 6300 6301 6302 6303 6304 6305 6306 6307 6308 6309 6310 6311 6312 6313 6314 6315 6316 6317 6318 6319 6320 6321 6322 6323 6324 6325 6326 6327 6328 6329 6330 6331 6332 6333 6334 6335 6336 6337 6338 6339 6340 6341 6342 6343 6344 6345 6346 6347 6348 6349 6350 6351 6352 6353 6354 6355 6356 6357 6358 6359 6360 6361 6362 6363 6364 6365 6366 6367 6368 6369 6370 6371 6372 6373 6374 6375 6376 6377 6378 6379 6380 6381 6382 6383 6384 6385 6386 6387 6388 6389 6390 6391 6392 6393 6394 6395 6396 6397 6398 6399 6400 6401 6402 6403 6404 6405 6406 6407 6408 6409 6410 6411 6412 6413 6414 6415 6416 6417 6418 6419 6420 6421 6422 6423 6424 6425 6426 6427 6428 6429 6430 6431 6432 6433 6434 6435 6436 6437 6438 6439 6440 6441 6442 6443 6444 6445 6446 6447 6448 6449 6450 6451 6452 6453 6454 6455 6456 6457 6458 6459 6460 6461 6462 6463 6464 6465 6466 6467 6468 6469 6470 6471 6472 6473 6474 6475 6476 6477 6478 6479 6480 6481 6482 6483 6484 6485 6486 6487 6488 6489 6490 6491 6492 6493 6494 6495 6496 6497 6498 6499 6500 6501 6502 6503 6504 6505 6506 6507 6508 6509 6510 6511 6512 6513 6514 6515 6516 6517 6518 6519 6520 6521 6522 6523 6524 6525 6526 6527 6528 6529 6530 6531 6532 6533 6534 6535 6536 6537 6538 6539 6540 6541 6542 6543 6544 6545 6546 6547 6548 6549 6550 6551 6552 6553 6554 6555 6556 6557 6558 6559 6560 6561 6562 6563 6564 6565 6566 6567 6568 6569 6570 6571 6572 6573 6574 6575 6576 6577 6578 6579 6580 6581 6582 6583 6584 6585 6586 6587 6588 6589 6590 6591 6592 6593 6594 6595 6596 6597 6598 6599 6600 6601 6602 6603 6604 6605 6606 6607 6608 6609 6610 6611 6612 6613 6614 6615 6616 6617 6618 6619 6620 6621 6622 6623 6624 6625 6626 6627 6628 6629 6630 6631 6632 6633 6634 6635 6636 6637 6638 6639 6640 6641 6642 6643 6644 6645 6646 6647 6648 6649 6650 6651 6652 6653 6654 6655 6656 6657 6658 6659 6660 6661 6662 6663 6664 6665 6666 6667 6668 6669 6670 6671 6672 6673 6674 6675 6676 6677 6678 6679 6680 6681 6682 6683 6684 6685 6686 6687 6688 6689 6690 6691 6692 6693 6694 6695 6696 6697 6698 6699 6700 6701 6702 6703 6704 6705 6706 6707 6708 6709 6710 6711 6712 6713 6714 6715 6716 6717 6718 6719 6720 6721 6722 6723 6724 6725 6726 6727 6728 6729 6730 6731 6732 6733 6734 6735 6736 6737 6738 6739 6740 6741 6742 6743 6744 6745 6746 6747 6748 6749 6750 6751 6752 6753 6754 6755 6756 6757 6758 6759 6760 6761 6762 6763 6764 6765 6766 6767 6768 6769 6770 6771 6772 6773 6774 6775 6776 6777 6778 6779 6780 6781 6782 6783 6784 6785 6786 6787 6788 6789 6790 6791 6792 6793 6794 6795 6796 6797 6798 6799 6800 6801 6802 6803 6804 6805 6806 6807 6808 6809 6810 6811 6812 6813 6814 6815 6816 6817 6818 6819 6820 6821 6822 6823 6824 6825 6826 6827 6828 6829 6830 6831 6832 6833 6834 6835 6836 6837 6838 6839 6840 6841 6842 6843 6844 6845 6846 6847 6848 6849 6850 6851 6852 6853 6854 6855 6856 6857 6858 6859 6860 6861 6862 6863 6864 6865 6866 6867 6868 6869 6870 6871 6872 6873 6874 6875 6876 6877 6878 6879 6880 6881 6882 6883 6884 6885 6886 6887 6888 6889 6890 6891 6892 6893 6894 6895 6896 6897 6898 6899 6900 6901 6902 6903 6904 6905 6906 6907 6908 6909 6910 6911 6912 6913 6914 6915 6916 6917 6918 6919 6920 6921 6922 6923 6924 6925 6926 6927 6928 6929 6930 6931 6932 6933 6934 6935 6936 6937 6938 6939 6940 6941 6942 6943 6944 6945 6946 6947 6948 6949 6950 6951 6952 6953 6954 6955 6956 6957 6958 6959 6960 6961 6962 6963 6964 6965 6966 6967 6968 6969 6970 6971 6972 6973 6974 6975 6976 6977 6978 6979 6980 6981 6982 6983 6984 6985 6986 6987 6988 6989 6990 6991 6992 6993 6994 6995 6996 6997 6998 6999 7000 7001 7002 7003 7004 7005 7006 7007 7008 7009 7010 7011 7012 7013 7014 7015 7016 7017 7018 7019 7020 7021 7022 7023 7024 7025 7026 7027 7028 7029 7030 7031 7032 7033 7034 7035 7036 7037 7038 7039 7040 7041 7042 7043 7044 7045 7046 7047 7048 7049 7050 7051 7052 7053 7054 7055 7056 7057 7058 7059 7060 7061 7062 7063 7064 7065 7066 7067 7068 7069 7070 7071 7072 7073 7074 7075 7076 7077 7078 7079 7080 7081 7082 7083 7084 7085 7086 7087 7088 7089 7090 7091 7092 7093 7094 7095 7096 7097 7098 7099 7100 7101 7102 7103 7104 7105 7106 7107 7108 7109 7110 7111 7112 7113 7114 7115 7116 7117 7118 7119 7120 7121 7122 7123 7124 7125 7126 7127 7128 7129 7130 7131 7132 7133 7134 7135 7136 7137 7138 7139 7140 7141 7142 7143 7144 7145 7146 7147 7148 7149 7150 7151 7152 7153 7154 7155 7156 7157 7158 7159 7160 7161 7162 7163 7164 7165 7166 7167 7168 7169 7170 7171 7172 7173 7174 7175 7176 7177 7178 7179 7180 7181 7182 7183 7184 7185 7186 7187 7188 7189 7190 7191 7192 7193 7194 7195 7196 7197 7198 7199 7200 7201 7202 7203 7204 7205 7206 7207 7208 7209 7210 7211 7212 7213 7214 7215 7216 7217 7218 7219 7220 7221 7222 7223 7224 7225 7226 7227 7228 7229 7230 7231 7232 7233 7234 7235 7236 7237 7238 7239 7240 7241 7242 7243 7244 7245 7246 7247 7248 7249 7250 7251 7252 7253 7254 7255 7256 7257 7258 7259 7260 7261 7262 7263 7264 7265 7266 7267 7268 7269 7270 7271 7272 7273 7274 7275 7276 7277 7278 7279 7280 7281 7282 7283 7284 7285 7286 7287 7288 7289 7290 7291 7292 7293 7294 7295 7296 7297 7298 7299 7300 7301 7302 7303 7304 7305 7306 7307 7308 7309 7310 7311 7312 7313 7314 7315 7316 7317 7318 7319 7320 7321 7322 7323 7324 7325 7326 7327 7328 7329 7330 7331 7332 7333 7334 7335 7336 7337 7338 7339 7340 7341 7342 7343 7344 7345 7346 7347 7348 7349 7350 7351 7352 7353 7354 7355 7356 7357 7358 7359 7360 7361 7362 7363 7364 7365 7366 7367 7368 7369 7370 7371 7372 7373 7374 7375 7376 7377 7378 7379 7380 7381 7382 7383 7384 7385 7386 7387 7388 7389 7390 7391 7392 7393 7394 7395 7396 7397 7398 7399 7400 7401 7402 7403 7404 7405 7406 7407 7408 7409 7410 7411 7412 7413 7414 7415 7416 7417 7418 7419 7420 7421 7422 7423 7424 7425 7426 7427 7428 7429 7430 7431 7432 7433 7434 7435 7436 7437 7438 7439 7440 7441 7442 7443 7444 7445 7446 7447 7448 7449 7450 7451 7452 7453 7454 7455 7456 7457 7458 7459 7460 7461 7462 7463 7464 7465 7466 7467 7468 7469 7470 7471 7472 7473 7474 7475 7476 7477 7478 7479 7480 7481 7482 7483 7484 7485 7486 7487 7488 7489 7490 7491 7492 7493 7494 7495 7496 7497 7498 7499 7500 7501 7502 7503 7504 7505 7506 7507 7508 7509 7510 7511 7512 7513 7514 7515 7516 7517 7518 7519 7520 7521 7522 7523 7524 7525 7526 7527 7528 7529 7530 7531 7532 7533 7534 7535 7536 7537 7538 7539 7540 7541 7542 7543 7544 7545 7546 7547 7548 7549 7550 7551 7552 7553 7554 7555 7556 7557 7558 7559 7560 7561 7562 7563 7564 7565 7566 7567 7568 7569 7570 7571 7572 7573 7574 7575 7576 7577 7578 7579 7580 7581 7582 7583 7584 7585 7586 7587 7588 7589 7590 7591 7592 7593 7594 7595 7596 7597 7598 7599 7600 7601 7602 7603 7604 7605 7606 7607 7608 7609 7610 7611 7612 7613 7614 7615 7616 7617 7618 7619 7620 7621 7622 7623 7624 7625 7626 7627 7628 7629 7630 7631 7632 7633 7634 7635 7636 7637 7638 7639 7640 7641 7642 7643 7644 7645 7646 7647 7648 7649 7650 7651 7652 7653 7654 7655 7656 7657 7658 7659 7660 7661 7662 7663 7664 7665 7666 7667 7668 7669 7670 7671 7672 7673 7674 7675 7676 7677 7678 7679 7680 7681 7682 7683 7684 7685 7686 7687 7688 7689 7690 7691 7692 7693 7694 7695 7696 7697 7698 7699 7700 7701 7702 7703 7704 7705 7706 7707 7708 7709 7710 7711 7712 7713 7714 7715 7716 7717 7718 7719 7720 7721 7722 7723 7724 7725 7726 7727 7728 7729 7730 7731 7732 7733 7734 7735 7736 7737 7738 7739 7740 7741 7742 7743 7744 7745 7746 7747 7748 7749 7750 7751 7752 7753 7754 7755 7756 7757 7758 7759 7760 7761 7762 7763 7764 7765 7766 7767 7768 7769 7770 7771 7772 7773 7774 7775 7776 7777 7778 7779 7780 7781 7782 7783 7784 7785 7786 7787 7788 7789 7790 7791 7792 7793 7794 7795 7796 7797 7798 7799 7800 7801 7802 7803 7804 7805 7806 7807 7808 7809 7810 7811 7812 7813 7814 7815 7816 7817 7818 7819 7820 7821 7822 7823 7824 7825 7826 7827 7828 7829 7830 7831 7832 7833 7834 7835 7836 7837 7838 7839 7840 7841 7842 7843 7844 7845 7846 7847 7848 7849 7850 7851 7852 7853 7854 7855 7856 7857 7858 7859 7860 7861 7862 7863 7864 7865 7866 7867 7868 7869 7870 7871 7872 7873 7874 7875 7876 7877 7878 7879 7880 7881 7882 7883 7884 7885 7886 7887 7888 7889 7890 7891 7892 7893 7894 7895 7896 7897 7898 7899 7900 7901 7902 7903 7904 7905 7906 7907 7908 7909 7910 7911 7912 7913 7914 7915 7916 7917 7918 7919 7920 7921 7922 7923 7924 7925 7926 7927 7928 7929 7930 7931 7932 7933 7934 7935 7936 7937 7938 7939 7940 7941 7942 7943 7944 7945 7946 7947 7948 7949 7950 7951 7952 7953 7954 7955 7956 7957 7958 7959 7960 7961 7962 7963 7964 7965 7966 7967 7968 7969 7970 7971 7972 7973 7974 7975 7976 7977 7978 7979 7980 7981 7982 7983 7984 7985 7986 7987 7988 7989 7990 7991 7992 7993 7994 7995 7996 7997 7998 7999 8000 8001 8002 8003 8004 8005 8006 8007 8008 8009 8010 8011 8012 8013 8014 8015 8016 8017 8018 8019 8020 8021 8022 8023 8024 8025 8026 8027 8028 8029 8030 8031 8032 8033 8034 8035 8036 8037 8038 8039 8040 8041 8042 8043 8044 8045 8046 8047 8048 8049 8050 8051 8052 8053 8054 8055 8056 8057 8058 8059 8060 8061 8062 8063 8064 8065 8066 8067 8068 8069 8070 8071 8072 8073 8074 8075 8076 8077 8078 8079 8080 8081 8082 8083 8084 8085 8086 8087 8088 8089 8090 8091 8092 8093 8094 8095 8096 8097 8098 8099 8100 8101 8102 8103 8104 8105 8106 8107 8108 8109 8110 8111 8112 8113 8114 8115 8116 8117 8118 8119 8120 8121 8122 8123 8124 8125 8126 8127 8128 8129 8130 8131 8132 8133 8134 8135 8136 8137 8138 8139 8140 8141 8142 8143 8144 8145 8146 8147 8148 8149 8150 8151 8152 8153 8154 8155 8156 8157 8158 8159 8160 8161 8162 8163 8164 8165 8166 8167 8168 8169 8170 8171 8172 8173 8174 8175 8176 8177 8178 8179 8180 8181 8182 8183 8184 8185 8186 8187 8188 8189 8190 8191 8192 8193 8194 8195 8196 8197 8198 8199 8200 8201 8202 8203 8204 8205 8206 8207 8208 8209 8210 8211 8212 8213 8214 8215 8216 8217 8218 8219 8220 8221 8222 8223 8224 8225 8226 8227 8228 8229 8230 8231 8232 8233 8234 8235 8236 8237 8238 8239 8240 8241 8242 8243 8244 8245 8246 8247 8248 8249 8250 8251 8252 8253 8254 8255 8256 8257 8258 8259 8260 8261 8262 8263 8264 8265 8266 8267 8268 8269 8270 8271 8272 8273 8274 8275 8276 8277 8278 8279 8280 8281 8282 8283 8284 8285 8286 8287 8288 8289 8290 8291 8292 8293 8294 8295 8296 8297 8298 8299 8300 8301 8302 8303 8304 8305 8306 8307 8308 8309 8310 8311 8312 8313 8314 8315 8316 8317 8318 8319 8320 8321 8322 8323 8324 8325 8326 8327 8328 8329 8330 8331 8332 8333 8334 8335 8336 8337 8338 8339 8340 8341 8342 8343 8344 8345 8346 8347 8348 8349 8350 8351 8352 8353 8354 8355 8356 8357 8358 8359 8360 8361 8362 8363 8364 8365 8366 8367 8368 8369 8370 8371 8372 8373 8374 8375 8376 8377 8378 8379 8380 8381 8382 8383 8384 8385 8386 8387 8388 8389 8390 8391 8392 8393 8394 8395 8396 8397 8398 8399 8400 8401 8402 8403 8404 8405 8406 8407 8408 8409 8410 8411 8412 8413 8414 8415 8416 8417 8418 8419 8420 8421 8422 8423 8424 8425 8426 8427 8428 8429 8430 8431 8432 8433 8434 8435 8436 8437 8438 8439 8440 8441 8442 8443 8444 8445 8446 8447 8448 8449 8450 8451 8452 8453 8454 8455 8456 8457 8458 8459 8460 8461 8462 8463 8464 8465 8466 8467 8468 8469 8470 8471 8472 8473 8474 8475 8476 8477 8478 8479 8480 8481 8482 8483 8484 8485 8486 8487 8488 8489 8490 8491 8492 8493 8494 8495 8496 8497 8498 8499 8500 8501 8502 8503 8504 8505 8506 8507 8508 8509 8510 8511 8512 8513 8514 8515 8516 8517 8518 8519 8520 8521 8522 8523 8524 8525 8526 8527 8528 8529 8530 8531 8532 8533 8534 8535 8536 8537 8538 8539 8540 8541 8542 8543 8544 8545 8546 8547 8548 8549 8550 8551 8552 8553 8554 8555 8556 8557 8558 8559 8560 8561 8562 8563 8564 8565 8566 8567 8568 8569 8570 8571 8572 8573 8574 8575 8576 8577 8578 8579 8580 8581 8582 8583 8584 8585 8586 8587 8588 8589 8590 8591 8592 8593 8594 8595 8596 8597 8598 8599 8600 8601 8602 8603 8604 8605 8606 8607 8608 8609 8610 8611 8612 8613 8614 8615 8616 8617 8618 8619 8620 8621 8622 8623 8624 8625 8626 8627 8628 8629 8630 8631 8632 8633 8634 8635 8636 8637 8638 8639 8640 8641 8642 8643 8644 8645 8646 8647 8648 8649 8650 8651 8652 8653 8654 8655 8656 8657 8658 8659 8660 8661 8662 8663 8664 8665 8666 8667 8668 8669 8670 8671 8672 8673 8674 8675 8676 8677 8678 8679 8680 8681 8682 8683 8684 8685 8686 8687 8688 8689 8690 8691 8692 8693 8694 8695 8696 8697 8698 8699 8700 8701 8702 8703 8704 8705 8706 8707 8708 8709 8710 8711 8712 8713 8714 8715 8716 8717 8718 8719 8720 8721 8722 8723 8724 8725 8726 8727 8728 8729 8730 8731 8732 8733 8734 8735 8736 8737 8738 8739 8740 8741 8742 8743 8744 8745 8746 8747 8748 8749 8750 8751 8752 8753 8754 8755 8756 8757 8758 8759 8760 8761 8762 8763 8764 8765 8766 8767 8768 8769 8770 8771 8772 8773 8774 8775 8776 8777 8778 8779 8780 8781 8782 8783 8784 8785 8786 8787 8788 8789 8790 8791 8792 8793 8794 8795 8796 8797 8798 8799 8800 8801 8802 8803 8804 8805 8806 8807 8808 8809 8810 8811 8812 8813 8814 8815 8816 8817 8818 8819 8820 8821 8822 8823 8824 8825 8826 8827 8828 8829 8830 8831 8832 8833 8834 8835 8836 8837 8838 8839 8840 8841 8842 8843 8844 8845 8846 8847 8848 8849 8850 8851 8852 8853 8854 8855 8856 8857 8858 8859 8860 8861 8862 8863 8864 8865 8866 8867 8868 8869 8870 8871 8872 8873 8874 8875 8876 8877 8878 8879 8880 8881 8882 8883 8884 8885 8886 8887 8888 8889 8890 8891 8892 8893 8894 8895 8896 8897 8898 8899 8900 8901 8902 8903 8904 8905 8906 8907 8908 8909 8910 8911 8912 8913 8914 8915 8916 8917 8918 8919 8920 8921 8922 8923 8924 8925 8926 8927 8928 8929 8930 8931 8932 8933 8934 8935 8936 8937 8938 8939 8940 8941 8942 8943 8944 8945 8946 8947 8948 8949 8950 8951 8952 8953 8954 8955 8956 8957 8958 8959 8960 8961 8962 8963 8964 8965 8966 8967 8968 8969 8970 8971 8972 8973 8974 8975 8976 8977 8978 8979 8980 8981 8982 8983 8984 8985 8986 8987 8988 8989 8990 8991 8992 8993 8994 8995 8996 8997 8998 8999 9000 9001 9002 9003 9004 9005 9006 9007 9008 9009 9010 9011 9012 9013 9014 9015 9016 9017 9018 9019 9020 9021 9022 9023 9024 9025 9026 9027 9028 9029 9030 9031 9032 9033 9034 9035 9036 9037 9038 9039 9040 9041 9042 9043 9044 9045 9046 9047 9048 9049 9050 9051 9052 9053 9054 9055 9056 9057 9058 9059 9060 9061 9062 9063 9064 9065 9066 9067 9068 9069 9070 9071 9072 9073 9074 9075 9076 9077 9078 9079 9080 9081 9082 9083 9084 9085 9086 9087 9088 9089 9090 9091 9092 9093 9094 9095 9096 9097 9098 9099 9100 9101 9102 9103 9104 9105 9106 9107 9108 9109 9110 9111 9112 9113 9114 9115 9116 9117 9118 9119 9120 9121 9122 9123 9124 9125 9126 9127 9128 9129 9130 9131 9132 9133 9134 9135 9136 9137 9138 9139 9140 9141 9142 9143 9144 9145 9146 9147 9148 9149 9150 9151 9152 9153 9154 9155 9156 9157 9158 9159 9160 9161 9162 9163 9164 9165 9166 9167 9168 9169 9170 9171 9172 9173 9174 9175 9176 9177 9178 9179 9180 9181 9182 9183 9184 9185 9186 9187 9188 9189 9190 9191 9192 9193 9194 9195 9196 9197 9198 9199 9200 9201 9202 9203 9204 9205 9206 9207 9208 9209 9210 9211 9212 9213 9214 9215 9216 9217 9218 9219 9220 9221 9222 9223 9224 9225 9226 9227 9228 9229 9230 9231 9232 9233 9234 9235 9236 9237 9238 9239 9240 9241 9242 9243 9244 9245 9246 9247 9248 9249 9250 9251 9252 9253 9254 9255 9256 9257 9258 9259 9260 9261 9262 9263 9264 9265 9266 9267 9268 9269 9270 9271 9272 9273 9274 9275 9276 9277 9278 9279 9280 9281 9282 9283 9284 9285 9286 9287 9288 9289 9290 9291 9292 9293 9294 9295 9296 9297 9298 9299 9300 9301 9302 9303 9304 9305 9306 9307 9308 9309 9310 9311 9312 9313 9314 9315 9316 9317 9318 9319 9320 9321 9322 9323 9324 9325 9326 9327 9328 9329 9330 9331 9332 9333 9334 9335 9336 9337 9338 9339 9340 9341 9342 9343 9344 9345 9346 9347 9348 9349 9350 9351 9352 9353 9354 9355 9356 9357 9358 9359 9360 9361 9362 9363 9364 9365 9366 9367 9368 9369 9370 9371 9372 9373 9374 9375 9376 9377 9378 9379 9380 9381 9382 9383 9384 9385 9386 9387 9388 9389 9390 9391 9392 9393 9394 9395 9396 9397 9398 9399 9400 9401 9402 9403 9404 9405 9406 9407 9408 9409 9410 9411 9412 9413 9414 9415 9416 9417 9418 9419 9420 9421 9422 9423 9424 9425 9426 9427 9428 9429 9430 9431 9432 9433 9434 9435 9436 9437 9438 9439 9440 9441 9442 9443 9444 9445 9446 9447 9448 9449 9450 9451 9452 9453 9454 9455 9456 9457 9458 9459 9460 9461 9462 9463 9464 9465 9466 9467 9468 9469 9470 9471 9472 9473 9474 9475 9476 9477 9478 9479 9480 9481 9482 9483 9484 9485 9486 9487 9488 9489 9490 9491 9492 9493 9494 9495 9496 9497 9498 9499 9500 9501 9502 9503 9504 9505 9506 9507 9508 9509 9510 9511 9512 9513 9514 9515 9516 9517 9518 9519 9520 9521 9522 9523 9524 9525 9526 9527 9528 9529 9530 9531 9532 9533 9534 9535 9536 9537 9538 9539 9540 9541 9542 9543 9544 9545 9546 9547 9548 9549 9550 9551 9552 9553 9554 9555 9556 9557 9558 9559 9560 9561 9562 9563 9564 9565 9566 9567 9568 9569 9570 9571 9572 9573 9574 9575 9576 9577 9578 9579 9580 9581 9582 9583 9584 9585 9586 9587 9588 9589 9590 9591 9592 9593 9594 9595 9596 9597 9598 9599 9600 9601 9602 9603 9604 9605 9606 9607 9608 9609 9610 9611 9612 9613 9614 9615 9616 9617 9618 9619 9620 9621 9622 9623 9624 9625 9626 9627 9628 9629 9630 9631 9632 9633 9634 9635 9636 9637 9638 9639 9640 9641 9642 9643 9644 9645 9646 9647 9648 9649 9650 9651 9652 9653 9654 9655 9656 9657 9658 9659 9660 9661 9662 9663 9664 9665 9666 9667 9668 9669 9670 9671 9672 9673 9674 9675 9676 9677 9678 9679 9680 9681 9682 9683 9684 9685 9686 9687 9688 9689 9690 9691 9692 9693 9694 9695 9696 9697 9698 9699 9700 9701 9702 9703 9704 9705 9706 9707 9708 9709 9710 9711 9712 9713 9714 9715 9716 9717 9718 9719 9720 9721 9722 9723 9724 9725 9726 9727 9728 9729 9730 9731 9732 9733 9734 9735 9736 9737 9738 9739 9740 9741 9742 9743 9744 9745 9746 9747 9748 9749 9750 9751 9752 9753 9754 9755 9756 9757 9758 9759 9760 9761 9762 9763 9764 9765 9766 9767 9768 9769 9770 9771 9772 9773 9774 9775 9776 9777 9778 9779 9780 9781 9782 9783 9784 9785 9786 9787 9788 9789 9790 9791 9792 9793 9794 9795 9796 9797 9798 9799 9800 9801 9802 9803 9804 9805 9806 9807 9808 9809 9810 9811 9812 9813 9814 9815 9816 9817 9818 9819 9820 9821 9822 9823 9824 9825 9826 9827 9828 9829 9830 9831 9832 9833 9834 9835 9836 9837 9838 9839 9840 9841 9842 9843 9844 9845 9846 9847 9848 9849 9850 9851 9852 9853 9854 9855 9856 9857 9858 9859 9860 9861 9862 9863 9864 9865 9866 9867 9868 9869 9870 9871 9872 9873 9874 9875 9876 9877 9878 9879 9880 9881 9882 9883 9884 9885 9886 9887 9888 9889 9890 9891 9892 9893 9894 9895 9896 9897 9898 9899 9900 9901 9902 9903 9904 9905 9906 9907 9908 9909 9910 9911 9912 9913 9914 9915 9916 9917 9918 9919 9920 9921 9922 9923 9924 9925 9926 9927 9928 9929 9930 9931 9932 9933 9934 9935 9936 9937 9938 9939 9940 9941 9942 9943 9944 9945 9946 9947 9948 9949 9950 9951 9952 9953 9954 9955 9956 9957 9958 9959 9960 9961 9962 9963 9964 9965 9966 9967 9968 9969 9970 9971 9972 9973 9974 9975 9976 9977 9978 9979 9980 9981 9982 9983 9984 9985 9986 9987 9988 9989 9990 9991 9992 9993 9994 9995 9996 9997 9998 9999 10000 10001 10002 10003 10004 10005 10006 10007 10008 10009 10010 10011 10012 10013 10014 10015 10016 10017 10018 10019 10020 10021 10022 10023 10024 10025 10026 10027 10028 10029 10030 10031 10032 10033 10034 10035 10036 10037 10038 10039 10040 10041 10042 10043 10044 10045 10046 10047 10048 10049 10050 10051 10052 10053 10054 10055 10056 10057 10058 10059 10060 10061 10062 10063 10064 10065 10066 10067 10068 10069 10070 10071 10072 10073 10074 10075 10076 10077 10078 10079 10080 10081 10082 10083 10084 10085 10086 10087 10088 10089 10090 10091 10092 10093 10094 10095 10096 10097 10098 10099 10100 10101 10102 10103 10104 10105 10106 10107 10108 10109 10110 10111 10112 10113 10114 10115 10116 10117 10118 10119 10120 10121 10122 10123 10124 10125 10126 10127 10128 10129 10130 10131 10132 10133 10134 10135 10136 10137 10138 10139 10140 10141 10142 10143 10144 10145 10146 10147 10148 10149 10150 10151 10152 10153 10154 10155 10156 10157 10158 10159 10160 10161 10162 10163 10164 10165 10166 10167 10168 10169 10170 10171 10172 10173 10174 10175 10176 10177 10178 10179 10180 10181 10182 10183 10184 10185 10186 10187 10188 10189 10190 10191 10192 10193 10194 10195 10196 10197 10198 10199 10200 10201 10202 10203 10204 10205 10206 10207 10208 10209 10210 10211 10212 10213 10214 10215 10216 10217 10218 10219 10220 10221 10222 10223 10224 10225 10226 10227 10228 10229 10230 10231 10232 10233 10234 10235 10236 10237 10238 10239 10240 10241 10242 10243 10244 10245 10246 10247 10248 10249 10250 10251 10252 10253 10254 10255 10256 10257 10258 10259 10260 10261 10262 10263 10264 10265 10266 10267 10268 10269 10270 10271 10272 10273 10274 10275 10276 10277 10278 10279 10280 10281 10282 10283 10284 10285 10286 10287 10288 10289 10290 10291 10292 10293 10294 10295 10296 10297 10298 10299 10300 10301 10302 10303 10304 10305 10306 10307 10308 10309 10310 10311 10312 10313 10314 10315 10316 10317 10318 10319 10320 10321 10322 10323 10324 10325 10326 10327 10328 10329 10330 10331 10332 10333 10334 10335 10336 10337 10338 10339 10340 10341 10342 10343 10344 10345 10346 10347 10348 10349 10350 10351 10352 10353 10354 10355 10356 10357 10358 10359 10360 10361 10362 10363 10364 10365 10366 10367 10368 10369 10370 10371 10372 10373 10374 10375 10376 10377 10378 10379 10380 10381 10382 10383 10384 10385 10386 10387 10388 10389 10390 10391 10392 10393 10394 10395 10396 10397 10398 10399 10400 10401 10402 10403 10404 10405 10406 10407 10408 10409 10410 10411 10412 10413 10414 10415 10416 10417 10418 10419 10420 10421 10422 10423 10424 10425 10426 10427 10428 10429 10430 10431 10432 10433 10434 10435 10436 10437 10438 10439 10440 10441 10442 10443 10444 10445 10446 10447 10448 10449 10450 10451 10452 10453 10454 10455 10456 10457 10458 10459 10460 10461 10462 10463 10464 10465 10466 10467 10468 10469 10470 10471 10472 10473 10474 10475 10476 10477 10478 10479 10480 10481 10482 10483 10484 10485 10486 10487 10488 10489 10490 10491 10492 10493 10494 10495 10496 10497 10498 10499 10500 10501 10502 10503 10504 10505 10506 10507 10508 10509 10510 10511 10512 10513 10514 10515 10516 10517 10518 10519 10520 10521 10522 10523 10524 10525 10526 10527 10528 10529 10530 10531 10532 10533 10534 10535 10536 10537 10538 10539 10540 10541 10542 10543 10544 10545 10546 10547 10548 10549 10550 10551 10552 10553 10554 10555 10556 10557 10558 10559 10560 10561 10562 10563 10564 10565 10566 10567 10568 10569 10570 10571 10572 10573 10574 10575 10576 10577 10578 10579 10580 10581 10582 10583 10584 10585 10586 10587 10588 10589 10590 10591 10592 10593 10594 10595 10596 10597 10598 10599 10600 10601 10602 10603 10604 10605 10606 10607 10608 10609 10610 10611 10612 10613 10614 10615 10616 10617 10618 10619 10620 10621 10622 10623 10624 10625 10626 10627 10628 10629 10630 10631 10632 10633 10634 10635 10636 10637 10638 10639 10640 10641 10642 10643 10644 10645 10646 10647 10648 10649 10650 10651 10652 10653 10654 10655 10656 10657 10658 10659 10660 10661 10662 10663 10664 10665 10666 10667 10668 10669 10670 10671 10672 10673 10674 10675 10676 10677 10678 10679 10680 10681 10682 10683 10684 10685 10686 10687 10688 10689 10690 10691 10692 10693 10694 10695 10696 10697 10698 10699 10700 10701 10702 10703 10704 10705 10706 10707 10708 10709 10710 10711 10712 10713 10714 10715 10716 10717 10718 10719 10720 10721 10722 10723 10724 10725 10726 10727 10728 10729 10730 10731 10732 10733 10734 10735 10736 10737 10738 10739 10740 10741 10742 10743 10744 10745 10746 10747 10748 10749 10750 10751 10752 10753 10754 10755 10756 10757 10758 10759 10760 10761 10762 10763 10764 10765 10766 10767 10768 10769 10770 10771 10772 10773 10774 10775 10776 10777 10778 10779 10780 10781 10782 10783 10784 10785 10786 10787 10788 10789 10790 10791 10792 10793 10794 10795 10796 10797 10798 10799 10800 10801 10802 10803 10804 10805 10806 10807 10808 10809 10810 10811 10812 10813 10814 10815 10816 10817 10818 10819 10820 10821 10822 10823 10824 10825 10826 10827 10828 10829 10830 10831 10832 10833 10834 10835 10836 10837 10838 10839 10840 10841 10842 10843 10844 10845 10846 10847 10848 10849 10850 10851 10852 10853 10854 10855 10856 10857 10858 10859 10860 10861 10862 10863 10864 10865 10866 10867 10868 10869 10870 10871 10872 10873 10874 10875 10876 10877 10878 10879 10880 10881 10882 10883 10884 10885 10886 10887 10888 10889 10890 10891 10892 10893 10894 10895 10896 10897 10898 10899 10900 10901 10902 10903 10904 10905 10906 10907 10908 10909 10910 10911 10912 10913 10914 10915 10916 10917 10918 10919 10920 10921 10922 10923 10924 10925 10926 10927 10928 10929 10930 10931 10932 10933 10934 10935 10936 10937 10938 10939 10940 10941 10942 10943 10944 10945 10946 10947 10948 10949 10950 10951 10952 10953 10954 10955 10956 10957 10958 10959 10960 10961 10962 10963 10964 10965 10966 10967 10968 10969 10970 10971 10972 10973 10974 10975 10976 10977 10978 10979 10980 10981 10982 10983 10984 10985 10986 10987 10988 10989 10990 10991 10992 10993 10994 10995 10996 10997 10998 10999 11000 11001 11002 11003 11004 11005 11006 11007 11008 11009 11010 11011 11012 11013 11014 11015 11016 11017 11018 11019 11020 11021 11022 11023 11024 11025 11026 11027 11028 11029 11030 11031 11032 11033 11034 11035 11036 11037 11038 11039 11040 11041 11042 11043 11044 11045 11046 11047 11048 11049 11050 11051 11052 11053 11054 11055 11056 11057 11058 11059 11060 11061 11062 11063 11064 11065 11066 11067 11068 11069 11070 11071 11072 11073 11074 11075 11076 11077 11078 11079 11080 11081 11082 11083 11084 11085 11086 11087 11088 11089 11090 11091 11092 11093 11094 11095 11096 11097 11098 11099 11100 11101 11102 11103 11104 11105 11106 11107 11108 11109 11110 11111 11112 11113 11114 11115 11116 11117 11118 11119 11120 11121 11122 11123 11124 11125 11126 11127 11128 11129 11130 11131 11132 11133 11134 11135 11136 11137 11138 11139 11140 11141 11142 11143 11144 11145 11146 11147 11148 11149 11150 11151 11152 11153 11154 11155 11156 11157 11158 11159 11160 11161 11162 11163 11164 11165 11166 11167 11168 11169 11170 11171 11172 11173 11174 11175 11176 11177 11178 11179 11180 11181 11182 11183 11184 11185 11186 11187 11188 11189 11190 11191 11192 11193 11194 11195 11196 11197 11198 11199 11200 11201 11202 11203 11204 11205 11206 11207 11208 11209 11210 11211 11212 11213 11214 11215 11216 11217 11218 11219 11220 11221 11222 11223 11224 11225 11226 11227 11228 11229 11230 11231 11232 11233 11234 11235 11236 11237 11238 11239 11240 11241 11242 11243 11244 11245 11246 11247 11248 11249 11250 11251 11252 11253 11254 11255 11256 11257 11258 11259 11260 11261 11262 11263 11264 11265 11266 11267 11268 11269 11270 11271 11272 11273 11274 11275 11276 11277 11278 11279 11280 11281 11282 11283 11284 11285 11286 11287 11288 11289 11290 11291 11292 11293 11294 11295 11296 11297 11298 11299 11300 11301 11302 11303 11304 11305 11306 11307 11308 11309 11310 11311 11312 11313 11314 11315 11316 11317 11318 11319 11320 11321 11322 11323 11324 11325 11326 11327 11328 11329 11330 11331 11332 11333 11334 11335 11336 11337 11338 11339 11340 11341 11342 11343 11344 11345 11346 11347 11348 11349 11350 11351 11352 11353 11354 11355 11356 11357 11358 11359 11360 11361 11362 11363 11364 11365 11366 11367 11368 11369 11370 11371 11372 11373 11374 11375 11376 11377 11378 11379 11380 11381 11382 11383 11384 11385 11386 11387 11388 11389 11390 11391 11392 11393 11394 11395 11396 11397 11398 11399 11400 11401 11402 11403 11404 11405 11406 11407 11408 11409 11410 11411 11412 11413 11414 11415 11416 11417 11418 11419 11420 11421 11422 11423 11424 11425 11426 11427 11428 11429 11430 11431 11432 11433 11434 11435 11436 11437 11438 11439 11440 11441 11442 11443 11444 11445 11446 11447 11448 11449 11450 11451 11452 11453 11454 11455 11456 11457 11458 11459 11460 11461 11462 11463 11464 11465 11466 11467 11468 11469 11470 11471 11472 11473 11474 11475 11476 11477 11478 11479 11480 11481 11482 11483 11484 11485 11486 11487 11488 11489 11490 11491 11492 11493 11494 11495 11496 11497 11498 11499 11500 11501 11502 11503 11504 11505 11506 11507 11508 11509 11510 11511 11512 11513 11514 11515 11516 11517 11518 11519 11520 11521 11522 11523 11524 11525 11526 11527 11528 11529 11530 11531 11532 11533 11534 11535 11536 11537 11538 11539 11540 11541 11542 11543 11544 11545 11546 11547 11548 11549 11550 11551 11552 11553 11554 11555 11556 11557 11558 11559 11560 11561 11562 11563 11564 11565 11566 11567 11568 11569 11570 11571 11572 11573 11574 11575 11576 11577 11578 11579 11580 11581 11582 11583 11584 11585 11586 11587 11588 11589 11590 11591 11592 11593 11594 11595 11596 11597 11598 11599 11600 11601 11602 11603 11604 11605 11606 11607 11608 11609 11610 11611 11612 11613 11614 11615 11616 11617 11618 11619 11620 11621 11622 11623 11624 11625 11626 11627 11628 11629 11630 11631 11632 11633 11634 11635 11636 11637 11638 11639 11640 11641 11642 11643 11644 11645 11646 11647 11648 11649 11650 11651 11652 11653 11654 11655 11656 11657 11658 11659 11660 11661 11662 11663 11664 11665 11666 11667 11668 11669 11670 11671 11672 11673 11674 11675 11676 11677 11678 11679 11680 11681 11682 11683 11684 11685 11686 11687 11688 11689 11690 11691 11692 11693 11694 11695 11696 11697 11698 11699 11700 11701 11702 11703 11704 11705 11706 11707 11708 11709 11710 11711 11712 11713 11714 11715 11716 11717 11718 11719 11720 11721 11722 11723 11724 11725 11726 11727 11728 11729 11730 11731 11732 11733 11734 11735 11736 11737 11738 11739 11740 11741 11742 11743 11744 11745 11746 11747 11748 11749 11750 11751 11752 11753 11754 11755 11756 11757 11758 11759 11760 11761 11762 11763 11764 11765 11766 11767 11768 11769 11770 11771 11772 11773 11774 11775 11776 11777 11778 11779 11780 11781 11782 11783 11784 11785 11786 11787 11788 11789 11790 11791 11792 11793 11794 11795 11796 11797 11798 11799 11800 11801 11802 11803 11804 11805 11806 11807 11808 11809 11810 11811 11812 11813 11814 11815 11816 11817 11818 11819 11820 11821 11822 11823 11824 11825 11826 11827 11828 11829 11830 11831 11832 11833 11834 11835 11836 11837 11838 11839 11840 11841 11842 11843 11844 11845 11846 11847 11848 11849 11850 11851 11852 11853 11854 11855 11856 11857 11858 11859 11860 11861 11862 11863 11864 11865 11866 11867 11868 11869 11870 11871 11872 11873 11874 11875 11876 11877 11878 11879 11880 11881 11882 11883 11884 11885 11886 11887 11888 11889 11890 11891 11892 11893 11894 11895 11896 11897 11898 11899 11900 11901 11902 11903 11904 11905 11906 11907 11908 11909 11910 11911 11912 11913 11914 11915 11916 11917 11918 11919 11920 11921 11922 11923 11924 11925 11926 11927 11928 11929 11930 11931 11932 11933 11934 11935 11936 11937 11938 11939 11940 11941 11942 11943 11944 11945 11946 11947 11948 11949 11950 11951 11952 11953 11954 11955 11956 11957 11958 11959 11960 11961 11962 11963 11964 11965 11966 11967 11968 11969 11970 11971 11972 11973 11974 11975 11976 11977 11978 11979 11980 11981 11982 11983 11984 11985 11986 11987 11988 11989 11990 11991 11992 11993 11994 11995 11996 11997 11998 11999 12000 12001 12002 12003 12004 12005 12006 12007 12008 12009 12010 12011 12012 12013 12014 12015 12016 12017 12018 12019 12020 12021 12022 12023 12024 12025 12026 12027 12028 12029 12030 12031 12032 12033 12034 12035 12036 12037 12038 12039 12040 12041 12042 12043 12044 12045 12046 12047 12048 12049 12050 12051 12052 12053 12054 12055 12056 12057 12058 12059 12060 12061 12062 12063 12064 12065 12066 12067 12068 12069 12070 12071 12072 12073 12074 12075 12076 12077 12078 12079 12080 12081 12082 12083 12084 12085 12086 12087 12088 12089 12090 12091 12092 12093 12094 12095 12096 12097 12098 12099 12100 12101 12102 12103 12104 12105 12106 12107 12108 12109 12110 12111 12112 12113 12114 12115 12116 12117 12118 12119 12120 12121 12122 12123 12124 12125 12126 12127 12128 12129 12130 12131 12132 12133 12134 12135 12136 12137 12138 12139 12140 12141 12142 12143 12144 12145 12146 12147 12148 12149 12150 12151 12152 12153 12154 12155 12156 12157 12158 12159 12160 12161 12162 12163 12164 12165 12166 12167 12168 12169 12170 12171 12172 12173 12174 12175 12176 12177 12178 12179 12180 12181 12182 12183 12184 12185 12186 12187 12188 12189 12190 12191 12192 12193 12194 12195 12196 12197 12198 12199 12200 12201 12202 12203 12204 12205 12206 12207 12208 12209 12210 12211 12212 12213 12214 12215 12216 12217 12218 12219 12220 12221 12222 12223 12224 12225 12226 12227 12228 12229 12230 12231 12232 12233 12234 12235 12236 12237 12238 12239 12240 12241 12242 12243 12244 12245 12246 12247 12248 12249 12250 12251 12252 12253 12254 12255 12256 12257 12258 12259 12260 12261 12262 12263 12264 12265 12266 12267 12268 12269 12270 12271 12272 12273 12274 12275 12276 12277 12278 12279 12280 12281 12282 12283 12284 12285 12286 12287 12288 12289 12290 12291 12292 12293 12294 12295 12296 12297 12298 12299 12300 12301 12302 12303 12304 12305 12306 12307 12308 12309 12310 12311 12312 12313 12314 12315 12316 12317 12318 12319 12320 12321 12322 12323 12324 12325 12326 12327 12328 12329 12330 12331 12332 12333 12334 12335 12336 12337 12338 12339 12340 12341 12342 12343 12344 12345 12346 12347 12348 12349 12350 12351 12352 12353 12354 12355 12356 12357 12358 12359 12360 12361 12362 12363 12364 12365 12366 12367 12368 12369 12370 12371 12372 12373 12374 12375 12376 12377 12378 12379 12380 12381 12382 12383 12384 12385 12386 12387 12388 12389 12390 12391 12392 12393 12394 12395 12396 12397 12398 12399 12400 12401 12402 12403 12404 12405 12406 12407 12408 12409 12410 12411 12412 12413 12414 12415 12416 12417 12418 12419 12420 12421 12422 12423 12424 12425 12426 12427 12428 12429 12430 12431 12432 12433 12434 12435 12436 12437 12438 12439 12440 12441 12442 12443 12444 12445 12446 12447 12448 12449 12450 12451 12452 12453 12454 12455 12456 12457 12458 12459 12460 12461 12462 12463 12464 12465 12466 12467 12468 12469 12470 12471 12472 12473 12474 12475 12476 12477 12478 12479 12480 12481 12482 12483 12484 12485 12486 12487 12488 12489 12490 12491 12492 12493 12494 12495 12496 12497 12498 12499 12500 12501 12502 12503 12504 12505 12506 12507 12508 12509 12510 12511 12512 12513 12514 12515 12516 12517 12518 12519 12520 12521 12522 12523 12524 12525 12526 12527 12528 12529 12530 12531 12532 12533 12534 12535 12536 12537 12538 12539 12540 12541 12542 12543 12544 12545 12546 12547 12548 12549 12550 12551 12552 12553 12554 12555 12556 12557 12558 12559 12560 12561 12562 12563 12564 12565 12566 12567 12568 12569 12570 12571 12572 12573 12574 12575 12576 12577 12578 12579 12580 12581 12582 12583 12584 12585 12586 12587 12588 12589 12590 12591 12592 12593 12594 12595 12596 12597 12598 12599 12600 12601 12602 12603 12604 12605 12606 12607 12608 12609 12610 12611 12612 12613 12614 12615 12616 12617 12618 12619 12620 12621 12622 12623 12624 12625 12626 12627 12628 12629 12630 12631 12632 12633 12634 12635 12636 12637 12638 12639 12640 12641 12642 12643 12644 12645 12646 12647 12648 12649 12650 12651 12652 12653 12654 12655 12656 12657 12658 12659 12660 12661 12662 12663 12664 12665 12666 12667 12668 12669 12670 12671 12672 12673 12674 12675 12676 12677 12678 12679 12680 12681 12682 12683 12684 12685 12686 12687 12688 12689 12690 12691 12692 12693 12694 12695 12696 12697 12698 12699 12700 12701 12702 12703 12704 12705 12706 12707 12708 12709 12710 12711 12712 12713 12714 12715 12716 12717 12718 12719 12720 12721 12722 12723 12724 12725 12726 12727 12728 12729 12730 12731 12732 12733 12734 12735 12736 12737 12738 12739 12740 12741 12742 12743 12744 12745 12746 12747 12748 12749 12750 12751 12752 12753 12754 12755 12756 12757 12758 12759 12760 12761 12762 12763 12764 12765 12766 12767 12768 12769 12770 12771 12772 12773 12774 12775 12776 12777 12778 12779 12780 12781 12782 12783 12784 12785 12786 12787 12788 12789 12790 12791 12792 12793 12794 12795 12796 12797 12798 12799 12800 12801 12802 12803 12804 12805 12806 12807 12808 12809 12810 12811 12812 12813 12814 12815 12816 12817 12818 12819 12820 12821 12822 12823 12824 12825 12826 12827 12828 12829 12830 12831 12832 12833 12834 12835 12836 12837 12838 12839 12840 12841 12842 12843 12844 12845 12846 12847 12848 12849 12850 12851 12852 12853 12854 12855 12856 12857 12858 12859 12860 12861 12862 12863 12864 12865 12866 12867 12868 12869 12870 12871 12872 12873 12874 12875 12876 12877 12878 12879 12880 12881 12882 12883 12884 12885 12886 12887 12888 12889 12890 12891 12892 12893 12894 12895 12896 12897 12898 12899 12900 12901 12902 12903 12904 12905 12906 12907 12908 12909 12910 12911 12912 12913 12914 12915 12916 12917 12918 12919 12920 12921 12922 12923 12924 12925 12926 12927 12928 12929 12930 12931 12932 12933 12934 12935 12936 12937 12938 12939 12940 12941 12942 12943 12944 12945 12946 12947 12948 12949 12950 12951 12952 12953 12954 12955 12956 12957 12958 12959 12960 12961 12962 12963 12964 12965 12966 12967 12968 12969 12970 12971 12972 12973 12974 12975 12976 12977 12978 12979 12980 12981 12982 12983 12984 12985 12986 12987 12988 12989 12990 12991 12992 12993 12994 12995 12996 12997 12998 12999 13000 13001 13002 13003 13004 13005 13006 13007 13008 13009 13010 13011 13012 13013 13014 13015 13016 13017 13018 13019 13020 13021 13022 13023 13024 13025 13026 13027 13028 13029 13030 13031 13032 13033 13034 13035 13036 13037 13038 13039 13040 13041 13042 13043 13044 13045 13046 13047 13048 13049 13050 13051 13052 13053 13054 13055 13056 13057 13058 13059 13060 13061 13062 13063 13064 13065 13066 13067 13068 13069 13070 13071 13072 13073 13074 13075 13076 13077 13078 13079 13080 13081 13082 13083 13084 13085 13086 13087 13088 13089 13090 13091 13092 13093 13094 13095 13096 13097 13098 13099 13100 13101 13102 13103 13104 13105 13106 13107 13108 13109 13110 13111 13112 13113 13114 13115 13116 13117 13118 13119 13120 13121 13122 13123 13124 13125 13126 13127 13128 13129 13130 13131 13132 13133 13134 13135 13136 13137 13138 13139 13140 13141 13142 13143 13144 13145 13146 13147 13148 13149 13150 13151 13152 13153 13154 13155 13156 13157 13158 13159 13160 13161 13162 13163 13164 13165 13166 13167 13168 13169 13170 13171 13172 13173 13174 13175 13176 13177 13178 13179 13180 13181 13182 13183 13184 13185 13186 13187 13188 13189 13190 13191 13192 13193 13194 13195 13196 13197 13198 13199 13200 13201 13202 13203 13204 13205 13206 13207 13208 13209 13210 13211 13212 13213 13214 13215 13216 13217 13218 13219 13220 13221 13222 13223 13224 13225 13226 13227 13228 13229 13230 13231 13232 13233 13234 13235 13236 13237 13238 13239 13240 13241 13242 13243 13244 13245 13246 13247 13248 13249 13250 13251 13252 13253 13254 13255 13256 13257 13258 13259 13260 13261 13262 13263 13264 13265 13266 13267 13268 13269 13270 13271 13272 13273 13274 13275 13276 13277 13278 13279 13280 13281 13282 13283 13284 13285 13286 13287 13288 13289 13290 13291 13292 13293 13294 13295 13296 13297 13298 13299 13300 13301 13302 13303 13304 13305 13306 13307 13308 13309 13310 13311 13312 13313 13314 13315 13316 13317 13318 13319 13320 13321 13322 13323 13324 13325 13326 13327 13328 13329 13330 13331 13332 13333 13334 13335 13336 13337 13338 13339 13340 13341 13342 13343 13344 13345 13346 13347 13348 13349 13350 13351 13352 13353 13354 13355 13356 13357 13358 13359 13360 13361 13362 13363 13364 13365 13366 13367 13368 13369 13370 13371 13372 13373 13374 13375 13376 13377 13378 13379 13380 13381 13382 13383 13384 13385 13386 13387 13388 13389 13390 13391 13392 13393 13394 13395 13396 13397 13398 13399 13400 13401 13402 13403 13404 13405 13406 13407 13408 13409 13410 13411 13412 13413 13414 13415 13416 13417 13418 13419 13420 13421 13422 13423 13424 13425 13426 13427 13428 13429 13430 13431 13432 13433 13434 13435 13436 13437 13438 13439 13440 13441 13442 13443 13444 13445 13446 13447 13448 13449 13450 13451 13452 13453 13454 13455 13456 13457 13458 13459 13460 13461 13462 13463 13464 13465 13466 13467 13468 13469 13470 13471 13472 13473 13474 13475 13476 13477 13478 13479 13480 13481 13482 13483 13484 13485 13486 13487 13488 13489 13490 13491 13492 13493 13494 13495 13496 13497 13498 13499 13500 13501 13502 13503 13504 13505 13506 13507 13508 13509 13510 13511 13512 13513 13514 13515 13516 13517 13518 13519 13520 13521 13522 13523 13524 13525 13526 13527 13528 13529 13530 13531 13532 13533 13534 13535 13536 13537 13538 13539 13540 13541 13542 13543 13544 13545 13546 13547 13548 13549 13550 13551 13552 13553 13554 13555 13556 13557 13558 13559 13560 13561 13562 13563 13564 13565 13566 13567 13568 13569 13570 13571 13572 13573 13574 13575 13576 13577 13578 13579 13580 13581 13582 13583 13584 13585 13586 13587 13588 13589 13590 13591 13592 13593 13594 13595 13596 13597 13598 13599 13600 13601 13602 13603 13604 13605 13606 13607 13608 13609 13610 13611 13612 13613 13614 13615 13616 13617 13618 13619 13620 13621 13622 13623 13624 13625 13626 13627 13628 13629 13630 13631 13632 13633 13634 13635 13636 13637 13638 13639 13640 13641 13642 13643 13644 13645 13646 13647 13648 13649 13650 13651 13652 13653 13654 13655 13656 13657 13658 13659 13660 13661 13662 13663 13664 13665 13666 13667 13668 13669 13670 13671 13672 13673 13674 13675 13676 13677 13678 13679 13680 13681 13682 13683 13684 13685 13686 13687 13688 13689 13690 13691 13692 13693 13694 13695 13696 13697 13698 13699 13700 13701 13702 13703 13704 13705 13706 13707 13708 13709 13710 13711 13712 13713 13714 13715 13716 13717 13718 13719 13720 13721 13722 13723 13724 13725 13726 13727 13728 13729 13730 13731 13732 13733 13734 13735 13736 13737 13738 13739 13740 13741 13742 13743 13744 13745 13746 13747 13748 13749 13750 13751 13752 13753 13754 13755 13756 13757 13758 13759 13760 13761 13762 13763 13764 13765 13766 13767 13768 13769 13770 13771 13772 13773 13774 13775 13776 13777 13778 13779 13780 13781 13782 13783 13784 13785 13786 13787 13788 13789 13790 13791 13792 13793 13794 13795 13796 13797 13798 13799 13800 13801 13802 13803 13804 13805 13806 13807 13808 13809 13810 13811 13812 13813 13814 13815 13816 13817 13818 13819 13820 13821 13822 13823 13824 13825 13826 13827 13828 13829 13830 13831 13832 13833 13834 13835 13836 13837 13838 13839 13840 13841 13842 13843 13844 13845 13846 13847 13848 13849 13850 13851 13852 13853 13854 13855 13856 13857 13858 13859 13860 13861 13862 13863 13864 13865 13866 13867 13868 13869 13870 13871 13872 13873 13874 13875 13876 13877 13878 13879 13880 13881 13882 13883 13884 13885 13886 13887 13888 13889 13890 13891 13892 13893 13894 13895 13896 13897 13898 13899 13900 13901 13902 13903 13904 13905 13906 13907 13908 13909 13910 13911 13912 13913 13914 13915 13916 13917 13918 13919 13920 13921 13922 13923 13924 13925 13926 13927 13928 13929 13930 13931 13932 13933 13934 13935 13936 13937 13938 13939 13940 13941 13942 13943 13944 13945 13946 13947 13948 13949 13950 13951 13952 13953 13954 13955 13956 13957 13958 13959 13960 13961 13962 13963 13964 13965 13966 13967 13968 13969 13970 13971 13972 13973 13974 13975 13976 13977 13978 13979 13980 13981 13982 13983 13984 13985 13986 13987 13988 13989 13990 13991 13992 13993 13994 13995 13996 13997 13998 13999 14000 14001 14002 14003 14004 14005 14006 14007 14008 14009 14010 14011 14012 14013 14014 14015 14016 14017 14018 14019 14020 14021 14022 14023 14024 14025 14026 14027 14028 14029 14030 14031 14032 14033 14034 14035 14036 14037 14038 14039 14040 14041 14042 14043 14044 14045 14046 14047 14048 14049 14050 14051 14052 14053 14054 14055 14056 14057 14058 14059 14060 14061 14062 14063 14064 14065 14066 14067 14068 14069 14070 14071 14072 14073 14074 14075 14076 14077 14078 14079 14080 14081 14082 14083 14084 14085 14086 14087 14088 14089 14090 14091 14092 14093 14094 14095 14096 14097 14098 14099 14100 14101 14102 14103 14104 14105 14106 14107 14108 14109 14110 14111 14112 14113 14114 14115 14116 14117 14118 14119 14120 14121 14122 14123 14124 14125 14126 14127 14128 14129 14130 14131 14132 14133 14134 14135 14136 14137 14138 14139 14140 14141 14142 14143 14144 14145 14146 14147 14148 14149 14150 14151 14152 14153 14154 14155 14156 14157 14158 14159 14160 14161 14162 14163 14164 14165 14166 14167 14168 14169 14170 14171 14172 14173 14174 14175 14176 14177 14178 14179 14180 14181 14182 14183 14184 14185 14186 14187 14188 14189 14190 14191 14192 14193 14194 14195 14196 14197 14198 14199 14200 14201 14202 14203 14204 14205 14206 14207 14208 14209 14210 14211 14212 14213 14214 14215 14216 14217 14218 14219 14220 14221 14222 14223 14224 14225 14226 14227 14228 14229 14230 14231 14232 14233 14234 14235 14236 14237 14238 14239 14240 14241 14242 14243 14244 14245 14246 14247 14248 14249 14250 14251 14252 14253 14254 14255 14256 14257 14258 14259 14260 14261 14262 14263 14264 14265 14266 14267 14268 14269 14270 14271 14272 14273 14274 14275 14276 14277 14278 14279 14280 14281 14282 14283 14284 14285 14286 14287 14288 14289 14290 14291 14292 14293 14294 14295 14296 14297 14298 14299 14300 14301 14302 14303 14304 14305 14306 14307 14308 14309 14310 14311 14312 14313 14314 14315 14316 14317 14318 14319 14320 14321 14322 14323 14324 14325 14326 14327 14328 14329 14330 14331 14332 14333 14334 14335 14336 14337 14338 14339 14340 14341 14342 14343 14344 14345 14346 14347 14348 14349 14350 14351 14352 14353 14354 14355 14356 14357 14358 14359 14360 14361 14362 14363 14364 14365 14366 14367 14368 14369 14370 14371 14372 14373 14374 14375 14376 14377 14378 14379 14380 14381 14382 14383 14384 14385 14386 14387 14388 14389 14390 14391 14392 14393 14394 14395 14396 14397 14398 14399 14400 14401 14402 14403 14404 14405 14406 14407 14408 14409 14410 14411 14412 14413 14414 14415 14416 14417 14418 14419 14420 14421 14422 14423 14424 14425 14426 14427 14428 14429 14430 14431 14432 14433 14434 14435 14436 14437 14438 14439 14440 14441 14442 14443 14444 14445 14446 14447 14448 14449 14450 14451 14452 14453 14454 14455 14456 14457 14458 14459 14460 14461 14462 14463 14464 14465 14466 14467 14468 14469 14470 14471 14472 14473 14474 14475 14476 14477 14478 14479 14480 14481 14482 14483 14484 14485 14486 14487 14488 14489 14490 14491 14492 14493 14494 14495 14496 14497 14498 14499 14500 14501 14502 14503 14504 14505 14506 14507 14508 14509 14510 14511 14512 14513 14514 14515 14516 14517 14518 14519 14520 14521 14522 14523 14524 14525 14526 14527 14528 14529 14530 14531 14532 14533 14534 14535 14536 14537 14538 14539 14540 14541 14542 14543 14544 14545 14546 14547 14548 14549 14550 14551 14552 14553 14554 14555 14556 14557 14558 14559 14560 14561 14562 14563 14564 14565 14566 14567 14568 14569 14570 14571 14572 14573 14574 14575 14576 14577 14578 14579 14580 14581 14582 14583 14584 14585 14586 14587 14588 14589 14590 14591 14592 14593 14594 14595 14596 14597 14598 14599 14600 14601 14602 14603 14604 14605 14606 14607 14608 14609 14610 14611 14612 14613 14614 14615 14616 14617 14618 14619 14620 14621 14622 14623 14624 14625 14626 14627 14628 14629 14630 14631 14632 14633 14634 14635 14636 14637 14638 14639 14640 14641 14642 14643 14644 14645 14646 14647 14648 14649 14650 14651 14652 14653 14654 14655 14656 14657 14658 14659 14660 14661 14662 14663 14664 14665 14666 14667 14668 14669 14670 14671 14672 14673 14674 14675 14676 14677 14678 14679 14680 14681 14682 14683 14684 14685 14686 14687 14688 14689 14690 14691 14692 14693 14694 14695 14696 14697 14698 14699 14700 14701 14702 14703 14704 14705 14706 14707 14708 14709 14710 14711 14712 14713 14714 14715 14716 14717 14718 14719 14720 14721 14722 14723 14724 14725 14726 14727 14728 14729 14730 14731 14732 14733 14734 14735 14736 14737 14738 14739 14740 14741 14742 14743 14744 14745 14746 14747 14748 14749 14750 14751 14752 14753 14754 14755 14756 14757 14758 14759 14760 14761 14762 14763 14764 14765 14766 14767 14768 14769 14770 14771 14772 14773 14774 14775 14776 14777 14778 14779 14780 14781 14782 14783 14784 14785 14786 14787 14788 14789 14790 14791 14792 14793 14794 14795 14796 14797 14798 14799 14800 14801 14802 14803 14804 14805 14806 14807 14808 14809 14810 14811 14812 14813 14814 14815 14816 14817 14818 14819 14820 14821 14822 14823 14824 14825 14826 14827 14828 14829 14830 14831 14832 14833 14834 14835 14836 14837 14838 14839 14840 14841 14842 14843 14844 14845 14846 14847 14848 14849 14850 14851 14852 14853 14854 14855 14856 14857 14858 14859 14860 14861 14862 14863 14864 14865 14866 14867 14868 14869 14870 14871 14872 14873 14874 14875 14876 14877 14878 14879 14880 14881 14882 14883 14884 14885 14886 14887 14888 14889 14890 14891 14892 14893 14894 14895 14896 14897 14898 14899 14900 14901 14902 14903 14904 14905 14906 14907 14908 14909 14910 14911 14912 14913 14914 14915 14916 14917 14918 14919 14920 14921 14922 14923 14924 14925 14926 14927 14928 14929 14930 14931 14932 14933 14934 14935 14936 14937 14938 14939 14940 14941 14942 14943 14944 14945 14946 14947 14948 14949 14950 14951 14952 14953 14954 14955 14956 14957 14958 14959 14960 14961 14962 14963 14964 14965 14966 14967 14968 14969 14970 14971 14972 14973 14974 14975 14976 14977 14978 14979 14980 14981 14982 14983 14984 14985 14986 14987 14988 14989 14990 14991 14992 14993 14994 14995 14996 14997 14998 14999 15000 15001 15002 15003 15004 15005 15006 15007 15008 15009 15010 15011 15012 15013 15014 15015 15016 15017 15018 15019 15020 15021 15022 15023 15024 15025 15026 15027 15028 15029 15030 15031 15032 15033 15034 15035 15036 15037 15038 15039 15040 15041 15042 15043 15044 15045 15046 15047 15048 15049 15050 15051 15052 15053 15054 15055 15056 15057 15058 15059 15060 15061 15062 15063 15064 15065 15066 15067 15068 15069 15070 15071 15072 15073 15074 15075 15076 15077 15078 15079 15080 15081 15082 15083 15084 15085 15086 15087 15088 15089 15090 15091 15092 15093 15094 15095 15096 15097 15098 15099 15100 15101 15102 15103 15104 15105 15106 15107 15108 15109 15110 15111 15112 15113 15114 15115 15116 15117 15118 15119 15120 15121 15122 15123 15124 15125 15126 15127 15128 15129 15130 15131 15132 15133 15134 15135 15136 15137 15138 15139 15140 15141 15142 15143 15144 15145 15146 15147 15148 15149 15150 15151 15152 15153 15154 15155 15156 15157 15158 15159 15160 15161 15162 15163 15164 15165 15166 15167 15168 15169 15170 15171 15172 15173 15174 15175 15176 15177 15178 15179 15180 15181 15182 15183 15184 15185 15186 15187 15188 15189 15190 15191 15192 15193 15194 15195 15196 15197 15198 15199 15200 15201 15202 15203 15204 15205 15206 15207 15208 15209 15210 15211 15212 15213 15214 15215 15216 15217 15218 15219 15220 15221 15222 15223 15224 15225 15226 15227 15228 15229 15230 15231 15232 15233 15234 15235 15236 15237 15238 15239 15240 15241 15242 15243 15244 15245 15246 15247 15248 15249 15250 15251 15252 15253 15254 15255 15256 15257 15258 15259 15260 15261 15262 15263 15264 15265 15266 15267 15268 15269 15270 15271 15272 15273 15274 15275 15276 15277 15278 15279 15280 15281 15282 15283 15284 15285 15286 15287 15288 15289 15290 15291 15292 15293 15294 15295 15296 15297 15298 15299 15300 15301 15302 15303 15304 15305 15306 15307 15308 15309 15310 15311 15312 15313 15314 15315 15316 15317 15318 15319 15320 15321 15322 15323 15324 15325 15326 15327 15328 15329 15330 15331 15332 15333 15334 15335 15336 15337 15338 15339 15340 15341 15342 15343 15344 15345 15346 15347 15348 15349 15350 15351 15352 15353 15354 15355 15356 15357 15358 15359 15360 15361 15362 15363 15364 15365 15366 15367 15368 15369 15370 15371 15372 15373 15374 15375 15376 15377 15378 15379 15380 15381 15382 15383 15384 15385 15386 15387 15388 15389 15390 15391 15392 15393 15394 15395 15396 15397 15398 15399 15400 15401 15402 15403 15404 15405 15406 15407 15408 15409 15410 15411 15412 15413 15414 15415 15416 15417 15418 15419 15420 15421 15422 15423 15424 15425 15426 15427 15428 15429 15430 15431 15432 15433 15434 15435 15436 15437 15438 15439 15440 15441 15442 15443 15444 15445 15446 15447 15448 15449 15450 15451 15452 15453 15454 15455 15456 15457 15458 15459 15460 15461 15462 15463 15464 15465 15466 15467 15468 15469 15470 15471 15472 15473 15474 15475 15476 15477 15478 15479 15480 15481 15482 15483 15484 15485 15486 15487 15488 15489 15490 15491 15492 15493 15494 15495 15496 15497 15498 15499 15500 15501 15502 15503 15504 15505 15506 15507 15508 15509 15510 15511 15512 15513 15514 15515 15516 15517 15518 15519 15520 15521 15522 15523 15524 15525 15526 15527 15528 15529 15530 15531 15532 15533 15534 15535 15536 15537 15538 15539 15540 15541 15542 15543 15544 15545 15546 15547 15548 15549 15550 15551 15552 15553 15554 15555 15556 15557 15558 15559 15560 15561 15562 15563 15564 15565 15566 15567 15568 15569 15570 15571 15572 15573 15574 15575 15576 15577 15578 15579 15580 15581 15582 15583 15584 15585 15586 15587 15588 15589 15590 15591 15592 15593 15594 15595 15596 15597 15598 15599 15600 15601 15602 15603 15604 15605 15606 15607 15608 15609 15610 15611 15612 15613 15614 15615 15616 15617 15618 15619 15620 15621 15622 15623 15624 15625 15626 15627 15628 15629 15630 15631 15632 15633 15634 15635 15636 15637 15638 15639 15640 15641 15642 15643 15644 15645 15646 15647 15648 15649 15650 15651 15652 15653 15654 15655 15656 15657 15658 15659 15660 15661 15662 15663 15664 15665 15666 15667 15668 15669 15670 15671 15672 15673 15674 15675 15676 15677 15678 15679 15680 15681 15682 15683 15684 15685 15686 15687 15688 15689 15690 15691 15692 15693 15694 15695 15696 15697 15698 15699 15700 15701 15702 15703 15704 15705 15706 15707 15708 15709 15710 15711 15712 15713 15714 15715 15716 15717 15718 15719 15720 15721 15722 15723 15724 15725 15726 15727 15728 15729 15730 15731 15732 15733 15734 15735 15736 15737 15738 15739 15740 15741 15742 15743 15744 15745 15746 15747 15748 15749 15750 15751 15752 15753 15754 15755 15756 15757 15758 15759 15760 15761 15762 15763 15764 15765 15766 15767 15768 15769 15770 15771 15772 15773 15774 15775 15776 15777 15778 15779 15780 15781 15782 15783 15784 15785 15786 15787 15788 15789 15790 15791 15792 15793 15794 15795 15796 15797 15798 15799 15800 15801 15802 15803 15804 15805 15806 15807 15808 15809 15810 15811 15812 15813 15814 15815 15816 15817 15818 15819 15820 15821 15822 15823 15824 15825 15826 15827 15828 15829 15830 15831 15832 15833 15834 15835 15836 15837 15838 15839 15840 15841 15842 15843 15844 15845 15846 15847 15848 15849 15850 15851 15852 15853 15854 15855 15856 15857 15858 15859 15860 15861 15862 15863 15864 15865 15866 15867 15868 15869 15870 15871 15872 15873 15874 15875 15876 15877 15878 15879 15880 15881 15882 15883 15884 15885 15886 15887 15888 15889 15890 15891 15892 15893 15894 15895 15896 15897 15898 15899 15900 15901 15902 15903 15904 15905 15906 15907 15908 15909 15910 15911 15912 15913 15914 15915 15916 15917 15918 15919 15920 15921 15922 15923 15924 15925 15926 15927 15928 15929 15930 15931 15932 15933 15934 15935 15936 15937 15938 15939 15940 15941 15942 15943 15944 15945 15946 15947 15948 15949 15950 15951 15952 15953 15954 15955 15956 15957 15958 15959 15960 15961 15962 15963 15964 15965 15966 15967 15968 15969 15970 15971 15972 15973 15974 15975 15976 15977 15978 15979 15980 15981 15982 15983 15984 15985 15986 15987 15988 15989 15990 15991 15992 15993 15994 15995 15996 15997 15998 15999 16000 16001 16002 16003 16004 16005 16006 16007 16008 16009 16010 16011 16012 16013 16014 16015 16016 16017 16018 16019 16020 16021 16022 16023 16024 16025 16026 16027 16028 16029 16030 16031 16032 16033 16034 16035 16036 16037 16038 16039 16040 16041 16042 16043 16044 16045 16046 16047 16048 16049 16050 16051 16052 16053 16054 16055 16056 16057 16058 16059 16060 16061 16062 16063 16064 16065 16066 16067 16068 16069 16070 16071 16072 16073 16074 16075 16076 16077 16078 16079 16080 16081 16082 16083 16084 16085 16086 16087 16088 16089 16090 16091 16092 16093 16094 16095 16096 16097 16098 16099 16100 16101 16102 16103 16104 16105 16106 16107 16108 16109 16110 16111 16112 16113 16114 16115 16116 16117 16118 16119 16120 16121 16122 16123 16124 16125 16126 16127 16128 16129 16130 16131 16132 16133 16134 16135 16136 16137 16138 16139 16140 16141 16142 16143 16144 16145 16146 16147 16148 16149 16150 16151 16152 16153 16154 16155 16156 16157 16158 16159 16160 16161 16162 16163 16164 16165 16166 16167 16168 16169 16170 16171 16172 16173 16174 16175 16176 16177 16178 16179 16180 16181 16182 16183 16184 16185 16186 16187 16188 16189 16190 16191 16192 16193 16194 16195 16196 16197 16198 16199 16200 16201 16202 16203 16204 16205 16206 16207 16208 16209 16210 16211 16212 16213 16214 16215 16216 16217 16218 16219 16220 16221 16222 16223 16224 16225 16226 16227 16228 16229 16230 16231 16232 16233 16234 16235 16236 16237 16238 16239 16240 16241 16242 16243 16244 16245 16246 16247 16248 16249 16250 16251 16252 16253 16254 16255 16256 16257 16258 16259 16260 16261 16262 16263 16264 16265 16266 16267 16268 16269 16270 16271 16272 16273 16274 16275 16276 16277 16278 16279 16280 16281 16282 16283 16284 16285 16286 16287 16288 16289 16290 16291 16292 16293 16294 16295 16296 16297 16298 16299 16300 16301 16302 16303 16304 16305 16306 16307 16308 16309 16310 16311 16312 16313 16314 16315 16316 16317 16318 16319 16320 16321 16322 16323 16324 16325 16326 16327 16328 16329 16330 16331 16332 16333 16334 16335 16336 16337 16338 16339 16340 16341 16342 16343 16344 16345 16346 16347 16348 16349 16350 16351 16352 16353 16354 16355 16356 16357 16358 16359 16360 16361 16362 16363 16364 16365 16366 16367 16368 16369 16370 16371 16372 16373 16374 16375 16376 16377 16378 16379 16380 16381 16382 16383 16384 16385 16386 16387 16388 16389 16390 16391 16392 16393 16394 16395 16396 16397 16398 16399 16400 16401 16402 16403 16404 16405 16406 16407 16408 16409 16410 16411 16412 16413 16414 16415 16416 16417 16418 16419 16420 16421 16422 16423 16424 16425 16426 16427 16428 16429 16430 16431 16432 16433 16434 16435 16436 16437 16438 16439 16440 16441 16442 16443 16444 16445 16446 16447 16448 16449 16450 16451 16452 16453 16454 16455 16456 16457 16458 16459 16460 16461 16462 16463 16464 16465 16466 16467 16468 16469 16470 16471 16472 16473 16474 16475 16476 16477 16478 16479 16480 16481 16482 16483 16484 16485 16486 16487 16488 16489 16490 16491 16492 16493 16494 16495 16496 16497 16498 16499 16500 16501 16502 16503 16504 16505 16506 16507 16508 16509 16510 16511 16512 16513 16514 16515 16516 16517 16518 16519 16520 16521 16522 16523 16524 16525 16526 16527 16528 16529 16530 16531 16532 16533 16534 16535 16536 16537 16538 16539 16540 16541 16542 16543 16544 16545 16546 16547 16548 16549 16550 16551 16552 16553 16554 16555 16556 16557 16558 16559 16560 16561 16562 16563 16564 16565 16566 16567 16568 16569 16570 16571 16572 16573 16574 16575 16576 16577 16578 16579 16580 16581 16582 16583 16584 16585 16586 16587 16588 16589 16590 16591 16592 16593 16594 16595 16596 16597 16598 16599 16600 16601 16602 16603 16604 16605 16606 16607 16608 16609 16610 16611 16612 16613 16614 16615 16616 16617 16618 16619 16620 16621 16622 16623 16624 16625 16626 16627 16628 16629 16630 16631 16632 16633 16634 16635 16636 16637 16638 16639 16640 16641 16642 16643 16644 16645 16646 16647 16648 16649 16650 16651 16652 16653 16654 16655 16656 16657 16658 16659 16660 16661 16662 16663 16664 16665 16666 16667 16668 16669 16670 16671 16672 16673 16674 16675 16676 16677 16678 16679 16680 16681 16682 16683 16684 16685 16686 16687 16688 16689 16690 16691 16692 16693 16694 16695 16696 16697 16698 16699 16700 16701 16702 16703 16704 16705 16706 16707 16708 16709 16710 16711 16712 16713 16714 16715 16716 16717 16718 16719 16720 16721 16722 16723 16724 16725 16726 16727 16728 16729 16730 16731 16732 16733 16734 16735 16736 16737 16738 16739 16740 16741 16742 16743 16744 16745 16746 16747 16748 16749 16750 16751 16752 16753 16754 16755 16756 16757 16758 16759 16760 16761 16762 16763 16764 16765 16766 16767 16768 16769 16770 16771 16772 16773 16774 16775 16776 16777 16778 16779 16780 16781 16782 16783 16784 16785 16786 16787 16788 16789 16790 16791 16792 16793 16794 16795 16796 16797 16798 16799 16800 16801 16802 16803 16804 16805 16806 16807 16808 16809 16810 16811 16812 16813 16814 16815 16816 16817 16818 16819 16820 16821 16822 16823 16824 16825 16826 16827 16828 16829 16830 16831 16832 16833 16834 16835 16836 16837 16838 16839 16840 16841 16842 16843 16844 16845 16846 16847 16848 16849 16850 16851 16852 16853 16854 16855 16856 16857 16858 16859 16860 16861 16862 16863 16864 16865 16866 16867 16868 16869 16870 16871 16872 16873 16874 16875 16876 16877 16878 16879 16880 16881 16882 16883 16884 16885 16886 16887 16888 16889 16890 16891 16892 16893 16894 16895 16896 16897 16898 16899 16900 16901 16902 16903 16904 16905 16906 16907 16908 16909 16910 16911 16912 16913 16914 16915 16916 16917 16918 16919 16920 16921 16922 16923 16924 16925 16926 16927 16928 16929 16930 16931 16932 16933 16934 16935 16936 16937 16938 16939 16940 16941 16942 16943 16944 16945 16946 16947 16948 16949 16950 16951 16952 16953 16954 16955 16956 16957 16958 16959 16960 16961 16962 16963 16964 16965 16966 16967 16968 16969 16970 16971 16972 16973 16974 16975 16976 16977 16978 16979 16980 16981 16982 16983 16984 16985 16986 16987 16988 16989 16990 16991 16992 16993 16994 16995 16996 16997 16998 16999 17000 17001 17002 17003 17004 17005 17006 17007 17008 17009 17010 17011 17012 17013 17014 17015 17016 17017 17018 17019 17020 17021 17022 17023 17024 17025 17026 17027 17028 17029 17030 17031 17032 17033 17034 17035 17036 17037 17038 17039 17040 17041 17042 17043 17044 17045 17046 17047 17048 17049 17050 17051 17052 17053 17054 17055 17056 17057 17058 17059 17060 17061 17062 17063 17064 17065 17066 17067 17068 17069 17070 17071 17072 17073 17074 17075 17076 17077 17078 17079 17080 17081 17082 17083 17084 17085 17086 17087 17088 17089 17090 17091 17092 17093 17094 17095 17096 17097 17098 17099 17100 17101 17102 17103 17104 17105 17106 17107 17108 17109 17110 17111 17112 17113 17114 17115 17116 17117 17118 17119 17120 17121 17122 17123 17124 17125 17126 17127 17128 17129 17130 17131 17132 17133 17134 17135 17136 17137 17138 17139 17140 17141 17142 17143 17144 17145 17146 17147 17148 17149 17150 17151 17152 17153 17154 17155 17156 17157 17158 17159 17160 17161 17162 17163 17164 17165 17166 17167 17168 17169 17170 17171 17172 17173 17174 17175 17176 17177 17178 17179 17180 17181 17182 17183 17184 17185 17186 17187 17188 17189 17190 17191 17192 17193 17194 17195 17196 17197 17198 17199 17200 17201 17202 17203 17204 17205 17206 17207 17208 17209 17210 17211 17212 17213 17214 17215 17216 17217 17218 17219 17220 17221 17222 17223 17224 17225 17226 17227 17228 17229 17230 17231 17232 17233 17234 17235 17236 17237 17238 17239 17240 17241 17242 17243 17244 17245 17246 17247 17248 17249 17250 17251 17252 17253 17254 17255 17256 17257 17258 17259 17260 17261 17262 17263 17264 17265 17266 17267 17268 17269 17270 17271 17272 17273 17274 17275 17276 17277 17278 17279 17280 17281 17282 17283 17284 17285 17286 17287 17288 17289 17290 17291 17292 17293 17294 17295 17296 17297 17298 17299 17300 17301 17302 17303 17304 17305 17306 17307 17308 17309 17310 17311 17312 17313 17314 17315 17316 17317 17318 17319 17320 17321 17322 17323 17324 17325 17326 17327 17328 17329 17330 17331 17332 17333 17334 17335 17336 17337 17338 17339 17340 17341 17342 17343 17344 17345 17346 17347 17348 17349 17350 17351 17352 17353 17354 17355 17356 17357 17358 17359 17360 17361 17362 17363 17364 17365 17366 17367 17368 17369 17370 17371 17372 17373 17374 17375 17376 17377 17378 17379 17380 17381 17382 17383 17384 17385 17386 17387 17388 17389 17390 17391 17392 17393 17394 17395 17396 17397 17398 17399 17400 17401 17402 17403 17404 17405 17406 17407 17408 17409 17410 17411 17412 17413 17414 17415 17416 17417 17418 17419 17420 17421 17422 17423 17424 17425 17426 17427 17428 17429 17430 17431 17432 17433 17434 17435 17436 17437 17438 17439 17440 17441 17442 17443 17444 17445 17446 17447 17448 17449 17450 17451 17452 17453 17454 17455 17456 17457 17458 17459 17460 17461 17462 17463 17464 17465 17466 17467 17468 17469 17470 17471 17472 17473 17474 17475 17476 17477 17478 17479 17480 17481 17482 17483 17484 17485 17486 17487 17488 17489 17490 17491 17492 17493 17494 17495 17496 17497 17498 17499 17500 17501 17502 17503 17504 17505 17506 17507 17508 17509 17510 17511 17512 17513 17514 17515 17516 17517 17518 17519 17520 17521 17522 17523 17524 17525 17526 17527 17528 17529 17530 17531 17532 17533 17534 17535 17536 17537 17538 17539 17540 17541 17542 17543 17544 17545 17546 17547 17548 17549 17550 17551 17552 17553 17554 17555 17556 17557 17558 17559 17560 17561 17562 17563 17564 17565 17566 17567 17568 17569 17570 17571 17572 17573 17574 17575 17576 17577 17578 17579 17580 17581 17582 17583 17584 17585 17586 17587 17588 17589 17590 17591 17592 17593 17594 17595 17596 17597 17598 17599 17600 17601 17602 17603 17604 17605 17606 17607 17608 17609 17610 17611 17612 17613 17614 17615 17616 17617 17618 17619 17620 17621 17622 17623 17624 17625 17626 17627 17628 17629 17630 17631 17632 17633 17634 17635 17636 17637 17638 17639 17640 17641 17642 17643 17644 17645 17646 17647 17648 17649 17650 17651 17652 17653 17654 17655 17656 17657 17658 17659 17660 17661 17662 17663 17664 17665 17666 17667 17668 17669 17670 17671 17672 17673 17674 17675 17676 17677 17678 17679 17680 17681 17682 17683 17684 17685 17686 17687 17688 17689 17690 17691 17692 17693 17694 17695 17696 17697 17698 17699 17700 17701 17702 17703 17704 17705 17706 17707 17708 17709 17710 17711 17712 17713 17714 17715 17716 17717 17718 17719 17720 17721 17722 17723 17724 17725 17726 17727 17728 17729 17730 17731 17732 17733 17734 17735 17736 17737 17738 17739 17740 17741 17742 17743 17744 17745 17746 17747 17748 17749 17750 17751 17752 17753 17754 17755 17756 17757 17758 17759 17760 17761 17762 17763 17764 17765 17766 17767 17768 17769 17770 17771 17772 17773 17774 17775 17776 17777 17778 17779 17780 17781 17782 17783 17784 17785 17786 17787 17788 17789 17790 17791 17792 17793 17794 17795 17796 17797 17798 17799 17800 17801 17802 17803 17804 17805 17806 17807 17808 17809 17810 17811 17812 17813 17814 17815 17816 17817 17818 17819 17820 17821 17822 17823 17824 17825 17826 17827 17828 17829 17830 17831 17832 17833 17834 17835 17836 17837 17838 17839 17840 17841 17842 17843 17844 17845 17846 17847 17848 17849 17850 17851 17852 17853 17854 17855 17856 17857 17858 17859 17860 17861 17862 17863 17864 17865 17866 17867 17868 17869 17870 17871 17872 17873 17874 17875 17876 17877 17878 17879 17880 17881 17882 17883 17884 17885 17886 17887 17888 17889 17890 17891 17892 17893 17894 17895 17896 17897 17898 17899 17900 17901 17902 17903 17904 17905 17906 17907 17908 17909 17910 17911 17912 17913 17914 17915 17916 17917 17918 17919 17920 17921 17922 17923 17924 17925 17926 17927 17928 17929 17930 17931 17932 17933 17934 17935 17936 17937 17938 17939 17940 17941 17942 17943 17944 17945 17946 17947 17948 17949 17950 17951 17952 17953 17954 17955 17956 17957 17958 17959 17960 17961 17962 17963 17964 17965 17966 17967 17968 17969 17970 17971 17972 17973 17974 17975 17976 17977 17978 17979 17980 17981 17982 17983 17984 17985 17986 17987 17988 17989 17990 17991 17992 17993 17994 17995 17996 17997 17998 17999 18000 18001 18002 18003 18004 18005 18006 18007 18008 18009 18010 18011 18012 18013 18014 18015 18016 18017 18018 18019 18020 18021 18022 18023 18024 18025 18026 18027 18028 18029 18030 18031 18032 18033 18034 18035 18036 18037 18038 18039 18040 18041 18042 18043 18044 18045 18046 18047 18048 18049 18050 18051 18052 18053 18054 18055 18056 18057 18058 18059 18060 18061 18062 18063 18064 18065 18066 18067 18068 18069 18070 18071 18072 18073 18074 18075 18076 18077 18078 18079 18080 18081 18082 18083 18084 18085 18086 18087 18088 18089 18090 18091 18092 18093 18094 18095 18096 18097 18098 18099 18100 18101 18102 18103 18104 18105 18106 18107 18108 18109 18110 18111 18112 18113 18114 18115 18116 18117 18118 18119 18120 18121 18122 18123 18124 18125 18126 18127 18128 18129 18130 18131 18132 18133 18134 18135 18136 18137 18138 18139 18140 18141 18142 18143 18144 18145 18146 18147 18148 18149 18150 18151 18152 18153 18154 18155 18156 18157 18158 18159 18160 18161 18162 18163 18164 18165 18166 18167 18168 18169 18170 18171 18172 18173 18174 18175 18176 18177 18178 18179 18180 18181 18182 18183 18184 18185 18186 18187 18188 18189 18190 18191 18192 18193 18194 18195 18196 18197 18198 18199 18200 18201 18202 18203 18204 18205 18206 18207 18208 18209 18210 18211 18212 18213 18214 18215 18216 18217 18218 18219 18220 18221 18222 18223 18224 18225 18226 18227 18228 18229 18230 18231 18232 18233 18234 18235 18236 18237 18238 18239 18240 18241 18242 18243 18244 18245 18246 18247 18248 18249 18250 18251 18252 18253 18254 18255 18256 18257 18258 18259 18260 18261 18262 18263 18264 18265 18266 18267 18268 18269 18270 18271 18272 18273 18274 18275 18276 18277 18278 18279 18280 18281 18282 18283 18284 18285 18286 18287 18288 18289 18290 18291 18292 18293 18294 18295 18296 18297 18298 18299 18300 18301 18302 18303 18304 18305 18306 18307 18308 18309 18310 18311 18312 18313 18314 18315 18316 18317 18318 18319 18320 18321 18322 18323 18324 18325 18326 18327 18328 18329 18330 18331 18332 18333 18334 18335 18336 18337 18338 18339 18340 18341 18342 18343 18344 18345 18346 18347 18348 18349 18350 18351 18352 18353 18354 18355 18356 18357 18358 18359 18360 18361 18362 18363 18364 18365 18366 18367 18368 18369 18370 18371 18372 18373 18374 18375 18376 18377 18378 18379 18380 18381 18382 18383 18384 18385 18386 18387 18388 18389 18390 18391 18392 18393 18394 18395 18396 18397 18398 18399 18400 18401 18402 18403 18404 18405 18406 18407 18408 18409 18410 18411 18412 18413 18414 18415 18416 18417 18418 18419 18420 18421 18422 18423 18424 18425 18426 18427 18428 18429 18430 18431 18432 18433 18434 18435 18436 18437 18438 18439 18440 18441 18442 18443 18444 18445 18446 18447 18448 18449 18450 18451 18452 18453 18454 18455 18456 18457 18458 18459 18460 18461 18462 18463 18464 18465 18466 18467 18468 18469 18470 18471 18472 18473 18474 18475 18476 18477 18478 18479 18480 18481 18482 18483 18484 18485 18486 18487 18488 18489 18490 18491 18492 18493 18494 18495 18496 18497 18498 18499 18500 18501 18502 18503 18504 18505 18506 18507 18508 18509 18510 18511 18512 18513 18514 18515 18516 18517 18518 18519 18520 18521 18522 18523 18524 18525 18526 18527 18528 18529 18530 18531 18532 18533 18534 18535 18536 18537 18538 18539 18540 18541 18542 18543 18544 18545 18546 18547 18548 18549 18550 18551 18552 18553 18554 18555 18556 18557 18558 18559 18560 18561 18562 18563 18564 18565 18566 18567 18568 18569 18570 18571 18572 18573 18574 18575 18576 18577 18578 18579 18580 18581 18582 18583 18584 18585 18586 18587 18588 18589 18590 18591 18592 18593 18594 18595 18596 18597 18598 18599 18600 18601 18602 18603 18604 18605 18606 18607 18608 18609 18610 18611 18612 18613 18614 18615 18616 18617 18618 18619 18620 18621 18622 18623 18624 18625 18626 18627 18628 18629 18630 18631 18632 18633 18634 18635 18636 18637 18638 18639 18640 18641 18642 18643 18644 18645 18646 18647 18648 18649 18650 18651 18652 18653 18654 18655 18656 18657 18658 18659 18660 18661 18662 18663 18664 18665 18666 18667 18668 18669 18670 18671 18672 18673 18674 18675 18676 18677 18678 18679 18680 18681 18682 18683 18684 18685 18686 18687 18688 18689 18690 18691 18692 18693 18694 18695 18696 18697 18698 18699 18700 18701 18702 18703 18704 18705 18706 18707 18708 18709 18710 18711 18712 18713 18714 18715 18716 18717 18718 18719 18720 18721 18722 18723 18724 18725 18726 18727 18728 18729 18730 18731 18732 18733 18734 18735 18736 18737 18738 18739 18740 18741 18742 18743 18744 18745 18746 18747 18748 18749 18750 18751 18752 18753 18754 18755 18756 18757 18758 18759 18760 18761 18762 18763 18764 18765 18766 18767 18768 18769 18770 18771 18772 18773 18774 18775 18776 18777 18778 18779 18780 18781 18782 18783 18784 18785 18786 18787 18788 18789 18790 18791 18792 18793 18794 18795 18796 18797 18798 18799 18800 18801 18802 18803 18804 18805 18806 18807 18808 18809 18810 18811 18812 18813 18814 18815 18816 18817 18818 18819 18820 18821 18822 18823 18824 18825 18826 18827 18828 18829 18830 18831 18832 18833 18834 18835 18836 18837 18838 18839 18840 18841 18842 18843 18844 18845 18846 18847 18848 18849 18850 18851 18852 18853 18854 18855 18856 18857 18858 18859 18860 18861 18862 18863 18864 18865 18866 18867 18868 18869 18870 18871 18872 18873 18874 18875 18876 18877 18878 18879 18880 18881 18882 18883 18884 18885 18886 18887 18888 18889 18890 18891 18892 18893 18894 18895 18896 18897 18898 18899 18900 18901 18902 18903 18904 18905 18906 18907 18908 18909 18910 18911 18912 18913 18914 18915 18916 18917 18918 18919 18920 18921 18922 18923 18924 18925 18926 18927 18928 18929 18930 18931 18932 18933 18934 18935 18936 18937 18938 18939 18940 18941 18942 18943 18944 18945 18946 18947 18948 18949 18950 18951 18952 18953 18954 18955 18956 18957 18958 18959 18960 18961 18962 18963 18964 18965 18966 18967 18968 18969 18970 18971 18972 18973 18974 18975 18976 18977 18978 18979 18980 18981 18982 18983 18984 18985 18986 18987 18988 18989 18990 18991 18992 18993 18994 18995 18996 18997 18998 18999 19000 19001 19002 19003 19004 19005 19006 19007 19008 19009 19010 19011 19012 19013 19014 19015 19016 19017 19018 19019 19020 19021 19022 19023 19024 19025 19026 19027 19028 19029 19030 19031 19032 19033 19034 19035 19036 19037 19038 19039 19040 19041 19042 19043 19044 19045 19046 19047 19048 19049 19050 19051 19052 19053 19054 19055 19056 19057 19058 19059 19060 19061 19062 19063 19064 19065 19066 19067 19068 19069 19070 19071 19072 19073 19074 19075 19076 19077 19078 19079 19080 19081 19082 19083 19084 19085 19086 19087 19088 19089 19090 19091 19092 19093 19094 19095 19096 19097 19098 19099 19100 19101 19102 19103 19104 19105 19106 19107 19108 19109 19110 19111 19112 19113 19114 19115 19116 19117 19118 19119 19120 19121 19122 19123 19124 19125 19126 19127 19128 19129 19130 19131 19132 19133 19134 19135 19136 19137 19138 19139 19140 19141 19142 19143 19144 19145 19146 19147 19148 19149 19150 19151 19152 19153 19154 19155 19156 19157 19158 19159 19160 19161 19162 19163 19164 19165 19166 19167 19168 19169 19170 19171 19172 19173 19174 19175 19176 19177 19178 19179 19180 19181 19182 19183 19184 19185 19186 19187 19188 19189 19190 19191 19192 19193 19194 19195 19196 19197 19198 19199 19200 19201 19202 19203 19204 19205 19206 19207 19208 19209 19210 19211 19212 19213 19214 19215 19216 19217 19218 19219 19220 19221 19222 19223 19224 19225 19226 19227 19228 19229 19230 19231 19232 19233 19234 19235 19236 19237 19238 19239 19240 19241 19242 19243 19244 19245 19246 19247 19248 19249 19250 19251 19252 19253 19254 19255 19256 19257 19258 19259 19260 19261 19262 19263 19264 19265 19266 19267 19268 19269 19270 19271 19272 19273 19274 19275 19276 19277 19278 19279 19280 19281 19282 19283 19284 19285 19286 19287 19288 19289 19290 19291 19292 19293 19294 19295 19296 19297 19298 19299 19300 19301 19302 19303 19304 19305 19306 19307 19308 19309 19310 19311 19312 19313 19314 19315 19316 19317 19318 19319 19320 19321 19322 19323 19324 19325 19326 19327 19328 19329 19330 19331 19332 19333 19334 19335 19336 19337 19338 19339 19340 19341 19342 19343 19344 19345 19346 19347 19348 19349 19350 19351 19352 19353 19354 19355 19356 19357 19358 19359 19360 19361 19362 19363 19364 19365 19366 19367 19368 19369 19370 19371 19372 19373 19374 19375 19376 19377 19378 19379 19380 19381 19382 19383 19384 19385 19386 19387 19388 19389 19390 19391 19392 19393 19394 19395 19396 19397 19398 19399 19400 19401 19402 19403 19404 19405 19406 19407 19408 19409 19410 19411 19412 19413 19414 19415 19416 19417 19418 19419 19420 19421 19422 19423 19424 19425 19426 19427 19428 19429 19430 19431 19432 19433 19434 19435 19436 19437 19438 19439 19440 19441 19442 19443 19444 19445 19446 19447 19448 19449 19450 19451 19452 19453 19454 19455 19456 19457 19458 19459 19460 19461 19462 19463 19464 19465 19466 19467 19468 19469 19470 19471 19472 19473 19474 19475 19476 19477 19478 19479 19480 19481 19482 19483 19484 19485 19486 19487 19488 19489 19490 19491 19492 19493 19494 19495 19496 19497 19498 19499 19500 19501 19502 19503 19504 19505 19506 19507 19508 19509 19510 19511 19512 19513 19514 19515 19516 19517 19518 19519 19520 19521 19522 19523 19524 19525 19526 19527 19528 19529 19530 19531 19532 19533 19534 19535 19536 19537 19538 19539 19540 19541 19542 19543 19544 19545 19546 19547 19548 19549 19550 19551 19552 19553 19554 19555 19556 19557 19558 19559 19560 19561 19562 19563 19564 19565 19566 19567 19568 19569 19570 19571 19572 19573 19574 19575 19576 19577 19578 19579 19580 19581 19582 19583 19584 19585 19586 19587 19588 19589 19590 19591 19592 19593 19594 19595 19596 19597 19598 19599 19600 19601 19602 19603 19604 19605 19606 19607 19608 19609 19610 19611 19612 19613 19614 19615 19616 19617 19618 19619 19620 19621 19622 19623 19624 19625 19626 19627 19628 19629 19630 19631 19632 19633 19634 19635 19636 19637 19638 19639 19640 19641 19642 19643 19644 19645 19646 19647 19648 19649 19650 19651 19652 19653 19654 19655 19656 19657 19658 19659 19660 19661 19662 19663 19664 19665 19666 19667 19668 19669 19670 19671 19672 19673 19674 19675 19676 19677 19678 19679 19680 19681 19682 19683 19684 19685 19686 19687 19688 19689 19690 19691 19692 19693 19694 19695 19696 19697 19698 19699 19700 19701 19702 19703 19704 19705 19706 19707 19708 19709 19710 19711 19712 19713 19714 19715 19716 19717 19718 19719 19720 19721 19722 19723 19724 19725 19726 19727 19728 19729 19730 19731 19732 19733 19734 19735 19736 19737 19738 19739 19740 19741 19742 19743 19744 19745 19746 19747 19748 19749 19750 19751 19752 19753 19754 19755 19756 19757 19758 19759 19760 19761 19762 19763 19764 19765 19766 19767 19768 19769 19770 19771 19772 19773 19774 19775 19776 19777 19778 19779 19780 19781 19782 19783 19784 19785 19786 19787 19788 19789 19790 19791 19792 19793 19794 19795 19796 19797 19798 19799 19800 19801 19802 19803 19804 19805 19806 19807 19808 19809 19810 19811 19812 19813 19814 19815 19816 19817 19818 19819 19820 19821 19822 19823 19824 19825 19826 19827 19828 19829 19830 19831 19832 19833 19834 19835 19836 19837 19838 19839 19840 19841 19842 19843 19844 19845 19846 19847 19848 19849 19850 19851 19852 19853 19854 19855 19856 19857 19858 19859 19860 19861 19862 19863 19864 19865 19866 19867 19868 19869 19870 19871 19872 19873 19874 19875 19876 19877 19878 19879 19880 19881 19882 19883 19884 19885 19886 19887 19888 19889 19890 19891 19892 19893 19894 19895 19896 19897 19898 19899 19900 19901 19902 19903 19904 19905 19906 19907 19908 19909 19910 19911 19912 19913 19914 19915 19916 19917 19918 19919 19920 19921 19922 19923 19924 19925 19926 19927 19928 19929 19930 19931 19932 19933 19934 19935 19936 19937 19938 19939 19940 19941 19942 19943 19944 19945 19946 19947 19948 19949 19950 19951 19952 19953 19954 19955 19956 19957 19958 19959 19960 19961 19962 19963 19964 19965 19966 19967 19968 19969 19970 19971 19972 19973 19974 19975 19976 19977 19978 19979 19980 19981 19982 19983 19984 19985 19986 19987 19988 19989 19990 19991 19992 19993 19994 19995 19996 19997 19998 19999 20000 20001 20002 20003 20004 20005 20006 20007 20008 20009 20010 20011 20012 20013 20014 20015 20016 20017 20018 20019 20020 20021 20022 20023 20024 20025 20026 20027 20028 20029 20030 20031 20032 20033 20034 20035 20036 20037 20038 20039 20040 20041 20042 20043 20044 20045 20046 20047 20048 20049 20050 20051 20052 20053 20054 20055 20056 20057 20058 20059 20060 20061 20062 20063 20064 20065 20066 20067 20068 20069 20070 20071 20072 20073 20074 20075 20076 20077 20078 20079 20080 20081 20082 20083 20084 20085 20086 20087 20088 20089 20090 20091 20092 20093 20094 20095 20096 20097 20098 20099 20100 20101 20102 20103 20104 20105 20106 20107 20108 20109 20110 20111 20112 20113 20114 20115 20116 20117 20118 20119 20120 20121 20122 20123 20124 20125 20126 20127 20128 20129 20130 20131 20132 20133 20134 20135 20136 20137 20138 20139 20140 20141 20142 20143 20144 20145 20146 20147 20148 20149 20150 20151 20152 20153 20154 20155 20156 20157 20158 20159 20160 20161 20162 20163 20164 20165 20166 20167 20168 20169 20170 20171 20172 20173 20174 20175 20176 20177 20178 20179 20180 20181 20182 20183 20184 20185 20186 20187 20188 20189 20190 20191 20192 20193 20194 20195 20196 20197 20198 20199 20200 20201 20202 20203 20204 20205 20206 20207 20208 20209 20210 20211 20212 20213 20214 20215 20216 20217 20218 20219 20220 20221 20222 20223 20224 20225 20226 20227 20228 20229 20230 20231 20232 20233 20234 20235 20236 20237 20238 20239 20240 20241 20242 20243 20244 20245 20246 20247 20248 20249 20250 20251 20252 20253 20254 20255 20256 20257 20258 20259 20260 20261 20262 20263 20264 20265 20266 20267 20268 20269 20270 20271 20272 20273 20274 20275 20276 20277 20278 20279 20280 20281 20282 20283 20284 20285 20286 20287 20288 20289 20290 20291 20292 20293 20294 20295 20296 20297 20298 20299 20300 20301 20302 20303 20304 20305 20306 20307 20308 20309 20310 20311 20312 20313 20314 20315 20316 20317 20318 20319 20320 20321 20322 20323 20324 20325 20326 20327 20328 20329 20330 20331 20332 20333 20334 20335 20336 20337 20338 20339 20340 20341 20342 20343 20344 20345 20346 20347 20348 20349 20350 20351 20352 20353 20354 20355 20356 20357 20358 20359 20360 20361 20362 20363 20364 20365 20366 20367 20368 20369 20370 20371 20372 20373 20374 20375 20376 20377 20378 20379 20380 20381 20382 20383 20384 20385 20386 20387 20388 20389 20390 20391 20392 20393 20394 20395 20396 20397 20398 20399 20400 20401 20402 20403 20404 20405 20406 20407 20408 20409 20410 20411 20412 20413 20414 20415 20416 20417 20418 20419 20420 20421 20422 20423 20424 20425 20426 20427 20428 20429 20430 20431 20432 20433 20434 20435 20436 20437 20438 20439 20440 20441 20442 20443 20444 20445 20446 20447 20448 20449 20450 20451 20452 20453 20454 20455 20456 20457 20458 20459 20460 20461 20462 20463 20464 20465 20466 20467 20468 20469 20470 20471 20472 20473 20474 20475 20476 20477 20478 20479 20480 20481 20482 20483 20484 20485 20486 20487 20488 20489 20490 20491 20492 20493 20494 20495 20496 20497 20498 20499 20500 20501 20502 20503 20504 20505 20506 20507 20508 20509 20510 20511 20512 20513 20514 20515 20516 20517 20518 20519 20520 20521 20522 20523 20524 20525 20526 20527 20528 20529 20530 20531 20532 20533 20534 20535 20536 20537 20538 20539 20540 20541 20542 20543 20544 20545 20546 20547 20548 20549 20550 20551 20552 20553 20554 20555 20556 20557 20558 20559 20560 20561 20562 20563 20564 20565 20566 20567 20568 20569 20570 20571 20572 20573 20574 20575 20576 20577 20578 20579 20580 20581 20582 20583 20584 20585 20586 20587 20588 20589 20590 20591 20592 20593 20594 20595 20596 20597 20598 20599 20600 20601 20602 20603 20604 20605 20606 20607 20608 20609 20610 20611 20612 20613 20614 20615 20616 20617 20618 20619 20620 20621 20622 20623 20624 20625 20626 20627 20628 20629 20630 20631 20632 20633 20634 20635 20636 20637 20638 20639 20640 20641 20642 20643 20644 20645 20646 20647 20648 20649 20650 20651 20652 20653 20654 20655 20656 20657 20658 20659 20660 20661 20662 20663 20664 20665 20666 20667 20668 20669 20670 20671 20672 20673 20674 20675 20676 20677 20678 20679 20680 20681 20682 20683 20684 20685 20686 20687 20688 20689 20690 20691 20692 20693 20694 20695 20696 20697 20698 20699 20700 20701 20702 20703 20704 20705 20706 20707 20708 20709 20710 20711 20712 20713 20714 20715 20716 20717 20718 20719 20720 20721 20722 20723 20724 20725 20726 20727 20728 20729 20730 20731 20732 20733 20734 20735 20736 20737 20738 20739 20740 20741 20742 20743 20744 20745 20746 20747 20748 20749 20750 20751 20752 20753 20754 20755 20756 20757 20758 20759 20760 20761 20762 20763 20764 20765 20766 20767 20768 20769 20770 20771 20772 20773 20774 20775 20776 20777 20778 20779 20780 20781 20782 20783 20784 20785 20786 20787 20788 20789 20790 20791 20792 20793 20794 20795 20796 20797 20798 20799 20800 20801 20802 20803 20804 20805 20806 20807 20808 20809 20810 20811 20812 20813 20814 20815 20816 20817 20818 20819 20820 20821 20822 20823 20824 20825 20826 20827 20828 20829 20830 20831 20832 20833 20834 20835 20836 20837 20838 20839 20840 20841 20842 20843 20844 20845 20846 20847 20848 20849 20850 20851 20852 20853 20854 20855 20856 20857 20858 20859 20860 20861 20862 20863 20864 20865 20866 20867 20868 20869 20870 20871 20872 20873 20874 20875 20876 20877 20878 20879 20880 20881 20882 20883 20884 20885 20886 20887 20888 20889 20890 20891 20892 20893 20894 20895 20896 20897 20898 20899 20900 20901 20902 20903 20904 20905 20906 20907 20908 20909 20910 20911 20912 20913 20914 20915 20916 20917 20918 20919 20920 20921 20922 20923 20924 20925 20926 20927 20928 20929 20930 20931 20932 20933 20934 20935 20936 20937 20938 20939 20940 20941 20942 20943 20944 20945 20946 20947 20948 20949 20950 20951 20952 20953 20954 20955 20956 20957 20958 20959 20960 20961 20962 20963 20964 20965 20966 20967 20968 20969 20970 20971 20972 20973 20974 20975 20976 20977 20978 20979 20980 20981 20982 20983 20984 20985 20986 20987 20988 20989 20990 20991 20992 20993 20994 20995 20996 20997 20998 20999 21000 21001 21002 21003 21004 21005 21006 21007 21008 21009 21010 21011 21012 21013 21014 21015 21016 21017 21018 21019 21020 21021 21022 21023 21024 21025 21026 21027 21028 21029 21030 21031 21032 21033 21034 21035 21036 21037 21038 21039 21040 21041 21042 21043 21044 21045 21046 21047 21048 21049 21050 21051 21052 21053 21054 21055 21056 21057 21058 21059 21060 21061 21062 21063 21064 21065 21066 21067 21068 21069 21070 21071 21072 21073 21074 21075 21076 21077 21078 21079 21080 21081 21082 21083 21084 21085 21086 21087 21088 21089 21090 21091 21092 21093 21094 21095 21096 21097 21098 21099 21100 21101 21102 21103 21104 21105 21106 21107 21108 21109 21110 21111 21112 21113 21114 21115 21116 21117 21118 21119 21120 21121 21122 21123 21124 21125 21126 21127 21128 21129 21130 21131 21132 21133 21134 21135 21136 21137 21138 21139 21140 21141 21142 21143 21144 21145 21146 21147 21148 21149 21150 21151 21152 21153 21154 21155 21156 21157 21158 21159 21160 21161 21162 21163 21164 21165 21166 21167 21168 21169 21170 21171 21172 21173 21174 21175 21176 21177 21178 21179 21180 21181 21182 21183 21184 21185 21186 21187 21188 21189 21190 21191 21192 21193 21194 21195 21196 21197 21198 21199 21200 21201 21202 21203 21204 21205 21206 21207 21208 21209 21210 21211 21212 21213 21214 21215 21216 21217 21218 21219 21220 21221 21222 21223 21224 21225 21226 21227 21228 21229 21230 21231 21232 21233 21234 21235 21236 21237 21238 21239 21240 21241 21242 21243 21244 21245 21246 21247 21248 21249 21250 21251 21252 21253 21254 21255 21256 21257 21258 21259 21260 21261 21262 21263 21264 21265 21266 21267 21268 21269 21270 21271 21272 21273 21274 21275 21276 21277 21278 21279 21280 21281 21282 21283 21284 21285 21286 21287 21288 21289 21290 21291 21292 21293 21294 21295 21296 21297 21298 21299 21300 21301 21302 21303 21304 21305 21306 21307 21308 21309 21310 21311 21312 21313 21314 21315 21316 21317 21318 21319 21320 21321 21322 21323 21324 21325 21326 21327 21328 21329 21330 21331 21332 21333 21334 21335 21336 21337 21338 21339 21340 21341 21342 21343 21344 21345 21346 21347 21348 21349 21350 21351 21352 21353 21354 21355 21356 21357 21358 21359 21360 21361 21362 21363 21364 21365 21366 21367 21368 21369 21370 21371 21372 21373 21374 21375 21376 21377 21378 21379 21380 21381 21382 21383 21384 21385 21386 21387 21388 21389 21390 21391 21392 21393 21394 21395 21396 21397 21398 21399 21400 21401 21402 21403 21404 21405 21406 21407 21408 21409 21410 21411 21412 21413 21414 21415 21416 21417 21418 21419 21420 21421 21422 21423 21424 21425 21426 21427 21428 21429 21430 21431 21432 21433 21434 21435 21436 21437 21438 21439 21440 21441 21442 21443 21444 21445 21446 21447 21448 21449 21450 21451 21452 21453 21454 21455 21456 21457 21458 21459 21460 21461 21462 21463 21464 21465 21466 21467 21468 21469 21470 21471 21472 21473 21474 21475 21476 21477 21478 21479 21480 21481 21482 21483 21484 21485 21486 21487 21488 21489 21490 21491 21492 21493 21494 21495 21496 21497 21498 21499 21500 21501 21502 21503 21504 21505 21506 21507 21508 21509 21510 21511 21512 21513 21514 21515 21516 21517 21518 21519 21520 21521 21522 21523 21524 21525 21526 21527 21528 21529 21530 21531 21532 21533 21534 21535 21536 21537 21538 21539 21540 21541 21542 21543 21544 21545 21546 21547 21548 21549 21550 21551 21552 21553 21554 21555 21556 21557 21558 21559 21560 21561 21562 21563 21564 21565 21566 21567 21568 21569 21570 21571 21572 21573 21574 21575 21576 21577 21578 21579 21580 21581 21582 21583 21584 21585 21586 21587 21588 21589 21590 21591 21592 21593 21594 21595 21596 21597 21598 21599 21600 21601 21602 21603 21604 21605 21606 21607 21608 21609 21610 21611 21612 21613 21614 21615 21616 21617 21618 21619 21620 21621 21622 21623 21624 21625 21626 21627 21628 21629 21630 21631 21632 21633 21634 21635 21636 21637 21638 21639 21640 21641 21642 21643 21644 21645 21646 21647 21648 21649 21650 21651 21652 21653 21654 21655 21656 21657 21658 21659 21660 21661 21662 21663 21664 21665 21666 21667 21668 21669 21670 21671 21672 21673 21674 21675 21676 21677 21678 21679 21680 21681 21682 21683 21684 21685 21686 21687 21688 21689 21690 21691 21692 21693 21694 21695 21696 21697 21698 21699 21700 21701 21702 21703 21704 21705 21706 21707 21708 21709 21710 21711 21712 21713 21714 21715 21716 21717 21718 21719 21720 21721 21722 21723 21724 21725 21726 21727 21728 21729 21730 21731 21732 21733 21734 21735 21736 21737 21738 21739 21740 21741 21742 21743 21744 21745 21746 21747 21748 21749 21750 21751 21752 21753 21754 21755 21756 21757 21758 21759 21760 21761 21762 21763 21764 21765 21766 21767 21768 21769 21770 21771 21772 21773 21774 21775 21776 21777 21778 21779 21780 21781 21782 21783 21784 21785 21786 21787 21788 21789 21790 21791 21792 21793 21794 21795 21796 21797 21798 21799 21800 21801 21802 21803 21804 21805 21806 21807 21808 21809 21810 21811 21812 21813 21814 21815 21816 21817 21818 21819 21820 21821 21822 21823 21824 21825 21826 21827 21828 21829 21830 21831 21832 21833 21834 21835 21836 21837 21838 21839 21840 21841 21842 21843 21844 21845 21846 21847 21848 21849 21850 21851 21852 21853 21854 21855 21856 21857 21858 21859 21860 21861 21862 21863 21864 21865 21866 21867 21868 21869 21870 21871 21872 21873 21874 21875 21876 21877 21878 21879 21880 21881 21882 21883 21884 21885 21886 21887 21888 21889 21890 21891 21892 21893 21894 21895 21896 21897 21898 21899 21900 21901 21902 21903 21904 21905 21906 21907 21908 21909 21910 21911 21912 21913 21914 21915 21916 21917 21918 21919 21920 21921 21922 21923 21924 21925 21926 21927 21928 21929 21930 21931 21932 21933 21934 21935 21936 21937 21938 21939 21940 21941 21942 21943 21944 21945 21946 21947 21948 21949 21950 21951 21952 21953 21954 21955 21956 21957 21958 21959 21960 21961 21962 21963 21964 21965 21966 21967 21968 21969 21970 21971 21972 21973 21974 21975 21976 21977 21978 21979 21980 21981 21982 21983 21984 21985 21986 21987 21988 21989 21990 21991 21992 21993 21994 21995 21996 21997 21998 21999 22000 22001 22002 22003 22004 22005 22006 22007 22008 22009 22010 22011 22012 22013 22014 22015 22016 22017 22018 22019 22020 22021 22022 22023 22024 22025 22026 22027 22028 22029 22030 22031 22032 22033 22034 22035 22036 22037 22038 22039 22040 22041 22042 22043 22044 22045 22046 22047 22048 22049 22050 22051 22052 22053 22054 22055 22056 22057 22058 22059 22060 22061 22062 22063 22064 22065 22066 22067 22068 22069 22070 22071 22072 22073 22074 22075 22076 22077 22078 22079 22080 22081 22082 22083 22084 22085 22086 22087 22088 22089 22090 22091 22092 22093 22094 22095 22096 22097 22098 22099 22100 22101 22102 22103 22104 22105 22106 22107 22108 22109 22110 22111 22112 22113 22114 22115 22116 22117 22118 22119 22120 22121 22122 22123 22124 22125 22126 22127 22128 22129 22130 22131 22132 22133 22134 22135 22136 22137 22138 22139 22140 22141 22142 22143 22144 22145 22146 22147 22148 22149 22150 22151 22152 22153 22154 22155 22156 22157 22158 22159 22160 22161 22162 22163 22164 22165 22166 22167 22168 22169 22170 22171 22172 22173 22174 22175 22176 22177 22178 22179 22180 22181 22182 22183 22184 22185 22186 22187 22188 22189 22190 22191 22192 22193 22194 22195 22196 22197 22198 22199 22200 22201 22202 22203 22204 22205 22206 22207 22208 22209 22210 22211 22212 22213 22214 22215 22216 22217 22218 22219 22220 22221 22222 22223 22224 22225 22226 22227 22228 22229 22230 22231 22232 22233 22234 22235 22236 22237 22238 22239 22240 22241 22242 22243 22244 22245 22246 22247 22248 22249 22250 22251 22252 22253 22254 22255 22256 22257 22258 22259 22260 22261 22262 22263 22264 22265 22266 22267 22268 22269 22270 22271 22272 22273 22274 22275 22276 22277 22278 22279 22280 22281 22282 22283 22284 22285 22286 22287 22288 22289 22290 22291 22292 22293 22294 22295 22296 22297 22298 22299 22300 22301 22302 22303 22304 22305 22306 22307 22308 22309 22310 22311 22312 22313 22314 22315 22316 22317 22318 22319 22320 22321 22322 22323 22324 22325 22326 22327 22328 22329 22330 22331 22332 22333 22334 22335 22336 22337 22338 22339 22340 22341 22342 22343 22344 22345 22346 22347 22348 22349 22350 22351 22352 22353 22354 22355 22356 22357 22358 22359 22360 22361 22362 22363 22364 22365 22366 22367 22368 22369 22370 22371 22372 22373 22374 22375 22376 22377 22378 22379 22380 22381 22382 22383 22384 22385 22386 22387 22388 22389 22390 22391 22392 22393 22394 22395 22396 22397 22398 22399 22400 22401 22402 22403 22404 22405 22406 22407 22408 22409 22410 22411 22412 22413 22414 22415 22416 22417 22418 22419 22420 22421 22422 22423 22424 22425 22426 22427 22428 22429 22430 22431 22432 22433 22434 22435 22436 22437 22438 22439 22440 22441 22442 22443 22444 22445 22446 22447 22448 22449 22450 22451 22452 22453 22454 22455 22456 22457 22458 22459 22460 22461 22462 22463 22464 22465 22466 22467 22468 22469 22470 22471 22472 22473 22474 22475 22476 22477 22478 22479 22480 22481 22482 22483 22484 22485 22486 22487 22488 22489 22490 22491 22492 22493 22494 22495 22496 22497 22498 22499 22500 22501 22502 22503 22504 22505 22506 22507 22508 22509 22510 22511 22512 22513 22514 22515 22516 22517 22518 22519 22520 22521 22522 22523 22524 22525 22526 22527 22528 22529 22530 22531 22532 22533 22534 22535 22536 22537 22538 22539 22540 22541 22542 22543 22544 22545 22546 22547 22548 22549 22550 22551 22552 22553 22554 22555 22556 22557 22558 22559 22560 22561 22562 22563 22564 22565 22566 22567 22568 22569 22570 22571 22572 22573 22574 22575 22576 22577 22578 22579 22580 22581 22582 22583 22584 22585 22586 22587 22588 22589 22590 22591 22592 22593 22594 22595 22596 22597 22598 22599 22600 22601 22602 22603 22604 22605 22606 22607 22608 22609 22610 22611 22612 22613 22614 22615 22616 22617 22618 22619 22620 22621 22622 22623 22624 22625 22626 22627 22628 22629 22630 22631 22632 22633 22634 22635 22636 22637 22638 22639 22640 22641 22642 22643 22644 22645 22646 22647 22648 22649 22650 22651 22652 22653 22654 22655 22656 22657 22658 22659 22660 22661 22662 22663 22664 22665 22666 22667 22668 22669 22670 22671 22672 22673 22674 22675 22676 22677 22678 22679 22680 22681 22682 22683 22684 22685 22686 22687 22688 22689 22690 22691 22692 22693 22694 22695 22696 22697 22698 22699 22700 22701 22702 22703 22704 22705 22706 22707 22708 22709 22710 22711 22712 22713 22714 22715 22716 22717 22718 22719 22720 22721 22722 22723 22724 22725 22726 22727 22728 22729 22730 22731 22732 22733 22734 22735 22736 22737 22738 22739 22740 22741 22742 22743 22744 22745 22746 22747 22748 22749 22750 22751 22752 22753 22754 22755 22756 22757 22758 22759 22760 22761 22762 22763 22764 22765 22766 22767 22768 22769 22770 22771 22772 22773 22774 22775 22776 22777 22778 22779 22780 22781 22782 22783 22784 22785 22786 22787 22788 22789 22790 22791 22792 22793 22794 22795 22796 22797 22798 22799 22800 22801 22802 22803 22804 22805 22806 22807 22808 22809 22810 22811 22812 22813 22814 22815 22816 22817 22818 22819 22820 22821 22822 22823 22824 22825 22826 22827 22828 22829 22830 22831 22832 22833 22834 22835 22836 22837 22838 22839 22840 22841 22842 22843 22844 22845 22846 22847 22848 22849 22850 22851 22852 22853 22854 22855 22856 22857 22858 22859 22860 22861 22862 22863 22864 22865 22866 22867 22868 22869 22870 22871 22872 22873 22874 22875 22876 22877 22878 22879 22880 22881 22882 22883 22884 22885 22886 22887 22888 22889 22890 22891 22892 22893 22894 22895 22896 22897 22898 22899 22900 22901 22902 22903 22904 22905 22906 22907 22908 22909 22910 22911 22912 22913 22914 22915 22916 22917 22918 22919 22920 22921 22922 22923 22924 22925 22926 22927 22928 22929 22930 22931 22932 22933 22934 22935 22936 22937 22938 22939 22940 22941 22942 22943 22944 22945 22946 22947 22948 22949 22950 22951 22952 22953 22954 22955 22956 22957 22958 22959 22960 22961 22962 22963 22964 22965 22966 22967 22968 22969 22970 22971 22972 22973 22974 22975 22976 22977 22978 22979 22980 22981 22982 22983 22984 22985 22986 22987 22988 22989 22990 22991 22992 22993 22994 22995 22996 22997 22998 22999 23000 23001 23002 23003 23004 23005 23006 23007 23008 23009 23010 23011 23012 23013 23014 23015 23016 23017 23018 23019 23020 23021 23022 23023 23024 23025 23026 23027 23028 23029 23030 23031 23032 23033 23034 23035 23036 23037 23038 23039 23040 23041 23042 23043 23044 23045 23046 23047 23048 23049 23050 23051 23052 23053 23054 23055 23056 23057 23058 23059 23060 23061 23062 23063 23064 23065 23066 23067 23068 23069 23070 23071 23072 23073 23074 23075 23076 23077 23078 23079 23080 23081 23082 23083 23084 23085 23086 23087 23088 23089 23090 23091 23092 23093 23094 23095 23096 23097 23098 23099 23100 23101 23102 23103 23104 23105 23106 23107 23108 23109 23110 23111 23112 23113 23114 23115 23116 23117 23118 23119 23120 23121 23122 23123 23124 23125 23126 23127 23128 23129 23130 23131 23132 23133 23134 23135 23136 23137 23138 23139 23140 23141 23142 23143 23144 23145 23146 23147 23148 23149 23150 23151 23152 23153 23154 23155 23156 23157 23158 23159 23160 23161 23162 23163 23164 23165 23166 23167 23168 23169 23170 23171 23172 23173 23174 23175 23176 23177 23178 23179 23180 23181 23182 23183 23184 23185 23186 23187 23188 23189 23190 23191 23192 23193 23194 23195 23196 23197 23198 23199 23200 23201 23202 23203 23204 23205 23206 23207 23208 23209 23210 23211 23212 23213 23214 23215 23216 23217 23218 23219 23220 23221 23222 23223 23224 23225 23226 23227 23228 23229 23230 23231 23232 23233 23234 23235 23236 23237 23238 23239 23240 23241 23242 23243 23244 23245 23246 23247 23248 23249 23250 23251 23252 23253 23254 23255 23256 23257 23258 23259 23260 23261 23262 23263 23264 23265 23266 23267 23268 23269 23270 23271 23272 23273 23274 23275 23276 23277 23278 23279 23280 23281 23282 23283 23284 23285 23286 23287 23288 23289 23290 23291 23292 23293 23294 23295 23296 23297 23298 23299 23300 23301 23302 23303 23304 23305 23306 23307 23308 23309 23310 23311 23312 23313 23314 23315 23316 23317 23318 23319 23320 23321 23322 23323 23324 23325 23326 23327 23328 23329 23330 23331 23332 23333 23334 23335 23336 23337 23338 23339 23340 23341 23342 23343 23344 23345 23346 23347 23348 23349 23350 23351 23352 23353 23354 23355 23356 23357 23358 23359 23360 23361 23362 23363 23364 23365 23366 23367 23368 23369 23370 23371 23372 23373 23374 23375 23376 23377 23378 23379 23380 23381 23382 23383 23384 23385 23386 23387 23388 23389 23390 23391 23392 23393 23394 23395 23396 23397 23398 23399 23400 23401 23402 23403 23404 23405 23406 23407 23408 23409 23410 23411 23412 23413 23414 23415 23416 23417 23418 23419 23420 23421 23422 23423 23424 23425 23426 23427 23428 23429 23430 23431 23432 23433 23434 23435 23436 23437 23438 23439 23440 23441 23442 23443 23444 23445 23446 23447 23448 23449 23450 23451 23452 23453 23454 23455 23456 23457 23458 23459 23460 23461 23462 23463 23464 23465 23466 23467 23468 23469 23470 23471 23472 23473 23474 23475 23476 23477 23478 23479 23480 23481 23482 23483 23484 23485 23486 23487 23488 23489 23490 23491 23492 23493 23494 23495 23496 23497 23498 23499 23500 23501 23502 23503 23504 23505 23506 23507 23508 23509 23510 23511 23512 23513 23514 23515 23516 23517 23518 23519 23520 23521 23522 23523 23524 23525 23526 23527 23528 23529 23530 23531 23532 23533 23534 23535 23536 23537 23538 23539 23540 23541 23542 23543 23544 23545 23546 23547 23548 23549 23550 23551 23552 23553 23554 23555 23556 23557 23558 23559 23560 23561 23562 23563 23564 23565 23566 23567 23568 23569 23570 23571 23572 23573 23574 23575 23576 23577 23578 23579 23580 23581 23582 23583 23584 23585 23586 23587 23588 23589 23590 23591 23592 23593 23594 23595 23596 23597 23598 23599 23600 23601 23602 23603 23604 23605 23606 23607 23608 23609 23610 23611 23612 23613 23614 23615 23616 23617 23618 23619 23620 23621 23622 23623 23624 23625 23626 23627 23628 23629 23630 23631 23632 23633 23634 23635 23636 23637 23638 23639 23640 23641 23642 23643 23644 23645 23646 23647 23648 23649 23650 23651 23652 23653 23654 23655 23656 23657 23658 23659 23660 23661 23662 23663 23664 23665 23666 23667 23668 23669 23670 23671 23672 23673 23674 23675 23676 23677 23678 23679 23680 23681 23682 23683 23684 23685 23686 23687 23688 23689 23690 23691 23692 23693 23694 23695 23696 23697 23698 23699 23700 23701 23702 23703 23704 23705 23706 23707 23708 23709 23710 23711 23712 23713 23714 23715 23716 23717 23718 23719 23720 23721 23722 23723 23724 23725 23726 23727 23728 23729 23730 23731 23732 23733 23734 23735 23736 23737 23738 23739 23740 23741 23742 23743 23744 23745 23746 23747 23748 23749 23750 23751 23752 23753 23754 23755 23756 23757 23758 23759 23760 23761 23762 23763 23764 23765 23766 23767 23768 23769 23770 23771 23772 23773 23774 23775 23776 23777 23778 23779 23780 23781 23782 23783 23784 23785 23786 23787 23788 23789 23790 23791 23792 23793 23794 23795 23796 23797 23798 23799 23800 23801 23802 23803 23804 23805 23806 23807 23808 23809 23810 23811 23812 23813 23814 23815 23816 23817 23818 23819 23820 23821 23822 23823 23824 23825 23826 23827 23828 23829 23830 23831 23832 23833 23834 23835 23836 23837 23838 23839 23840 23841 23842 23843 23844 23845 23846 23847 23848 23849 23850 23851 23852 23853 23854 23855 23856 23857 23858 23859 23860 23861 23862 23863 23864 23865 23866 23867 23868 23869 23870 23871 23872 23873 23874 23875 23876 23877 23878 23879 23880 23881 23882 23883 23884 23885 23886 23887 23888 23889 23890 23891 23892 23893 23894 23895 23896 23897 23898 23899 23900 23901 23902 23903 23904 23905 23906 23907 23908 23909 23910 23911 23912 23913 23914 23915 23916 23917 23918 23919 23920 23921 23922 23923 23924 23925 23926 23927 23928 23929 23930 23931 23932 23933 23934 23935 23936 23937 23938 23939 23940 23941 23942 23943 23944 23945 23946 23947 23948 23949 23950 23951 23952 23953 23954 23955 23956 23957 23958 23959 23960 23961 23962 23963 23964 23965 23966 23967 23968 23969 23970 23971 23972 23973 23974 23975 23976 23977 23978 23979 23980 23981 23982 23983 23984 23985 23986 23987 23988 23989 23990 23991 23992 23993 23994 23995 23996 23997 23998 23999 24000 24001 24002 24003 24004 24005 24006 24007 24008 24009 24010 24011 24012 24013 24014 24015 24016 24017 24018 24019 24020 24021 24022 24023 24024 24025 24026 24027 24028 24029 24030 24031 24032 24033 24034 24035 24036 24037 24038 24039 24040 24041 24042 24043 24044 24045 24046 24047 24048 24049 24050 24051 24052 24053 24054 24055 24056 24057 24058 24059 24060 24061 24062 24063 24064 24065 24066 24067 24068 24069 24070 24071 24072 24073 24074 24075 24076 24077 24078 24079 24080 24081 24082 24083 24084 24085 24086 24087 24088 24089 24090 24091 24092 24093 24094 24095 24096 24097 24098 24099 24100 24101 24102 24103 24104 24105 24106 24107 24108 24109 24110 24111 24112 24113 24114 24115 24116 24117 24118 24119 24120 24121 24122 24123 24124 24125 24126 24127 24128 24129 24130 24131 24132 24133 24134 24135 24136 24137 24138 24139 24140 24141 24142 24143 24144 24145 24146 24147 24148 24149 24150 24151 24152 24153 24154 24155 24156 24157 24158 24159 24160 24161 24162 24163 24164 24165 24166 24167 24168 24169 24170 24171 24172 24173 24174 24175 24176 24177 24178 24179 24180 24181 24182 24183 24184 24185 24186 24187 24188 24189 24190 24191 24192 24193 24194 24195 24196 24197 24198 24199 24200 24201 24202 24203 24204 24205 24206 24207 24208 24209 24210 24211 24212 24213 24214 24215 24216 24217 24218 24219 24220 24221 24222 24223 24224 24225 24226 24227 24228 24229 24230 24231 24232 24233 24234 24235 24236 24237 24238 24239 24240 24241 24242 24243 24244 24245 24246 24247 24248 24249 24250 24251 24252 24253 24254 24255 24256 24257 24258 24259 24260 24261 24262 24263 24264 24265 24266 24267 24268 24269 24270 24271 24272 24273 24274 24275 24276 24277 24278 24279 24280 24281 24282 24283 24284 24285 24286 24287 24288 24289 24290 24291 24292 24293 24294 24295 24296 24297 24298 24299 24300 24301 24302 24303 24304 24305 24306 24307 24308 24309 24310 24311 24312 24313 24314 24315 24316 24317 24318 24319 24320 24321 24322 24323 24324 24325 24326 24327 24328 24329 24330 24331 24332 24333 24334 24335 24336 24337 24338 24339 24340 24341 24342 24343 24344 24345 24346 24347 24348 24349 24350 24351 24352 24353 24354 24355 24356 24357 24358 24359 24360 24361 24362 24363 24364 24365 24366 24367 24368 24369 24370 24371 24372 24373 24374 24375 24376 24377 24378 24379 24380 24381 24382 24383 24384 24385 24386 24387 24388 24389 24390 24391 24392 24393 24394 24395 24396 24397 24398 24399 24400 24401 24402 24403 24404 24405 24406 24407 24408 24409 24410 24411 24412 24413 24414 24415 24416 24417 24418 24419 24420 24421 24422 24423 24424 24425 24426 24427 24428 24429 24430 24431 24432 24433 24434 24435 24436 24437 24438 24439 24440 24441 24442 24443 24444 24445 24446 24447 24448 24449 24450 24451 24452 24453 24454 24455 24456 24457 24458 24459 24460 24461 24462 24463 24464 24465 24466 24467 24468 24469 24470 24471 24472 24473 24474 24475 24476 24477 24478 24479 24480 24481 24482 24483 24484 24485 24486 24487 24488 24489 24490 24491 24492 24493 24494 24495 24496 24497 24498 24499 24500 24501 24502 24503 24504 24505 24506 24507 24508 24509 24510 24511 24512 24513 24514 24515 24516 24517 24518 24519 24520 24521 24522 24523 24524 24525 24526 24527 24528 24529 24530 24531 24532 24533 24534 24535 24536 24537 24538 24539 24540 24541 24542 24543 24544 24545 24546 24547 24548 24549 24550 24551 24552 24553 24554 24555 24556 24557 24558 24559 24560 24561 24562 24563 24564 24565 24566 24567 24568 24569 24570 24571 24572 24573 24574 24575 24576 24577 24578 24579 24580 24581 24582 24583 24584 24585 24586 24587 24588 24589 24590 24591 24592 24593 24594 24595 24596 24597 24598 24599 24600 24601 24602 24603 24604 24605 24606 24607 24608 24609 24610 24611 24612 24613 24614 24615 24616 24617 24618 24619 24620 24621 24622 24623 24624 24625 24626 24627 24628 24629 24630 24631 24632 24633 24634 24635 24636 24637 24638 24639 24640 24641 24642 24643 24644 24645 24646 24647 24648 24649 24650 24651 24652 24653 24654 24655 24656 24657 24658 24659 24660 24661 24662 24663 24664 24665 24666 24667 24668 24669 24670 24671 24672 24673 24674 24675 24676 24677 24678 24679 24680 24681 24682 24683 24684 24685 24686 24687 24688 24689 24690 24691 24692 24693 24694 24695 24696 24697 24698 24699 24700 24701 24702 24703 24704 24705 24706 24707 24708 24709 24710 24711 24712 24713 24714 24715 24716 24717 24718 24719 24720 24721 24722 24723 24724 24725 24726 24727 24728 24729 24730 24731 24732 24733 24734 24735 24736 24737 24738 24739 24740 24741 24742 24743 24744 24745 24746 24747 24748 24749 24750 24751 24752 24753 24754 24755 24756 24757 24758 24759 24760 24761 24762 24763 24764 24765 24766 24767 24768 24769 24770 24771 24772 24773 24774 24775 24776 24777 24778 24779 24780 24781 24782 24783 24784 24785 24786 24787 24788 24789 24790 24791 24792 24793 24794 24795 24796 24797 24798 24799 24800 24801 24802 24803 24804 24805 24806 24807 24808 24809 24810 24811 24812 24813 24814 24815 24816 24817 24818 24819 24820 24821 24822 24823 24824 24825 24826 24827 24828 24829 24830 24831 24832 24833 24834 24835 24836 24837 24838 24839 24840 24841 24842 24843 24844 24845 24846 24847 24848 24849 24850 24851 24852 24853 24854 24855 24856 24857 24858 24859 24860 24861 24862 24863 24864 24865 24866 24867 24868 24869 24870 24871 24872 24873 24874 24875 24876 24877 24878 24879 24880 24881 24882 24883 24884 24885 24886 24887 24888 24889 24890 24891 24892 24893 24894 24895 24896 24897 24898 24899 24900 24901 24902 24903 24904 24905 24906 24907 24908 24909 24910 24911 24912 24913 24914 24915 24916 24917 24918 24919 24920 24921 24922 24923 24924 24925 24926 24927 24928 24929 24930 24931 24932 24933 24934 24935 24936 24937 24938 24939 24940 24941 24942 24943 24944 24945 24946 24947 24948 24949 24950 24951 24952 24953 24954 24955 24956 24957 24958 24959 24960 24961 24962 24963 24964 24965 24966 24967 24968 24969 24970 24971 24972 24973 24974 24975 24976 24977 24978 24979 24980 24981 24982 24983 24984 24985 24986 24987 24988 24989 24990 24991 24992 24993 24994 24995 24996 24997 24998 24999 25000 25001 25002 25003 25004 25005 25006 25007 25008 25009 25010 25011 25012 25013 25014 25015 25016 25017 25018 25019 25020 25021 25022 25023 25024 25025 25026 25027 25028 25029 25030 25031 25032 25033 25034 25035 25036 25037 25038 25039 25040 25041 25042 25043 25044 25045 25046 25047 25048 25049 25050 25051 25052 25053 25054 25055 25056 25057 25058 25059 25060 25061 25062 25063 25064 25065 25066 25067 25068 25069 25070 25071 25072 25073 25074 25075 25076 25077 25078 25079 25080 25081 25082 25083 25084 25085 25086 25087 25088 25089 25090 25091 25092 25093 25094 25095 25096 25097 25098 25099 25100 25101 25102 25103 25104 25105 25106 25107 25108 25109 25110 25111 25112 25113 25114 25115 25116 25117 25118 25119 25120 25121 25122 25123 25124 25125 25126 25127 25128 25129 25130 25131 25132 25133 25134 25135 25136 25137 25138 25139 25140 25141 25142 25143 25144 25145 25146 25147 25148 25149 25150 25151 25152 25153 25154 25155 25156 25157 25158 25159 25160 25161 25162 25163 25164 25165 25166 25167 25168 25169 25170 25171 25172 25173 25174 25175 25176 25177 25178 25179 25180 25181 25182 25183 25184 25185 25186 25187 25188 25189 25190 25191 25192 25193 25194 25195 25196 25197 25198 25199 25200 25201 25202 25203 25204 25205 25206 25207 25208 25209 25210 25211 25212 25213 25214 25215 25216 25217 25218 25219 25220 25221 25222 25223 25224 25225 25226 25227 25228 25229 25230 25231 25232 25233 25234 25235 25236 25237 25238 25239 25240 25241 25242 25243 25244 25245 25246 25247 25248 25249 25250 25251 25252 25253 25254 25255 25256 25257 25258 25259 25260 25261 25262 25263 25264 25265 25266 25267 25268 25269 25270 25271 25272 25273 25274 25275 25276 25277 25278 25279 25280 25281 25282 25283 25284 25285 25286 25287 25288 25289 25290 25291 25292 25293 25294 25295 25296 25297 25298 25299 25300 25301 25302 25303 25304 25305 25306 25307 25308 25309 25310 25311 25312 25313 25314 25315 25316 25317 25318 25319 25320 25321 25322 25323 25324 25325 25326 25327 25328 25329 25330 25331 25332 25333 25334 25335 25336 25337 25338 25339 25340 25341 25342 25343 25344 25345 25346 25347 25348 25349 25350 25351 25352 25353 25354 25355 25356 25357 25358 25359 25360 25361 25362 25363 25364 25365 25366 25367 25368 25369 25370 25371 25372 25373 25374 25375 25376 25377 25378 25379 25380 25381 25382 25383 25384 25385 25386 25387 25388 25389 25390 25391 25392 25393 25394 25395 25396 25397 25398 25399 25400 25401 25402 25403 25404 25405 25406 25407 25408 25409 25410 25411 25412 25413 25414 25415 25416 25417 25418 25419 25420 25421 25422 25423 25424 25425 25426 25427 25428 25429 25430 25431 25432 25433 25434 25435 25436 25437 25438 25439 25440 25441 25442 25443 25444 25445 25446 25447 25448 25449 25450 25451 25452 25453 25454 25455 25456 25457 25458 25459 25460 25461 25462 25463 25464 25465 25466 25467 25468 25469 25470 25471 25472 25473 25474 25475 25476 25477 25478 25479 25480 25481 25482 25483 25484 25485 25486 25487 25488 25489 25490 25491 25492 25493 25494 25495 25496 25497 25498 25499 25500 25501 25502 25503 25504 25505 25506 25507 25508 25509 25510 25511 25512 25513 25514 25515 25516 25517 25518 25519 25520 25521 25522 25523 25524 25525 25526 25527 25528 25529 25530 25531 25532 25533 25534 25535 25536 25537 25538 25539 25540 25541 25542 25543 25544 25545 25546 25547 25548 25549 25550 25551 25552 25553 25554 25555 25556 25557 25558 25559 25560 25561 25562 25563 25564 25565 25566 25567 25568 25569 25570 25571 25572 25573 25574 25575 25576 25577 25578 25579 25580 25581 25582 25583 25584 25585 25586 25587 25588 25589 25590 25591 25592 25593 25594 25595 25596 25597 25598 25599 25600 25601 25602 25603 25604 25605 25606 25607 25608 25609 25610 25611 25612 25613 25614 25615 25616 25617 25618 25619 25620 25621 25622 25623 25624 25625 25626 25627 25628 25629 25630 25631 25632 25633 25634 25635 25636 25637 25638 25639 25640 25641 25642 25643 25644 25645 25646 25647 25648 25649 25650 25651 25652 25653 25654 25655 25656 25657 25658 25659 25660 25661 25662 25663 25664 25665 25666 25667 25668 25669 25670 25671 25672 25673 25674 25675 25676 25677 25678 25679 25680 25681 25682 25683 25684 25685 25686 25687 25688 25689 25690 25691 25692 25693 25694 25695 25696 25697 25698 25699 25700 25701 25702 25703 25704 25705 25706 25707 25708 25709 25710 25711 25712 25713 25714 25715 25716 25717 25718 25719 25720 25721 25722 25723 25724 25725 25726 25727 25728 25729 25730 25731 25732 25733 25734 25735 25736 25737 25738 25739 25740 25741 25742 25743 25744 25745 25746 25747 25748 25749 25750 25751 25752 25753 25754 25755 25756 25757 25758 25759 25760 25761 25762 25763 25764 25765 25766 25767 25768 25769 25770 25771 25772 25773 25774 25775 25776 25777 25778 25779 25780 25781 25782 25783 25784 25785 25786 25787 25788 25789 25790 25791 25792 25793 25794 25795 25796 25797 25798 25799 25800 25801 25802 25803 25804 25805 25806 25807 25808 25809 25810 25811 25812 25813 25814 25815 25816 25817 25818 25819 25820 25821 25822 25823 25824 25825 25826 25827 25828 25829 25830 25831 25832 25833 25834 25835 25836 25837 25838 25839 25840 25841 25842 25843 25844 25845 25846 25847 25848 25849 25850 25851 25852 25853 25854 25855 25856 25857 25858 25859 25860 25861 25862 25863 25864 25865 25866 25867 25868 25869 25870 25871 25872 25873 25874 25875 25876 25877 25878 25879 25880 25881 25882 25883 25884 25885 25886 25887 25888 25889 25890 25891 25892 25893 25894 25895 25896 25897 25898 25899 25900 25901 25902 25903 25904 25905 25906 25907 25908 25909 25910 25911 25912 25913 25914 25915 25916 25917 25918 25919 25920 25921 25922 25923 25924 25925 25926 25927 25928 25929 25930 25931 25932 25933 25934 25935 25936 25937 25938 25939 25940 25941 25942 25943 25944 25945 25946 25947 25948 25949 25950 25951 25952 25953 25954 25955 25956 25957 25958 25959 25960 25961 25962 25963 25964 25965 25966 25967 25968 25969 25970 25971 25972 25973 25974 25975 25976 25977 25978 25979 25980 25981 25982 25983 25984 25985 25986 25987 25988 25989 25990 25991 25992 25993 25994 25995 25996 25997 25998 25999 26000 26001 26002 26003 26004 26005 26006 26007 26008 26009 26010 26011 26012 26013 26014 26015 26016 26017 26018 26019 26020 26021 26022 26023 26024 26025 26026 26027 26028 26029 26030 26031 26032 26033 26034 26035 26036 26037 26038 26039 26040 26041 26042 26043 26044 26045 26046 26047 26048 26049 26050 26051 26052 26053 26054 26055 26056 26057 26058 26059 26060 26061 26062 26063 26064 26065 26066 26067 26068 26069 26070 26071 26072 26073 26074 26075 26076 26077 26078 26079 26080 26081 26082 26083 26084 26085 26086 26087 26088 26089 26090 26091 26092 26093 26094 26095 26096 26097 26098 26099 26100 26101 26102 26103 26104 26105 26106 26107 26108 26109 26110 26111 26112 26113 26114 26115 26116 26117 26118 26119 26120 26121 26122 26123 26124 26125 26126 26127 26128 26129 26130 26131 26132 26133 26134 26135 26136 26137 26138 26139 26140 26141 26142 26143 26144 26145 26146 26147 26148 26149 26150 26151 26152 26153 26154 26155 26156 26157 26158 26159 26160 26161 26162 26163 26164 26165 26166 26167 26168 26169 26170 26171 26172 26173 26174 26175 26176 26177 26178 26179 26180 26181 26182 26183 26184 26185 26186 26187 26188 26189 26190 26191 26192 26193 26194 26195 26196 26197 26198 26199 26200 26201 26202 26203 26204 26205 26206 26207 26208 26209 26210 26211 26212 26213 26214 26215 26216 26217 26218 26219 26220 26221 26222 26223 26224 26225 26226 26227 26228 26229 26230 26231 26232 26233 26234 26235 26236 26237 26238 26239 26240 26241 26242 26243 26244 26245 26246 26247 26248 26249 26250 26251 26252 26253 26254 26255 26256 26257 26258 26259 26260 26261 26262 26263 26264 26265 26266 26267 26268 26269 26270 26271 26272 26273 26274 26275 26276 26277 26278 26279 26280 26281 26282 26283 26284 26285 26286 26287 26288 26289 26290 26291 26292 26293 26294 26295 26296 26297 26298 26299 26300 26301 26302 26303 26304 26305 26306 26307 26308 26309 26310 26311 26312 26313 26314 26315 26316 26317 26318 26319 26320 26321 26322 26323 26324 26325 26326 26327 26328 26329 26330 26331 26332 26333 26334 26335 26336 26337 26338 26339 26340 26341 26342 26343 26344 26345 26346 26347 26348 26349 26350 26351 26352 26353 26354 26355 26356 26357 26358 26359 26360 26361 26362 26363 26364 26365 26366 26367 26368 26369 26370 26371 26372 26373 26374 26375 26376 26377 26378 26379 26380 26381 26382 26383 26384 26385 26386 26387 26388 26389 26390 26391 26392 26393 26394 26395 26396 26397 26398 26399 26400 26401 26402 26403 26404 26405 26406 26407 26408 26409 26410 26411 26412 26413 26414 26415 26416 26417 26418 26419 26420 26421 26422 26423 26424 26425 26426 26427 26428 26429 26430 26431 26432 26433 26434 26435 26436 26437 26438 26439 26440 26441 26442 26443 26444 26445 26446 26447 26448 26449 26450 26451 26452 26453 26454 26455 26456 26457 26458 26459 26460 26461 26462 26463 26464 26465 26466 26467 26468 26469 26470 26471 26472 26473 26474 26475 26476 26477 26478 26479 26480 26481 26482 26483 26484 26485 26486 26487 26488 26489 26490 26491 26492 26493 26494 26495 26496 26497 26498 26499 26500 26501 26502 26503 26504 26505 26506 26507 26508 26509 26510 26511 26512 26513 26514 26515 26516 26517 26518 26519 26520 26521 26522 26523 26524 26525 26526 26527 26528 26529 26530 26531 26532 26533 26534 26535 26536 26537 26538 26539 26540 26541 26542 26543 26544 26545 26546 26547 26548 26549 26550 26551 26552 26553 26554 26555 26556 26557 26558 26559 26560 26561 26562 26563 26564 26565 26566 26567 26568 26569 26570 26571 26572 26573 26574 26575 26576 26577 26578 26579 26580 26581 26582 26583 26584 26585 26586 26587 26588 26589 26590 26591 26592 26593 26594 26595 26596 26597 26598 26599 26600 26601 26602 26603 26604 26605 26606 26607 26608 26609 26610 26611 26612 26613 26614 26615 26616 26617 26618 26619 26620 26621 26622 26623 26624 26625 26626 26627 26628 26629 26630 26631 26632 26633 26634 26635 26636 26637 26638 26639 26640 26641 26642 26643 26644 26645 26646 26647 26648 26649 26650 26651 26652 26653 26654 26655 26656 26657 26658 26659 26660 26661 26662 26663 26664 26665 26666 26667 26668 26669 26670 26671 26672 26673 26674 26675 26676 26677 26678 26679 26680 26681 26682 26683 26684 26685 26686 26687 26688 26689 26690 26691 26692 26693 26694 26695 26696 26697 26698 26699 26700 26701 26702 26703 26704 26705 26706 26707 26708 26709 26710 26711 26712 26713 26714 26715 26716 26717 26718 26719 26720 26721 26722 26723 26724 26725 26726 26727 26728 26729 26730 26731 26732 26733 26734 26735 26736 26737 26738 26739 26740 26741 26742 26743 26744 26745 26746 26747 26748 26749 26750 26751 26752 26753 26754 26755 26756 26757 26758 26759 26760 26761 26762 26763 26764 26765 26766 26767 26768 26769 26770 26771 26772 26773 26774 26775 26776 26777 26778 26779 26780 26781 26782 26783 26784 26785 26786 26787 26788 26789 26790 26791 26792 26793 26794 26795 26796 26797 26798 26799 26800 26801 26802 26803 26804 26805 26806 26807 26808 26809 26810 26811 26812 26813 26814 26815 26816 26817 26818 26819 26820 26821 26822 26823 26824 26825 26826 26827 26828 26829 26830 26831 26832 26833 26834 26835 26836 26837 26838 26839 26840 26841 26842 26843 26844 26845 26846 26847 26848 26849 26850 26851 26852 26853 26854 26855 26856 26857 26858 26859 26860 26861 26862 26863 26864 26865 26866 26867 26868 26869 26870 26871 26872 26873 26874 26875 26876 26877 26878 26879 26880 26881 26882 26883 26884 26885 26886 26887 26888 26889 26890 26891 26892 26893 26894 26895 26896 26897 26898 26899 26900 26901 26902 26903 26904 26905 26906 26907 26908 26909 26910 26911 26912 26913 26914 26915 26916 26917 26918 26919 26920 26921 26922 26923 26924 26925 26926 26927 26928 26929 26930 26931 26932 26933 26934 26935 26936 26937 26938 26939 26940 26941 26942 26943 26944 26945 26946 26947 26948 26949 26950 26951 26952 26953 26954 26955 26956 26957 26958 26959 26960 26961 26962 26963 26964 26965 26966 26967 26968 26969 26970 26971 26972 26973 26974 26975 26976 26977 26978 26979 26980 26981 26982 26983 26984 26985 26986 26987 26988 26989 26990 26991 26992 26993 26994 26995 26996 26997 26998 26999 27000 27001 27002 27003 27004 27005 27006 27007 27008 27009 27010 27011 27012 27013 27014 27015 27016 27017 27018 27019 27020 27021 27022 27023 27024 27025 27026 27027 27028 27029 27030 27031 27032 27033 27034 27035 27036 27037 27038 27039 27040 27041 27042 27043 27044 27045 27046 27047 27048 27049 27050 27051 27052 27053 27054 27055 27056 27057 27058 27059 27060 27061 27062 27063 27064 27065 27066 27067 27068 27069 27070 27071 27072 27073 27074 27075 27076 27077 27078 27079 27080 27081 27082 27083 27084 27085 27086 27087 27088 27089 27090 27091 27092 27093 27094 27095 27096 27097 27098 27099 27100 27101 27102 27103 27104 27105 27106 27107 27108 27109 27110 27111 27112 27113 27114 27115 27116 27117 27118 27119 27120 27121 27122 27123 27124 27125 27126 27127 27128 27129 27130 27131 27132 27133 27134 27135 27136 27137 27138 27139 27140 27141 27142 27143 27144 27145 27146 27147 27148 27149 27150 27151 27152 27153 27154 27155 27156 27157 27158 27159 27160 27161 27162 27163 27164 27165 27166 27167 27168 27169 27170 27171 27172 27173 27174 27175 27176 27177 27178 27179 27180 27181 27182 27183 27184 27185 27186 27187 27188 27189 27190 27191 27192 27193 27194 27195 27196 27197 27198 27199 27200 27201 27202 27203 27204 27205 27206 27207 27208 27209 27210 27211 27212 27213 27214 27215 27216 27217 27218 27219 27220 27221 27222 27223 27224 27225 27226 27227 27228 27229 27230 27231 27232 27233 27234 27235 27236 27237 27238 27239 27240 27241 27242 27243 27244 27245 27246 27247 27248 27249 27250 27251 27252 27253 27254 27255 27256 27257 27258 27259 27260 27261 27262 27263 27264 27265 27266 27267 27268 27269 27270 27271 27272 27273 27274 27275 27276 27277 27278 27279 27280 27281 27282 27283 27284 27285 27286 27287 27288 27289 27290 27291 27292 27293 27294 27295 27296 27297 27298 27299 27300 27301 27302 27303 27304 27305 27306 27307 27308 27309 27310 27311 27312 27313 27314 27315 27316 27317 27318 27319 27320 27321 27322 27323 27324 27325 27326 27327 27328 27329 27330 27331 27332 27333 27334 27335 27336 27337 27338 27339 27340 27341 27342 27343 27344 27345 27346 27347 27348 27349 27350 27351 27352 27353 27354 27355 27356 27357 27358 27359 27360 27361 27362 27363 27364 27365 27366 27367 27368 27369 27370 27371 27372 27373 27374 27375 27376 27377 27378 27379 27380 27381 27382 27383 27384 27385 27386 27387 27388 27389 27390 27391 27392 27393 27394 27395 27396 27397 27398 27399 27400 27401 27402 27403 27404 27405 27406 27407 27408 27409 27410 27411 27412 27413 27414 27415 27416 27417 27418 27419 27420 27421 27422 27423 27424 27425 27426 27427 27428 27429 27430 27431 27432 27433 27434 27435 27436 27437 27438 27439 27440 27441 27442 27443 27444 27445 27446 27447 27448 27449 27450 27451 27452 27453 27454 27455 27456 27457 27458 27459 27460 27461 27462 27463 27464 27465 27466 27467 27468 27469 27470 27471 27472 27473 27474 27475 27476 27477 27478 27479 27480 27481 27482 27483 27484 27485 27486 27487 27488 27489 27490 27491 27492 27493 27494 27495 27496 27497 27498 27499 27500 27501 27502 27503 27504 27505 27506 27507 27508 27509 27510 27511 27512 27513 27514 27515 27516 27517 27518 27519 27520 27521 27522 27523 27524 27525 27526 27527 27528 27529 27530 27531 27532 27533 27534 27535 27536 27537 27538 27539 27540 27541 27542 27543 27544 27545 27546 27547 27548 27549 27550 27551 27552 27553 27554 27555 27556 27557 27558 27559 27560 27561 27562 27563 27564 27565 27566 27567 27568 27569 27570 27571 27572 27573 27574 27575 27576 27577 27578 27579 27580 27581 27582 27583 27584 27585 27586 27587 27588 27589 27590 27591 27592 27593 27594 27595 27596 27597 27598 27599 27600 27601 27602 27603 27604 27605 27606 27607 27608 27609 27610 27611 27612 27613 27614 27615 27616 27617 27618 27619 27620 27621 27622 27623 27624 27625 27626 27627 27628 27629 27630 27631 27632 27633 27634 27635 27636 27637 27638 27639 27640 27641 27642 27643 27644 27645 27646 27647 27648 27649 27650 27651 27652 27653 27654 27655 27656 27657 27658 27659 27660 27661 27662 27663 27664 27665 27666 27667 27668 27669 27670 27671 27672 27673 27674 27675 27676 27677 27678 27679 27680 27681 27682 27683 27684 27685 27686 27687 27688 27689 27690 27691 27692 27693 27694 27695 27696 27697 27698 27699 27700 27701 27702 27703 27704 27705 27706 27707 27708 27709 27710 27711 27712 27713 27714 27715 27716 27717 27718 27719 27720 27721 27722 27723 27724 27725 27726 27727 27728 27729 27730 27731 27732 27733 27734 27735 27736 27737 27738 27739 27740 27741 27742 27743 27744 27745 27746 27747 27748 27749 27750 27751 27752 27753 27754 27755 27756 27757 27758 27759 27760 27761 27762 27763 27764 27765 27766 27767 27768 27769 27770 27771 27772 27773 27774 27775 27776 27777 27778 27779 27780 27781 27782 27783 27784 27785 27786 27787 27788 27789 27790 27791 27792 27793 27794 27795 27796 27797 27798 27799 27800 27801 27802 27803 27804 27805 27806 27807 27808 27809 27810 27811 27812 27813 27814 27815 27816 27817 27818 27819 27820 27821 27822 27823 27824 27825 27826 27827 27828 27829 27830 27831 27832 27833 27834 27835 27836 27837 27838 27839 27840 27841 27842 27843 27844 27845 27846 27847 27848 27849 27850 27851 27852 27853 27854 27855 27856 27857 27858 27859 27860 27861 27862 27863 27864 27865 27866 27867 27868 27869 27870 27871 27872 27873 27874 27875 27876 27877 27878 27879 27880 27881 27882 27883 27884 27885 27886 27887 27888 27889 27890 27891 27892 27893 27894 27895 27896 27897 27898 27899 27900 27901 27902 27903 27904 27905 27906 27907 27908 27909 27910 27911 27912 27913 27914 27915 27916 27917 27918 27919 27920 27921 27922 27923 27924 27925 27926 27927 27928 27929 27930 27931 27932 27933 27934 27935 27936 27937 27938 27939 27940 27941 27942 27943 27944 27945 27946 27947 27948 27949 27950 27951 27952 27953 27954 27955 27956 27957 27958 27959 27960 27961 27962 27963 27964 27965 27966 27967 27968 27969 27970 27971 27972 27973 27974 27975 27976 27977 27978 27979 27980 27981 27982 27983 27984 27985 27986 27987 27988 27989 27990 27991 27992 27993 27994 27995 27996 27997 27998 27999 28000 28001 28002 28003 28004 28005 28006 28007 28008 28009 28010 28011 28012 28013 28014 28015 28016 28017 28018 28019 28020 28021 28022 28023 28024 28025 28026 28027 28028 28029 28030 28031 28032 28033 28034 28035 28036 28037 28038 28039 28040 28041 28042 28043 28044 28045 28046 28047 28048 28049 28050 28051 28052 28053 28054 28055 28056 28057 28058 28059 28060 28061 28062 28063 28064 28065 28066 28067 28068 28069 28070 28071 28072 28073 28074 28075 28076 28077 28078 28079 28080 28081 28082 28083 28084 28085 28086 28087 28088 28089 28090 28091 28092 28093 28094 28095 28096 28097 28098 28099 28100 28101 28102 28103 28104 28105 28106 28107 28108 28109 28110 28111 28112 28113 28114 28115 28116 28117 28118 28119 28120 28121 28122 28123 28124 28125 28126 28127 28128 28129 28130 28131 28132 28133 28134 28135 28136 28137 28138 28139 28140 28141 28142 28143 28144 28145 28146 28147 28148 28149 28150 28151 28152 28153 28154 28155 28156 28157 28158 28159 28160 28161 28162 28163 28164 28165 28166 28167 28168 28169 28170 28171 28172 28173 28174 28175 28176 28177 28178 28179 28180 28181 28182 28183 28184 28185 28186 28187 28188 28189 28190 28191 28192 28193 28194 28195 28196 28197 28198 28199 28200 28201 28202 28203 28204 28205 28206 28207 28208 28209 28210 28211 28212 28213 28214 28215 28216 28217 28218 28219 28220 28221 28222 28223 28224 28225 28226 28227 28228 28229 28230 28231 28232 28233 28234 28235 28236 28237 28238 28239 28240 28241 28242 28243 28244 28245 28246 28247 28248 28249 28250 28251 28252 28253 28254 28255 28256 28257 28258 28259 28260 28261 28262 28263 28264 28265 28266 28267 28268 28269 28270 28271 28272 28273 28274 28275 28276 28277 28278 28279 28280 28281 28282 28283 28284 28285 28286 28287 28288 28289 28290 28291 28292 28293 28294 28295 28296 28297 28298 28299 28300 28301 28302 28303 28304 28305 28306 28307 28308 28309 28310 28311 28312 28313 28314 28315 28316 28317 28318 28319 28320 28321 28322 28323 28324 28325 28326 28327 28328 28329 28330 28331 28332 28333 28334 28335 28336 28337 28338 28339 28340 28341 28342 28343 28344 28345 28346 28347 28348 28349 28350 28351 28352 28353 28354 28355 28356 28357 28358 28359 28360 28361 28362 28363 28364 28365 28366 28367 28368 28369 28370 28371 28372 28373 28374 28375 28376 28377 28378 28379 28380 28381 28382 28383 28384 28385 28386 28387 28388 28389 28390 28391 28392 28393 28394 28395 28396 28397 28398 28399 28400 28401 28402 28403 28404 28405 28406 28407 28408 28409 28410 28411 28412 28413 28414 28415 28416 28417 28418 28419 28420 28421 28422 28423 28424 28425 28426 28427 28428 28429 28430 28431 28432 28433 28434 28435 28436 28437 28438 28439 28440 28441 28442 28443 28444 28445 28446 28447 28448 28449 28450 28451 28452 28453 28454 28455 28456 28457 28458 28459 28460 28461 28462 28463 28464 28465 28466 28467 28468 28469 28470 28471 28472 28473 28474 28475 28476 28477 28478 28479 28480 28481 28482 28483 28484 28485 28486 28487 28488 28489 28490 28491 28492 28493 28494 28495 28496 28497 28498 28499 28500 28501 28502 28503 28504 28505 28506 28507 28508 28509 28510 28511 28512 28513 28514 28515 28516 28517 28518 28519 28520 28521 28522 28523 28524 28525 28526 28527 28528 28529 28530 28531 28532 28533 28534 28535 28536 28537 28538 28539 28540 28541 28542 28543 28544 28545 28546 28547 28548 28549 28550 28551 28552 28553 28554 28555 28556 28557 28558 28559 28560 28561 28562 28563 28564 28565 28566 28567 28568 28569 28570 28571 28572 28573 28574 28575 28576 28577 28578 28579 28580 28581 28582 28583 28584 28585 28586 28587 28588 28589 28590 28591 28592 28593 28594 28595 28596 28597 28598 28599 28600 28601 28602 28603 28604 28605 28606 28607 28608 28609 28610 28611 28612 28613 28614 28615 28616 28617 28618 28619 28620 28621 28622 28623 28624 28625 28626 28627 28628 28629 28630 28631 28632 28633 28634 28635 28636 28637 28638 28639 28640 28641 28642 28643 28644 28645 28646 28647 28648 28649 28650 28651 28652 28653 28654 28655 28656 28657 28658 28659 28660 28661 28662 28663 28664 28665 28666 28667 28668 28669 28670 28671 28672 28673 28674 28675 28676 28677 28678 28679 28680 28681 28682 28683 28684 28685 28686 28687 28688 28689 28690 28691 28692 28693 28694 28695 28696 28697 28698 28699 28700 28701 28702 28703 28704 28705 28706 28707 28708 28709 28710 28711 28712 28713 28714 28715 28716 28717 28718 28719 28720 28721 28722 28723 28724 28725 28726 28727 28728 28729 28730 28731 28732 28733 28734 28735 28736 28737 28738 28739 28740 28741 28742 28743 28744 28745 28746 28747 28748 28749 28750 28751 28752 28753 28754 28755 28756 28757 28758 28759 28760 28761 28762 28763 28764 28765 28766 28767 28768 28769 28770 28771 28772 28773 28774 28775 28776 28777 28778 28779 28780 28781 28782 28783 28784 28785 28786 28787 28788 28789 28790 28791 28792 28793 28794 28795 28796 28797 28798 28799 28800 28801 28802 28803 28804 28805 28806 28807 28808 28809 28810 28811 28812 28813 28814 28815 28816 28817 28818 28819 28820 28821 28822 28823 28824 28825 28826 28827 28828 28829 28830 28831 28832 28833 28834 28835 28836 28837 28838 28839 28840 28841 28842 28843 28844 28845 28846 28847 28848 28849 28850 28851 28852 28853 28854 28855 28856 28857 28858 28859 28860 28861 28862 28863 28864 28865 28866 28867 28868 28869 28870 28871 28872 28873 28874 28875 28876 28877 28878 28879 28880 28881 28882 28883 28884 28885 28886 28887 28888 28889 28890 28891 28892 28893 28894 28895 28896 28897 28898 28899 28900 28901 28902 28903 28904 28905 28906 28907 28908 28909 28910 28911 28912 28913 28914 28915 28916 28917 28918 28919 28920 28921 28922 28923 28924 28925 28926 28927 28928 28929 28930 28931 28932 28933 28934 28935 28936 28937 28938 28939 28940 28941 28942 28943 28944 28945 28946 28947 28948 28949 28950 28951 28952 28953 28954 28955 28956 28957 28958 28959 28960 28961 28962 28963 28964 28965 28966 28967 28968 28969 28970 28971 28972 28973 28974 28975 28976 28977 28978 28979 28980 28981 28982 28983 28984 28985 28986 28987 28988 28989 28990 28991 28992 28993 28994 28995 28996 28997 28998 28999 29000 29001 29002 29003 29004 29005 29006 29007 29008 29009 29010 29011 29012 29013 29014 29015 29016 29017 29018 29019 29020 29021 29022 29023 29024 29025 29026 29027 29028 29029 29030 29031 29032 29033 29034 29035 29036 29037 29038 29039 29040 29041 29042 29043 29044 29045 29046 29047 29048 29049 29050 29051 29052 29053 29054 29055 29056 29057 29058 29059 29060 29061 29062 29063 29064 29065 29066 29067 29068 29069 29070 29071 29072 29073 29074 29075 29076 29077 29078 29079 29080 29081 29082 29083 29084 29085 29086 29087 29088 29089 29090 29091 29092 29093 29094 29095 29096 29097 29098 29099 29100 29101 29102 29103 29104 29105 29106 29107 29108 29109 29110 29111 29112 29113 29114 29115 29116 29117 29118 29119 29120 29121 29122 29123 29124 29125 29126 29127 29128 29129 29130 29131 29132 29133 29134 29135 29136 29137 29138 29139 29140 29141 29142 29143 29144 29145 29146 29147 29148 29149 29150 29151 29152 29153 29154 29155 29156 29157 29158 29159 29160 29161 29162 29163 29164 29165 29166 29167 29168 29169 29170 29171 29172 29173 29174 29175 29176 29177 29178 29179 29180 29181 29182 29183 29184 29185 29186 29187 29188 29189 29190 29191 29192 29193 29194 29195 29196 29197 29198 29199 29200 29201 29202 29203 29204 29205 29206 29207 29208 29209 29210 29211 29212 29213 29214 29215 29216 29217 29218 29219 29220 29221 29222 29223 29224 29225 29226 29227 29228 29229 29230 29231 29232 29233 29234 29235 29236 29237 29238 29239 29240 29241 29242 29243 29244 29245 29246 29247 29248 29249 29250 29251 29252 29253 29254 29255 29256 29257 29258 29259 29260 29261 29262 29263 29264 29265 29266 29267 29268 29269 29270 29271 29272 29273 29274 29275 29276 29277 29278 29279 29280 29281 29282 29283 29284 29285 29286 29287 29288 29289 29290 29291 29292 29293 29294 29295 29296 29297 29298 29299 29300 29301 29302 29303 29304 29305 29306 29307 29308 29309 29310 29311 29312 29313 29314 29315 29316 29317 29318 29319 29320 29321 29322 29323 29324 29325 29326 29327 29328 29329 29330 29331 29332 29333 29334 29335 29336 29337 29338 29339 29340 29341 29342 29343 29344 29345 29346 29347 29348 29349 29350 29351 29352 29353 29354 29355 29356 29357 29358 29359 29360 29361 29362 29363 29364 29365 29366 29367 29368 29369 29370 29371 29372 29373 29374 29375 29376 29377 29378 29379 29380 29381 29382 29383 29384 29385 29386 29387 29388 29389 29390 29391 29392 29393 29394 29395 29396 29397 29398 29399 29400 29401 29402 29403 29404 29405 29406 29407 29408 29409 29410 29411 29412 29413 29414 29415 29416 29417 29418 29419 29420 29421 29422 29423 29424 29425 29426 29427 29428 29429 29430 29431 29432 29433 29434 29435 29436 29437 29438 29439 29440 29441 29442 29443 29444 29445 29446 29447 29448 29449 29450 29451 29452 29453 29454 29455 29456 29457 29458 29459 29460 29461 29462 29463 29464 29465 29466 29467 29468 29469 29470 29471 29472 29473 29474 29475 29476 29477 29478 29479 29480 29481 29482 29483 29484 29485 29486 29487 29488 29489 29490 29491 29492 29493 29494 29495 29496 29497 29498 29499 29500 29501 29502 29503 29504 29505 29506 29507 29508 29509 29510 29511 29512 29513 29514 29515 29516 29517 29518 29519 29520 29521 29522 29523 29524 29525 29526 29527 29528 29529 29530 29531 29532 29533 29534 29535 29536 29537 29538 29539 29540 29541 29542 29543 29544 29545 29546 29547 29548 29549 29550 29551 29552 29553 29554 29555 29556 29557 29558 29559 29560 29561 29562 29563 29564 29565 29566 29567 29568 29569 29570 29571 29572 29573 29574 29575 29576 29577 29578 29579 29580 29581 29582 29583 29584 29585 29586 29587 29588 29589 29590 29591 29592 29593 29594 29595 29596 29597 29598 29599 29600 29601 29602 29603 29604 29605 29606 29607 29608 29609 29610 29611 29612 29613 29614 29615 29616 29617 29618 29619 29620 29621 29622 29623 29624 29625 29626 29627 29628 29629 29630 29631 29632 29633 29634 29635 29636 29637 29638 29639 29640 29641 29642 29643 29644 29645 29646 29647 29648 29649 29650 29651 29652 29653 29654 29655 29656 29657 29658 29659 29660 29661 29662 29663 29664 29665 29666 29667 29668 29669 29670 29671 29672 29673 29674 29675 29676 29677 29678 29679 29680 29681 29682 29683 29684 29685 29686 29687 29688 29689 29690 29691 29692 29693 29694 29695 29696 29697 29698 29699 29700 29701 29702 29703 29704 29705 29706 29707 29708 29709 29710 29711 29712 29713 29714 29715 29716 29717 29718 29719 29720 29721 29722 29723 29724 29725 29726 29727 29728 29729 29730 29731 29732 29733 29734 29735 29736 29737 29738 29739 29740 29741 29742 29743 29744 29745 29746 29747 29748 29749 29750 29751 29752 29753 29754 29755 29756 29757 29758 29759 29760 29761 29762 29763 29764 29765 29766 29767 29768 29769 29770 29771 29772 29773 29774 29775 29776 29777 29778 29779 29780 29781 29782 29783 29784 29785 29786 29787 29788 29789 29790 29791 29792 29793 29794 29795 29796 29797 29798 29799 29800 29801 29802 29803 29804 29805 29806 29807 29808 29809 29810 29811 29812 29813 29814 29815 29816 29817 29818 29819 29820 29821 29822 29823 29824 29825 29826 29827 29828 29829 29830 29831 29832 29833 29834 29835 29836 29837 29838 29839 29840 29841 29842 29843 29844 29845 29846 29847 29848 29849 29850 29851 29852 29853 29854 29855 29856 29857 29858 29859 29860 29861 29862 29863 29864 29865 29866 29867 29868 29869 29870 29871 29872 29873 29874 29875 29876 29877 29878 29879 29880 29881 29882 29883 29884 29885 29886 29887 29888 29889 29890 29891 29892 29893 29894 29895 29896 29897 29898 29899 29900 29901 29902 29903 29904 29905 29906 29907 29908 29909 29910 29911 29912 29913 29914 29915 29916 29917 29918 29919 29920 29921 29922 29923 29924 29925 29926 29927 29928 29929 29930 29931 29932 29933 29934 29935 29936 29937 29938 29939 29940 29941 29942 29943 29944 29945 29946 29947 29948 29949 29950 29951 29952 29953 29954 29955 29956 29957 29958 29959 29960 29961 29962 29963 29964 29965 29966 29967 29968 29969 29970 29971 29972 29973 29974 29975 29976 29977 29978 29979 29980 29981 29982 29983 29984 29985 29986 29987 29988 29989 29990 29991 29992 29993 29994 29995 29996 29997 29998 29999 30000 30001 30002 30003 30004 30005 30006 30007 30008 30009 30010 30011 30012 30013 30014 30015 30016 30017 30018 30019 30020 30021 30022 30023 30024 30025 30026 30027 30028 30029 30030 30031 30032 30033 30034 30035 30036 30037 30038 30039 30040 30041 30042 30043 30044 30045 30046 30047 30048 30049 30050 30051 30052 30053 30054 30055 30056 30057 30058 30059 30060 30061 30062 30063 30064 30065 30066 30067 30068 30069 30070 30071 30072 30073 30074 30075 30076 30077 30078 30079 30080 30081 30082 30083 30084 30085 30086 30087 30088 30089 30090 30091 30092 30093 30094 30095 30096 30097 30098 30099 30100 30101 30102 30103 30104 30105 30106 30107 30108 30109 30110 30111 30112 30113 30114 30115 30116 30117 30118 30119 30120 30121 30122 30123 30124 30125 30126 30127 30128 30129 30130 30131 30132 30133 30134 30135 30136 30137 30138 30139 30140 30141 30142 30143 30144 30145 30146 30147 30148 30149 30150 30151 30152 30153 30154 30155 30156 30157 30158 30159 30160 30161 30162 30163 30164 30165 30166 30167 30168 30169 30170 30171 30172 30173 30174 30175 30176 30177 30178 30179 30180 30181 30182 30183 30184 30185 30186 30187 30188 30189 30190 30191 30192 30193 30194 30195 30196 30197 30198 30199 30200 30201 30202 30203 30204 30205 30206 30207 30208 30209 30210 30211 30212 30213 30214 30215 30216 30217 30218 30219 30220 30221 30222 30223 30224 30225 30226 30227 30228 30229 30230 30231 30232 30233 30234 30235 30236 30237 30238 30239 30240 30241 30242 30243 30244 30245 30246 30247 30248 30249 30250 30251 30252 30253 30254 30255 30256 30257 30258 30259 30260 30261 30262 30263 30264 30265 30266 30267 30268 30269 30270 30271 30272 30273 30274 30275 30276 30277 30278 30279 30280 30281 30282 30283 30284 30285 30286 30287 30288 30289 30290 30291 30292 30293 30294 30295 30296 30297 30298 30299 30300 30301 30302 30303 30304 30305 30306 30307 30308 30309 30310 30311 30312 30313 30314 30315 30316 30317 30318 30319 30320 30321 30322 30323 30324 30325 30326 30327 30328 30329 30330 30331 30332 30333 30334 30335 30336 30337 30338 30339 30340 30341 30342 30343 30344 30345 30346 30347 30348 30349 30350 30351 30352 30353 30354 30355 30356 30357 30358 30359 30360 30361 30362 30363 30364 30365 30366 30367 30368 30369 30370 30371 30372 30373 30374 30375 30376 30377 30378 30379 30380 30381 30382 30383 30384 30385 30386 30387 30388 30389 30390 30391 30392 30393 30394 30395 30396 30397 30398 30399 30400 30401 30402 30403 30404 30405 30406 30407 30408 30409 30410 30411 30412 30413 30414 30415 30416 30417 30418 30419 30420 30421 30422 30423 30424 30425 30426 30427 30428 30429 30430 30431 30432 30433 30434 30435 30436 30437 30438 30439 30440 30441 30442 30443 30444 30445 30446 30447 30448 30449 30450 30451 30452 30453 30454 30455 30456 30457 30458 30459 30460 30461 30462 30463 30464 30465 30466 30467 30468 30469 30470 30471 30472 30473 30474 30475 30476 30477 30478 30479 30480 30481 30482 30483 30484 30485 30486 30487 30488 30489 30490 30491 30492 30493 30494 30495 30496 30497 30498 30499 30500 30501 30502 30503 30504 30505 30506 30507 30508 30509 30510 30511 30512 30513 30514 30515 30516 30517 30518 30519 30520 30521 30522 30523 30524 30525 30526 30527 30528 30529 30530 30531 30532 30533 30534 30535 30536 30537 30538 30539 30540 30541 30542 30543 30544 30545 30546 30547 30548 30549 30550 30551 30552 30553 30554 30555 30556 30557 30558 30559 30560 30561 30562 30563 30564 30565 30566 30567 30568 30569 30570 30571 30572 30573 30574 30575 30576 30577 30578 30579 30580 30581 30582 30583 30584 30585 30586 30587 30588 30589 30590 30591 30592 30593 30594 30595 30596 30597 30598 30599 30600 30601 30602 30603 30604 30605 30606 30607 30608 30609 30610 30611 30612 30613 30614 30615 30616 30617 30618 30619 30620 30621 30622 30623 30624 30625 30626 30627 30628 30629 30630 30631 30632 30633 30634 30635 30636 30637 30638 30639 30640 30641 30642 30643 30644 30645 30646 30647 30648 30649 30650 30651 30652 30653 30654 30655 30656 30657 30658 30659 30660 30661 30662 30663 30664 30665 30666 30667 30668 30669 30670 30671 30672 30673 30674 30675 30676 30677 30678 30679 30680 30681 30682 30683 30684 30685 30686 30687 30688 30689 30690 30691 30692 30693 30694 30695 30696 30697 30698 30699 30700 30701 30702 30703 30704 30705 30706 30707 30708 30709 30710 30711 30712 30713 30714 30715 30716 30717 30718 30719 30720 30721 30722 30723 30724 30725 30726 30727 30728 30729 30730 30731 30732 30733 30734 30735 30736 30737 30738 30739 30740 30741 30742 30743 30744 30745 30746 30747 30748 30749 30750 30751 30752 30753 30754 30755 30756 30757 30758 30759 30760 30761 30762 30763 30764 30765 30766 30767 30768 30769 30770 30771 30772 30773 30774 30775 30776 30777 30778 30779 30780 30781 30782 30783 30784 30785 30786 30787 30788 30789 30790 30791 30792 30793 30794 30795 30796 30797 30798 30799 30800 30801 30802 30803 30804 30805 30806 30807 30808 30809 30810 30811 30812 30813 30814 30815 30816 30817 30818 30819 30820 30821 30822 30823 30824 30825 30826 30827 30828 30829 30830 30831 30832 30833 30834 30835 30836 30837 30838 30839 30840 30841 30842 30843 30844 30845 30846 30847 30848 30849 30850 30851 30852 30853 30854 30855 30856 30857 30858 30859 30860 30861 30862 30863 30864 30865 30866 30867 30868 30869 30870 30871 30872 30873 30874 30875 30876 30877 30878 30879 30880 30881 30882 30883 30884 30885 30886 30887 30888 30889 30890 30891 30892 30893 30894 30895 30896 30897 30898 30899 30900 30901 30902 30903 30904 30905 30906 30907 30908 30909 30910 30911 30912 30913 30914 30915 30916 30917 30918 30919 30920 30921 30922 30923 30924 30925 30926 30927 30928 30929 30930 30931 30932 30933 30934 30935 30936 30937 30938 30939 30940 30941 30942 30943 30944 30945 30946 30947 30948 30949 30950 30951 30952 30953 30954 30955 30956 30957 30958 30959 30960 30961 30962 30963 30964 30965 30966 30967 30968 30969 30970 30971 30972 30973 30974 30975 30976 30977 30978 30979 30980 30981 30982 30983 30984 30985 30986 30987 30988 30989 30990 30991 30992 30993 30994 30995 30996 30997 30998 30999 31000 31001 31002 31003 31004 31005 31006 31007 31008 31009 31010 31011 31012 31013 31014 31015 31016 31017 31018 31019 31020 31021 31022 31023 31024 31025 31026 31027 31028 31029 31030 31031 31032 31033 31034 31035 31036 31037 31038 31039 31040 31041 31042 31043 31044 31045 31046 31047 31048 31049 31050 31051 31052 31053 31054 31055 31056 31057 31058 31059 31060 31061 31062 31063 31064 31065 31066 31067 31068 31069 31070 31071 31072 31073 31074 31075 31076 31077 31078 31079 31080 31081 31082 31083 31084 31085 31086 31087 31088 31089 31090 31091 31092 31093 31094 31095 31096 31097 31098 31099 31100 31101 31102 31103 31104 31105 31106 31107 31108 31109 31110 31111 31112 31113 31114 31115 31116 31117 31118 31119 31120 31121 31122 31123 31124 31125 31126 31127 31128 31129 31130 31131 31132 31133 31134 31135 31136 31137 31138 31139 31140 31141 31142 31143 31144 31145 31146 31147 31148 31149 31150 31151 31152 31153 31154 31155 31156 31157 31158 31159 31160 31161 31162 31163 31164 31165 31166 31167 31168 31169 31170 31171 31172 31173 31174 31175 31176 31177 31178 31179 31180 31181 31182 31183 31184 31185 31186 31187 31188 31189 31190 31191 31192 31193 31194 31195 31196 31197 31198 31199 31200 31201 31202 31203 31204 31205 31206 31207 31208 31209 31210 31211 31212 31213 31214 31215 31216 31217 31218 31219 31220 31221 31222 31223 31224 31225 31226 31227 31228 31229 31230 31231 31232 31233 31234 31235 31236 31237 31238 31239 31240 31241 31242 31243 31244 31245 31246 31247 31248 31249 31250 31251 31252 31253 31254 31255 31256 31257 31258 31259 31260 31261 31262 31263 31264 31265 31266 31267 31268 31269 31270 31271 31272 31273 31274 31275 31276 31277 31278 31279 31280 31281 31282 31283 31284 31285 31286 31287 31288 31289 31290 31291 31292 31293 31294 31295 31296 31297 31298 31299 31300 31301 31302 31303 31304 31305 31306 31307 31308 31309 31310 31311 31312 31313 31314 31315 31316 31317 31318 31319 31320 31321 31322 31323 31324 31325 31326 31327 31328 31329 31330 31331 31332 31333 31334 31335 31336 31337 31338 31339 31340 31341 31342 31343 31344 31345 31346 31347 31348 31349 31350 31351 31352 31353 31354 31355 31356 31357 31358 31359 31360 31361 31362 31363 31364 31365 31366 31367 31368 31369 31370 31371 31372 31373 31374 31375 31376 31377 31378 31379 31380 31381 31382 31383 31384 31385 31386 31387 31388 31389 31390 31391 31392 31393 31394 31395 31396 31397 31398 31399 31400 31401 31402 31403 31404 31405 31406 31407 31408 31409 31410 31411 31412 31413 31414 31415 31416 31417 31418 31419 31420 31421 31422 31423 31424 31425 31426 31427 31428 31429 31430 31431 31432 31433 31434 31435 31436 31437 31438 31439 31440 31441 31442 31443 31444 31445 31446 31447 31448 31449 31450 31451 31452 31453 31454 31455 31456 31457 31458 31459 31460 31461 31462 31463 31464 31465 31466 31467 31468 31469 31470 31471 31472 31473 31474 31475 31476 31477 31478 31479 31480 31481 31482 31483 31484 31485 31486 31487 31488 31489 31490 31491 31492 31493 31494 31495 31496 31497 31498 31499 31500 31501 31502 31503 31504 31505 31506 31507 31508 31509 31510 31511 31512 31513 31514 31515 31516 31517 31518 31519 31520 31521 31522 31523 31524 31525 31526 31527 31528 31529 31530 31531 31532 31533 31534 31535 31536 31537 31538 31539 31540 31541 31542 31543 31544 31545 31546 31547 31548 31549 31550 31551 31552 31553 31554 31555 31556 31557 31558 31559 31560 31561 31562 31563 31564 31565 31566 31567 31568 31569 31570 31571 31572 31573 31574 31575 31576 31577 31578 31579 31580 31581 31582 31583 31584 31585 31586 31587 31588 31589 31590 31591 31592 31593 31594 31595 31596 31597 31598 31599 31600 31601 31602 31603 31604 31605 31606 31607 31608 31609 31610 31611 31612 31613 31614 31615 31616 31617 31618 31619 31620 31621 31622 31623 31624 31625 31626 31627 31628 31629 31630 31631 31632 31633 31634 31635 31636 31637 31638 31639 31640 31641 31642 31643 31644 31645 31646 31647 31648 31649 31650 31651 31652 31653 31654 31655 31656 31657 31658 31659 31660 31661 31662 31663 31664 31665 31666 31667 31668 31669 31670 31671 31672 31673 31674 31675 31676 31677 31678 31679 31680 31681 31682 31683 31684 31685 31686 31687 31688 31689 31690 31691 31692 31693 31694 31695 31696 31697 31698 31699 31700 31701 31702 31703 31704 31705 31706 31707 31708 31709 31710 31711 31712 31713 31714 31715 31716 31717 31718 31719 31720 31721 31722 31723 31724 31725 31726 31727 31728 31729 31730 31731 31732 31733 31734 31735 31736 31737 31738 31739 31740 31741 31742 31743 31744 31745 31746 31747 31748 31749 31750 31751 31752 31753 31754 31755 31756 31757 31758 31759 31760 31761 31762 31763 31764 31765 31766 31767 31768 31769 31770 31771 31772 31773 31774 31775 31776 31777 31778 31779 31780 31781 31782 31783 31784 31785 31786 31787 31788 31789 31790 31791 31792 31793 31794 31795 31796 31797 31798 31799 31800 31801 31802 31803 31804 31805 31806 31807 31808 31809 31810 31811 31812 31813 31814 31815 31816 31817 31818 31819 31820 31821 31822 31823 31824 31825 31826 31827 31828 31829 31830 31831 31832 31833 31834 31835 31836 31837 31838 31839 31840 31841 31842 31843 31844 31845 31846 31847 31848 31849 31850 31851 31852 31853 31854 31855 31856 31857 31858 31859 31860 31861 31862 31863 31864 31865 31866 31867 31868 31869 31870 31871 31872 31873 31874 31875 31876 31877 31878 31879 31880 31881 31882 31883 31884 31885 31886 31887 31888 31889 31890 31891 31892 31893 31894 31895 31896 31897 
</DataArray>
<DataArray type="UInt32" Name="offsets" format="ascii">
3 6 9 12 15 17 20 23 26 29 32 35 38 40 43 46 49 52 54 57 60 62 65 68 71 74 76 79 82 85 88 90 93 96 99 102 105 108 111 114 117 120 123 126 129 131 134 137 139 142 145 148 151 154 156 159 162 165 168 171 174 177 179 182 185 188 191 193 196 199 202 205 208 211 214 217 220 222 225 228 230 233 236 238 241 244 247 250 252 255 258 261 264 267 270 273 275 277 279 282 285 287 290 293 296 299 302 304 307 310 313 316 319 322 325 328 331 334 337 340 343 345 348 351 354 356 359 362 365 368 371 374 376 379 382 385 388 391 394 397 400 403 406 409 412 415 418 421 424 427 430 433 436 439 442 445 448 451 453 456 459 462 464 467 470 472 475 478 481 484 487 490 493 496 499 502 505 507 510 513 516 519 522 525 528 531 533 536 539 542 545 548 551 554 557 559 562 565 568 571 574 577 580 583 586 588 591 594 597 600 603 606 609 612 615 618 621 624 627 630 633 636 639 642 645 648 651 654 657 659 662 665 668 670 673 675 678 680 683 686 688 691 694 697 699 702 704 707 709 712 714 716 719 721 724 727 729 732 734 737 740 743 745 748 750 752 755 758 760 763 766 769 771 774 776 778 780 783 785 788 791 794 796 799 801 803 805 808 811 813 815 818 821 824 827 829 832 834 837 840 842 845 848 851 853 856 858 860 862 865 868 871 873 876 878 880 882 884 887 890 893 895 897 900 903 905 907 909 912 914 917 920 923 926 928 931 934 937 940 943 946 949 951 954 957 960 963 966 969 971 973 976 979 982 984 987 990 993 995 998 1000 1003 1005 1007 1010 1013 1016 1019 1021 1024 1027 1029 1032 1035 1038 1041 1043 1046 1048 1051 1054 1057 1060 1063 1065 1067 1070 1073 1076 1079 1082 1085 1088 1091 1093 1096 1099 1102 1104 1107 1110 1112 1115 1117 1120 1123 1126 1129 1132 1135 1138 1141 1144 1147 1150 1152 1155 1157 1160 1162 1165 1168 1171 1173 1176 1178 1181 1183 1186 1189 1192 1195 1198 1201 1203 1206 1208 1211 1214 1217 1219 1222 1225 1228 1230 1233 1235 1237 1240 1243 1246 1249 1251 1254 1257 1260 1263 1265 1267 1270 1273 1275 1278 1280 1283 1285 1287 1290 1293 1296 1298 1301 1304 1307 1310 1312 1315 1318 1321 1324 1327 1330 1333 1336 1339 1342 1345 1347 1350 1353 1356 1359 1361 1364 1367 1370 1372 1375 1377 1379 1381 1384 1387 1390 1392 1394 1397 1399 1402 1405 1407 1410 1413 1416 1419 1421 1424 1427 1430 1433 1436 1439 1442 1445 1448 1451 1454 1456 1458 1461 1464 1466 1469 1472 1475 1477 1480 1483 1486 1489 1492 1495 1497 1500 1503 1506 1508 1511 1514 1517 1519 1522 1525 1528 1531 1534 1537 1540 1543 1546 1549 1552 1554 1557 1560 1563 1565 1568 1571 1574 1577 1580 1583 1586 1588 1591 1594 1597 1600 1603 1605 1608 1611 1614 1617 1620 1623 1626 1629 1632 1635 1638 1641 1644 1647 1650 1653 1656 1659 1662 1664 1667 1670 1673 1676 1678 1681 1684 1686 1689 1692 1695 1698 1701 1704 1707 1709 1712 1715 1718 1721 1724 1727 1730 1733 1735 1738 1740 1743 1746 1748 1751 1754 1757 1759 1762 1765 1767 1770 1773 1776 1778 1781 1783 1786 1789 1791 1794 1796 1799 1802 1805 1808 1811 1814 1817 1820 1823 1826 1829 1832 1835 1838 1841 1844 1847 1850 1853 1856 1859 1862 1864 1867 1869 1872 1874 1877 1880 1883 1886 1889 1892 1895 1898 1901 1904 1907 1910 1913 1916 1919 1921 1924 1927 1930 1933 1936 1939 1942 1945 1948 1950 1953 1956 1959 1962 1965 1968 1971 1974 1977 1980 1983 1986 1989 1992 1995 1998 2001 2004 2007 2010 2013 2016 2019 2022 2025 2028 2031 2034 2037 2039 2042 2045 2047 2050 2053 2056 2058 2060 2063 2065 2068 2071 2074 2077 2080 2082 2085 2088 2091 2094 2097 2099 2102 2105 2108 2111 2114 2117 2120 2123 2126 2129 2132 2135 2138 2141 2144 2147 2150 2153 2156 2159 2162 2165 2168 2171 2174 2177 2180 2183 2186 2189 2192 2195 2198 2201 2204 2207 2210 2213 2216 2219 2222 2225 2228 2231 2234 2237 2240 2243 2246 2248 2251 2254 2257 2260 2263 2266 2269 2272 2275 2278 2281 2284 2287 2290 2293 2295 2298 2301 2304 2307 2309 2312 2315 2318 2321 2324 2327 2330 2333 2336 2339 2342 2345 2348 2351 2354 2357 2360 2363 2366 2369 2372 2375 2378 2381 2384 2387 2390 2392 2395 2398 2400 2403 2405 2407 2409 2411 2414 2417 2419 2422 2425 2428 2431 2434 2437 2440 2443 2446 2449 2452 2455 2458 2461 2464 2467 2470 2472 2475 2478 2480 2483 2485 2488 2491 2494 2497 2499 2502 2504 2507 2510 2513 2516 2518 2521 2524 2527 2529 2532 2535 2538 2541 2544 2546 2549 2551 2554 2557 2559 2561 2564 2566 2569 2572 2575 2578 2581 2584 2587 2590 2593 2596 2599 2601 2604 2607 2610 2612 2615 2618 2621 2623 2626 2629 2631 2633 2635 2638 2641 2644 2647 2650 2653 2656 2659 2662 2665 2668 2670 2673 2676 2679 2682 2685 2688 2691 2694 2696 2698 2700 2703 2706 2709 2712 2715 2718 2721 2724 2726 2728 2731 2734 2737 2739 2742 2745 2747 2750 2753 2756 2759 2762 2765 2768 2771 2774 2777 2780 2782 2785 2788 2791 2794 2797 2800 2803 2806 2808 2811 2814 2817 2820 2823 2826 2829 2832 2835 2838 2840 2843 2845 2847 2849 2852 2855 2858 2861 2864 2867 2870 2872 2874 2877 2879 2882 2885 2888 2891 2894 2896 2899 2901 2903 2906 2909 2912 2914 2917 2919 2922 2925 2928 2931 2933 2936 2939 2942 2945 2948 2951 2954 2957 2960 2963 2966 2969 2972 2975 2978 2981 2984 2986 2989 2992 2995 2997 3000 3003 3006 3009 3012 3014 3017 3020 3023 3026 3029 3032 3034 3037 3039 3042 3045 3048 3051 3054 3057 3060 3063 3065 3068 3071 3074 3076 3079 3082 3085 3088 3091 3094 3097 3100 3103 3106 3109 3112 3115 3118 3121 3124 3127 3130 3133 3136 3139 3142 3145 3148 3151 3153 3155 3157 3160 3163 3166 3169 3171 3174 3177 3180 3183 3185 3188 3191 3194 3197 3200 3203 3206 3208 3211 3214 3217 3220 3223 3226 3229 3232 3234 3237 3240 3243 3246 3249 3252 3255 3258 3261 3264 3267 3270 3272 3275 3278 3281 3284 3287 3290 3292 3295 3298 3301 3304 3307 3310 3313 3316 3318 3321 3324 3327 3329 3332 3335 3338 3341 3344 3347 3350 3353 3356 3359 3362 3365 3367 3370 3373 3376 3379 3382 3385 3388 3391 3394 3397 3400 3403 3406 3409 3412 3415 3418 3421 3424 3427 3430 3433 3436 3439 3442 3445 3448 3451 3454 3457 3460 3463 3466 3469 3472 3475 3478 3481 3484 3487 3490 3493 3496 3499 3502 3505 3508 3510 3513 3516 3519 3522 3525 3528 3531 3534 3537 3540 3543 3546 3549 3552 3555 3558 3561 3564 3567 3570 3573 3576 3579 3582 3584 3587 3590 3593 3596 3599 3602 3605 3608 3611 3614 3616 3619 3622 3624 3627 3630 3633 3636 3639 3642 3645 3648 3651 3653 3656 3658 3661 3664 3667 3670 3672 3675 3678 3680 3683 3685 3688 3691 3694 3697 3700 3702 3705 3708 3711 3714 3717 3720 3723 3726 3728 3731 3734 3737 3740 3743 3746 3749 3752 3755 3758 3761 3764 3767 3770 3772 3775 3777 3779 3782 3785 3788 3791 3794 3796 3799 3802 3805 3808 3811 3814 3817 3820 3823 3826 3829 3832 3835 3838 3841 3843 3846 3849 3852 3855 3858 3861 3864 3867 3870 3873 3876 3879 3882 3885 3888 3891 3893 3896 3899 3902 3905 3908 3910 3912 3915 3918 3920 3923 3926 3929 3932 3935 3938 3941 3944 3947 3950 3952 3955 3958 3961 3964 3967 3970 3973 3976 3979 3981 3984 3986 3989 3992 3995 3998 4001 4003 4006 4009 4012 4015 4017 4020 4023 4026 4028 4031 4034 4037 4039 4042 4045 4047 4050 4053 4056 4059 4062 4065 4068 4071 4074 4077 4080 4083 4086 4089 4092 4095 4097 4100 4103 4106 4109 4112 4115 4118 4120 4123 4126 4129 4132 4135 4138 4141 4144 4147 4150 4153 4156 4159 4162 4165 4168 4171 4174 4177 4180 4183 4186 4189 4192 4195 4198 4201 4203 4206 4209 4212 4215 4217 4220 4223 4226 4228 4231 4234 4237 4240 4243 4246 4249 4252 4255 4257 4260 4262 4265 4268 4271 4274 4277 4280 4283 4286 4289 4292 4295 4298 4301 4304 4307 4310 4313 4316 4318 4320 4323 4326 4329 4331 4334 4337 4339 4342 4345 4347 4350 4353 4356 4358 4361 4364 4366 4369 4372 4375 4378 4381 4384 4387 4390 4393 4396 4399 4402 4405 4408 4411 4414 4417 4420 4423 4426 4428 4431 4433 4436 4439 4442 4445 4448 4451 4454 4457 4460 4463 4466 4468 4471 4473 4476 4479 4482 4484 4487 4490 4493 4496 4499 4501 4504 4507 4510 4513 4516 4519 4521 4524 4527 4530 4533 4536 4539 4542 4545 4548 4551 4554 4556 4559 4562 4565 4568 4571 4574 4577 4580 4582 4585 4588 4591 4593 4596 4599 4601 4604 4607 4610 4613 4616 4618 4621 4624 4627 4630 4633 4636 4639 4642 4645 4647 4650 4653 4655 4658 4660 4663 4665 4667 4669 4672 4674 4677 4680 4683 4686 4689 4692 4694 4697 4700 4703 4706 4709 4712 4714 4717 4720 4723 4726 4729 4732 4735 4737 4740 4743 4746 4749 4751 4754 4757 4760 4763 4766 4768 4771 4773 4776 4779 4782 4785 4788 4791 4794 4797 4800 4803 4805 4808 4811 4814 4817 4820 4823 4826 4828 4831 4834 4837 4840 4843 4846 4849 4851 4854 4856 4859 4862 4865 4868 4871 4874 4877 4880 4882 4885 4888 4891 4893 4895 4898 4901 4904 4907 4910 4912 4914 4917 4919 4922 4925 4927 4930 4933 4935 4938 4941 4944 4947 4950 4953 4956 4959 4961 4964 4967 4970 4973 4976 4978 4981 4984 4987 4990 4992 4995 4998 5000 5003 5006 5009 5012 5015 5018 5021 5024 5027 5030 5033 5036 5039 5042 5045 5048 5051 5054 5057 5060 5063 5066 5069 5072 5075 5078 5081 5084 5087 5090 5093 5096 5099 5102 5105 5108 5111 5114 5117 5120 5123 5125 5128 5131 5133 5136 5139 5142 5145 5148 5150 5153 5156 5159 5162 5164 5167 5170 5173 5176 5179 5182 5185 5188 5191 5194 5197 5200 5203 5206 5209 5212 5215 5218 5221 5224 5227 5230 5233 5236 5238 5241 5244 5247 5249 5252 5255 5258 5261 5264 5267 5269 5272 5275 5278 5281 5284 5287 5290 5293 5296 5299 5302 5304 5307 5309 5311 5314 5317 5319 5322 5325 5328 5331 5334 5337 5340 5343 5346 5349 5352 5354 5357 5360 5362 5365 5368 5371 5374 5377 5380 5383 5386 5389 5392 5395 5398 5401 5404 5407 5409 5412 5415 5418 5421 5424 5427 5430 5432 5435 5437 5440 5443 5446 5449 5451 5454 5456 5459 5462 5465 5468 5471 5474 5477 5480 5483 5485 5488 5491 5494 5497 5500 5503 5506 5509 5512 5515 5518 5521 5524 5527 5530 5533 5536 5538 5541 5544 5547 5550 5553 5556 5559 5562 5565 5568 5571 5574 5577 5580 5583 5586 5589 5592 5595 5598 5601 5604 5607 5610 5613 5615 5617 5620 5623 5626 5629 5632 5635 5638 5641 5644 5647 5650 5652 5655 5658 5661 5664 5666 5669 5672 5675 5678 5680 5683 5686 5689 5692 5695 5698 5701 5704 5706 5709 5712 5715 5718 5721 5724 5727 5730 5733 5735 5738 5741 5744 5747 5750 5753 5756 5759 5762 5765 5768 5771 5774 5777 5780 5783 5786 5789 5792 5795 5797 5800 5803 5806 5809 5812 5815 5818 5821 5824 5827 5830 5833 5836 5839 5841 5844 5846 5849 5852 5855 5858 5861 5864 5867 5870 5872 5875 5878 5880 5883 5886 5889 5892 5895 5898 5901 5904 5907 5910 5913 5916 5919 5922 5925 5928 5931 5934 5937 5940 5943 5946 5949 5952 5955 5958 5961 5964 5967 5970 5973 5976 5979 5982 5985 5988 5990 5993 5996 5998 6001 6004 6007 6010 6012 6015 6017 6020 6023 6025 6028 6030 6033 6036 6039 6042 6045 6047 6050 6053 6056 6059 6062 6065 6068 6071 6074 6077 6080 6083 6085 6088 6091 6094 6096 6099 6102 6105 6108 6111 6114 6117 6120 6123 6125 6128 6131 6134 6137 6139 6141 6144 6147 6150 6153 6156 6159 6162 6165 6167 6170 6173 6176 6179 6182 6184 6187 6190 6193 6195 6198 6201 6204 6206 6209 6212 6215 6218 6220 6223 6226 6229 6232 6235 6238 6241 6244 6247 6250 6253 6256 6259 6262 6264 6267 6270 6273 6276 6279 6282 6284 6287 6289 6291 6294 6296 6299 6301 6304 6307 6310 6313 6315 6318 6321 6324 6327 6329 6332 6335 6338 6341 6344 6347 6350 6353 6356 6358 6361 6364 6367 6370 6373 6376 6379 6382 6385 6388 6391 6394 6397 6400 6402 6405 6408 6411 6413 6416 6419 6422 6424 6427 6429 6432 6435 6438 6441 6444 6447 6450 6453 6456 6459 6462 6465 6468 6471 6474 6477 6479 6482 6485 6488 6491 6494 6497 6499 6502 6505 6508 6511 6514 6517 6520 6523 6526 6529 6532 6535 6538 6541 6544 6547 6550 6553 6555 6558 6561 6564 6567 6570 6573 6576 6579 6582 6585 6588 6591 6594 6597 6600 6603 6606 6609 6612 6615 6618 6621 6624 6627 6630 6633 6636 6639 6642 6645 6648 6651 6654 6657 6659 6662 6665 6668 6671 6673 6676 6679 6682 6685 6688 6691 6694 6696 6699 6702 6705 6708 6711 6714 6717 6720 6723 6725 6728 6731 6733 6736 6739 6742 6745 6748 6750 6753 6756 6759 6761 6764 6767 6769 6772 6775 6778 6781 6784 6787 6790 6793 6796 6799 6802 6805 6808 6811 6814 6817 6820 6823 6826 6829 6831 6834 6837 6840 6843 6846 6849 6852 6855 6858 6861 6863 6865 6868 6870 6873 6876 6879 6882 6885 6887 6890 6893 6896 6899 6901 6904 6907 6910 6913 6916 6918 6921 6923 6926 6929 6931 6934 6937 6940 6943 6946 6949 6952 6955 6957 6960 6963 6966 6969 6972 6975 6977 6980 6983 6986 6989 6992 6995 6997 7000 7003 7006 7009 7011 7014 7017 7019 7022 7024 7027 7030 7032 7035 7038 7041 7044 7047 7050 7052 7055 7058 7061 7064 7066 7069 7072 7075 7078 7081 7084 7087 7090 7092 7094 7097 7100 7103 7106 7109 7112 7115 7118 7120 7123 7126 7129 7132 7135 7138 7140 7143 7146 7149 7152 7155 7158 7161 7163 7166 7169 7172 7174 7177 7180 7183 7186 7189 7192 7195 7198 7201 7204 7207 7210 7212 7215 7218 7221 7224 7226 7229 7232 7234 7237 7240 7243 7246 7248 7251 7254 7257 7259 7261 7264 7267 7270 7272 7275 7278 7281 7283 7286 7289 7292 7295 7298 7301 7304 7307 7310 7312 7315 7318 7321 7323 7326 7329 7332 7335 7338 7341 7344 7347 7350 7353 7356 7359 7361 7364 7366 7369 7372 7374 7377 7380 7382 7385 7388 7391 7394 7397 7400 7403 7405 7408 7411 7414 7417 7420 7422 7425 7427 7430 7433 7436 7438 7440 7443 7445 7447 7450 7452 7455 7458 7461 7464 7467 7470 7472 7475 7477 7480 7483 7486 7489 7492 7495 7498 7501 7504 7507 7510 7513 7516 7518 7521 7524 7526 7529 7531 7534 7537 7539 7542 7545 7548 7550 7552 7555 7558 7560 7563 7566 7569 7572 7575 7578 7581 7584 7587 7590 7593 7596 7599 7602 7605 7608 7611 7614 7617 7620 7623 7626 7629 7631 7633 7636 7638 7641 7643 7646 7649 7651 7653 7656 7659 7661 7664 7667 7669 7672 7675 7677 7680 7682 7685 7688 7691 7694 7696 7699 7702 7705 7708 7710 7713 7715 7717 7720 7722 7725 7728 7730 7732 7735 7738 7741 7743 7746 7749 7752 7755 7757 7759 7762 7765 7768 7771 7774 7776 7779 7782 7785 7788 7791 7794 7797 7800 7803 7806 7809 7811 7814 7816 7819 7821 7824 7827 7829 7832 7834 7837 7840 7843 7846 7849 7852 7855 7858 7860 7863 7866 7868 7871 7874 7877 7880 7882 7885 7888 7891 7894 7897 7900 7903 7906 7909 7912 7915 7918 7920 7923 7926 7929 7932 7935 7938 7941 7944 7947 7950 7953 7955 7958 7961 7964 7967 7970 7973 7975 7978 7980 7983 7986 7988 7991 7994 7997 8000 8003 8006 8009 8012 8015 8018 8021 8024 8027 8030 8033 8036 8039 8041 8043 8046 8049 8052 8054 8057 8060 8062 8065 8068 8071 8074 8077 8080 8083 8086 8089 8092 8095 8098 8101 8104 8107 8110 8113 8116 8119 8122 8125 8128 8131 8134 8137 8139 8141 8144 8147 8150 8153 8156 8159 8162 8165 8168 8171 8174 8176 8179 8182 8185 8188 8191 8194 8197 8200 8203 8206 8209 8212 8215 8218 8221 8224 8227 8230 8233 8236 8239 8242 8245 8248 8251 8254 8257 8260 8263 8266 8269 8272 8275 8277 8280 8283 8286 8289 8292 8294 8297 8300 8302 8305 8308 8310 8312 8315 8318 8321 8324 8327 8330 8333 8336 8339 8342 8345 8348 8351 8353 8356 8359 8361 8364 8367 8370 8373 8376 8379 8381 8384 8387 8389 8392 8395 8398 8401 8404 8407 8410 8413 8416 8419 8422 8425 8428 8430 8433 8436 8439 8442 8445 8448 8451 8453 8456 8459 8462 8465 8468 8471 8474 8477 8480 8483 8486 8489 8491 8494 8497 8499 8502 8505 8508 8511 8514 8517 8520 8523 8526 8529 8532 8535 8538 8541 8544 8547 8550 8553 8556 8559 8561 8564 8567 8569 8572 8574 8577 8580 8583 8585 8588 8591 8593 8596 8598 8601 8604 8607 8609 8612 8615 8618 8621 8623 8626 8629 8632 8635 8638 8641 8644 8646 8649 8652 8655 8657 8660 8663 8666 8669 8672 8675 8678 8681 8684 8687 8690 8693 8695 8698 8701 8704 8707 8710 8713 8716 8719 8721 8724 8727 8730 8733 8736 8739 8742 8745 8748 8751 8754 8756 8759 8762 8765 8768 8771 8774 8777 8780 8783 8786 8789 8792 8795 8798 8801 8804 8807 8810 8813 8815 8817 8820 8823 8826 8828 8831 8834 8837 8840 8843 8846 8849 8852 8855 8858 8861 8864 8866 8869 8872 8875 8878 8881 8884 8887 8890 8893 8895 8898 8901 8904 8907 8910 8913 8916 8919 8922 8925 8928 8931 8934 8937 8940 8943 8945 8948 8950 8953 8956 8959 8962 8965 8967 8970 8973 8976 8979 8981 8984 8987 8990 8992 8995 8998 9001 9003 9006 9009 9012 9015 9018 9021 9024 9027 9030 9032 9035 9038 9041 9043 9046 9049 9051 9054 9057 9060 9063 9066 9069 9071 9074 9077 9080 9083 9086 9089 9092 9095 9097 9100 9103 9106 9108 9111 9114 9117 9120 9123 9126 9129 9132 9135 9138 9141 9144 9147 9150 9153 9156 9159 9162 9165 9168 9171 9174 9177 9180 9183 9186 9189 9191 9194 9197 9200 9203 9206 9209 9212 9214 9217 9220 9223 9226 9229 9232 9235 9238 9241 9244 9247 9250 9253 9256 9259 9262 9265 9268 9271 9274 9277 9280 9283 9286 9289 9291 9294 9296 9299 9302 9305 9308 9311 9314 9316 9319 9322 9325 9327 9330 9333 9335 9338 9341 9344 9347 9350 9353 9356 9359 9362 9365 9368 9371 9373 9376 9379 9382 9385 9388 9390 9393 9396 9399 9402 9405 9408 9411 9414 9417 9420 9423 9426 9429 9431 9434 9437 9440 9442 9445 9448 9451 9454 9457 9460 9463 9466 9469 9472 9475 9478 9480 9482 9485 9488 9491 9494 9496 9499 9502 9505 9508 9511 9514 9517 9520 9523 9525 9527 9530 9533 9536 9539 9542 9544 9547 9550 9553 9556 9559 9561 9564 9567 9570 9573 9576 9578 9581 9583 9586 9589 9592 9595 9597 9600 9602 9605 9607 9609 9612 9615 9618 9621 9624 9627 9630 9632 9634 9637 9640 9643 9646 9649 9652 9654 9656 9658 9661 9663 9665 9668 9671 9674 9676 9679 9682 9685 9688 9691 9693 9695 9697 9700 9702 9705 9708 9711 9713 9716 9718 9720 9723 9726 9729 9732 9735 9738 9741 9743 9745 9748 9751 9753 9755 9757 9760 9763 9766 9769 9772 9775 9778 9781 9784 9787 9790 9793 9796 9799 9802 9805 9808 9811 9814 9817 9820 9823 9826 9829 9832 9835 9838 9841 9844 9847 9850 9853 9856 9859 9862 9865 9868 9871 9874 9877 9879 9882 9885 9888 9891 9894 9897 9900 9903 9906 9909 9911 9914 9917 9920 9923 9926 9929 9931 9934 9937 9939 9942 9945 9948 9951 9954 9957 9960 9963 9966 9969 9972 9975 9978 9980 9983 9985 9988 9991 9994 9997 9999 10002 10005 10008 10010 10013 10016 10018 10021 10024 10027 10029 10032 10035 10037 10040 10043 10046 10049 10052 10054 10057 10060 10063 10066 10069 10072 10075 10077 10080 10083 10086 10089 10092 10095 10098 10100 10103 10106 10108 10111 10114 10117 10120 10122 10125 10127 10130 10133 10136 10139 10142 10144 10147 10150 10153 10156 10158 10161 10164 10167 10170 10173 10176 10178 10180 10183 10186 10189 10192 10195 10197 10200 10203 10205 10208 10211 10214 10217 10220 10223 10226 10229 10232 10235 10237 10240 10243 10246 10249 10252 10255 10258 10261 10264 10267 10270 10273 10276 10279 10282 10285 10288 10291 10293 10296 10299 10302 10305 10308 10311 10313 10316 10319 10322 10325 10328 10331 10334 10336 10338 10341 10344 10347 10350 10352 10355 10358 10361 10364 10367 10370 10373 10375 10378 10381 10383 10386 10388 10390 10392 10395 10398 10401 10404 10407 10410 10412 10415 10418 10421 10424 10427 10429 10432 10435 10438 10441 10443 10446 10449 10452 10454 10457 10460 10463 10465 10468 10471 10474 10477 10480 10483 10486 10489 10492 10495 10498 10501 10504 10507 10510 10513 10516 10519 10522 10525 10528 10531 10534 10537 10540 10542 10545 10548 10551 10554 10557 10560 10563 10565 10568 10570 10573 10576 10579 10582 10585 10588 10590 10593 10596 10598 10601 10604 10607 10609 10612 10615 10617 10620 10623 10626 10629 10632 10634 10637 10640 10643 10645 10647 10650 10653 10656 10659 10662 10665 10668 10671 10674 10677 10680 10683 10685 10688 10691 10694 10697 10700 10703 10706 10709 10712 10714 10717 10720 10723 10726 10729 10731 10733 10736 10739 10742 10745 10748 10751 10754 10757 10760 10762 10765 10768 10771 10774 10777 10780 10783 10786 10788 10791 10794 10797 10800 10803 10806 10809 10812 10815 10818 10821 10824 10827 10830 10833 10836 10839 10842 10844 10847 10850 10853 10856 10858 10861 10863 10866 10868 10871 10874 10877 10880 10883 10886 10889 10892 10895 10898 10901 10904 10907 10910 10913 10916 10919 10921 10924 10927 10930 10933 10936 10938 10941 10944 10947 10949 10951 10954 10957 10960 10963 10966 10968 10971 10974 10977 10980 10982 10985 10988 10991 10994 10997 11000 11003 11006 11008 11011 11014 11017 11020 11023 11026 11029 11031 11034 11037 11040 11043 11046 11049 11052 11055 11058 11060 11063 11066 11069 11072 11075 11078 11081 11084 11087 11090 11093 11096 11099 11102 11105 11108 11111 11114 11116 11119 11122 11125 11128 11131 11134 11137 11140 11143 11146 11149 11152 11155 11157 11160 11163 11166 11169 11172 11175 11177 11180 11183 11185 11188 11191 11193 11196 11199 11202 11205 11208 11211 11214 11217 11220 11223 11226 11229 11232 11235 11238 11241 11244 11247 11250 11253 11256 11259 11262 11265 11268 11271 11273 11276 11278 11281 11283 11285 11288 11291 11294 11296 11299 11302 11305 11308 11311 11314 11317 11320 11323 11325 11327 11330 11332 11335 11338 11341 11344 11347 11350 11353 11356 11359 11362 11365 11368 11371 11374 11376 11379 11381 11383 11386 11388 11391 11394 11397 11400 11403 11406 11409 11412 11415 11417 11419 11422 11425 11428 11431 11434 11437 11440 11443 11446 11449 11452 11455 11458 11461 11464 11467 11470 11473 11476 11479 11482 11485 11487 11490 11493 11496 11499 11502 11504 11507 11510 11513 11516 11519 11521 11524 11527 11530 11532 11535 11538 11541 11544 11547 11550 11553 11556 11559 11561 11564 11567 11570 11573 11575 11578 11581 11584 11587 11590 11593 11595 11598 11601 11604 11607 11610 11613 11616 11618 11621 11624 11627 11630 11632 11635 11638 11641 11644 11647 11650 11653 11656 11659 11662 11664 11667 11670 11673 11676 11678 11681 11684 11687 11689 11692 11695 11698 11701 11704 11706 11709 11712 11715 11718 11721 11724 11727 11730 11733 11736 11739 11742 11745 11748 11750 11752 11755 11758 11760 11763 11766 11769 11772 11775 11778 11781 11783 11786 11789 11792 11795 11798 11801 11803 11806 11809 11812 11815 11818 11821 11824 11827 11830 11833 11836 11839 11842 11845 11848 11851 11854 11857 11860 11863 11866 11869 11872 11874 11877 11880 11883 11886 11889 11892 11895 11898 11900 11903 11906 11909 11912 11914 11917 11920 11923 11926 11929 11931 11934 11936 11939 11941 11944 11947 11950 11953 11956 11959 11962 11964 11967 11970 11973 11975 11978 11981 11984 11987 11990 11992 11995 11998 12001 12004 12007 12009 12012 12014 12017 12020 12022 12025 12027 12030 12033 12036 12039 12042 12044 12047 12050 12053 12055 12058 12061 12064 12067 12070 12073 12076 12079 12082 12085 12087 12090 12093 12096 12099 12102 12105 12108 12111 12114 12117 12120 12123 12126 12129 12132 12135 12138 12141 12144 12147 12150 12153 12155 12158 12161 12164 12167 12170 12173 12176 12179 12182 12185 12188 12191 12194 12197 12200 12203 12206 12209 12211 12214 12217 12220 12222 12225 12228 12231 12234 12237 12240 12242 12245 12248 12251 12253 12255 12258 12260 12263 12265 12267 12270 12272 12275 12278 12280 12283 12286 12288 12290 12293 12296 12299 12302 12305 12308 12311 12314 12316 12319 12321 12324 12327 12330 12333 12336 12339 12342 12345 12348 12351 12354 12357 12360 12363 12366 12369 12372 12375 12378 12381 12384 12387 12389 12392 12395 12398 12401 12404 12407 12410 12413 12415 12418 12421 12423 12426 12429 12431 12433 12436 12439 12441 12444 12447 12450 12453 12456 12459 12462 12465 12468 12471 12474 12477 12480 12483 12486 12489 12492 12495 12498 12501 12504 12507 12510 12513 12516 12519 12522 12525 12528 12531 12534 12537 12540 12543 12546 12549 12552 12555 12558 12560 12563 12565 12568 12571 12574 12577 12580 12583 12586 12589 12592 12595 12598 12601 12604 12607 12610 12613 12616 12619 12622 12625 12628 12631 12634 12637 12640 12643 12646 12649 12652 12655 12658 12661 12664 12667 12670 12673 12676 12679 12682 12685 12687 12690 12693 12695 12698 12701 12704 12707 12710 12712 12715 12717 12720 12723 12725 12728 12731 12734 12737 12740 12743 12745 12748 12751 12754 12757 12760 12763 12766 12769 12772 12775 12778 12780 12783 12786 12788 12790 12793 12795 12798 12801 12803 12806 12809 12812 12815 12817 12820 12823 12826 12829 12832 12835 12838 12841 12844 12846 12849 12851 12854 12857 12860 12863 12866 12869 12872 12874 12877 12879 12882 12885 12888 12891 12894 12897 12900 12903 12906 12908 12911 12913 12916 12919 12922 12925 12928 12931 12934 12937 12940 12943 12945 12948 12951 12954 12956 12959 12962 12964 12967 12970 12972 12975 12978 12981 12984 12986 12989 12992 12995 12997 13000 13003 13006 13009 13012 13015 13018 13021 13024 13027 13030 13033 13036 13039 13041 13044 13047 13050 13053 13056 13059 13061 13064 13066 13069 13071 13074 13077 13080 13082 13085 13088 13091 13094 13097 13100 13103 13106 13108 13111 13114 13117 13120 13123 13125 13128 13131 13133 13136 13139 13142 13145 13148 13151 13154 13157 13160 13162 13165 13168 13171 13173 13176 13179 13182 13185 13188 13191 13193 13196 13199 13202 13205 13208 13211 13214 13217 13220 13223 13226 13229 13232 13235 13238 13241 13244 13247 13250 13253 13256 13259 13262 13265 13268 13271 13274 13277 13280 13283 13286 13288 13291 13294 13297 13300 13303 13305 13308 13311 13313 13315 13318 13321 13324 13327 13329 13332 13335 13338 13341 13344 13346 13349 13352 13355 13358 13361 13364 13367 13370 13373 13376 13379 13382 13385 13388 13391 13394 13396 13399 13402 13405 13408 13411 13414 13417 13420 13422 13424 13427 13430 13433 13436 13439 13442 13444 13447 13450 13453 13456 13458 13461 13464 13467 13470 13473 13476 13479 13482 13485 13488 13491 13494 13497 13500 13503 13506 13509 13512 13515 13518 13521 13524 13527 13530 13532 13535 13538 13540 13543 13546 13549 13552 13555 13558 13561 13564 13567 13570 13573 13576 13579 13582 13585 13588 13591 13594 13597 13600 13603 13606 13609 13612 13615 13618 13621 13623 13626 13628 13631 13634 13637 13640 13643 13645 13648 13651 13654 13657 13660 13663 13666 13669 13672 13675 13678 13681 13684 13687 13690 13693 13696 13699 13702 13705 13707 13709 13712 13714 13717 13720 13723 13726 13729 13732 13735 13738 13741 13744 13747 13750 13753 13756 13759 13762 13764 13767 13770 13773 13775 13778 13781 13784 13787 13790 13793 13796 13799 13802 13805 13808 13811 13814 13816 13819 13822 13825 13828 13831 13834 13837 13840 13843 13846 13849 13852 13855 13858 13861 13864 13867 13870 13873 13876 13879 13882 13884 13887 13890 13893 13896 13899 13902 13905 13908 13911 13914 13917 13920 13923 13925 13928 13930 13933 13936 13938 13940 13943 13946 13949 13952 13955 13958 13961 13964 13967 13970 13973 13976 13979 13982 13985 13988 13991 13994 13997 14000 14002 14005 14008 14010 14013 14016 14019 14021 14024 14027 14030 14033 14036 14039 14041 14044 14047 14050 14052 14055 14058 14061 14064 14067 14070 14073 14076 14078 14081 14084 14086 14089 14092 14094 14097 14099 14102 14105 14108 14111 14113 14115 14118 14121 14123 14125 14128 14131 14133 14136 14139 14142 14145 14147 14150 14153 14155 14157 14160 14162 14165 14168 14171 14174 14177 14180 14183 14186 14189 14192 14195 14198 14201 14204 14207 14210 14213 14216 14219 14222 14224 14227 14230 14233 14236 14238 14241 14244 14247 14250 14252 14254 14257 14260 14263 14266 14269 14272 14275 14278 14281 14284 14287 14290 14292 14295 14298 14301 14303 14306 14309 14312 14315 14318 14321 14324 14326 14329 14332 14335 14337 14340 14343 14345 14347 14350 14353 14356 14358 14361 14364 14367 14369 14372 14375 14378 14381 14384 14387 14390 14393 14396 14399 14402 14405 14408 14411 14414 14417 14420 14423 14425 14428 14431 14434 14437 14440 14443 14446 14449 14452 14455 14458 14461 14464 14467 14470 14473 14476 14479 14481 14483 14486 14489 14492 14495 14498 14500 14502 14505 14507 14510 14513 14516 14519 14522 14525 14528 14531 14534 14536 14539 14542 14545 14547 14550 14553 14556 14559 14562 14565 14568 14571 14574 14577 14580 14583 14586 14589 14591 14594 14597 14600 14603 14606 14609 14612 14614 14617 14620 14622 14625 14628 14631 14634 14637 14640 14642 14645 14648 14651 14654 14656 14659 14662 14665 14668 14671 14674 14676 14679 14682 14685 14688 14691 14694 14697 14700 14702 14704 14707 14710 14713 14715 14717 14720 14723 14726 14729 14732 14734 14737 14740 14743 14746 14749 14752 14754 14757 14760 14763 14766 14768 14771 14774 14777 14780 14783 14785 14788 14791 14794 14797 14799 14802 14805 14808 14811 14814 14817 14820 14823 14826 14829 14832 14835 14838 14841 14844 14847 14850 14853 14856 14859 14862 14865 14868 14871 14874 14876 14879 14882 14885 14888 14890 14893 14895 14898 14900 14903 14906 14908 14911 14914 14916 14919 14922 14924 14927 14930 14933 14936 14939 14942 14944 14947 14950 14952 14955 14957 14959 14961 14964 14967 14969 14972 14974 14976 14979 14982 14985 14987 14990 14992 14995 14998 15001 15004 15007 15010 15012 15015 15018 15021 15023 15026 15029 15032 15035 15038 15041 15044 15046 15049 15052 15055 15057 15060 15062 15064 15067 15070 15073 15076 15079 15082 15085 15087 15090 15093 15096 15099 15102 15105 15108 15111 15113 15115 15118 15121 15124 15127 15129 15132 15135 15137 15140 15143 15146 15148 15151 15154 15157 15159 15161 15164 15167 15170 15173 15175 15178 15181 15184 15187 15190 15192 15194 15197 15200 15203 15206 15209 15212 15215 15218 15221 15224 15227 15230 15233 15236 15239 15242 15245 15248 15251 15254 15257 15260 15263 15266 15269 15272 15275 15278 15281 15284 15287 15289 15292 15295 15298 15300 15303 15306 15309 15312 15315 15318 15321 15324 15327 15330 15333 15336 15339 15342 15345 15347 15350 15352 15354 15357 15360 15362 15365 15368 15371 15374 15377 15380 15383 15386 15389 15392 15395 15398 15401 15404 15407 15410 15413 15416 15419 15422 15425 15428 15431 15433 15436 15439 15441 15443 15446 15449 15452 15455 15458 15461 15464 15466 15469 15472 15475 15477 15480 15483 15486 15489 15491 15493 15496 15499 15502 15505 15508 15511 15514 15516 15519 15522 15525 15528 15530 15533 15536 15539 15542 15544 15547 15550 15553 15556 15559 15562 15565 15568 15571 15574 15577 15580 15583 15586 15589 15592 15595 15598 15601 15603 15606 15609 15612 15615 15618 15621 15624 15627 15630 15633 15636 15639 15642 15645 15648 15651 15653 15656 15659 15662 15664 15667 15670 15673 15676 15679 15682 15685 15688 15691 15693 15696 15699 15702 15705 15708 15711 15714 15717 15720 15723 15726 15729 15732 15735 15738 15741 15744 15747 15750 15753 15756 15758 15761 15764 15767 15770 15773 15776 15779 15782 15785 15788 15791 15794 15797 15800 15803 15806 15809 15811 15814 15817 15820 15823 15826 15828 15831 15834 15837 15840 15843 15846 15849 15852 15855 15858 15861 15864 15867 15870 15873 15876 15879 15882 15885 15888 15891 15894 15897 15900 15903 15906 15909 15911 15914 15917 15919 15922 15925 15928 15930 15933 15936 15939 15942 15945 15948 15951 15954 15957 15960 15963 15966 15969 15972 15975 15977 15980 15982 15985 15988 15991 15994 15997 16000 16003 16006 16009 16011 16014 16017 16020 16023 16026 16029 16032 16035 16038 16040 16042 16045 16048 16051 16054 16057 16060 16063 16066 16069 16072 16075 16078 16081 16084 16087 16090 16093 16096 16099 16102 16105 16108 16111 16114 16117 16120 16123 16126 16129 16132 16135 16138 16141 16144 16147 16150 16153 16156 16159 16162 16165 16168 16171 16174 16177 16180 16183 16186 16189 16192 16195 16198 16201 16204 16207 16210 16213 16216 16219 16222 16225 16228 16231 16234 16237 16240 16243 16246 16249 16252 16255 16257 16260 16263 16266 16269 16272 16275 16277 16280 16283 16286 16289 16292 16295 16298 16301 16304 16306 16309 16311 16314 16317 16320 16323 16326 16329 16332 16335 16338 16341 16344 16347 16350 16353 16356 16359 16362 16365 16368 16371 16374 16377 16380 16383 16386 16389 16392 16395 16398 16401 16404 16407 16410 16413 16415 16418 16421 16424 16426 16428 16431 16434 16437 16440 16443 16446 16449 16452 16455 16458 16461 16464 16467 16470 16473 16476 16479 16482 16485 16488 16491 16494 16496 16498 16501 16504 16507 16510 16513 16516 16519 16522 16524 16527 16530 16533 16536 16539 16542 16544 16547 16550 16553 16556 16559 16561 16564 16567 16570 16573 16575 16578 16581 16584 16586 16589 16592 16595 16597 16600 16603 16605 16608 16611 16614 16617 16620 16623 16626 16629 16632 16635 16638 16641 16644 16646 16649 16652 16655 16658 16661 16664 16667 16670 16672 16675 16678 16681 16684 16687 16690 16693 16696 16699 16702 16705 16707 16710 16713 16716 16718 16721 16724 16727 16730 16732 16735 16738 16741 16744 16747 16750 16753 16756 16758 16761 16763 16766 16769 16771 16774 16777 16780 16783 16786 16788 16791 16794 16797 16800 16803 16806 16809 16812 16815 16818 16821 16824 16826 16829 16832 16835 16838 16841 16844 16847 16850 16853 16855 16858 16861 16864 16867 16870 16873 16875 16878 16881 16884 16887 16890 16893 16896 16898 16901 16904 16907 16910 16913 16915 16918 16921 16924 16927 16930 16933 16936 16939 16942 16945 16948 16951 16954 16957 16960 16963 16966 16969 16972 16975 16978 16981 16984 16987 16990 16993 16996 16999 17002 17005 17008 17011 17014 17017 17020 17023 17026 17029 17032 17035 17038 17041 17044 17047 17050 17053 17056 17058 17061 17063 17066 17069 17072 17075 17078 17081 17084 17087 17090 17093 17096 17099 17102 17105 17107 17110 17113 17116 17119 17122 17125 17128 17131 17134 17137 17140 17143 17146 17149 17152 17154 17157 17160 17162 17165 17167 17170 17173 17176 17179 17182 17184 17187 17190 17193 17196 17199 17202 17205 17208 17211 17214 17217 17220 17223 17226 17229 17232 17235 17238 17241 17244 17246 17249 17252 17255 17258 17261 17264 17267 17270 17273 17276 17279 17281 17284 17286 17289 17292 17294 17297 17299 17302 17305 17308 17311 17314 17317 17320 17322 17325 17327 17330 17333 17336 17339 17341 17344 17347 17350 17353 17355 17357 17360 17363 17365 17368 17371 17374 17377 17380 17383 17386 17389 17392 17395 17398 17401 17404 17407 17410 17413 17415 17418 17421 17424 17427 17430 17433 17436 17439 17442 17445 17448 17451 17454 17457 17459 17462 17464 17467 17470 17473 17476 17479 17482 17485 17487 17490 17492 17495 17498 17501 17504 17507 17510 17513 17516 17519 17521 17523 17526 17529 17532 17534 17537 17540 17543 17546 17548 17551 17553 17556 17559 17561 17564 17566 17568 17570 17573 17576 17578 17581 17584 17587 17589 17591 17593 17596 17599 17602 17605 17608 17611 17614 17617 17620 17623 17626 17628 17631 17634 17637 17640 17643 17646 17648 17651 17654 17657 17659 17662 17665 17668 17671 17674 17677 17680 17683 17685 17688 17691 17694 17696 17699 17702 17705 17708 17711 17714 17717 17720 17723 17726 17729 17732 17735 17738 17741 17744 17747 17750 17753 17756 17759 17762 17765 17768 17771 17774 17777 17780 17783 17786 17789 17792 17795 17798 17801 17804 17807 17810 17813 17816 17819 17822 17825 17828 17831 17834 17837 17840 17843 17846 17849 17852 17855 17858 17861 17864 17867 17870 17873 17876 17878 17881 17884 17887 17890 17893 17895 17898 17901 17904 17907 17909 17912 17915 17918 17920 17923 17926 17929 17932 17935 17938 17941 17944 17947 17950 17953 17956 17959 17962 17965 17968 17971 17974 17977 17980 17983 17986 17989 17992 17995 17998 18001 18004 18007 18010 18013 18016 18019 18022 18025 18028 18031 18034 18037 18040 18042 18045 18048 18050 18053 18056 18059 18062 18065 18068 18071 18073 18076 18079 18082 18085 18088 18091 18094 18097 18100 18103 18106 18108 18111 18114 18116 18119 18121 18124 18127 18130 18132 18135 18138 18141 18144 18147 18150 18153 18156 18158 18161 18164 18167 18170 18172 18175 18178 18181 18184 18186 18189 18191 18194 18197 18200 18203 18206 18209 18212 18215 18218 18221 18224 18227 18229 18232 18234 18237 18240 18243 18246 18249 18252 18255 18258 18261 18264 18267 18270 18273 18275 18278 18281 18284 18287 18290 18293 18296 18299 18302 18304 18307 18310 18313 18315 18318 18321 18324 18327 18330 18333 18336 18339 18342 18345 18348 18351 18354 18357 18360 18363 18366 18369 18372 18375 18378 18381 18384 18387 18390 18393 18396 18399 18402 18405 18408 18411 18414 18417 18420 18422 18425 18428 18430 18433 18436 18439 18442 18444 18447 18450 18453 18456 18459 18462 18465 18468 18471 18474 18477 18480 18483 18486 18489 18491 18494 18497 18500 18503 18506 18509 18512 18515 18518 18520 18523 18525 18528 18531 18534 18537 18540 18543 18546 18548 18551 18554 18557 18560 18563 18566 18569 18572 18575 18578 18581 18584 18587 18590 18592 18595 18598 18601 18604 18607 18610 18613 18616 18619 18622 18625 18627 18630 18633 18636 18639 18642 18645 18648 18651 18654 18657 18660 18663 18666 18669 18672 18675 18678 18681 18684 18687 18690 18693 18696 18698 18701 18703 18706 18709 18712 18715 18718 18721 18723 18726 18728 18731 18734 18737 18739 18742 18745 18748 18750 18753 18756 18759 18761 18764 18767 18769 18772 18775 18778 18781 18784 18787 18790 18792 18795 18798 18801 18804 18807 18810 18813 18815 18818 18821 18824 18827 18830 18833 18836 18839 18842 18845 18848 18851 18854 18856 18859 18862 18865 18868 18871 18874 18877 18880 18882 18885 18888 18891 18894 18897 18900 18903 18906 18909 18912 18915 18918 18921 18924 18927 18930 18933 18936 18939 18942 18944 18947 18950 18953 18956 18959 18962 18965 18968 18971 18974 18977 18980 18983 18986 18989 18992 18995 18998 19001 19004 19007 19010 19013 19016 19019 19022 19025 19028 19031 19034 19037 19040 19043 19046 19049 19052 19055 19058 19061 19064 19067 19070 19073 19076 19079 19082 19085 19088 19091 19094 19096 19099 19101 19104 19107 19110 19112 19115 19118 19120 19122 19125 19127 19130 19133 19136 19139 19142 19145 19148 19151 19154 19157 19160 19163 19166 19169 19172 19175 19178 19181 19184 19187 19190 19193 19196 19199 19202 19205 19208 19211 19214 19217 19220 19223 19226 19229 19232 19234 19237 19240 19243 19246 19248 19251 19254 19256 19259 19262 19265 19267 19270 19273 19276 19279 19281 19284 19286 19288 19291 19294 19297 19300 19302 19305 19308 19311 19313 19316 19319 19322 19324 19327 19330 19333 19336 19339 19342 19344 19347 19350 19353 19356 19359 19362 19365 19368 19371 19374 19377 19380 19383 19386 19389 19392 19395 19398 19401 19404 19406 19409 19412 19415 19418 19421 19424 19427 19430 19433 19436 19439 19442 19445 19448 19451 19454 19457 19460 19462 19465 19468 19470 19473 19476 19478 19481 19484 19487 19490 19493 19496 19499 19502 19505 19508 19511 19513 19516 19519 19522 19525 19527 19530 19533 19536 19539 19541 19544 19547 19550 19552 19555 19558 19561 19564 19567 19570 19573 19576 19579 19582 19585 19588 19591 19594 19597 19600 19603 19606 19609 19612 19615 19618 19621 19624 19627 19629 19632 19635 19638 19641 19644 19647 19650 19653 19655 19658 19661 19664 19666 19669 19672 19675 19678 19681 19684 19687 19690 19693 19696 19699 19702 19705 19708 19711 19714 19717 19720 19723 19726 19729 19732 19735 19738 19740 19743 19746 19749 19751 19754 19757 19760 19763 19766 19769 19772 19775 19777 19780 19783 19785 19788 19791 19794 19797 19799 19802 19805 19808 19811 19814 19817 19820 19822 19825 19827 19830 19833 19835 19838 19841 19843 19845 19848 19851 19854 19857 19860 19863 19866 19869 19872 19875 19878 19881 19884 19887 19890 19893 19896 19899 19902 19905 19908 19910 19913 19916 19919 19922 19924 19927 19930 19933 19936 19939 19942 19945 19948 19951 19954 19957 19960 19963 19965 19968 19971 19973 19976 19979 19982 19985 19988 19991 19994 19997 20000 20003 20006 20009 20012 20015 20018 20021 20024 20027 20030 20033 20036 20039 20042 20045 20048 20051 20054 20057 20060 20063 20066 20069 20072 20075 20078 20081 20084 20087 20090 20093 20096 20099 20102 20105 20108 20111 20114 20117 20120 20123 20126 20129 20132 20135 20138 20141 20144 20147 20150 20153 20156 20159 20162 20165 20168 20171 20174 20177 20180 20183 20186 20189 20192 20195 20198 20201 20204 20207 20210 20213 20216 20219 20222 20225 20228 20231 20234 20237 20240 20243 20246 20249 20252 20255 20258 20261 20264 20267 20270 20273 20276 20279 20282 20285 20288 20291 20294 20297 20300 20303 20306 20309 20312 20315 20318 20321 20324 20327 20330 20333 20336 20339 20342 20345 20348 20351 20354 20357 20359 20362 20365 20368 20371 20374 20377 20380 20382 20385 20388 20391 20394 20397 20400 20403 20406 20409 20411 20414 20416 20419 20422 20425 20427 20430 20433 20435 20438 20441 20444 20447 20450 20453 20456 20459 20462 20465 20468 20471 20474 20477 20480 20483 20486 20489 20492 20495 20498 20501 20504 20507 20510 20513 20516 20519 20522 20525 20528 20531 20534 20537 20540 20543 20546 20548 20551 20554 20556 20558 20561 20564 20566 20569 20572 20574 20577 20580 20583 20585 20588 20591 20594 20597 20600 20603 20606 20609 20612 20614 20617 20620 20623 20626 20629 20632 20634 20637 20640 20643 20646 20649 20652 20655 20658 20661 20664 20667 20670 20673 20676 20679 20682 20685 20688 20691 20694 20697 20700 20703 20706 20709 20712 20715 20718 20721 20724 20727 20729 20732 20735 20738 20741 20744 20747 20750 20753 20756 20759 20762 20765 20768 20771 20774 20777 20780 20783 20786 20789 20792 20795 20798 20801 20804 20807 20810 20813 20816 20819 20822 20825 20828 20831 20834 20837 20840 20843 20846 20849 20852 20855 20858 20861 20864 20867 20869 20872 20874 20877 20880 20883 20886 20888 20891 20894 20897 20900 20902 20905 20908 20911 20914 20916 20919 20922 20925 20928 20931 20934 20937 20940 20942 20945 20948 20950 20953 20955 20958 20961 20964 20967 20969 20972 20975 20977 20979 20982 20985 20988 20991 20994 20997 20999 21002 21005 21008 21011 21014 21017 21020 21023 21026 21029 21031 21033 21036 21039 21042 21045 21048 21050 21053 21056 21058 21061 21064 21067 21070 21072 21075 21078 21080 21083 21086 21089 21092 21095 21098 21101 21104 21107 21110 21113 21116 21119 21122 21125 21128 21131 21134 21137 21140 21143 21146 21149 21152 21155 21158 21161 21164 21167 21169 21172 21174 21177 21180 21183 21186 21189 21192 21195 21198 21201 21204 21207 21210 21213 21215 21218 21221 21224 21227 21229 21231 21234 21237 21240 21243 21246 21249 21252 21255 21258 21261 21264 21267 21270 21273 21276 21279 21282 21285 21288 21291 21294 21297 21300 21303 21306 21309 21312 21315 21318 21321 21324 21327 21330 21333 21336 21339 21342 21345 21348 21351 21354 21357 21359 21362 21365 21368 21370 21373 21376 21379 21382 21385 21388 21391 21394 21397 21400 21403 21406 21409 21412 21415 21418 21421 21424 21427 21430 21432 21435 21438 21440 21443 21446 21449 21452 21455 21458 21461 21464 21467 21469 21472 21475 21478 21481 21484 21486 21489 21492 21495 21498 21501 21503 21506 21508 21511 21514 21517 21520 21523 21526 21529 21532 21535 21538 21541 21544 21547 21549 21552 21555 21558 21560 21562 21565 21568 21571 21574 21577 21580 21583 21586 21588 21591 21594 21596 21599 21602 21604 21606 21609 21612 21615 21618 21621 21623 21626 21629 21632 21635 21638 21641 21644 21646 21649 21652 21654 21656 21659 21662 21665 21668 21671 21674 21676 21678 21681 21684 21687 21689 21692 21695 21698 21701 21704 21707 21710 21712 21715 21718 21721 21724 21727 21730 21733 21736 21739 21742 21745 21748 21751 21754 21757 21760 21763 21766 21769 21772 21775 21778 21781 21784 21787 21790 21792 21795 21798 21801 21804 21807 21810 21813 21815 21818 21821 21824 21827 21830 21833 21836 21839 21842 21845 21848 21850 21853 21856 21859 21862 21865 21868 21871 21874 21876 21879 21882 21885 21888 21891 21894 21897 21900 21903 21906 21909 21912 21915 21918 21921 21924 21926 21929 21932 21935 21937 21940 21943 21946 21949 21952 21954 21957 21960 21963 21966 21969 21972 21975 21978 21981 21984 21987 21990 21993 21996 21998 22001 22004 22007 22010 22012 22015 22018 22020 22023 22026 22029 22032 22035 22037 22040 22043 22046 22049 22052 22055 22058 22061 22064 22067 22070 22073 22076 22079 22081 22084 22086 22089 22092 22095 22097 22100 22102 22105 22107 22110 22113 22116 22119 22122 22125 22127 22129 22132 22135 22138 22141 22144 22147 22149 22152 22154 22157 22160 22163 22166 22169 22172 22175 22178 22181 22184 22187 22190 22193 22196 22199 22202 22205 22207 22210 22213 22216 22218 22220 22223 22226 22229 22232 22235 22237 22240 22243 22245 22247 22250 22253 22256 22259 22262 22265 22268 22271 22274 22277 22280 22283 22286 22289 22292 22295 22298 22301 22304 22307 22310 22313 22316 22319 22322 22325 22328 22331 22334 22337 22340 22343 22346 22349 22352 22355 22358 22361 22364 22367 22370 22373 22376 22379 22381 22384 22387 22389 22391 22393 22396 22399 22402 22405 22408 22411 22413 22416 22419 22422 22425 22428 22431 22434 22437 22440 22442 22445 22448 22451 22453 22456 22459 22462 22465 22468 22471 22474 22477 22480 22483 22486 22489 22492 22495 22498 22501 22504 22507 22510 22513 22515 22518 22521 22524 22527 22529 22532 22535 22538 22541 22544 22547 22550 22553 22556 22559 22562 22565 22568 22571 22574 22577 22580 22583 22586 22589 22592 22595 22598 22601 22604 22607 22610 22613 22616 22619 22622 22625 22628 22631 22633 22636 22638 22641 22644 22647 22650 22653 22656 22659 22662 22664 22667 22670 22673 22675 22678 22680 22683 22686 22689 22692 22695 22698 22701 22704 22706 22709 22712 22715 22718 22720 22723 22726 22729 22732 22734 22737 22740 22743 22746 22749 22752 22755 22757 22760 22763 22766 22769 22771 22774 22777 22780 22783 22786 22789 22792 22795 22798 22801 22804 22807 22810 22813 22816 22819 22822 22825 22828 22831 22834 22837 22840 22843 22846 22849 22852 22855 22858 22861 22864 22867 22870 22873 22876 22879 22882 22885 22888 22891 22894 22897 22900 22903 22906 22909 22911 22914 22917 22920 22923 22925 22927 22930 22933 22935 22937 22940 22943 22946 22949 22952 22955 22958 22961 22964 22967 22970 22973 22976 22979 22982 22985 22988 22991 22994 22996 22999 23002 23005 23007 23009 23012 23015 23018 23021 23024 23027 23030 23033 23036 23039 23042 23045 23048 23051 23054 23057 23060 23063 23066 23069 23072 23075 23078 23081 23084 23087 23090 23092 23095 23098 23101 23104 23107 23110 23113 23115 23118 23121 23124 23127 23130 23133 23136 23139 23142 23145 23148 23151 23154 23157 23160 23162 23165 23168 23171 23174 23177 23180 23183 23186 23188 23191 23193 23195 23198 23201 23204 23207 23210 23213 23216 23219 23222 23225 23228 23231 23233 23236 23239 23242 23245 23248 23251 23254 23257 23260 23263 23266 23269 23272 23275 23278 23281 23284 23287 23289 23292 23295 23298 23300 23303 23306 23309 23312 23315 23318 23321 23324 23326 23329 23332 23335 23338 23341 23344 23347 23350 23353 23356 23359 23362 23365 23368 23371 23373 23376 23379 23382 23384 23387 23390 23393 23396 23399 23402 23405 23408 23411 23414 23417 23420 23423 23426 23429 23432 23435 23438 23441 23444 23447 23450 23453 23456 23459 23462 23465 23468 23471 23474 23477 23480 23483 23485 23488 23490 23493 23496 23499 23502 23505 23508 23511 23514 23516 23519 23522 23525 23528 23531 23534 23537 23540 23543 23545 23548 23551 23553 23556 23559 23562 23565 23568 23570 23573 23576 23579 23582 23584 23587 23590 23593 23596 23598 23601 23604 23607 23609 23612 23614 23617 23620 23622 23625 23628 23631 23634 23637 23640 23643 23646 23649 23652 23655 23658 23661 23664 23666 23669 23672 23674 23677 23679 23682 23685 23688 23690 23693 23696 23698 23701 23704 23707 23710 23712 23715 23717 23720 23723 23726 23729 23732 23735 23737 23740 23742 23745 23748 23751 23754 23757 23759 23762 23765 23768 23771 23773 23776 23779 23782 23785 23788 23791 23793 23796 23799 23802 23805 23808 23811 23814 23817 23820 23823 23826 23829 23832 23835 23838 23841 23844 23847 23850 23853 23856 23859 23862 23865 23868 23871 23874 23877 23880 23883 23886 23889 23892 23894 23896 23899 23902 23905 23908 23911 23914 23917 23920 23923 23926 23928 23931 23934 23936 23938 23941 23943 23946 23949 23952 23955 23958 23961 23964 23966 23969 23972 23975 23978 23981 23984 23987 23990 23993 23996 23999 24002 24004 24007 24010 24013 24016 24018 24021 24024 24027 24030 24033 24036 24039 24042 24045 24048 24051 24054 24056 24059 24062 24065 24068 24071 24074 24077 24080 24083 24086 24089 24092 24095 24098 24101 24104 24107 24109 24112 24115 24118 24121 24124 24126 24129 24132 24135 24137 24140 24143 24146 24149 24152 24155 24157 24160 24162 24165 24168 24171 24173 24176 24179 24182 24185 24188 24191 24194 24197 24200 24202 24205 24208 24210 24213 24216 24219 24222 24225 24228 24231 24233 24236 24239 24242 24245 24248 24251 24254 24257 24260 24263 24266 24269 24272 24274 24277 24280 24282 24285 24288 24291 24294 24297 24300 24302 24305 24308 24311 24314 24317 24320 24322 24325 24328 24331 24334 24337 24340 24343 24345 24348 24351 24354 24357 24360 24363 24366 24369 24372 24375 24378 24381 24384 24387 24390 24393 24396 24399 24402 24405 24408 24411 24413 24416 24419 24422 24425 24428 24431 24434 24437 24440 24443 24445 24448 24451 24454 24457 24459 24461 24464 24467 24470 24473 24475 24478 24481 24484 24487 24490 24493 24496 24499 24502 24504 24507 24510 24513 24516 24519 24522 24525 24528 24531 24534 24537 24539 24542 24545 24548 24550 24553 24556 24559 24561 24564 24567 24570 24573 24576 24579 24582 24585 24588 24591 24594 24597 24599 24602 24605 24608 24611 24614 24616 24619 24622 24624 24627 24630 24633 24636 24639 24642 24645 24648 24651 24654 24657 24660 24663 24666 24668 24671 24674 24677 24680 24683 24686 24689 24691 24694 24697 24700 24702 24705 24708 24711 24714 24717 24719 24722 24725 24728 24731 24734 24737 24740 24743 24746 24748 24751 24754 24757 24760 24763 24766 24769 24772 24774 24777 24780 24783 24786 24789 24791 24794 24797 24800 24803 24806 24809 24812 24814 24817 24820 24823 24826 24829 24832 24835 24838 24841 24844 24847 24850 24853 24856 24859 24862 24865 24868 24871 24874 24877 24880 24883 24886 24889 24892 24895 24898 24901 24904 24907 24910 24913 24916 24919 24922 24925 24928 24931 24934 24937 24940 24943 24946 24949 24952 24955 24958 24960 24963 24966 24969 24972 24975 24978 24981 24983 24986 24989 24992 24995 24998 25001 25004 25007 25010 25013 25016 25019 25022 25025 25028 25031 25034 25037 25040 25043 25046 25049 25051 25053 25056 25059 25061 25063 25066 25069 25072 25075 25078 25081 25084 25086 25089 25092 25095 25098 25101 25104 25107 25110 25113 25116 25119 25122 25125 25128 25130 25133 25136 25139 25142 25145 25148 25151 25154 25156 25159 25162 25164 25167 25170 25173 25175 25178 25181 25184 25187 25190 25193 25196 25199 25202 25205 25208 25211 25214 25217 25220 25223 25226 25229 25232 25235 25238 25241 25244 25247 25250 25253 25256 25259 25261 25264 25267 25270 25273 25276 25279 25282 25285 25287 25290 25293 25296 25299 25302 25305 25307 25309 25312 25315 25318 25321 25323 25326 25329 25331 25334 25337 25339 25342 25345 25348 25351 25354 25357 25359 25362 25365 25368 25371 25374 25377 25380 25383 25385 25388 25391 25394 25397 25400 25403 25406 25409 25412 25415 25418 25420 25423 25426 25428 25431 25434 25437 25440 25443 25446 25449 25451 25454 25457 25460 25462 25465 25467 25470 25472 25475 25478 25481 25484 25487 25490 25493 25496 25499 25502 25505 25508 25511 25514 25517 25520 25523 25525 25528 25530 25533 25536 25539 25542 25545 25548 25551 25554 25557 25560 25562 25565 25568 25571 25574 25577 25580 25583 25585 25588 25591 25594 25596 25599 25601 25603 25606 25609 25611 25614 25617 25620 25623 25625 25628 25631 25634 25636 25639 25642 25645 25647 25650 25652 25654 25657 25660 25663 25666 25669 25672 25674 25677 25680 25683 25686 25689 25692 25695 25698 25700 25702 25704 25707 25709 25712 25715 25717 25719 25722 25725 25727 25730 25733 25736 25739 25742 25745 25748 25751 25754 25757 25760 25762 25765 25768 25771 25774 25777 25780 25783 25786 25789 25792 25795 25798 25801 25803 25805 25808 25811 25814 25817 25819 25822 25825 25828 25830 25833 25836 25839 25842 25845 25847 25849 25852 25855 25858 25860 25863 25866 25869 25872 25875 25878 25881 25884 25887 25890 25893 25896 25899 25902 25905 25907 25910 25913 25916 25918 25921 25924 25927 25929 25932 25935 25938 25941 25944 25947 25949 25952 25955 25958 25961 25964 25966 25969 25972 25975 25978 25981 25984 25987 25990 25992 25995 25998 26001 26004 26007 26010 26013 26016 26019 26021 26024 26027 26030 26033 26035 26038 26040 26043 26046 26048 26051 26053 26056 26059 26062 26065 26068 26071 26073 26076 26078 26080 26083 26086 26089 26092 26095 26098 26101 26104 26106 26109 26111 26114 26116 26119 26121 26124 26127 26130 26133 26136 26139 26142 26145 26148 26151 26154 26156 26159 26162 26165 26167 26170 26173 26176 26179 26182 26185 26188 26191 26193 26196 26199 26202 26205 26208 26211 26214 26217 26220 26222 26225 26228 26231 26234 26236 26239 26242 26244 26247 26250 26253 26256 26259 26262 26265 26268 26271 26273 26276 26279 26282 26284 26287 26290 26293 26296 26299 26302 26305 26308 26311 26314 26317 26320 26323 26326 26329 26332 26335 26338 26341 26343 26346 26349 26352 26355 26358 26361 26364 26367 26370 26373 26375 26378 26381 26384 26387 26390 26393 26396 26399 26402 26405 26408 26411 26414 26417 26420 26423 26426 26429 26432 26435 26438 26441 26444 26447 26450 26453 26456 26459 26462 26465 26468 26471 26474 26477 26480 26483 26486 26489 26492 26495 26498 26501 26504 26507 26510 26512 26514 26517 26520 26523 26526 26529 26532 26535 26538 26541 26544 26547 26550 26553 26555 26557 26560 26563 26566 26568 26571 26574 26576 26579 26582 26585 26587 26590 26593 26596 26598 26601 26604 26607 26610 26613 26616 26619 26622 26624 26627 26630 26632 26635 26637 26639 26642 26645 26648 26651 26654 26657 26659 26662 26664 26666 26668 26671 26674 26676 26679 26682 26684 26686 26689 26692 26695 26698 26701 26704 26707 26710 26713 26716 26719 26722 26725 26728 26731 26734 26737 26740 26743 26746 26749 26751 26754 26757 26760 26763 26766 26769 26772 26775 26778 26780 26783 26786 26789 26792 26795 26798 26801 26803 26805 26808 26811 26814 26817 26820 26823 26826 26829 26832 26835 26838 26841 26844 26847 26850 26853 26856 26859 26862 26865 26868 26871 26874 26876 26879 26881 26884 26887 26890 26893 26896 26899 26902 26904 26907 26910 26913 26915 26917 26920 26923 26925 26928 26931 26934 26937 26939 26942 26945 26948 26950 26953 26956 26959 26961 26964 26967 26970 26973 26976 26979 26982 26985 26988 26990 26992 26995 26998 27001 27004 27007 27009 27012 27015 27017 27019 27021 27024 27027 27030 27033 27036 27038 27041 27044 27047 27050 27053 27056 27059 27062 27065 27067 27070 27072 27075 27078 27081 27084 27087 27090 27093 27096 27099 27102 27105 27108 27111 27114 27117 27120 27123 27126 27129 27132 27135 27138 27141 27144 27146 27149 27152 27155 27158 27160 27162 27165 27168 27171 27173 27176 27179 27182 27185 27188 27191 27194 27197 27200 27203 27206 27209 27212 27215 27218 27221 27223 27226 27229 27232 27234 27237 27240 27242 27245 27248 27251 27254 27257 27260 27263 27266 27269 27272 27275 27278 27281 27283 27286 27289 27291 27294 27297 27300 27302 27305 27307 27310 27312 27315 27317 27319 27321 27324 27327 27330 27333 27336 27339 27342 27345 27347 27350 27353 27356 27359 27362 27365 27368 27371 27373 27376 27379 27381 27384 27387 27390 27393 27396 27399 27402 27405 27408 27411 27414 27417 27420 27423 27426 27429 27432 27435 27438 27441 27444 27446 27449 27452 27455 27458 27461 27464 27467 27470 27473 27476 27478 27481 27483 27486 27489 27491 27494 27496 27499 27501 27504 27507 27509 27512 27514 27517 27520 27522 27525 27528 27531 27533 27536 27539 27542 27545 27548 27551 27554 27557 27560 27563 27566 27569 27572 27575 27578 27581 27584 27587 27590 27593 27596 27599 27602 27605 27608 27611 27614 27617 27620 27623 27626 27629 27632 27635 27638 27641 27644 27647 27650 27653 27656 27659 27662 27665 27668 27671 27674 27677 27680 27683 27686 27689 27692 27695 27698 27701 27704 27707 27710 27713 27716 27718 27721 27724 27726 27729 27732 27735 27738 27741 27744 27746 27748 27751 27754 27757 27760 27763 27766 27769 27772 27775 27778 27781 27784 27787 27790 27793 27796 27799 27802 27804 27807 27810 27813 27815 27818 27821 27824 27827 27830 27833 27836 27839 27842 27845 27848 27851 27854 27857 27860 27863 27865 27868 27871 27874 27877 27880 27883 27886 27888 27891 27894 27897 27900 27903 27906 27909 27912 27914 27917 27919 27922 27925 27928 27931 27934 27937 27940 27943 27946 27949 27952 27955 27958 27961 27964 27967 27969 27972 27975 27978 27981 27984 27987 27990 27992 27995 27998 28001 28004 28006 28009 28012 28015 28018 28021 28024 28027 28029 28032 28035 28037 28039 28042 28045 28047 28050 28053 28056 28059 28062 28065 28067 28070 28073 28076 28079 28082 28085 28088 28091 28094 28096 28099 28102 28104 28107 28110 28112 28115 28118 28120 28123 28126 28129 28132 28135 28137 28140 28143 28146 28149 28152 28155 28158 28161 28163 28166 28169 28172 28175 28178 28181 28184 28186 28189 28192 28195 28198 28201 28204 28207 28210 28213 28216 28219 28222 28224 28227 28230 28233 28236 28239 28242 28245 28247 28249 28252 28254 28257 28259 28262 28265 28268 28271 28274 28277 28280 28283 28286 28289 28292 28295 28298 28301 28304 28306 28309 28311 28314 28317 28320 28323 28326 28329 28332 28335 28337 28340 28342 28345 28347 28350 28352 28355 28357 28360 28363 28365 28368 28371 28374 28377 28380 28382 28385 28388 28391 28394 28397 28400 28403 28406 28408 28411 28414 28417 28420 28423 28425 28428 28431 28433 28436 28438 28440 28443 28446 28449 28452 28455 28458 28461 28464 28466 28469 28472 28475 28478 28481 28484 28487 28490 28493 28496 28499 28502 28505 28507 28510 28513 28516 28519 28522 28525 28528 28530 28533 28536 28539 28541 28544 28547 28550 28553 28556 28559 28562 28565 28568 28571 28574 28577 28580 28583 28586 28589 28592 28594 28597 28600 28603 28606 28609 28612 28615 28617 28620 28623 28625 28628 28631 28634 28637 28640 28643 28646 28649 28652 28655 28658 28661 28664 28667 28670 28672 28675 28678 28681 28684 28686 28689 28692 28695 28698 28701 28704 28707 28710 28713 28716 28719 28722 28725 28728 28731 28734 28737 28740 28743 28746 28749 28752 28755 28758 28761 28763 28766 28769 28772 28775 28778 28781 28783 28786 28789 28792 28795 28798 28801 28804 28807 28810 28812 28814 28817 28820 28823 28825 28828 28830 28833 28836 28839 28842 28845 28848 28851 28854 28857 28860 28863 28866 28869 28872 28875 28877 28880 28883 28886 28889 28892 28895 28898 28901 28904 28907 28910 28913 28915 28917 28920 28923 28926 28929 28932 28935 28938 28941 28943 28946 28949 28951 28954 28957 28959 28961 28964 28967 28970 28973 28976 28979 28982 28984 28987 28990 28993 28996 28999 29002 29005 29008 29011 29013 29016 29019 29022 29024 29027 29030 29033 29036 29039 29041 29044 29047 29050 29053 29056 29059 29062 29065 29068 29071 29074 29077 29079 29082 29085 29088 29090 29093 29096 29099 29101 29104 29107 29110 29113 29116 29119 29122 29125 29128 29131 29134 29137 29140 29143 29146 29149 29152 29155 29158 29161 29164 29167 29170 29173 29176 29179 29182 29185 29188 29191 29194 29197 29199 29202 29205 29208 29211 29214 29217 29220 29223 29226 29229 29232 29235 29238 29241 29244 29247 29250 29253 29256 29259 29262 29265 29268 29271 29273 29276 29278 29281 29284 29286 29289 29292 29295 29298 29301 29304 29307 29310 29313 29315 29318 29321 29324 29327 29330 29333 29336 29339 29342 29345 29348 29351 29354 29357 29359 29362 29365 29368 29371 29373 29376 29379 29382 29384 29387 29390 29393 29396 29399 29402 29405 29408 29411 29414 29417 29420 29423 29426 29429 29432 29435 29438 29441 29444 29447 29450 29453 29456 29459 29462 29465 29468 29471 29474 29477 29480 29483 29486 29489 29492 29495 29498 29501 29504 29507 29510 29513 29516 29519 29522 29525 29528 29531 29534 29537 29540 29543 29546 29549 29552 29555 29558 29561 29564 29567 29570 29573 29576 29579 29582 29585 29588 29591 29594 29597 29600 29603 29606 29609 29612 29615 29618 29621 29624 29627 29630 29633 29636 29639 29642 29645 29648 29651 29654 29657 29660 29663 29666 29669 29672 29675 29678 29681 29684 29687 29690 29693 29696 29699 29702 29705 29708 29711 29714 29717 29720 29723 29726 29729 29732 29735 29738 29741 29744 29747 29750 29753 29756 29759 29762 29765 29768 29771 29774 29777 29780 29783 29786 29789 29792 29795 29798 29801 29804 29807 29810 29813 29816 29819 29822 29825 29828 29831 29834 29837 29840 29843 29846 29849 29852 29855 29858 29861 29864 29867 29870 29873 29876 29879 29882 29885 29888 29891 29894 29897 29900 29903 29906 29909 29912 29915 29918 29921 29924 29927 29930 29933 29936 29939 29942 29945 29948 29951 29953 29956 29959 29962 29965 29968 29971 29974 29977 29980 29983 29986 29989 29992 29995 29998 30001 30003 30006 30009 30012 30015 30018 30021 30024 30027 30029 30032 30035 30038 30041 30043 30046 30049 30052 30055 30058 30061 30064 30067 30070 30073 30076 30079 30082 30085 30088 30091 30094 30097 30100 30103 30106 30109 30111 30114 30117 30120 30123 30126 30129 30132 30135 30138 30141 30144 30147 30150 30152 30154 30157 30160 30163 30166 30169 30171 30174 30176 30179 30182 30185 30188 30191 30194 30197 30200 30203 30206 30209 30211 30214 30217 30220 30223 30226 30229 30232 30234 30237 30240 30243 30246 30249 30252 30255 30258 30261 30264 30267 30270 30273 30276 30279 30281 30283 30286 30289 30292 30295 30298 30301 30304 30307 30310 30313 30316 30319 30321 30324 30327 30330 30333 30336 30339 30342 30345 30348 30351 30354 30357 30360 30363 30366 30369 30371 30374 30377 30380 30383 30386 30389 30392 30394 30397 30400 30403 30406 30409 30412 30415 30418 30421 30424 30426 30428 30431 30434 30437 30440 30443 30446 30449 30452 30455 30458 30461 30464 30467 30470 30473 30476 30479 30482 30485 30488 30491 30494 30497 30500 30503 30506 30509 30512 30515 30518 30520 30523 30526 30529 30532 30535 30537 30540 30543 30546 30549 30552 30555 30558 30561 30564 30567 30569 30572 30575 30578 30581 30583 30586 30589 30592 30595 30598 30601 30604 30607 30610 30613 30615 30618 30620 30623 30626 30629 30632 30635 30638 30641 30644 30647 30650 30653 30656 30659 30662 30665 30668 30671 30674 30677 30680 30683 30686 30689 30692 30695 30698 30701 30704 30707 30710 30713 30715 30718 30721 30724 30727 30730 30732 30735 30738 30741 30744 30747 30750 30753 30756 30759 30762 30765 30768 30771 30774 30777 30780 30783 30786 30788 30791 30794 30796 30799 30802 30805 30807 30810 30813 30816 30819 30822 30824 30827 30830 30833 30836 30839 30842 30845 30848 30851 30854 30856 30859 30862 30865 30868 30871 30874 30876 30879 30882 30885 30888 30891 30893 30895 30898 30901 30903 30906 30909 30911 30914 30917 30920 30923 30926 30929 30932 30935 30938 30941 30943 30946 30949 30951 30954 30957 30959 30962 30965 30967 30970 30973 30975 30978 30981 30983 30986 30989 30992 30995 30998 31001 31003 31006 31009 31012 31015 31018 31021 31024 31027 31030 31033 31036 31038 31041 31044 31047 31050 31053 31056 31059 31061 31064 31067 31070 31073 31075 31078 31081 31084 31086 31089 31092 31095 31098 31101 31104 31107 31110 31113 31116 31119 31121 31124 31127 31130 31133 31136 31139 31142 31145 31148 31151 31154 31157 31160 31163 31166 31169 31172 31175 31178 31181 31184 31187 31190 31193 31195 31198 31201 31204 31207 31210 31212 31215 31218 31221 31224 31227 31230 31233 31236 31239 31242 31245 31248 31251 31254 31256 31259 31262 31264 31267 31269 31272 31275 31278 31281 31283 31286 31288 31290 31293 31295 31298 31301 31304 31307 31310 31313 31316 31318 31321 31323 31326 31329 31332 31335 31338 31341 31343 31346 31349 31352 31355 31358 31361 31363 31366 31369 31372 31375 31377 31380 31383 31386 31389 31392 31394 31397 31400 31402 31405 31408 31411 31414 31416 31419 31422 31425 31428 31430 31433 31436 31439 31442 31445 31448 31450 31453 31456 31459 31462 31465 31468 31471 31474 31477 31479 31482 31485 31488 31491 31494 31497 31499 31502 31505 31508 31511 31513 31516 31519 31522 31525 31528 31531 31534 31537 31540 31543 31546 31549 31552 31555 31558 31561 31563 31566 31569 31572 31574 31577 31580 31582 31585 31588 31591 31594 31597 31600 31603 31606 31609 31612 31615 31618 31621 31624 31627 31630 31632 31635 31637 31640 31643 31646 31649 31652 31655 31658 31661 31664 31667 31670 31673 31676 31679 31682 31685 31688 31691 31694 31697 31700 31703 31706 31709 31712 31715 31717 31720 31723 31725 31728 31731 31734 31737 31740 31743 31746 31749 31752 31755 31757 31760 31763 31766 31769 31771 31774 31777 31780 31783 31785 31788 31791 31794 31797 31800 31803 31806 31809 31812 31814 31817 31820 31823 31826 31829 31832 31835 31838 31841 31844 31847 31850 31853 31856 31859 31862 31865 31868 31871 31874 31877 31880 31883 31886 31889 31892 31895 31898 
</DataArray>
<DataArray type="UInt32" Name="types" format="ascii">
5 5 5 5 5 3 5 5 5 5 5 5 5 3 5 5 5 5 3 5 5 3 5 5 5 5 3 5 5 5 5 3 5 5 5 5 5 5 5 5 5 5 5 5 5 3 5 5 3 5 5 5 5 5 3 5 5 5 5 5 5 5 3 5 5 5 5 3 5 5 5 5 5 5 5 5 5 3 5 5 3 5 5 3 5 5 5 5 3 5 5 5 5 5 5 5 3 3 3 5 5 3 5 5 5 5 5 3 5 5 5 5 5 5 5 5 5 5 5 5 5 3 5 5 5 3 5 5 5 5 5 5 3 5 5 5 5 5 5 5 5 5 5 5 5 5 5 5 5 5 5 5 5 5 5 5 5 5 3 5 5 5 3 5 5 3 5 5 5 5 5 5 5 5 5 5 5 3 5 5 5 5 5 5 5 5 3 5 5 5 5 5 5 5 5 3 5 5 5 5 5 5 5 5 5 3 5 5 5 5 5 5 5 5 5 5 5 5 5 5 5 5 5 5 5 5 5 5 5 3 5 5 5 3 5 3 5 3 5 5 3 5 5 5 3 5 3 5 3 5 3 3 5 3 5 5 3 5 3 5 5 5 3 5 3 3 5 5 3 5 5 5 3 5 3 3 3 5 3 5 5 5 3 5 3 3 3 5 5 3 3 5 5 5 5 3 5 3 5 5 3 5 5 5 3 5 3 3 3 5 5 5 3 5 3 3 3 3 5 5 5 3 3 5 5 3 3 3 5 3 5 5 5 5 3 5 5 5 5 5 5 5 3 5 5 5 5 5 5 3 3 5 5 5 3 5 5 5 3 5 3 5 3 3 5 5 5 5 3 5 5 3 5 5 5 5 3 5 3 5 5 5 5 5 3 3 5 5 5 5 5 5 5 5 3 5 5 5 3 5 5 3 5 3 5 5 5 5 5 5 5 5 5 5 5 3 5 3 5 3 5 5 5 3 5 3 5 3 5 5 5 5 5 5 3 5 3 5 5 5 3 5 5 5 3 5 3 3 5 5 5 5 3 5 5 5 5 3 3 5 5 3 5 3 5 3 3 5 5 5 3 5 5 5 5 3 5 5 5 5 5 5 5 5 5 5 5 3 5 5 5 5 3 5 5 5 3 5 3 3 3 5 5 5 3 3 5 3 5 5 3 5 5 5 5 3 5 5 5 5 5 5 5 5 5 5 5 3 3 5 5 3 5 5 5 3 5 5 5 5 5 5 3 5 5 5 3 5 5 5 3 5 5 5 5 5 5 5 5 5 5 5 3 5 5 5 3 5 5 5 5 5 5 5 3 5 5 5 5 5 3 5 5 5 5 5 5 5 5 5 5 5 5 5 5 5 5 5 5 5 3 5 5 5 5 3 5 5 3 5 5 5 5 5 5 5 3 5 5 5 5 5 5 5 5 3 5 3 5 5 3 5 5 5 3 5 5 3 5 5 5 3 5 3 5 5 3 5 3 5 5 5 5 5 5 5 5 5 5 5 5 5 5 5 5 5 5 5 5 5 5 3 5 3 5 3 5 5 5 5 5 5 5 5 5 5 5 5 5 5 5 3 5 5 5 5 5 5 5 5 5 3 5 5 5 5 5 5 5 5 5 5 5 5 5 5 5 5 5 5 5 5 5 5 5 5 5 5 5 5 5 3 5 5 3 5 5 5 3 3 5 3 5 5 5 5 5 3 5 5 5 5 5 3 5 5 5 5 5 5 5 5 5 5 5 5 5 5 5 5 5 5 5 5 5 5 5 5 5 5 5 5 5 5 5 5 5 5 5 5 5 5 5 5 5 5 5 5 5 5 5 5 5 3 5 5 5 5 5 5 5 5 5 5 5 5 5 5 5 3 5 5 5 5 3 5 5 5 5 5 5 5 5 5 5 5 5 5 5 5 5 5 5 5 5 5 5 5 5 5 5 5 3 5 5 3 5 3 3 3 3 5 5 3 5 5 5 5 5 5 5 5 5 5 5 5 5 5 5 5 5 3 5 5 3 5 3 5 5 5 5 3 5 3 5 5 5 5 3 5 5 5 3 5 5 5 5 5 3 5 3 5 5 3 3 5 3 5 5 5 5 5 5 5 5 5 5 5 3 5 5 5 3 5 5 5 3 5 5 3 3 3 5 5 5 5 5 5 5 5 5 5 5 3 5 5 5 5 5 5 5 5 3 3 3 5 5 5 5 5 5 5 5 3 3 5 5 5 3 5 5 3 5 5 5 5 5 5 5 5 5 5 5 3 5 5 5 5 5 5 5 5 3 5 5 5 5 5 5 5 5 5 5 3 5 3 3 3 5 5 5 5 5 5 5 3 3 5 3 5 5 5 5 5 3 5 3 3 5 5 5 3 5 3 5 5 5 5 3 5 5 5 5 5 5 5 5 5 5 5 5 5 5 5 5 5 3 5 5 5 3 5 5 5 5 5 3 5 5 5 5 5 5 3 5 3 5 5 5 5 5 5 5 5 3 5 5 5 3 5 5 5 5 5 5 5 5 5 5 5 5 5 5 5 5 5 5 5 5 5 5 5 5 5 3 3 3 5 5 5 5 3 5 5 5 5 3 5 5 5 5 5 5 5 3 5 5 5 5 5 5 5 5 3 5 5 5 5 5 5 5 5 5 5 5 5 3 5 5 5 5 5 5 3 5 5 5 5 5 5 5 5 3 5 5 5 3 5 5 5 5 5 5 5 5 5 5 5 5 3 5 5 5 5 5 5 5 5 5 5 5 5 5 5 5 5 5 5 5 5 5 5 5 5 5 5 5 5 5 5 5 5 5 5 5 5 5 5 5 5 5 5 5 5 5 5 5 3 5 5 5 5 5 5 5 5 5 5 5 5 5 5 5 5 5 5 5 5 5 5 5 5 3 5 5 5 5 5 5 5 5 5 5 3 5 5 3 5 5 5 5 5 5 5 5 5 3 5 3 5 5 5 5 3 5 5 3 5 3 5 5 5 5 5 3 5 5 5 5 5 5 5 5 3 5 5 5 5 5 5 5 5 5 5 5 5 5 5 3 5 3 3 5 5 5 5 5 3 5 5 5 5 5 5 5 5 5 5 5 5 5 5 5 3 5 5 5 5 5 5 5 5 5 5 5 5 5 5 5 5 3 5 5 5 5 5 3 3 5 5 3 5 5 5 5 5 5 5 5 5 5 3 5 5 5 5 5 5 5 5 5 3 5 3 5 5 5 5 5 3 5 5 5 5 3 5 5 5 3 5 5 5 3 5 5 3 5 5 5 5 5 5 5 5 5 5 5 5 5 5 5 5 3 5 5 5 5 5 5 5 3 5 5 5 5 5 5 5 5 5 5 5 5 5 5 5 5 5 5 5 5 5 5 5 5 5 5 5 3 5 5 5 5 3 5 5 5 3 5 5 5 5 5 5 5 5 5 3 5 3 5 5 5 5 5 5 5 5 5 5 5 5 5 5 5 5 5 5 3 3 5 5 5 3 5 5 3 5 5 3 5 5 5 3 5 5 3 5 5 5 5 5 5 5 5 5 5 5 5 5 5 5 5 5 5 5 5 3 5 3 5 5 5 5 5 5 5 5 5 5 5 3 5 3 5 5 5 3 5 5 5 5 5 3 5 5 5 5 5 5 3 5 5 5 5 5 5 5 5 5 5 5 3 5 5 5 5 5 5 5 5 3 5 5 5 3 5 5 3 5 5 5 5 5 3 5 5 5 5 5 5 5 5 5 3 5 5 3 5 3 5 3 3 3 5 3 5 5 5 5 5 5 3 5 5 5 5 5 5 3 5 5 5 5 5 5 5 3 5 5 5 5 3 5 5 5 5 5 3 5 3 5 5 5 5 5 5 5 5 5 5 3 5 5 5 5 5 5 5 3 5 5 5 5 5 5 5 3 5 3 5 5 5 5 5 5 5 5 3 5 5 5 3 3 5 5 5 5 5 3 3 5 3 5 5 3 5 5 3 5 5 5 5 5 5 5 5 3 5 5 5 5 5 3 5 5 5 5 3 5 5 3 5 5 5 5 5 5 5 5 5 5 5 5 5 5 5 5 5 5 5 5 5 5 5 5 5 5 5 5 5 5 5 5 5 5 5 5 5 5 5 5 5 3 5 5 3 5 5 5 5 5 3 5 5 5 5 3 5 5 5 5 5 5 5 5 5 5 5 5 5 5 5 5 5 5 5 5 5 5 5 5 3 5 5 5 3 5 5 5 5 5 5 3 5 5 5 5 5 5 5 5 5 5 5 3 5 3 3 5 5 3 5 5 5 5 5 5 5 5 5 5 5 3 5 5 3 5 5 5 5 5 5 5 5 5 5 5 5 5 5 5 3 5 5 5 5 5 5 5 3 5 3 5 5 5 5 3 5 3 5 5 5 5 5 5 5 5 5 3 5 5 5 5 5 5 5 5 5 5 5 5 5 5 5 5 5 3 5 5 5 5 5 5 5 5 5 5 5 5 5 5 5 5 5 5 5 5 5 5 5 5 5 3 3 5 5 5 5 5 5 5 5 5 5 5 3 5 5 5 5 3 5 5 5 5 3 5 5 5 5 5 5 5 5 3 5 5 5 5 5 5 5 5 5 3 5 5 5 5 5 5 5 5 5 5 5 5 5 5 5 5 5 5 5 5 3 5 5 5 5 5 5 5 5 5 5 5 5 5 5 3 5 3 5 5 5 5 5 5 5 5 3 5 5 3 5 5 5 5 5 5 5 5 5 5 5 5 5 5 5 5 5 5 5 5 5 5 5 5 5 5 5 5 5 5 5 5 5 5 5 5 3 5 5 3 5 5 5 5 3 5 3 5 5 3 5 3 5 5 5 5 5 3 5 5 5 5 5 5 5 5 5 5 5 5 3 5 5 5 3 5 5 5 5 5 5 5 5 5 3 5 5 5 5 3 3 5 5 5 5 5 5 5 5 3 5 5 5 5 5 3 5 5 5 3 5 5 5 3 5 5 5 5 3 5 5 5 5 5 5 5 5 5 5 5 5 5 5 3 5 5 5 5 5 5 3 5 3 3 5 3 5 3 5 5 5 5 3 5 5 5 5 3 5 5 5 5 5 5 5 5 5 3 5 5 5 5 5 5 5 5 5 5 5 5 5 5 3 5 5 5 3 5 5 5 3 5 3 5 5 5 5 5 5 5 5 5 5 5 5 5 5 5 5 3 5 5 5 5 5 5 3 5 5 5 5 5 5 5 5 5 5 5 5 5 5 5 5 5 5 3 5 5 5 5 5 5 5 5 5 5 5 5 5 5 5 5 5 5 5 5 5 5 5 5 5 5 5 5 5 5 5 5 5 5 3 5 5 5 5 3 5 5 5 5 5 5 5 3 5 5 5 5 5 5 5 5 5 3 5 5 3 5 5 5 5 5 3 5 5 5 3 5 5 3 5 5 5 5 5 5 5 5 5 5 5 5 5 5 5 5 5 5 5 5 3 5 5 5 5 5 5 5 5 5 5 3 3 5 3 5 5 5 5 5 3 5 5 5 5 3 5 5 5 5 5 3 5 3 5 5 3 5 5 5 5 5 5 5 5 3 5 5 5 5 5 5 3 5 5 5 5 5 5 3 5 5 5 5 3 5 5 3 5 3 5 5 3 5 5 5 5 5 5 3 5 5 5 5 3 5 5 5 5 5 5 5 5 3 3 5 5 5 5 5 5 5 5 3 5 5 5 5 5 5 3 5 5 5 5 5 5 5 3 5 5 5 3 5 5 5 5 5 5 5 5 5 5 5 5 3 5 5 5 5 3 5 5 3 5 5 5 5 3 5 5 5 3 3 5 5 5 3 5 5 5 3 5 5 5 5 5 5 5 5 5 3 5 5 5 3 5 5 5 5 5 5 5 5 5 5 5 5 3 5 3 5 5 3 5 5 3 5 5 5 5 5 5 5 3 5 5 5 5 5 3 5 3 5 5 5 3 3 5 3 3 5 3 5 5 5 5 5 5 3 5 3 5 5 5 5 5 5 5 5 5 5 5 5 5 3 5 5 3 5 3 5 5 3 5 5 5 3 3 5 5 3 5 5 5 5 5 5 5 5 5 5 5 5 5 5 5 5 5 5 5 5 5 5 5 3 3 5 3 5 3 5 5 3 3 5 5 3 5 5 3 5 5 3 5 3 5 5 5 5 3 5 5 5 5 3 5 3 3 5 3 5 5 3 3 5 5 5 3 5 5 5 5 3 3 5 5 5 5 5 3 5 5 5 5 5 5 5 5 5 5 5 3 5 3 5 3 5 5 3 5 3 5 5 5 5 5 5 5 5 3 5 5 3 5 5 5 5 3 5 5 5 5 5 5 5 5 5 5 5 5 3 5 5 5 5 5 5 5 5 5 5 5 3 5 5 5 5 5 5 3 5 3 5 5 3 5 5 5 5 5 5 5 5 5 5 5 5 5 5 5 5 5 3 3 5 5 5 3 5 5 3 5 5 5 5 5 5 5 5 5 5 5 5 5 5 5 5 5 5 5 5 5 5 5 5 5 3 3 5 5 5 5 5 5 5 5 5 5 5 3 5 5 5 5 5 5 5 5 5 5 5 5 5 5 5 5 5 5 5 5 5 5 5 5 5 5 5 5 5 5 5 5 5 3 5 5 5 5 5 3 5 5 3 5 5 3 3 5 5 5 5 5 5 5 5 5 5 5 5 5 3 5 5 3 5 5 5 5 5 5 3 5 5 3 5 5 5 5 5 5 5 5 5 5 5 5 5 3 5 5 5 5 5 5 5 3 5 5 5 5 5 5 5 5 5 5 5 5 3 5 5 3 5 5 5 5 5 5 5 5 5 5 5 5 5 5 5 5 5 5 5 5 3 5 5 3 5 3 5 5 5 3 5 5 3 5 3 5 5 5 3 5 5 5 5 3 5 5 5 5 5 5 5 3 5 5 5 3 5 5 5 5 5 5 5 5 5 5 5 5 3 5 5 5 5 5 5 5 5 3 5 5 5 5 5 5 5 5 5 5 5 3 5 5 5 5 5 5 5 5 5 5 5 5 5 5 5 5 5 5 5 3 3 5 5 5 3 5 5 5 5 5 5 5 5 5 5 5 5 3 5 5 5 5 5 5 5 5 5 3 5 5 5 5 5 5 5 5 5 5 5 5 5 5 5 5 3 5 3 5 5 5 5 5 3 5 5 5 5 3 5 5 5 3 5 5 5 3 5 5 5 5 5 5 5 5 5 3 5 5 5 3 5 5 3 5 5 5 5 5 5 3 5 5 5 5 5 5 5 5 3 5 5 5 3 5 5 5 5 5 5 5 5 5 5 5 5 5 5 5 5 5 5 5 5 5 5 5 5 5 5 5 3 5 5 5 5 5 5 5 3 5 5 5 5 5 5 5 5 5 5 5 5 5 5 5 5 5 5 5 5 5 5 5 5 5 3 5 3 5 5 5 5 5 5 3 5 5 5 3 5 5 3 5 5 5 5 5 5 5 5 5 5 5 5 3 5 5 5 5 5 3 5 5 5 5 5 5 5 5 5 5 5 5 5 3 5 5 5 3 5 5 5 5 5 5 5 5 5 5 5 5 3 3 5 5 5 5 3 5 5 5 5 5 5 5 5 5 3 3 5 5 5 5 5 3 5 5 5 5 5 3 5 5 5 5 5 3 5 3 5 5 5 5 3 5 3 5 3 3 5 5 5 5 5 5 5 3 3 5 5 5 5 5 5 3 3 3 5 3 3 5 5 5 3 5 5 5 5 5 3 3 3 5 3 5 5 5 3 5 3 3 5 5 5 5 5 5 5 3 3 5 5 3 3 3 5 5 5 5 5 5 5 5 5 5 5 5 5 5 5 5 5 5 5 5 5 5 5 5 5 5 5 5 5 5 5 5 5 5 5 5 5 5 5 5 3 5 5 5 5 5 5 5 5 5 5 3 5 5 5 5 5 5 3 5 5 3 5 5 5 5 5 5 5 5 5 5 5 5 5 3 5 3 5 5 5 5 3 5 5 5 3 5 5 3 5 5 5 3 5 5 3 5 5 5 5 5 3 5 5 5 5 5 5 5 3 5 5 5 5 5 5 5 3 5 5 3 5 5 5 5 3 5 3 5 5 5 5 5 3 5 5 5 5 3 5 5 5 5 5 5 3 3 5 5 5 5 5 3 5 5 3 5 5 5 5 5 5 5 5 5 5 3 5 5 5 5 5 5 5 5 5 5 5 5 5 5 5 5 5 5 3 5 5 5 5 5 5 3 5 5 5 5 5 5 5 3 3 5 5 5 5 3 5 5 5 5 5 5 5 3 5 5 3 5 3 3 3 5 5 5 5 5 5 3 5 5 5 5 5 3 5 5 5 5 3 5 5 5 3 5 5 5 3 5 5 5 5 5 5 5 5 5 5 5 5 5 5 5 5 5 5 5 5 5 5 5 5 5 3 5 5 5 5 5 5 5 3 5 3 5 5 5 5 5 5 3 5 5 3 5 5 5 3 5 5 3 5 5 5 5 5 3 5 5 5 3 3 5 5 5 5 5 5 5 5 5 5 5 5 3 5 5 5 5 5 5 5 5 5 3 5 5 5 5 5 3 3 5 5 5 5 5 5 5 5 5 3 5 5 5 5 5 5 5 5 3 5 5 5 5 5 5 5 5 5 5 5 5 5 5 5 5 5 5 3 5 5 5 5 3 5 3 5 3 5 5 5 5 5 5 5 5 5 5 5 5 5 5 5 5 5 3 5 5 5 5 5 3 5 5 5 3 3 5 5 5 5 5 3 5 5 5 5 3 5 5 5 5 5 5 5 5 3 5 5 5 5 5 5 5 3 5 5 5 5 5 5 5 5 5 3 5 5 5 5 5 5 5 5 5 5 5 5 5 5 5 5 5 5 3 5 5 5 5 5 5 5 5 5 5 5 5 5 3 5 5 5 5 5 5 3 5 5 3 5 5 3 5 5 5 5 5 5 5 5 5 5 5 5 5 5 5 5 5 5 5 5 5 5 5 5 5 5 3 5 3 5 3 3 5 5 5 3 5 5 5 5 5 5 5 5 5 3 3 5 3 5 5 5 5 5 5 5 5 5 5 5 5 5 5 3 5 3 3 5 3 5 5 5 5 5 5 5 5 5 3 3 5 5 5 5 5 5 5 5 5 5 5 5 5 5 5 5 5 5 5 5 5 5 3 5 5 5 5 5 3 5 5 5 5 5 3 5 5 5 3 5 5 5 5 5 5 5 5 5 3 5 5 5 5 3 5 5 5 5 5 5 3 5 5 5 5 5 5 5 3 5 5 5 5 3 5 5 5 5 5 5 5 5 5 5 3 5 5 5 5 3 5 5 5 3 5 5 5 5 5 3 5 5 5 5 5 5 5 5 5 5 5 5 5 5 3 3 5 5 3 5 5 5 5 5 5 5 3 5 5 5 5 5 5 3 5 5 5 5 5 5 5 5 5 5 5 5 5 5 5 5 5 5 5 5 5 5 5 3 5 5 5 5 5 5 5 5 3 5 5 5 5 3 5 5 5 5 5 3 5 3 5 3 5 5 5 5 5 5 5 3 5 5 5 3 5 5 5 5 5 3 5 5 5 5 5 3 5 3 5 5 3 5 3 5 5 5 5 5 3 5 5 5 3 5 5 5 5 5 5 5 5 5 5 3 5 5 5 5 5 5 5 5 5 5 5 5 5 5 5 5 5 5 5 5 5 5 3 5 5 5 5 5 5 5 5 5 5 5 5 5 5 5 5 5 5 3 5 5 5 3 5 5 5 5 5 5 3 5 5 5 3 3 5 3 5 3 3 5 3 5 5 3 5 5 3 3 5 5 5 5 5 5 5 5 3 5 3 5 5 5 5 5 5 5 5 5 5 5 5 5 5 5 5 5 5 5 5 5 5 3 5 5 5 5 5 5 5 5 3 5 5 3 5 5 3 3 5 5 3 5 5 5 5 5 5 5 5 5 5 5 5 5 5 5 5 5 5 5 5 5 5 5 5 5 5 5 5 5 5 5 5 5 5 5 5 5 5 5 3 5 3 5 5 5 5 5 5 5 5 5 5 5 5 5 5 5 5 5 5 5 5 5 5 5 5 5 5 5 5 5 5 5 5 5 5 5 5 5 5 5 5 3 5 5 3 5 5 5 5 5 3 5 3 5 5 3 5 5 5 5 5 5 3 5 5 5 5 5 5 5 5 5 5 5 3 5 5 3 3 5 3 5 5 3 5 5 5 5 3 5 5 5 5 5 5 5 5 5 3 5 3 5 5 5 5 5 5 5 3 5 3 5 5 5 5 5 5 5 5 5 3 5 3 5 5 5 5 5 5 5 5 5 5 3 5 5 5 3 5 5 3 5 5 3 5 5 5 5 3 5 5 5 3 5 5 5 5 5 5 5 5 5 5 5 5 5 5 3 5 5 5 5 5 5 3 5 3 5 3 5 5 5 3 5 5 5 5 5 5 5 5 3 5 5 5 5 5 3 5 5 3 5 5 5 5 5 5 5 5 5 3 5 5 5 3 5 5 5 5 5 5 3 5 5 5 5 5 5 5 5 5 5 5 5 5 5 5 5 5 5 5 5 5 5 5 5 5 5 5 5 5 5 5 3 5 5 5 5 5 3 5 5 3 3 5 5 5 5 3 5 5 5 5 5 3 5 5 5 5 5 5 5 5 5 5 5 5 5 5 5 5 3 5 5 5 5 5 5 5 5 3 3 5 5 5 5 5 5 3 5 5 5 5 3 5 5 5 5 5 5 5 5 5 5 5 5 5 5 5 5 5 5 5 5 5 5 5 5 3 5 5 3 5 5 5 5 5 5 5 5 5 5 5 5 5 5 5 5 5 5 5 5 5 5 5 5 5 5 5 3 5 3 5 5 5 5 5 3 5 5 5 5 5 5 5 5 5 5 5 5 5 5 5 5 5 5 5 5 3 3 5 3 5 5 5 5 5 5 5 5 5 5 5 5 5 5 5 5 3 5 5 5 3 5 5 5 5 5 5 5 5 5 5 5 5 5 3 5 5 5 5 5 5 5 5 5 5 5 5 5 5 5 5 5 5 5 5 5 5 3 5 5 5 5 5 5 5 5 5 5 5 5 5 3 5 3 5 5 3 3 5 5 5 5 5 5 5 5 5 5 5 5 5 5 5 5 5 5 5 5 3 5 5 3 5 5 5 3 5 5 5 5 5 5 3 5 5 5 3 5 5 5 5 5 5 5 5 3 5 5 3 5 5 3 5 3 5 5 5 5 3 3 5 5 3 3 5 5 3 5 5 5 5 3 5 5 3 3 5 3 5 5 5 5 5 5 5 5 5 5 5 5 5 5 5 5 5 5 5 5 3 5 5 5 5 3 5 5 5 5 3 3 5 5 5 5 5 5 5 5 5 5 5 5 3 5 5 5 3 5 5 5 5 5 5 5 3 5 5 5 3 5 5 3 3 5 5 5 3 5 5 5 3 5 5 5 5 5 5 5 5 5 5 5 5 5 5 5 5 5 5 3 5 5 5 5 5 5 5 5 5 5 5 5 5 5 5 5 5 5 3 3 5 5 5 5 5 3 3 5 3 5 5 5 5 5 5 5 5 5 3 5 5 5 3 5 5 5 5 5 5 5 5 5 5 5 5 5 5 3 5 5 5 5 5 5 5 3 5 5 3 5 5 5 5 5 5 3 5 5 5 5 3 5 5 5 5 5 5 3 5 5 5 5 5 5 5 5 3 3 5 5 5 3 3 5 5 5 5 5 3 5 5 5 5 5 5 3 5 5 5 5 3 5 5 5 5 5 3 5 5 5 5 3 5 5 5 5 5 5 5 5 5 5 5 5 5 5 5 5 5 5 5 5 5 5 5 5 5 3 5 5 5 5 3 5 3 5 3 5 5 3 5 5 3 5 5 3 5 5 5 5 5 5 3 5 5 3 5 3 3 3 5 5 3 5 3 3 5 5 5 3 5 3 5 5 5 5 5 5 3 5 5 5 3 5 5 5 5 5 5 5 3 5 5 5 3 5 3 3 5 5 5 5 5 5 5 3 5 5 5 5 5 5 5 5 3 3 5 5 5 5 3 5 5 3 5 5 5 3 5 5 5 3 3 5 5 5 5 3 5 5 5 5 5 3 3 5 5 5 5 5 5 5 5 5 5 5 5 5 5 5 5 5 5 5 5 5 5 5 5 5 5 5 5 5 5 5 3 5 5 5 3 5 5 5 5 5 5 5 5 5 5 5 5 5 5 5 3 5 3 3 5 5 3 5 5 5 5 5 5 5 5 5 5 5 5 5 5 5 5 5 5 5 5 5 5 5 3 5 5 3 3 5 5 5 5 5 5 5 3 5 5 5 3 5 5 5 5 3 3 5 5 5 5 5 5 5 3 5 5 5 5 3 5 5 5 5 3 5 5 5 5 5 5 5 5 5 5 5 5 5 5 5 5 5 5 5 3 5 5 5 5 5 5 5 5 5 5 5 5 5 5 5 5 3 5 5 5 3 5 5 5 5 5 5 5 5 5 3 5 5 5 5 5 5 5 5 5 5 5 5 5 5 5 5 5 5 5 5 5 3 5 5 5 5 5 5 5 5 5 5 5 5 5 5 5 5 5 3 5 5 5 5 5 3 5 5 5 5 5 5 5 5 5 5 5 5 5 5 5 5 5 5 5 5 5 5 5 5 5 5 5 3 5 5 3 5 5 5 3 5 5 5 5 5 5 5 5 5 5 5 5 5 5 5 3 5 3 5 5 5 5 5 5 5 5 5 3 5 5 5 5 5 5 5 5 5 3 3 5 5 5 5 5 5 5 5 5 5 5 5 5 5 5 5 5 5 5 5 5 5 5 5 5 5 5 5 5 5 5 5 5 5 5 5 5 5 5 5 5 5 5 5 5 5 5 5 5 5 5 5 5 5 5 5 5 5 5 5 5 5 5 5 5 5 5 5 5 5 5 3 5 5 5 5 5 5 3 5 5 5 5 5 5 5 5 5 3 5 3 5 5 5 5 5 5 5 5 5 5 5 5 5 5 5 5 5 5 5 5 5 5 5 5 5 5 5 5 5 5 5 5 5 5 3 5 5 5 3 3 5 5 5 5 5 5 5 5 5 5 5 5 5 5 5 5 5 5 5 5 5 5 3 3 5 5 5 5 5 5 5 5 3 5 5 5 5 5 5 3 5 5 5 5 5 3 5 5 5 5 3 5 5 5 3 5 5 5 3 5 5 3 5 5 5 5 5 5 5 5 5 5 5 5 5 3 5 5 5 5 5 5 5 5 3 5 5 5 5 5 5 5 5 5 5 5 3 5 5 5 3 5 5 5 5 3 5 5 5 5 5 5 5 5 3 5 3 5 5 3 5 5 5 5 5 3 5 5 5 5 5 5 5 5 5 5 5 5 3 5 5 5 5 5 5 5 5 5 3 5 5 5 5 5 5 3 5 5 5 5 5 5 5 3 5 5 5 5 5 3 5 5 5 5 5 5 5 5 5 5 5 5 5 5 5 5 5 5 5 5 5 5 5 5 5 5 5 5 5 5 5 5 5 5 5 5 5 5 5 5 5 5 5 5 5 5 5 3 5 3 5 5 5 5 5 5 5 5 5 5 5 5 5 5 3 5 5 5 5 5 5 5 5 5 5 5 5 5 5 5 3 5 5 3 5 3 5 5 5 5 5 3 5 5 5 5 5 5 5 5 5 5 5 5 5 5 5 5 5 5 5 5 3 5 5 5 5 5 5 5 5 5 5 5 3 5 3 5 5 3 5 3 5 5 5 5 5 5 5 3 5 3 5 5 5 5 3 5 5 5 5 3 3 5 5 3 5 5 5 5 5 5 5 5 5 5 5 5 5 5 5 5 3 5 5 5 5 5 5 5 5 5 5 5 5 5 5 3 5 3 5 5 5 5 5 5 5 3 5 3 5 5 5 5 5 5 5 5 5 3 3 5 5 5 3 5 5 5 5 3 5 3 5 5 3 5 3 3 3 5 5 3 5 5 5 3 3 3 5 5 5 5 5 5 5 5 5 5 5 3 5 5 5 5 5 5 3 5 5 5 3 5 5 5 5 5 5 5 5 3 5 5 5 3 5 5 5 5 5 5 5 5 5 5 5 5 5 5 5 5 5 5 5 5 5 5 5 5 5 5 5 5 5 5 5 5 5 5 5 5 5 5 5 5 5 5 5 5 5 5 5 5 5 5 5 5 5 5 5 5 5 5 5 5 3 5 5 5 5 5 3 5 5 5 5 3 5 5 5 3 5 5 5 5 5 5 5 5 5 5 5 5 5 5 5 5 5 5 5 5 5 5 5 5 5 5 5 5 5 5 5 5 5 5 5 5 5 5 5 5 3 5 5 3 5 5 5 5 5 5 5 3 5 5 5 5 5 5 5 5 5 5 5 3 5 5 3 5 3 5 5 5 3 5 5 5 5 5 5 5 5 3 5 5 5 5 3 5 5 5 5 3 5 3 5 5 5 5 5 5 5 5 5 5 5 5 3 5 3 5 5 5 5 5 5 5 5 5 5 5 5 5 3 5 5 5 5 5 5 5 5 5 3 5 5 5 3 5 5 5 5 5 5 5 5 5 5 5 5 5 5 5 5 5 5 5 5 5 5 5 5 5 5 5 5 5 5 5 5 5 5 5 3 5 5 3 5 5 5 5 3 5 5 5 5 5 5 5 5 5 5 5 5 5 5 5 3 5 5 5 5 5 5 5 5 5 3 5 3 5 5 5 5 5 5 5 3 5 5 5 5 5 5 5 5 5 5 5 5 5 5 3 5 5 5 5 5 5 5 5 5 5 5 3 5 5 5 5 5 5 5 5 5 5 5 5 5 5 5 5 5 5 5 5 5 5 5 3 5 3 5 5 5 5 5 5 3 5 3 5 5 5 3 5 5 5 3 5 5 5 3 5 5 3 5 5 5 5 5 5 5 3 5 5 5 5 5 5 5 3 5 5 5 5 5 5 5 5 5 5 5 5 5 3 5 5 5 5 5 5 5 5 3 5 5 5 5 5 5 5 5 5 5 5 5 5 5 5 5 5 5 5 5 3 5 5 5 5 5 5 5 5 5 5 5 5 5 5 5 5 5 5 5 5 5 5 5 5 5 5 5 5 5 5 5 5 5 5 5 5 5 5 5 5 5 5 5 5 5 5 5 5 5 5 3 5 3 5 5 5 3 5 5 3 3 5 3 5 5 5 5 5 5 5 5 5 5 5 5 5 5 5 5 5 5 5 5 5 5 5 5 5 5 5 5 5 5 5 5 5 5 5 3 5 5 5 5 3 5 5 3 5 5 5 3 5 5 5 5 3 5 3 3 5 5 5 5 3 5 5 5 3 5 5 5 3 5 5 5 5 5 5 3 5 5 5 5 5 5 5 5 5 5 5 5 5 5 5 5 5 5 5 5 3 5 5 5 5 5 5 5 5 5 5 5 5 5 5 5 5 5 5 3 5 5 3 5 5 3 5 5 5 5 5 5 5 5 5 5 5 3 5 5 5 5 3 5 5 5 5 3 5 5 5 3 5 5 5 5 5 5 5 5 5 5 5 5 5 5 5 5 5 5 5 5 5 5 5 5 5 3 5 5 5 5 5 5 5 5 3 5 5 5 3 5 5 5 5 5 5 5 5 5 5 5 5 5 5 5 5 5 5 5 5 5 5 5 5 3 5 5 5 3 5 5 5 5 5 5 5 5 3 5 5 3 5 5 5 5 3 5 5 5 5 5 5 5 3 5 3 5 5 3 5 5 3 3 5 5 5 5 5 5 5 5 5 5 5 5 5 5 5 5 5 5 5 5 5 3 5 5 5 5 3 5 5 5 5 5 5 5 5 5 5 5 5 5 3 5 5 3 5 5 5 5 5 5 5 5 5 5 5 5 5 5 5 5 5 5 5 5 5 5 5 5 5 5 5 5 5 5 5 5 5 5 5 5 5 5 5 5 5 5 5 5 5 5 5 5 5 5 5 5 5 5 5 5 5 5 5 5 5 5 5 5 5 5 5 5 5 5 5 5 5 5 5 5 5 5 5 5 5 5 5 5 5 5 5 5 5 5 5 5 5 5 5 5 5 5 5 5 5 5 5 5 5 5 5 5 5 5 5 5 5 5 5 5 5 5 5 5 5 5 5 5 5 5 5 5 3 5 5 5 5 5 5 5 3 5 5 5 5 5 5 5 5 5 3 5 3 5 5 5 3 5 5 3 5 5 5 5 5 5 5 5 5 5 5 5 5 5 5 5 5 5 5 5 5 5 5 5 5 5 5 5 5 5 5 5 5 5 5 5 5 3 5 5 3 3 5 5 3 5 5 3 5 5 5 3 5 5 5 5 5 5 5 5 5 3 5 5 5 5 5 5 3 5 5 5 5 5 5 5 5 5 5 5 5 5 5 5 5 5 5 5 5 5 5 5 5 5 5 5 5 5 5 5 3 5 5 5 5 5 5 5 5 5 5 5 5 5 5 5 5 5 5 5 5 5 5 5 5 5 5 5 5 5 5 5 5 5 5 5 5 5 5 5 5 5 5 5 5 5 5 3 5 3 5 5 5 5 3 5 5 5 5 3 5 5 5 5 3 5 5 5 5 5 5 5 5 3 5 5 3 5 3 5 5 5 5 3 5 5 3 3 5 5 5 5 5 5 3 5 5 5 5 5 5 5 5 5 5 3 3 5 5 5 5 5 3 5 5 3 5 5 5 5 3 5 5 3 5 5 5 5 5 5 5 5 5 5 5 5 5 5 5 5 5 5 5 5 5 5 5 5 5 5 5 5 5 3 5 3 5 5 5 5 5 5 5 5 5 5 5 5 5 3 5 5 5 5 3 3 5 5 5 5 5 5 5 5 5 5 5 5 5 5 5 5 5 5 5 5 5 5 5 5 5 5 5 5 5 5 5 5 5 5 5 5 5 5 5 5 5 5 3 5 5 5 3 5 5 5 5 5 5 5 5 5 5 5 5 5 5 5 5 5 5 5 5 3 5 5 3 5 5 5 5 5 5 5 5 5 3 5 5 5 5 5 3 5 5 5 5 5 3 5 3 5 5 5 5 5 5 5 5 5 5 5 5 5 3 5 5 5 3 3 5 5 5 5 5 5 5 5 3 5 5 3 5 5 3 3 5 5 5 5 5 3 5 5 5 5 5 5 5 3 5 5 3 3 5 5 5 5 5 5 3 3 5 5 5 3 5 5 5 5 5 5 5 3 5 5 5 5 5 5 5 5 5 5 5 5 5 5 5 5 5 5 5 5 5 5 5 5 5 5 3 5 5 5 5 5 5 5 3 5 5 5 5 5 5 5 5 5 5 5 3 5 5 5 5 5 5 5 5 3 5 5 5 5 5 5 5 5 5 5 5 5 5 5 5 5 3 5 5 5 3 5 5 5 5 5 3 5 5 5 5 5 5 5 5 5 5 5 5 5 5 3 5 5 5 5 3 5 5 3 5 5 5 5 5 3 5 5 5 5 5 5 5 5 5 5 5 5 5 5 3 5 3 5 5 5 3 5 3 5 3 5 5 5 5 5 5 3 3 5 5 5 5 5 5 3 5 3 5 5 5 5 5 5 5 5 5 5 5 5 5 5 5 5 5 3 5 5 5 3 3 5 5 5 5 5 3 5 5 3 3 5 5 5 5 5 5 5 5 5 5 5 5 5 5 5 5 5 5 5 5 5 5 5 5 5 5 5 5 5 5 5 5 5 5 5 5 5 5 5 5 5 5 5 5 3 5 5 3 3 3 5 5 5 5 5 5 3 5 5 5 5 5 5 5 5 5 3 5 5 5 3 5 5 5 5 5 5 5 5 5 5 5 5 5 5 5 5 5 5 5 5 3 5 5 5 5 3 5 5 5 5 5 5 5 5 5 5 5 5 5 5 5 5 5 5 5 5 5 5 5 5 5 5 5 5 5 5 5 5 5 5 3 5 3 5 5 5 5 5 5 5 5 3 5 5 5 3 5 3 5 5 5 5 5 5 5 5 3 5 5 5 5 3 5 5 5 5 3 5 5 5 5 5 5 5 3 5 5 5 5 3 5 5 5 5 5 5 5 5 5 5 5 5 5 5 5 5 5 5 5 5 5 5 5 5 5 5 5 5 5 5 5 5 5 5 5 5 5 5 5 5 5 5 5 5 5 5 3 5 5 5 5 3 3 5 5 3 3 5 5 5 5 5 5 5 5 5 5 5 5 5 5 5 5 5 5 5 3 5 5 5 3 3 5 5 5 5 5 5 5 5 5 5 5 5 5 5 5 5 5 5 5 5 5 5 5 5 5 5 5 3 5 5 5 5 5 5 5 3 5 5 5 5 5 5 5 5 5 5 5 5 5 5 5 3 5 5 5 5 5 5 5 5 3 5 3 3 5 5 5 5 5 5 5 5 5 5 5 5 3 5 5 5 5 5 5 5 5 5 5 5 5 5 5 5 5 5 5 3 5 5 5 3 5 5 5 5 5 5 5 5 3 5 5 5 5 5 5 5 5 5 5 5 5 5 5 5 3 5 5 5 3 5 5 5 5 5 5 5 5 5 5 5 5 5 5 5 5 5 5 5 5 5 5 5 5 5 5 5 5 5 5 5 5 5 3 5 3 5 5 5 5 5 5 5 5 3 5 5 5 5 5 5 5 5 5 3 5 5 3 5 5 5 5 5 3 5 5 5 5 3 5 5 5 5 3 5 5 5 3 5 3 5 5 3 5 5 5 5 5 5 5 5 5 5 5 5 5 5 3 5 5 3 5 3 5 5 5 3 5 5 3 5 5 5 5 3 5 3 5 5 5 5 5 5 3 5 3 5 5 5 5 5 3 5 5 5 5 3 5 5 5 5 5 5 3 5 5 5 5 5 5 5 5 5 5 5 5 5 5 5 5 5 5 5 5 5 5 5 5 5 5 5 5 5 5 5 5 5 3 3 5 5 5 5 5 5 5 5 5 5 3 5 5 3 3 5 3 5 5 5 5 5 5 5 3 5 5 5 5 5 5 5 5 5 5 5 5 3 5 5 5 5 3 5 5 5 5 5 5 5 5 5 5 5 5 3 5 5 5 5 5 5 5 5 5 5 5 5 5 5 5 5 5 3 5 5 5 5 5 3 5 5 5 3 5 5 5 5 5 5 3 5 3 5 5 5 3 5 5 5 5 5 5 5 5 5 3 5 5 3 5 5 5 5 5 5 5 3 5 5 5 5 5 5 5 5 5 5 5 5 5 3 5 5 3 5 5 5 5 5 5 3 5 5 5 5 5 5 3 5 5 5 5 5 5 5 3 5 5 5 5 5 5 5 5 5 5 5 5 5 5 5 5 5 5 5 5 5 5 3 5 5 5 5 5 5 5 5 5 5 3 5 5 5 5 3 3 5 5 5 5 3 5 5 5 5 5 5 5 5 5 3 5 5 5 5 5 5 5 5 5 5 5 3 5 5 5 3 5 5 5 3 5 5 5 5 5 5 5 5 5 5 5 5 3 5 5 5 5 5 3 5 5 3 5 5 5 5 5 5 5 5 5 5 5 5 5 5 3 5 5 5 5 5 5 5 3 5 5 5 3 5 5 5 5 5 3 5 5 5 5 5 5 5 5 5 3 5 5 5 5 5 5 5 5 3 5 5 5 5 5 3 5 5 5 5 5 5 5 3 5 5 5 5 5 5 5 5 5 5 5 5 5 5 5 5 5 5 5 5 5 5 5 5 5 5 5 5 5 5 5 5 5 5 5 5 5 5 5 5 5 5 5 5 5 5 5 5 3 5 5 5 5 5 5 5 3 5 5 5 5 5 5 5 5 5 5 5 5 5 5 5 5 5 5 5 5 5 5 3 3 5 5 3 3 5 5 5 5 5 5 5 3 5 5 5 5 5 5 5 5 5 5 5 5 5 5 3 5 5 5 5 5 5 5 5 3 5 5 3 5 5 5 3 5 5 5 5 5 5 5 5 5 5 5 5 5 5 5 5 5 5 5 5 5 5 5 5 5 5 5 5 3 5 5 5 5 5 5 5 5 3 5 5 5 5 5 5 3 3 5 5 5 5 3 5 5 3 5 5 3 5 5 5 5 5 5 3 5 5 5 5 5 5 5 5 3 5 5 5 5 5 5 5 5 5 5 5 3 5 5 3 5 5 5 5 5 5 5 3 5 5 5 3 5 3 5 3 5 5 5 5 5 5 5 5 5 5 5 5 5 5 5 5 5 3 5 3 5 5 5 5 5 5 5 5 5 5 3 5 5 5 5 5 5 5 3 5 5 5 3 5 3 3 5 5 3 5 5 5 5 3 5 5 5 3 5 5 5 3 5 3 3 5 5 5 5 5 5 3 5 5 5 5 5 5 5 5 3 3 3 5 3 5 5 3 3 5 5 3 5 5 5 5 5 5 5 5 5 5 5 3 5 5 5 5 5 5 5 5 5 5 5 5 5 3 3 5 5 5 5 3 5 5 5 3 5 5 5 5 5 3 3 5 5 5 3 5 5 5 5 5 5 5 5 5 5 5 5 5 5 5 3 5 5 5 3 5 5 5 3 5 5 5 5 5 5 3 5 5 5 5 5 3 5 5 5 5 5 5 5 5 3 5 5 5 5 5 5 5 5 5 3 5 5 5 5 3 5 3 5 5 3 5 3 5 5 5 5 5 5 3 5 3 3 5 5 5 5 5 5 5 5 3 5 3 5 3 5 3 5 5 5 5 5 5 5 5 5 5 5 3 5 5 5 3 5 5 5 5 5 5 5 5 3 5 5 5 5 5 5 5 5 5 3 5 5 5 5 3 5 5 3 5 5 5 5 5 5 5 5 5 3 5 5 5 3 5 5 5 5 5 5 5 5 5 5 5 5 5 5 5 5 5 5 5 3 5 5 5 5 5 5 5 5 5 5 3 5 5 5 5 5 5 5 5 5 5 5 5 5 5 5 5 5 5 5 5 5 5 5 5 5 5 5 5 5 5 5 5 5 5 5 5 5 5 5 5 5 5 5 5 5 3 3 5 5 5 5 5 5 5 5 5 5 5 5 5 3 3 5 5 5 3 5 5 3 5 5 5 3 5 5 5 3 5 5 5 5 5 5 5 5 3 5 5 3 5 3 3 5 5 5 5 5 5 3 5 3 3 3 5 5 3 5 5 3 3 5 5 5 5 5 5 5 5 5 5 5 5 5 5 5 5 5 5 5 5 5 3 5 5 5 5 5 5 5 5 5 3 5 5 5 5 5 5 5 3 3 5 5 5 5 5 5 5 5 5 5 5 5 5 5 5 5 5 5 5 5 5 5 5 3 5 3 5 5 5 5 5 5 5 3 5 5 5 3 3 5 5 3 5 5 5 5 3 5 5 5 3 5 5 5 3 5 5 5 5 5 5 5 5 5 3 3 5 5 5 5 5 3 5 5 3 3 3 5 5 5 5 5 3 5 5 5 5 5 5 5 5 5 3 5 3 5 5 5 5 5 5 5 5 5 5 5 5 5 5 5 5 5 5 5 5 5 5 5 5 3 5 5 5 5 3 3 5 5 5 3 5 5 5 5 5 5 5 5 5 5 5 5 5 5 5 5 3 5 5 5 3 5 5 3 5 5 5 5 5 5 5 5 5 5 5 5 5 3 5 5 3 5 5 5 3 5 3 5 3 5 3 3 3 5 5 5 5 5 5 5 5 3 5 5 5 5 5 5 5 5 3 5 5 3 5 5 5 5 5 5 5 5 5 5 5 5 5 5 5 5 5 5 5 5 5 3 5 5 5 5 5 5 5 5 5 5 3 5 3 5 5 3 5 3 5 3 5 5 3 5 3 5 5 3 5 5 5 3 5 5 5 5 5 5 5 5 5 5 5 5 5 5 5 5 5 5 5 5 5 5 5 5 5 5 5 5 5 5 5 5 5 5 5 5 5 5 5 5 5 5 5 5 5 5 5 5 5 5 5 5 5 5 5 5 5 5 5 5 5 3 5 5 3 5 5 5 5 5 5 3 3 5 5 5 5 5 5 5 5 5 5 5 5 5 5 5 5 5 5 3 5 5 5 3 5 5 5 5 5 5 5 5 5 5 5 5 5 5 5 5 3 5 5 5 5 5 5 5 3 5 5 5 5 5 5 5 5 3 5 3 5 5 5 5 5 5 5 5 5 5 5 5 5 5 5 5 3 5 5 5 5 5 5 5 3 5 5 5 5 3 5 5 5 5 5 5 5 3 5 5 3 3 5 5 3 5 5 5 5 5 5 3 5 5 5 5 5 5 5 5 5 3 5 5 3 5 5 3 5 5 3 5 5 5 5 5 3 5 5 5 5 5 5 5 5 3 5 5 5 5 5 5 5 3 5 5 5 5 5 5 5 5 5 5 5 5 3 5 5 5 5 5 5 5 3 3 5 3 5 3 5 5 5 5 5 5 5 5 5 5 5 5 5 5 5 3 5 3 5 5 5 5 5 5 5 5 3 5 3 5 3 5 3 5 3 5 5 3 5 5 5 5 5 3 5 5 5 5 5 5 5 5 3 5 5 5 5 5 3 5 5 3 5 3 3 5 5 5 5 5 5 5 5 3 5 5 5 5 5 5 5 5 5 5 5 5 5 3 5 5 5 5 5 5 5 3 5 5 5 3 5 5 5 5 5 5 5 5 5 5 5 5 5 5 5 5 5 3 5 5 5 5 5 5 5 3 5 5 3 5 5 5 5 5 5 5 5 5 5 5 5 5 5 5 3 5 5 5 5 3 5 5 5 5 5 5 5 5 5 5 5 5 5 5 5 5 5 5 5 5 5 5 5 5 5 3 5 5 5 5 5 5 3 5 5 5 5 5 5 5 5 5 3 3 5 5 5 3 5 3 5 5 5 5 5 5 5 5 5 5 5 5 5 5 5 3 5 5 5 5 5 5 5 5 5 5 5 5 3 3 5 5 5 5 5 5 5 5 3 5 5 3 5 5 3 3 5 5 5 5 5 5 5 3 5 5 5 5 5 5 5 5 5 3 5 5 5 3 5 5 5 5 5 3 5 5 5 5 5 5 5 5 5 5 5 5 3 5 5 5 3 5 5 5 3 5 5 5 5 5 5 5 5 5 5 5 5 5 5 5 5 5 5 5 5 5 5 5 5 5 5 5 5 5 5 5 5 3 5 5 5 5 5 5 5 5 5 5 5 5 5 5 5 5 5 5 5 5 5 5 5 5 3 5 3 5 5 3 5 5 5 5 5 5 5 5 5 3 5 5 5 5 5 5 5 5 5 5 5 5 5 5 3 5 5 5 5 3 5 5 5 3 5 5 5 5 5 5 5 5 5 5 5 5 5 5 5 5 5 5 5 5 5 5 5 5 5 5 5 5 5 5 5 5 5 5 5 5 5 5 5 5 5 5 5 5 5 5 5 5 5 5 5 5 5 5 5 5 5 5 5 5 5 5 5 5 5 5 5 5 5 5 5 5 5 5 5 5 5 5 5 5 5 5 5 5 5 5 5 5 5 5 5 5 5 5 5 5 5 5 5 5 5 5 5 5 5 5 5 5 5 5 5 5 5 5 5 5 5 5 5 5 5 5 5 5 5 5 5 5 5 5 5 5 5 5 5 5 5 5 5 5 5 5 5 5 5 5 5 5 5 5 5 5 5 5 5 5 5 5 5 5 5 5 5 5 5 5 5 5 5 5 5 5 5 5 5 5 5 5 5 5 5 5 5 5 5 5 5 5 5 3 5 5 5 5 5 5 5 5 5 5 5 5 5 5 5 5 3 5 5 5 5 5 5 5 5 3 5 5 5 5 3 5 5 5 5 5 5 5 5 5 5 5 5 5 5 5 5 5 5 5 5 5 5 3 5 5 5 5 5 5 5 5 5 5 5 5 5 3 3 5 5 5 5 5 3 5 3 5 5 5 5 5 5 5 5 5 5 5 3 5 5 5 5 5 5 5 3 5 5 5 5 5 5 5 5 5 5 5 5 5 5 5 3 3 5 5 5 5 5 5 5 5 5 5 5 5 3 5 5 5 5 5 5 5 5 5 5 5 5 5 5 5 5 3 5 5 5 5 5 5 5 3 5 5 5 5 5 5 5 5 5 5 3 3 5 5 5 5 5 5 5 5 5 5 5 5 5 5 5 5 5 5 5 5 5 5 5 5 5 5 5 5 5 5 3 5 5 5 5 5 3 5 5 5 5 5 5 5 5 5 5 3 5 5 5 5 3 5 5 5 5 5 5 5 5 5 5 3 5 3 5 5 5 5 5 5 5 5 5 5 5 5 5 5 5 5 5 5 5 5 5 5 5 5 5 5 5 5 5 5 5 3 5 5 5 5 5 3 5 5 5 5 5 5 5 5 5 5 5 5 5 5 5 5 5 5 3 5 5 3 5 5 5 3 5 5 5 5 5 3 5 5 5 5 5 5 5 5 5 5 3 5 5 5 5 5 5 3 5 5 5 5 5 3 3 5 5 3 5 5 3 5 5 5 5 5 5 5 5 5 5 3 5 5 3 5 5 3 5 5 3 5 5 3 5 5 3 5 5 5 5 5 5 3 5 5 5 5 5 5 5 5 5 5 5 3 5 5 5 5 5 5 5 3 5 5 5 5 3 5 5 5 3 5 5 5 5 5 5 5 5 5 5 5 3 5 5 5 5 5 5 5 5 5 5 5 5 5 5 5 5 5 5 5 5 5 5 5 5 3 5 5 5 5 5 3 5 5 5 5 5 5 5 5 5 5 5 5 5 5 3 5 5 3 5 3 5 5 5 5 3 5 3 3 5 3 5 5 5 5 5 5 5 3 5 3 5 5 5 5 5 5 3 5 5 5 5 5 5 3 5 5 5 5 3 5 5 5 5 5 3 5 5 3 5 5 5 5 3 5 5 5 5 3 5 5 5 5 5 5 3 5 5 5 5 5 5 5 5 5 3 5 5 5 5 5 5 3 5 5 5 5 3 5 5 5 5 5 5 5 5 5 5 5 5 5 5 5 5 3 5 5 5 3 5 5 3 5 5 5 5 5 5 5 5 5 5 5 5 5 5 5 5 3 5 3 5 5 5 5 5 5 5 5 5 5 5 5 5 5 5 5 5 5 5 5 5 5 5 5 5 5 3 5 5 3 5 5 5 5 5 5 5 5 5 5 3 5 5 5 5 3 5 5 5 5 3 5 5 5 5 5 5 5 5 5 3 5 5 5 5 5 5 5 5 5 5 5 5 5 5 5 5 5 5 5 5 5 5 5 5 5 5 5 5 
</DataArray>
</Cells>
<PointData Scalars="" Vectors="displacement," Tensors="">
<DataArray type="Float64" Name="displacement" NumberOfComponents="3" format="ascii">
-1.7030110576252183e-06 -0.034996798401023932 0 -0.00017039599505929399 -0.032724319956605664 0 3.610099844328998e-06 -0.029500843576387388 0 -1.7030110576252183e-06 -0.034996798401023932 0 -0.00015703035369808049 -0.034201974631387438 0 -0.00017039599505929399 -0.032724319956605664 0 -1.7030110576252183e-06 -0.034996798401023932 0 -0.00015703035369808049 -0.034201974631387438 0 3.6540606580447743e-09 -0.034999152185032432 0 -0.00015703035369808049 -0.034201974631387438 0 3.6540606580447743e-09 -0.034999152185032432 0 -8.6011110221901349e-05 -0.034205391242413972 0 3.6540606580447743e-09 -0.034999152185032432 0 -8.6011110221901349e-05 -0.034205391242413972 0 -6.8402772869668736e-05 -0.034772685511861974 0 -0.00028680764211190367 -0.032042751691379268 0 4.2368091099035621e-05 -0.031121428085307004 0 -8.6011110221901349e-05 -0.034205391242413972 0 0.00042195243402541312 -0.034160215404855386 0 0.00045567065403326372 -0.034384437654844065 0 -8.6011110221901349e-05 -0.034205391242413972 0 0.00045567065403326372 -0.034384437654844065 0 0.00022318538249964625 -0.034610280363208477 0 -0.00015703035369808049 -0.034201974631387438 0 -8.6011110221901349e-05 -0.034205391242413972 0 -0.00017039599505929399 -0.032724319956605664 0 -8.6011110221901349e-05 -0.034205391242413972 0 -0.00017039599505929399 -0.032724319956605664 0 0.00062550136576481003 -0.033385461771858325 0 -0.00017039599505929399 -0.032724319956605664 0 0.0013285881068638035 -0.031628921816971717 0 0.00062550136576481003 -0.033385461771858325 0 -0.00017039599505929399 -0.032724319956605664 0 3.610099844328998e-06 -0.029500843576387388 0 0.0013285881068638035 -0.031628921816971717 0 1.9817901388965982e-06 -0.029489652529209223 0 0.0003015322622589534 -0.027193064309779014 0 -8.3639061179982101e-07 -0.027572046996977826 0 1.3320869188540499e-06 -0.029491476011851397 0 0.00056570650877667977 -0.02893947528821722 0 -8.3639061179982101e-07 -0.027572046996977826 0 -7.9634667675454763e-05 -0.02648814737740365 0 -0.00016791927322782843 -0.025781219733342426 0 -8.3639061179982101e-07 -0.027572046996977826 0 -2.552909982972898e-07 -0.025651173422870023 0 -0.00016791927322782843 -0.025781219733342426 0 0.0003015322622589534 -0.027193064309779014 0 -8.3639061179982101e-07 -0.027572046996977826 0 -7.9634667675454763e-05 -0.02648814737740365 0 0.0003015322622589534 -0.027193064309779014 0 -7.9634667675454763e-05 -0.02648814737740365 0 0.00013212791364590015 -0.026228696493771912 0 0.00056570650877667977 -0.02893947528821722 0 0.00087333174405253419 -0.027840835388719527 0 -7.9634667675454763e-05 -0.02648814737740365 0 -0.00020680077870940532 -0.026002801357158746 0 0.00013212791364590015 -0.026228696493771912 0 -7.9634667675454763e-05 -0.02648814737740365 0 -0.00020680077870940532 -0.026002801357158746 0 -0.00016791927322782843 -0.025781219733342426 0 0.00068160267137373093 -0.025298550662997722 0 0.00087333174405253419 -0.027840835388719527 0 0.0011272379822028877 -0.020331743106820288 0 0.00094611453190853237 -0.020508228007782413 0 0.00071497784735220619 -0.020420438130418238 0 0.0011272379822028877 -0.020331743106820288 0 0.00094611453190853237 -0.020508228007782413 0 0.0011317576515727827 -0.020535957866701208 0 0.00094611453190853237 -0.020508228007782413 0 0.00071497784735220619 -0.020420438130418238 0 0.00089126646891239181 -0.020740008617703296 0 0.00066943843389896012 -0.034197323203135441 0 0.00065966810090661507 -0.034343161811001402 0 0.00060368694855803537 -0.034292080475051785 0 0.00087333174405253419 -0.027840835388719527 0 0.00085561333866531082 -0.027527635592770223 0 0.00065966810090661507 -0.034343161811001402 0 0.00060368694855803537 -0.034292080475051785 0 0.00063896433998434775 -0.034369368283319199 0 0.00089126646891239181 -0.020740008617703296 0 0.0011317576515727827 -0.020535957866701208 0 0.0011865292303513623 -0.020746823501061187 0 0.00094611453190853237 -0.020508228007782413 0 0.00089126646891239181 -0.020740008617703296 0 0.0011317576515727827 -0.020535957866701208 0 0.00066943843389896012 -0.034197323203135441 0 0.00042195243402541312 -0.034160215404855386 0 0.00060368694855803537 -0.034292080475051785 0 0.00087333174405253419 -0.027840835388719527 0 4.2368091099035621e-05 -0.031121428085307004 0 0.0013285881068638035 -0.031628921816971717 0 0.0020518162637589471 -0.032806970347743082 0 0.00062550136576481003 -0.033385461771858325 0 0.00060368694855803537 -0.034292080475051785 0 0.00045567065403326372 -0.034384437654844065 0 0.00059320236314415985 -0.034380185272294472 0 0.00060368694855803537 -0.034292080475051785 0 0.00059320236314415985 -0.034380185272294472 0 0.00063896433998434775 -0.034369368283319199 0 0.00042195243402541312 -0.034160215404855386 0 0.00060368694855803537 -0.034292080475051785 0 0.00045567065403326372 -0.034384437654844065 0 0.00045567065403326372 -0.034384437654844065 0 0.00044000707898720883 -0.034550273216089361 0 0.00022318538249964625 -0.034610280363208477 0 0.00044000707898720883 -0.034550273216089361 0 0.00039706307233755756 -0.034726854945125084 0 0.00022318538249964625 -0.034610280363208477 0 0.00044000707898720883 -0.034550273216089361 0 0.00052460558580497238 -0.034535531773929103 0 0.00051397061445438742 -0.034628195992965308 0 0.00044000707898720883 -0.034550273216089361 0 0.0005447235400302963 -0.034454609417524096 0 0.00052460558580497238 -0.034535531773929103 0 0.00045567065403326372 -0.034384437654844065 0 0.00044000707898720883 -0.034550273216089361 0 0.0005447235400302963 -0.034454609417524096 0 0.00045567065403326372 -0.034384437654844065 0 0.00059320236314415985 -0.034380185272294472 0 0.0005447235400302963 -0.034454609417524096 0 0.00059320236314415985 -0.034380185272294472 0 0.0005447235400302963 -0.034454609417524096 0 0.0006433028044272891 -0.034428107715091284 0 0.00059320236314415985 -0.034380185272294472 0 0.0006433028044272891 -0.034428107715091284 0 0.00063896433998434775 -0.034369368283319199 0 0.0006433028044272891 -0.034428107715091284 0 0.00063896433998434775 -0.034369368283319199 0 0.00064562819058931948 -0.034355023769704632 0 0.0013775572169541753 -0.033688960917262228 0 0.0013925057874975978 -0.033596977925068584 0 0.0006433028044272891 -0.034428107715091284 0 0.00060121160928930969 -0.034510667165016572 0 0.00070429357811045462 -0.034679157323426857 0 0.0006433028044272891 -0.034428107715091284 0 0.00069292595620482501 -0.034330654819193111 0 0.00064562819058931948 -0.034355023769704632 0 0.0013894291729976888 -0.03364043585534493 0 0.0013925057874975978 -0.033596977925068584 0 0.00060121160928930969 -0.034510667165016572 0 0.00051397061445438742 -0.034628195992965308 0 0.00066314087300857602 -0.034638827455270582 0 0.0005447235400302963 -0.034454609417524096 0 0.00052460558580497238 -0.034535531773929103 0 0.00060121160928930969 -0.034510667165016572 0 0.0005447235400302963 -0.034454609417524096 0 0.0006433028044272891 -0.034428107715091284 0 0.00060121160928930969 -0.034510667165016572 0 0.00052460558580497238 -0.034535531773929103 0 0.00060121160928930969 -0.034510667165016572 0 0.00051397061445438742 -0.034628195992965308 0 0.00051397061445438742 -0.034628195992965308 0 0.00066314087300857602 -0.034638827455270582 0 0.00053426276509097059 -0.034793948861346111 0 0.0013925057874975978 -0.033596977925068584 0 0.0011568840275117029 -0.033368639026897344 0 0.00066314087300857602 -0.034638827455270582 0 0.00053426276509097059 -0.034793948861346111 0 0.0006937521061487834 -0.034966613031149112 0 0.00053426276509097059 -0.034793948861346111 0 0.00039706307233755756 -0.034726854945125084 0 0.00041271194327229167 -0.034990883264253946 0 0.00039706307233755756 -0.034726854945125084 0 0.00041271194327229167 -0.034990883264253946 0 0.00021569118387103321 -0.034796232196407165 0 0.00051397061445438742 -0.034628195992965308 0 0.00053426276509097059 -0.034793948861346111 0 0.00039706307233755756 -0.034726854945125084 0 0.00044000707898720883 -0.034550273216089361 0 0.00051397061445438742 -0.034628195992965308 0 0.00039706307233755756 -0.034726854945125084 0 0.00065966810090661507 -0.034343161811001402 0 0.00052966996233451966 -0.034314639856676675 0 0.00061933197418660723 -0.034337398332721654 0 0.00089126646891239181 -0.020740008617703296 0 0.0010576031740287825 -0.021073967272271666 0 0.0011865292303513623 -0.020746823501061187 0 0.00085561333866531082 -0.027527635592770223 0 0.00093748729882562503 -0.02732290020201503 0 0.00052966996233451966 -0.034314639856676675 0 0.00061933197418660723 -0.034337398332721654 0 0.00057741129456401977 -0.034274352789385606 0 0.00065966810090661507 -0.034343161811001402 0 0.00061933197418660723 -0.034337398332721654 0 0.00063896433998434775 -0.034369368283319199 0 0.00061933197418660723 -0.034337398332721654 0 0.00063896433998434775 -0.034369368283319199 0 0.00064562819058931948 -0.034355023769704632 0 0.00069292595620482501 -0.034330654819193111 0 0.00063667129367175771 -0.034262008256856789 0 0.00066826239684005895 -0.034123100530154021 0 0.0013925057874975978 -0.033596977925068584 0 0.0015050634927443116 -0.032550407419261851 0 0.00061933197418660723 -0.034337398332721654 0 0.00064562819058931948 -0.034355023769704632 0 0.00063667129367175771 -0.034262008256856789 0 0.00069292595620482501 -0.034330654819193111 0 0.00064562819058931948 -0.034355023769704632 0 0.00063667129367175771 -0.034262008256856789 0 0.00061933197418660723 -0.034337398332721654 0 0.00063667129367175771 -0.034262008256856789 0 0.00057741129456401977 -0.034274352789385606 0 0.00063667129367175771 -0.034262008256856789 0 0.00057741129456401977 -0.034274352789385606 0 0.0005200511053662898 -0.034175173707857068 0 0.00052966996233451966 -0.034314639856676675 0 0.0005200511053662898 -0.034175173707857068 0 0.00042212405226217886 -0.03416455937723871 0 0.00052966996233451966 -0.034314639856676675 0 0.00057741129456401977 -0.034274352789385606 0 0.0005200511053662898 -0.034175173707857068 0 0.0005200511053662898 -0.034175173707857068 0 0.00054890062245248209 -0.03404853783173676 0 0.00066826239684005895 -0.034123100530154021 0 0.0005200511053662898 -0.034175173707857068 0 0.00054890062245248209 -0.03404853783173676 0 0.00043750439501328756 -0.034024245538450987 0 0.00063667129367175771 -0.034262008256856789 0 0.0005200511053662898 -0.034175173707857068 0 0.00066826239684005895 -0.034123100530154021 0 0.0015050634927443116 -0.032550407419261851 0 0.001409332737972574 -0.030244393037441877 0 0.0014005026249463135 -0.032414060103269714 0 0.001650433176776913 -0.03150661467291295 0 0.0008910468115796359 -0.031515974457818521 0 0.0014005026249463135 -0.032414060103269714 0 0.001650433176776913 -0.03150661467291295 0 0.0017807475388732844 -0.032409106573121189 0 0.00080204926044330385 -0.032421848183809443 0 0.001409332737972574 -0.030244393037441877 0 0.00056507426018545645 -0.033863650054595545 0 0.00043750439501328756 -0.034024245538450987 0 0.00037536961771048884 -0.033852859706481116 0 0.00054890062245248209 -0.03404853783173676 0 0.00056507426018545645 -0.033863650054595545 0 0.00043750439501328756 -0.034024245538450987 0 0.001409332737972574 -0.030244393037441877 0 0.0010527466109764136 -0.02830630563885065 0 0.00054890062245248209 -0.03404853783173676 0 0.00066826239684005895 -0.034123100530154021 0 0.00056507426018545645 -0.033863650054595545 0 0.0019102919142502854 -0.033312712985188869 0 0.0014005026249463135 -0.032414060103269714 0 0.0017807475388732844 -0.032409106573121189 0 0.00053426276509097059 -0.034793948861346111 0 0.00041271194327229167 -0.034990883264253946 0 0.0006937521061487834 -0.034966613031149112 0 0.00073403112245199007 -0.035265750591905516 0 0.00041271194327229167 -0.034990883264253946 0 0.0006937521061487834 -0.034966613031149112 0 0.00080204926044330385 -0.032421848183809443 0 0.0011568840275117029 -0.033368639026897344 0 0.00073403112245199007 -0.035265750591905516 0 0.00041271194327229167 -0.034990883264253946 0 0.00032571589664700672 -0.035270831426178935 0 0.00041271194327229167 -0.034990883264253946 0 0.00017967430440295074 -0.035031015157988787 0 0.00032571589664700672 -0.035270831426178935 0 0.00017967430440295074 -0.035031015157988787 0 -6.6787950840725027e-05 -0.035273700042133337 0 0.00032571589664700672 -0.035270831426178935 0 0.00041271194327229167 -0.034990883264253946 0 0.00017967430440295074 -0.035031015157988787 0 0.00021569118387103321 -0.034796232196407165 0 0.00017967430440295074 -0.035031015157988787 0 3.8792196658386614e-05 -0.034891955476451887 0 0.00021569118387103321 -0.034796232196407165 0 5.0956625927846857e-05 -0.034888750403803646 0 -2.0587713253988066e-05 -0.034958234818529332 0 -2.061091905010835e-05 -0.034852429620761315 0 3.4964831300103096e-06 -0.034996344738727446 0 2.8531927861246222e-06 -0.03499832310850845 0 7.3550311576747078e-07 -0.034998319451470195 0 6.3797596657510765e-05 -0.034915724963218993 0 7.6741614484040636e-06 -0.034970898308163086 0 6.3797596657510765e-05 -0.034915724963218993 0 6.3874162572151601e-05 -0.034915265032489574 0 6.3797596657510765e-05 -0.034915724963218993 0 6.8688591108953144e-05 -0.034880537062720575 0 0.00017967430440295074 -0.035031015157988787 0 3.8792196658386614e-05 -0.034891955476451887 0 -1.4058154216681315e-05 -0.035081541973901391 0 0.00017967430440295074 -0.035031015157988787 0 -1.4058154216681315e-05 -0.035081541973901391 0 -6.6787950840725027e-05 -0.035273700042133337 0 6.8688591108953144e-05 -0.034880537062720575 0 0.00011861362711647001 -0.034701732488563862 0 2.8531927861246222e-06 -0.03499832310850845 0 1.5051523674515377e-06 -0.034998929418055935 0 2.2876875865840781e-06 -0.034999832859325224 0 1.5051523674515377e-06 -0.034998929418055935 0 7.3550311576747078e-07 -0.034998319451470195 0 5.9220812708589016e-07 -0.034999768323698423 0 7.3550311576747078e-07 -0.034998319451470195 0 3.5477827144841578e-07 -0.034999802143539399 0 5.9220812708589016e-07 -0.034999768323698423 0 1.5051523674515377e-06 -0.034998929418055935 0 5.9220812708589016e-07 -0.034999768323698423 0 2.2876875865840781e-06 -0.034999832859325224 0 2.8531927861246222e-06 -0.03499832310850845 0 1.5051523674515377e-06 -0.034998929418055935 0 7.3550311576747078e-07 -0.034998319451470195 0 -1.830692310628558e-08 -0.034999958069224506 0 7.6741614484040636e-06 -0.034970898308163086 0 -8.8655879997033019e-10 -0.03499999848830733 0 7.3550311576747078e-07 -0.034998319451470195 0 3.5477827144841578e-07 -0.034999802143539399 0 5.6820478691835821e-08 -0.034999984103655443 0 -2.0587713253988066e-05 -0.034958234818529332 0 -1.395895193061221e-07 -0.034999897576914317 0 -2.0587713253988066e-05 -0.034958234818529332 0 -2.061091905010835e-05 -0.034852429620761315 0 -1.395895193061221e-07 -0.034999897576914317 0 -2.061091905010835e-05 -0.034852429620761315 0 -1.395895193061221e-07 -0.034999897576914317 0 -6.8402772869668736e-05 -0.034772685511861974 0 3.6540606580447743e-09 -0.034999152185032432 0 -1.395895193061221e-07 -0.034999897576914317 0 -6.8402772869668736e-05 -0.034772685511861974 0 -2.061091905010835e-05 -0.034852429620761315 0 -6.8402772869668736e-05 -0.034772685511861974 0 4.8488058150029414e-06 -0.034670050808197843 0 -8.6011110221901349e-05 -0.034205391242413972 0 -6.8402772869668736e-05 -0.034772685511861974 0 4.8488058150029414e-06 -0.034670050808197843 0 -8.6011110221901349e-05 -0.034205391242413972 0 4.8488058150029414e-06 -0.034670050808197843 0 0.00022318538249964625 -0.034610280363208477 0 4.8488058150029414e-06 -0.034670050808197843 0 0.00022318538249964625 -0.034610280363208477 0 8.5526924460533469e-05 -0.034763966784826218 0 0.00022318538249964625 -0.034610280363208477 0 0.00021569118387103321 -0.034796232196407165 0 8.5526924460533469e-05 -0.034763966784826218 0 0.00039706307233755756 -0.034726854945125084 0 0.00022318538249964625 -0.034610280363208477 0 0.00021569118387103321 -0.034796232196407165 0 5.1055095287740011e-05 -0.034902752348577239 0 0.00021569118387103321 -0.034796232196407165 0 5.8825679181318316e-05 -0.034870803257983772 0 0.00021569118387103321 -0.034796232196407165 0 5.8825679181318316e-05 -0.034870803257983772 0 8.5526924460533469e-05 -0.034763966784826218 0 6.3797596657510765e-05 -0.034915724963218993 0 9.60983782428237e-05 -0.034894913714081599 0 -2.061091905010835e-05 -0.034852429620761315 0 5.8825679181318316e-05 -0.034870803257983772 0 8.5526924460533469e-05 -0.034763966784826218 0 5.0956625927846857e-05 -0.034888750403803646 0 -2.061091905010835e-05 -0.034852429620761315 0 5.8825679181318316e-05 -0.034870803257983772 0 -2.061091905010835e-05 -0.034852429620761315 0 4.8488058150029414e-06 -0.034670050808197843 0 8.5526924460533469e-05 -0.034763966784826218 0 0.0012102613836471392 -0.017979665669618224 0 0.0017273544559508673 -0.017003786934534776 0 0.00049364975110484735 -0.017586664238808499 0 0.00059118975401290885 -0.017035532112628204 0 0.000330086665146144 -0.0174084474207062 0 -0.00012667920667542692 -0.019572774617441394 0 0.00013078378936479714 -0.019535170355585964 0 6.0530496827124591e-05 -0.019650938191051164 0 -0.00012667920667542692 -0.019572774617441394 0 -7.7631748967063881e-05 -0.019594356502022126 0 6.0530496827124591e-05 -0.019650938191051164 0 -0.00012667920667542692 -0.019572774617441394 0 -6.8645012104944642e-05 -0.019501276378626156 0 -7.7631748967063881e-05 -0.019594356502022126 0 -0.00012667920667542692 -0.019572774617441394 0 -0.00011902287074993072 -0.019310381634453734 0 -0.00018319502625081975 -0.019651568658938474 0 -0.00012667920667542692 -0.019572774617441394 0 -0.00011902287074993072 -0.019310381634453734 0 0.00013078378936479714 -0.019535170355585964 0 0.0012102613836471392 -0.017979665669618224 0 0.0010392797696792536 -0.018158733595685143 0 -0.00011902287074993072 -0.019310381634453734 0 0.00013078378936479714 -0.019535170355585964 0 0.00013389220653961339 -0.018509522597629807 0 0.00049364975110484735 -0.017586664238808499 0 0.00013389220653961339 -0.018509522597629807 0 5.1142874354887306e-05 -0.017835819915682397 0 0.00013389220653961339 -0.018509522597629807 0 -4.2693377036470247e-07 -0.01796859629867191 0 -0.00012646199642970681 -0.019266143523651403 0 0.00013389220653961339 -0.018509522597629807 0 -4.2693377036470247e-07 -0.01796859629867191 0 -2.4092873736107285e-05 -0.017569059048975978 0 -4.2693377036470247e-07 -0.01796859629867191 0 -0.00012646199642970681 -0.019266143523651403 0 -3.6449981613382944e-07 -0.019889470265997654 0 -0.00011902287074993072 -0.019310381634453734 0 0.00013389220653961339 -0.018509522597629807 0 -0.00012646199642970681 -0.019266143523651403 0 -0.00011902287074993072 -0.019310381634453734 0 -0.00012646199642970681 -0.019266143523651403 0 -0.00018319502625081975 -0.019651568658938474 0 -0.00018319502625081975 -0.019651568658938474 0 -7.602723440611558e-05 -0.020268610176782401 0 -2.0851699836091666e-05 -0.020138926127273814 0 -0.00012646199642970681 -0.019266143523651403 0 -0.00018319502625081975 -0.019651568658938474 0 -7.602723440611558e-05 -0.020268610176782401 0 -3.6449981613382944e-07 -0.019889470265997654 0 -7.602723440611558e-05 -0.020268610176782401 0 4.6339646018701932e-07 -0.021809979258688834 0 -0.00012646199642970681 -0.019266143523651403 0 -3.6449981613382944e-07 -0.019889470265997654 0 -7.602723440611558e-05 -0.020268610176782401 0 -7.602723440611558e-05 -0.020268610176782401 0 4.6339646018701932e-07 -0.021809979258688834 0 0.00015035467651593973 -0.021043835395551814 0 0.00015035467651593973 -0.021043835395551814 0 -2.0851699836091666e-05 -0.020138926127273814 0 0.00055995301741057978 -0.020372037290363167 0 -7.602723440611558e-05 -0.020268610176782401 0 0.00015035467651593973 -0.021043835395551814 0 -2.0851699836091666e-05 -0.020138926127273814 0 -2.0851699836091666e-05 -0.020138926127273814 0 0.00026536981444316439 -0.019898679637879807 0 0.00055995301741057978 -0.020372037290363167 0 0.00026536981444316439 -0.019898679637879807 0 0.00019075319675661688 -0.019568940813711209 0 0.00050380631167650761 -0.019694130503793532 0 0.00026536981444316439 -0.019898679637879807 0 -7.7249493747020759e-05 -0.019696544421055451 0 0.00019075319675661688 -0.019568940813711209 0 -2.0851699836091666e-05 -0.020138926127273814 0 0.00026536981444316439 -0.019898679637879807 0 -7.7249493747020759e-05 -0.019696544421055451 0 -0.00012667920667542692 -0.019572774617441394 0 -0.00018319502625081975 -0.019651568658938474 0 -7.7249493747020759e-05 -0.019696544421055451 0 -0.00018319502625081975 -0.019651568658938474 0 -2.0851699836091666e-05 -0.020138926127273814 0 -7.7249493747020759e-05 -0.019696544421055451 0 -0.00012667920667542692 -0.019572774617441394 0 -7.7249493747020759e-05 -0.019696544421055451 0 -6.8645012104944642e-05 -0.019501276378626156 0 -7.7249493747020759e-05 -0.019696544421055451 0 -6.8645012104944642e-05 -0.019501276378626156 0 0.00019075319675661688 -0.019568940813711209 0 -6.8645012104944642e-05 -0.019501276378626156 0 0.00019075319675661688 -0.019568940813711209 0 0.00023245389505096326 -0.019279580589094354 0 0.00019075319675661688 -0.019568940813711209 0 0.00061730421143107235 -0.019368559838506435 0 0.00023245389505096326 -0.019279580589094354 0 0.00019075319675661688 -0.019568940813711209 0 0.00050380631167650761 -0.019694130503793532 0 0.00061730421143107235 -0.019368559838506435 0 0.001398751293640285 -0.019106586048419451 0 0.0013653117104417964 -0.019241662458706905 0 0.00064109406015319854 -0.019172758329758406 0 0.001293967057571457 -0.019132809096169802 0 0.00094063846243890633 -0.019823595192543474 0 0.00050380631167650761 -0.019694130503793532 0 0.00061730421143107235 -0.019368559838506435 0 0.00094063846243890633 -0.019823595192543474 0 0.0011793863717282343 -0.020126805841363702 0 0.0011886916067935678 -0.020199169619972517 0 0.0010578889244856784 -0.020312321692755462 0 0.001689052456827657 -0.020001435221663671 0 0.0016025761796911993 -0.020110682400087086 0 0.0011793863717282343 -0.020126805841363702 0 0.0011886916067935678 -0.020199169619972517 0 0.0012691786664273336 -0.020223833051166984 0 0.0011886916067935678 -0.020199169619972517 0 0.0010578889244856784 -0.020312321692755462 0 0.0011505277838151308 -0.020290425866869778 0 0.001689052456827657 -0.020001435221663671 0 0.0014976874517534172 -0.020133925209567197 0 0.001293967057571457 -0.019132809096169802 0 0.0010578889244856784 -0.020312321692755462 0 0.00094063846243890633 -0.019823595192543474 0 0.0011886916067935678 -0.020199169619972517 0 0.0011976414162521206 -0.020264026166367695 0 0.0012395013741295395 -0.020267357475986948 0 0.0011886916067935678 -0.020199169619972517 0 0.0011976414162521206 -0.020264026166367695 0 0.0011505277838151308 -0.020290425866869778 0 0.0011976414162521206 -0.020264026166367695 0 0.001227476284916291 -0.020313956707264529 0 0.0012395013741295395 -0.020267357475986948 0 0.0011976414162521206 -0.020264026166367695 0 0.001227476284916291 -0.020313956707264529 0 0.0011505277838151308 -0.020290425866869778 0 0.0010578889244856784 -0.020312321692755462 0 0.00065576432181501071 -0.020009396601307038 0 0.00055995301741057978 -0.020372037290363167 0 0.0010578889244856784 -0.020312321692755462 0 0.00094063846243890633 -0.019823595192543474 0 0.00065576432181501071 -0.020009396601307038 0 0.00026536981444316439 -0.019898679637879807 0 0.00050380631167650761 -0.019694130503793532 0 0.00065576432181501071 -0.020009396601307038 0 0.00050380631167650761 -0.019694130503793532 0 0.00094063846243890633 -0.019823595192543474 0 0.00065576432181501071 -0.020009396601307038 0 0.00026536981444316439 -0.019898679637879807 0 0.00065576432181501071 -0.020009396601307038 0 0.00055995301741057978 -0.020372037290363167 0 0.00015035467651593973 -0.021043835395551814 0 0.00055995301741057978 -0.020372037290363167 0 0.0011153184947128756 -0.020526213437285199 0 2.5080148528722479e-06 -0.022779837984053475 0 0.00019236223576647184 -0.023076411752904463 0 0.00015035467651593973 -0.021043835395551814 0 0.00010770332235219653 -0.022348358016569626 0 8.1201700091021421e-05 -0.023470850785600243 0 0.0010578889244856784 -0.020312321692755462 0 0.00055995301741057978 -0.020372037290363167 0 0.0011153184947128756 -0.020526213437285199 0 4.6339646018701932e-07 -0.021809979258688834 0 -3.6830533052312266e-08 -0.023730883178344059 0 5.7141500404136009e-05 -0.023104288005287237 0 4.6339646018701932e-07 -0.021809979258688834 0 0.00010770332235219653 -0.022348358016569626 0 5.7141500404136009e-05 -0.023104288005287237 0 4.6339646018701932e-07 -0.021809979258688834 0 0.00015035467651593973 -0.021043835395551814 0 0.00010770332235219653 -0.022348358016569626 0 0.00010770332235219653 -0.022348358016569626 0 5.7141500404136009e-05 -0.023104288005287237 0 8.1201700091021421e-05 -0.023470850785600243 0 5.7141500404136009e-05 -0.023104288005287237 0 8.1201700091021421e-05 -0.023470850785600243 0 -6.7911888023682984e-05 -0.02442239647910386 0 -3.6830533052312266e-08 -0.023730883178344059 0 5.7141500404136009e-05 -0.023104288005287237 0 -6.7911888023682984e-05 -0.02442239647910386 0 0.00019236223576647184 -0.023076411752904463 0 0.00044830591431736674 -0.023883763764729782 0 8.1201700091021421e-05 -0.023470850785600243 0 -0.00011570080751269313 -0.025019786089150398 0 -6.7911888023682984e-05 -0.02442239647910386 0 0.001227476284916291 -0.020313956707264529 0 0.0011153184947128756 -0.020526213437285199 0 0.0013230718350451954 -0.020357186744488151 0 0.0010578889244856784 -0.020312321692755462 0 0.0011505277838151308 -0.020290425866869778 0 0.0011153184947128756 -0.020526213437285199 0 0.001227476284916291 -0.020313956707264529 0 0.0011505277838151308 -0.020290425866869778 0 0.0011153184947128756 -0.020526213437285199 0 -0.00011570080751269313 -0.025019786089150398 0 -6.7911888023682984e-05 -0.02442239647910386 0 -0.00016791927322782843 -0.025781219733342426 0 -3.6830533052312266e-08 -0.023730883178344059 0 -6.7911888023682984e-05 -0.02442239647910386 0 -2.552909982972898e-07 -0.025651173422870023 0 -6.7911888023682984e-05 -0.02442239647910386 0 -2.552909982972898e-07 -0.025651173422870023 0 -0.00016791927322782843 -0.025781219733342426 0 -0.00020680077870940532 -0.026002801357158746 0 -0.00011570080751269313 -0.025019786089150398 0 -0.00016791927322782843 -0.025781219733342426 0 0.00068160267137373093 -0.025298550662997722 0 0.00044830591431736674 -0.023883763764729782 0 0.0011272379822028877 -0.020331743106820288 0 0.0011317576515727827 -0.020535957866701208 0 0.0012868187899426988 -0.020380935367250965 0 0.0011272379822028877 -0.020331743106820288 0 0.0013230718350451954 -0.020357186744488151 0 0.0012868187899426988 -0.020380935367250965 0 0.0011317576515727827 -0.020535957866701208 0 0.0012868187899426988 -0.020380935367250965 0 0.001297834940915257 -0.0205708371919615 0 0.0013230718350451954 -0.020357186744488151 0 0.0012868187899426988 -0.020380935367250965 0 0.0012779491262391632 -0.020316120866771259 0 0.001227476284916291 -0.020313956707264529 0 0.0013230718350451954 -0.020357186744488151 0 0.0012779491262391632 -0.020316120866771259 0 0.001227476284916291 -0.020313956707264529 0 0.0012779491262391632 -0.020316120866771259 0 0.0012395013741295395 -0.020267357475986948 0 0.0012779491262391632 -0.020316120866771259 0 0.0012395013741295395 -0.020267357475986948 0 0.0012691786664273336 -0.020223833051166984 0 0.0012868187899426988 -0.020380935367250965 0 0.0015580839927792393 -0.020586934848641412 0 0.001297834940915257 -0.0205708371919615 0 0.0012868187899426988 -0.020380935367250965 0 0.0012779491262391632 -0.020316120866771259 0 0.0012691786664273336 -0.020223833051166984 0 0.0015557502991369926 -0.020130435795235189 0 0.0016025761796911993 -0.020110682400087086 0 0.0015580839927792393 -0.020586934848641412 0 0.0014040526350239631 -0.020688867593485611 0 0.001297834940915257 -0.0205708371919615 0 0.0011886916067935678 -0.020199169619972517 0 0.0012395013741295395 -0.020267357475986948 0 0.0012691786664273336 -0.020223833051166984 0 0.0015580839927792393 -0.020586934848641412 0 0.0015875484630429853 -0.020703050457481335 0 0.0014040526350239631 -0.020688867593485611 0 0.0017885164748227917 -0.020783304422212184 0 0.0015580839927792393 -0.020586934848641412 0 0.0015875484630429853 -0.020703050457481335 0 0.0015875484630429853 -0.020703050457481335 0 0.0014744836299398075 -0.020805728106012333 0 0.0015335654866269488 -0.020933704810866424 0 0.0015875484630429853 -0.020703050457481335 0 0.0014744836299398075 -0.020805728106012333 0 0.0014040526350239631 -0.020688867593485611 0 0.0014744836299398075 -0.020805728106012333 0 0.0014040526350239631 -0.020688867593485611 0 0.0013257143266473229 -0.020907029689176109 0 0.0014040526350239631 -0.020688867593485611 0 0.0011865292303513623 -0.020746823501061187 0 0.0013257143266473229 -0.020907029689176109 0 0.0011317576515727827 -0.020535957866701208 0 0.0011865292303513623 -0.020746823501061187 0 0.001297834940915257 -0.0205708371919615 0 0.0014040526350239631 -0.020688867593485611 0 0.0011865292303513623 -0.020746823501061187 0 0.001297834940915257 -0.0205708371919615 0 0.0010576031740287825 -0.021073967272271666 0 0.0011865292303513623 -0.020746823501061187 0 0.0013257143266473229 -0.020907029689176109 0 0.0010576031740287825 -0.021073967272271666 0 0.0013257143266473229 -0.020907029689176109 0 0.0013028395026085785 -0.021152520622425511 0 0.0013257143266473229 -0.020907029689176109 0 0.0014625942817848687 -0.021091930804264962 0 0.0013028395026085785 -0.021152520622425511 0 0.0015875484630429853 -0.020703050457481335 0 0.0015335654866269488 -0.020933704810866424 0 0.00173961628131072 -0.021050817636742564 0 0.0014744836299398075 -0.020805728106012333 0 0.0013257143266473229 -0.020907029689176109 0 0.0015335654866269488 -0.020933704810866424 0 0.0015335654866269488 -0.020933704810866424 0 0.0016067103369077269 -0.02108235454013405 0 0.0014625942817848687 -0.021091930804264962 0 0.0015335654866269488 -0.020933704810866424 0 0.0016067103369077269 -0.02108235454013405 0 0.00173961628131072 -0.021050817636742564 0 0.0013257143266473229 -0.020907029689176109 0 0.0015335654866269488 -0.020933704810866424 0 0.0014625942817848687 -0.021091930804264962 0 0.0014625942817848687 -0.021091930804264962 0 0.0014379363406393868 -0.021263009674031205 0 0.0013028395026085785 -0.021152520622425511 0 0.0014379363406393868 -0.021263009674031205 0 0.0012419975021067445 -0.021419594705689313 0 0.0016513280996487973 -0.02142842868939732 0 0.0014625942817848687 -0.021091930804264962 0 0.0015834568656233094 -0.021179838196726346 0 0.0014379363406393868 -0.021263009674031205 0 0.0016067103369077269 -0.02108235454013405 0 0.0014625942817848687 -0.021091930804264962 0 0.0015834568656233094 -0.021179838196726346 0 0.0016067103369077269 -0.02108235454013405 0 0.0015834568656233094 -0.021179838196726346 0 0.0017153247346926494 -0.021154958930430779 0 0.0018152688277359122 -0.020750406002388443 0 0.0018383268231917124 -0.020737083734074523 0 0.0015834568656233094 -0.021179838196726346 0 0.0014379363406393868 -0.021263009674031205 0 0.0016513280996487973 -0.02142842868939732 0 0.0015834568656233094 -0.021179838196726346 0 0.0016513280996487973 -0.02142842868939732 0 0.0017138907094857059 -0.021155372024736104 0 0.0010576031740287825 -0.021073967272271666 0 0.0013028395026085785 -0.021152520622425511 0 0.0012419975021067445 -0.021419594705689313 0 0.00093748729882562503 -0.02732290020201503 0 0.00088301879034513955 -0.026613302945691693 0 0.0014379363406393868 -0.021263009674031205 0 0.0013028395026085785 -0.021152520622425511 0 0.0012419975021067445 -0.021419594705689313 0 0.0008156299539365952 -0.027169861925665041 0 0.00088301879034513955 -0.026613302945691693 0 0.0005200511053662898 -0.034175173707857068 0 0.00035633171159770431 -0.034166945183720043 0 0.00043750439501328756 -0.034024245538450987 0 0.00088301879034513955 -0.026613302945691693 0 0.0012499195969828797 -0.027071161415858486 0 0.00035633171159770431 -0.034166945183720043 0 0.00043750439501328756 -0.034024245538450987 0 0.00026709304846727125 -0.034009378126707693 0 0.00043750439501328756 -0.034024245538450987 0 0.00026709304846727125 -0.034009378126707693 0 0.00037536961771048884 -0.033852859706481116 0 0.0010527466109764136 -0.02830630563885065 0 0.00107114420753227 -0.025756768224750072 0 0.00026709304846727125 -0.034009378126707693 0 0.00037536961771048884 -0.033852859706481116 0 0.00017821973085981643 -0.033844178293944621 0 0.00087788076532133109 -0.025344242895114753 0 0.00077507641369229969 -0.025193805673183491 0 0.00070789216249747284 -0.025485844647698611 0 0.0020809603390750139 -0.022529415399221372 0 0.0020701256593018778 -0.022577400172566462 0 0.0020578729039014763 -0.022550196253759664 0 0.0011303941090899381 -0.025389333521615341 0 0.001756830628997351 -0.022881085364960876 0 0.00077939279727355952 -0.024287527995708224 0 0.0012197699393197614 -0.024280587008321666 0 0.00075407441926044546 -0.024395741780532096 0 0.0011303941090899381 -0.025389333521615341 0 0.0015936805663504391 -0.023848409896579624 0 0.00020033653210100468 -0.026003689941392263 0 0.00021222937907655582 -0.026003588737637126 0 0.00020375116078793931 -0.025988506853119604 0 0.0011303941090899381 -0.025389333521615341 0 0.00107114420753227 -0.025756768224750072 0 0.00087788076532133109 -0.025344242895114753 0 0.00077507641369229969 -0.025193805673183491 0 0.00079256544380129483 -0.025193671333958775 0 0.0012499195969828797 -0.027071161415858486 0 0.00107114420753227 -0.025756768224750072 0 0.00088301879034513955 -0.026613302945691693 0 0.001756830628997351 -0.022881085364960876 0 0.00096305397058992837 -0.025495656271276739 0 0.00087788076532133109 -0.025344242895114753 0 0.00070789216249747284 -0.025485844647698611 0 0.001756830628997351 -0.022881085364960876 0 0.0021900091268730101 -0.021083195369443974 0 0.0020434051393506828 -0.022575515819467706 0 0.0020578729039014763 -0.022550196253759664 0 0.0020289048476911575 -0.022540719388485217 0 0.0020701256593018778 -0.022577400172566462 0 0.0020434051393506828 -0.022575515819467706 0 0.0020578729039014763 -0.022550196253759664 0 0.0015936805663504391 -0.023848409896579624 0 0.0023647206382942142 -0.020007931182660973 0 0.0020578729039014763 -0.022550196253759664 0 0.0020655735079499267 -0.02252838889220302 0 0.0020289048476911575 -0.022540719388485217 0 0.0015936805663504391 -0.023848409896579624 0 0.0023730290499779099 -0.020737643534931571 0 0.0020809603390750139 -0.022529415399221372 0 0.0020578729039014763 -0.022550196253759664 0 0.0020655735079499267 -0.02252838889220302 0 0.0017208327660279113 -0.022083437778237937 0 0.0028196970523584439 -0.022062510816749686 0 0.0026596484635661426 -0.021688976402277134 0 0.0024176151774309971 -0.018680888966000439 0 0.0023365148105644888 -0.018491937216908186 0 0.0028235186561914398 -0.018494744326126356 0 0.0023647206382942142 -0.020007931182660973 0 0.0023730290499779099 -0.020737643534931571 0 0.0022414460137006151 -0.019716661125236543 0 0.0022457880041138649 -0.019726085724512427 0 0.0022575433252371014 -0.01971415556375139 0 0.0021900091268730101 -0.021083195369443974 0 0.0023730290499779099 -0.020737643534931571 0 0.0021900091268730101 -0.021083195369443974 0 0.0022216208760210861 -0.018567410579454581 0 0.0022342150194523199 -0.019623645464117923 0 0.0021332076203929452 -0.019708802027799583 0 0.0019819033699372672 -0.019614626151915379 0 0.0021332076203929452 -0.019708802027799583 0 0.002296270800021971 -0.019769354067387886 0 0.0021161418156975015 -0.019801682645401698 0 0.0019247941082184122 -0.020534492971607816 0 0.0017337002979593977 -0.019299169849327284 0 0.0021332076203929452 -0.019708802027799583 0 0.0021161418156975015 -0.019801682645401698 0 0.0020372985227718574 -0.019734427307747868 0 0.0027372476500919533 -0.021211843298632873 0 0.0023818038001781117 -0.022007342894407537 0 0.0025595730785304962 -0.021974467382746787 0 0.0027372476500919533 -0.021211843298632873 0 0.0020324924158444846 -0.021192098526943683 0 0.0023818038001781117 -0.022007342894407537 0 0.0021900091268730101 -0.021083195369443974 0 0.0019247941082184122 -0.020534492971607816 0 0.0022342150194523199 -0.019623645464117923 0 0.0021332076203929452 -0.019708802027799583 0 0.002296270800021971 -0.019769354067387886 0 0.001756830628997351 -0.022881085364960876 0 0.0018383268231917124 -0.020737083734074523 0 0.0018383268231917124 -0.020737083734074523 0 0.0018443977467983341 -0.020530379319638036 0 0.0019247941082184122 -0.020534492971607816 0 0.0018443977467983341 -0.020530379319638036 0 0.0018447681934009679 -0.020358366510125497 0 0.0021816276047781141 -0.020295752800251848 0 0.0020535255519342141 -0.020846170131751902 0 0.0019247941082184122 -0.020534492971607816 0 0.0018383268231917124 -0.020737083734074523 0 0.0017885164748227917 -0.020783304422212184 0 0.0015875484630429853 -0.020703050457481335 0 0.0017299801945932331 -0.021032880560754717 0 0.0019976201313183246 -0.020022606273436317 0 0.0020328026992815621 -0.019871673188904673 0 0.0018016985540399975 -0.019856420551114549 0 0.0020100347195826057 -0.019818558417897904 0 0.0020328026992815621 -0.019871673188904673 0 0.0018016985540399975 -0.019856420551114549 0 0.0018340350309787275 -0.02063175642634614 0 0.0018443977467983341 -0.020530379319638036 0 0.0016067103369077269 -0.02108235454013405 0 0.0017153247346926494 -0.021154958930430779 0 0.00173961628131072 -0.021050817636742564 0 0.001689052456827657 -0.020001435221663671 0 0.0018443977467983341 -0.020530379319638036 0 0.001689052456827657 -0.020001435221663671 0 0.0017337002979593977 -0.019299169849327284 0 0.001398751293640285 -0.019106586048419451 0 0.0016939209524789319 -0.019046918218504714 0 0.00064109406015319854 -0.019172758329758406 0 0.001293967057571457 -0.019132809096169802 0 0.0005423390663954914 -0.018503568751285653 0 0.00064109406015319854 -0.019172758329758406 0 0.0005423390663954914 -0.018503568751285653 0 0.00034835073611773251 -0.01853989161879601 0 0.0017337002979593977 -0.019299169849327284 0 0.0016939209524789319 -0.019046918218504714 0 0.0016939209524789319 -0.019046918218504714 0 0.0016723312948602445 -0.018504406282777337 0 0.00061730421143107235 -0.019368559838506435 0 0.00040924187930973773 -0.018977797345108204 0 0.00023245389505096326 -0.019279580589094354 0 0.0018230703373861186 -0.018719526581716602 0 0.001835672757718084 -0.018716898448263058 0 0.0018261011871458586 -0.018725745873014638 0 0.00040924187930973773 -0.018977797345108204 0 0.00023245389505096326 -0.019279580589094354 0 -4.2729217256205305e-05 -0.019064491280407467 0 -6.8645012104944642e-05 -0.019501276378626156 0 0.00023245389505096326 -0.019279580589094354 0 -4.2729217256205305e-05 -0.019064491280407467 0 0.0016723312948602445 -0.018504406282777337 0 0.0014511142816278845 -0.017848518524767779 0 0.0021666304714830767 -0.016811156973153805 0 0.0022905804447510246 -0.016928833025918071 0 0.0023966703014690676 -0.01676693108304125 0 0.0015170519318497735 -0.018784530082881386 0 0.0016723312948602445 -0.018504406282777337 0 -6.8645012104944642e-05 -0.019501276378626156 0 -8.0502663219121463e-05 -0.019545200081524224 0 -7.7631748967063881e-05 -0.019594356502022126 0 0.0021666304714830767 -0.016811156973153805 0 0.0022905804447510246 -0.016928833025918071 0 0.002143995663913999 -0.01705353625937937 0 0.0016723312948602445 -0.018504406282777337 0 0.0020595515920846493 -0.018355767806513483 0 0.0022905804447510246 -0.016928833025918071 0 0.0022775884829908622 -0.017044037394024658 0 0.002143995663913999 -0.01705353625937937 0 0.0021533156331218703 -0.018456738589676034 0 0.002216523863217587 -0.018591412328365541 0 0.0022623213096517143 -0.018548222940908635 0 0.001835672757718084 -0.018716898448263058 0 0.0018261011871458586 -0.018725745873014638 0 0.0018343378935633864 -0.018732320782283957 0 0.0019227761869755491 -0.01890559754410278 0 0.0020595515920846493 -0.018355767806513483 0 0.0021332076203929452 -0.019708802027799583 0 0.0020372985227718574 -0.019734427307747868 0 0.0019819033699372672 -0.019614626151915379 0 0.0019227761869755491 -0.01890559754410278 0 0.0022216208760210861 -0.018567410579454581 0 0.0017337002979593977 -0.019299169849327284 0 0.0019227761869755491 -0.01890559754410278 0 0.0016939209524789319 -0.019046918218504714 0 0.0019227761869755491 -0.01890559754410278 0 0.0017574881515452243 -0.01912879103213037 0 0.0017500558906773424 -0.019130107363819957 0 0.0017441997504323457 -0.019117291718289617 0 0.0022457880041138649 -0.019726085724512427 0 0.0022575433252371014 -0.01971415556375139 0 0.0022595144427879454 -0.019717969360265236 0 0.002216523863217587 -0.018591412328365541 0 0.0022581655862622383 -0.018592489108744118 0 0.0022623213096517143 -0.018548222940908635 0 0.0022216208760210861 -0.018567410579454581 0 0.0022389143325818564 -0.018160745253651276 0 0.0019825566729412178 -0.018445704968999416 0 0.0019529387129167246 -0.01838275592987211 0 0.0019469666554039456 -0.01844467513441948 0 0.0022216208760210861 -0.018567410579454581 0 0.0023233920223069615 -0.018304337685923662 0 0.0023233920223069615 -0.018304337685923662 0 0.0022389143325818564 -0.018160745253651276 0 0.0023647206382942142 -0.020007931182660973 0 0.0026861736959904164 -0.016522766845443845 0 0.0023730290499779099 -0.020737643534931571 0 0.0023233920223069615 -0.018304337685923662 0 0.0023365148105644888 -0.018491937216908186 0 0.0029134737146410909 -0.018251870754099512 0 0.0028235186561914398 -0.018494744326126356 0 0.0024176151774309971 -0.018680888966000439 0 0.0028235186561914398 -0.018494744326126356 0 0.0028734474520364039 -0.018671347634388994 0 0.0029134737146410909 -0.018251870754099512 0 0.0028235186561914398 -0.018494744326126356 0 0.0028796962296671128 -0.018609951397561931 0 0.0023233920223069615 -0.018304337685923662 0 0.0026992716438800535 -0.016551560541713844 0 0.0027283864150049039 -0.016631767811999008 0 0.0026992716438800535 -0.016551560541713844 0 0.0028235186561914398 -0.018494744326126356 0 0.0028792742212634692 -0.018610180785425375 0 0.0028734474520364039 -0.018671347634388994 0 0.0032598061600635684 -0.015857702655988303 0 0.0032120739489481078 -0.016356590554317662 0 0.0034983061558164566 -0.016352399642787969 0 0.0026992716438800535 -0.016551560541713844 0 0.002687798259643305 -0.016251555507813098 0 0.0026992716438800535 -0.016551560541713844 0 0.0026861736959904164 -0.016522766845443845 0 0.0026861736959904164 -0.016522766845443845 0 0.002687798259643305 -0.016251555507813098 0 0.002799077855078767 -0.015421038136246396 0 0.0027916845910481245 -0.015427258032145853 0 0.0027870122154984066 -0.015424670774984179 0 0.002687798259643305 -0.016251555507813098 0 0.0030007897866430335 -0.012990199688574998 0 0.002799077855078767 -0.015421038136246396 0 0.0027870122154984066 -0.015424670774984179 0 0.0027835127109165085 -0.015418731862760762 0 0.0028004106513171137 -0.015423021370978144 0 0.002799077855078767 -0.015421038136246396 0 0.0027956213422782187 -0.015427806802965889 0 0.002799077855078767 -0.015421038136246396 0 0.0027956213422782187 -0.015427806802965889 0 0.0027916845910481245 -0.015427258032145853 0 0.0027995317397461858 -0.015441908260683233 0 0.0028004106513171137 -0.015423021370978144 0 0.0027956213422782187 -0.015427806802965889 0 0.0023233920223069615 -0.018304337685923662 0 0.0022224954948577335 -0.017909865357586673 0 0.0028014498033122749 -0.015436097284887063 0 0.0027956213422782187 -0.015427806802965889 0 0.0027943705147833761 -0.015432533563447868 0 0.0027956213422782187 -0.015427806802965889 0 0.0027916845910481245 -0.015427258032145853 0 0.0027943705147833761 -0.015432533563447868 0 0.0027916845910481245 -0.015427258032145853 0 0.0027891844932274677 -0.01542916607989365 0 0.0027943705147833761 -0.015432533563447868 0 0.0027891844932274677 -0.01542916607989365 0 0.0027845721538739886 -0.015428975746356469 0 0.0027870122154984066 -0.015424670774984179 0 0.0027916845910481245 -0.015427258032145853 0 0.0027891844932274677 -0.01542916607989365 0 0.0027870122154984066 -0.015424670774984179 0 0.0027908795872026398 -0.015435312947041775 0 0.002801606483068451 -0.015443281514187241 0 0.0027830780249912652 -0.015442974660535961 0 0.0027891844932274677 -0.01542916607989365 0 0.0027908795872026398 -0.015435312947041775 0 0.0027845721538739886 -0.015428975746356469 0 0.0022389143325818564 -0.018160745253651276 0 0.0025697798151584541 -0.016250330170104656 0 0.0021391464394244102 -0.017105586064427806 0 0.0021847832089247499 -0.017087835873383358 0 0.0023558348808656458 -0.017108604550946024 0 0.0027891844932274677 -0.01542916607989365 0 0.0027908795872026398 -0.015435312947041775 0 0.0027943705147833761 -0.015432533563447868 0 0.0027908795872026398 -0.015435312947041775 0 0.0027943705147833761 -0.015432533563447868 0 0.002801606483068451 -0.015443281514187241 0 0.0028014498033122749 -0.015436097284887063 0 0.0027943705147833761 -0.015432533563447868 0 0.002801606483068451 -0.015443281514187241 0 0.0022775884829908622 -0.017044037394024658 0 0.0021847832089247499 -0.017087835873383358 0 0.002143995663913999 -0.01705353625937937 0 0.0021391464394244102 -0.017105586064427806 0 0.0021847832089247499 -0.017087835873383358 0 0.0021440713108119461 -0.017054403561501504 0 0.0022389143325818564 -0.018160745253651276 0 0.0020595515920846493 -0.018355767806513483 0 0.00204661452031647 -0.018333325346686944 0 0.0020595515920846493 -0.018355767806513483 0 0.0022775884829908622 -0.017044037394024658 0 0.0021847832089247499 -0.017087835873383358 0 0.0023558348808656458 -0.017108604550946024 0 0.0027845721538739886 -0.015428975746356469 0 0.0027661927519346229 -0.015379571902208016 0 0.0027384284805910303 -0.015443089974931934 0 0.0027830780249912652 -0.015442974660535961 0 0.0027845721538739886 -0.015428975746356469 0 0.0027384284805910303 -0.015443089974931934 0 0.0025697798151584541 -0.016250330170104656 0 0.0029049036583524025 -0.014332574135747714 0 0.0023558348808656458 -0.017108604550946024 0 0.0025724669979089727 -0.017111931745044096 0 0.0024418591311129792 -0.016967166905987714 0 0.0027908795872026398 -0.015435312947041775 0 0.0027830780249912652 -0.015442974660535961 0 0.0027845721538739886 -0.015428975746356469 0 0.0027845721538739886 -0.015428975746356469 0 0.0027661927519346229 -0.015379571902208016 0 0.002777916212365469 -0.015378999051664042 0 0.0030851464194956752 -0.013853041183051884 0 0.0030007897866430335 -0.012990199688574998 0 0.0027845721538739886 -0.015428975746356469 0 0.0027870122154984066 -0.015424670774984179 0 0.0027835127109165085 -0.015418731862760762 0 0.0029609780247832275 -0.012484127047288452 0 0.0030007897866430335 -0.012990199688574998 0 0.0060625567274297538 -0.0088843967992442412 0 0.0047605546057949205 -0.0097236129344753005 0 0.004896864611781045 -0.011272244252723131 0 0.0029609780247832275 -0.012484127047288452 0 0.0026357800486084496 -0.010813269401275182 0 0.0029609780247832275 -0.012484127047288452 0 0.0029049036583524025 -0.014332574135747714 0 0.0060625567274297538 -0.0088843967992442412 0 0.0047605546057949205 -0.0097236129344753005 0 0.003428538827773451 -0.0089066079894231272 0 0.0047605546057949205 -0.0097236129344753005 0 0.0039712902205490171 -0.010573939770562406 0 0.003428538827773451 -0.0089066079894231272 0 0.0047605546057949205 -0.0097236129344753005 0 0.0039712902205490171 -0.010573939770562406 0 0.004896864611781045 -0.011272244252723131 0 0.0055388515419119797 -0.01133601130321309 0 0.0046316603861307143 -0.011596782719464903 0 0.0032163215612881252 -0.01127833949581806 0 0.0029049036583524025 -0.014332574135747714 0 0.0027982687844772761 -0.013417509819836127 0 0.0039712902205490171 -0.010573939770562406 0 0.004896864611781045 -0.011272244252723131 0 0.0030088713059191973 -0.011238677229059024 0 0.0055388515419119797 -0.01133601130321309 0 0.0046316603861307143 -0.011596782719464903 0 0.0047398043647389173 -0.012974693039768712 0 0.0029049036583524025 -0.014332574135747714 0 0.0026909704017412869 -0.01489605449298133 0 0.0025724669979089727 -0.017111931745044096 0 0.0026467496743356827 -0.016960349737293445 0 0.0024418591311129792 -0.016967166905987714 0 0.0026467496743356827 -0.016960349737293445 0 0.0024418591311129792 -0.016967166905987714 0 0.002528083517702763 -0.01685445674095443 0 0.0047710690413667808 -0.012945524027924052 0 0.0045921528033722441 -0.013319615724154615 0 0.0050136011828253724 -0.015573158670257504 0 0.0046316603861307143 -0.011596782719464903 0 0.0047613699942271855 -0.012953524570454341 0 0.0040875412616000343 -0.012310482463136433 0 0.0027581075584571274 -0.01442769113026344 0 0.0026909704017412869 -0.01489605449298133 0 0.0047613699942271855 -0.012953524570454341 0 0.0045921528033722441 -0.013319615724154615 0 0.0039276240873146948 -0.013252640153110095 0 0.0026909704017412869 -0.01489605449298133 0 0.0027124875485390349 -0.014861882480000397 0 0.0022905804447510246 -0.016928833025918071 0 0.0024418591311129792 -0.016967166905987714 0 0.0023966703014690676 -0.01676693108304125 0 0.0022775884829908622 -0.017044037394024658 0 0.0023558348808656458 -0.017108604550946024 0 0.0024418591311129792 -0.016967166905987714 0 0.0022905804447510246 -0.016928833025918071 0 0.0022775884829908622 -0.017044037394024658 0 0.0024418591311129792 -0.016967166905987714 0 0.0024418591311129792 -0.016967166905987714 0 0.0023966703014690676 -0.01676693108304125 0 0.002528083517702763 -0.01685445674095443 0 0.0023966703014690676 -0.01676693108304125 0 0.002528083517702763 -0.01685445674095443 0 0.0026267768397669907 -0.016723385605010438 0 0.0026909704017412869 -0.01489605449298133 0 0.0017273544559508673 -0.017003786934534776 0 0.0014511142816278845 -0.017848518524767779 0 0.0017273544559508673 -0.017003786934534776 0 0.0026467496743356827 -0.016960349737293445 0 0.002528083517702763 -0.01685445674095443 0 0.0026267768397669907 -0.016723385605010438 0 0.0045921528033722441 -0.013319615724154615 0 0.0050136011828253724 -0.015573158670257504 0 0.0042555517057659411 -0.014154104924992085 0 0.0027103206380824081 -0.0064501796928214256 0 0.0030791350704829751 -0.0069334828755743391 0 0.0026282344424974524 -0.0060569469584343524 0 0.0027103206380824081 -0.0064501796928214256 0 0.002462044339976406 -0.0066587916445550394 0 0.0022759743573875072 -0.0062314369920673874 0 0.0027103206380824081 -0.0064501796928214256 0 0.0025029519776083933 -0.0061596556551809407 0 0.0022759743573875072 -0.0062314369920673874 0 0.0025029519776083933 -0.0061596556551809407 0 0.0023928667710664364 -0.0059210245375793868 0 0.0022759743573875072 -0.0062314369920673874 0 0.0027103206380824081 -0.0064501796928214256 0 0.0025029519776083933 -0.0061596556551809407 0 0.0026282344424974524 -0.0060569469584343524 0 0.0028029074752405382 -0.0063430254705501279 0 0.0029599041115653591 -0.0061091070523397774 0 0.0028094782029483918 -0.0059569389243284273 0 0.0026489010163490041 -0.007870848293756387 0 0.0025709389481748278 -0.006884562493615025 0 0.0032176098300883381 -0.0069469576665684499 0 0.0026282344424974524 -0.0060569469584343524 0 0.0026087688831024653 -0.0058396773471689166 0 0.0028029074752405382 -0.0063430254705501279 0 0.0028094782029483918 -0.0059569389243284273 0 0.0026087688831024653 -0.0058396773471689166 0 0.0031287078218232133 -0.0069682572988503154 0 0.0032176098300883381 -0.0069469576665684499 0 0.0026282344424974524 -0.0060569469584343524 0 0.0019899457846751876 -0.011528632135433895 0 0.001345338491826981 -0.0082853452350006591 0 0.0031287078218232133 -0.0069682572988503154 0 0.0028674794165953251 -0.0073807812063444609 0 0.0026282344424974524 -0.0060569469584343524 0 0.0032234871298323837 -0.0069497199888204301 0 0.0028674794165953251 -0.0073807812063444609 0 0.0036535128755747228 -0.0077949058198671746 0 0.0019899457846751876 -0.011528632135433895 0 0.0022988982842455847 -0.012276348427313236 0 0.0031287078218232133 -0.0069682572988503154 0 0.0032234871298323837 -0.0069497199888204301 0 0.0028674794165953251 -0.0073807812063444609 0 0.0020009366606558148 -0.011519714250010612 0 0.0019899457846751876 -0.011528632135433895 0 0.0030791350704829751 -0.0069334828755743391 0 0.0027283277847101311 -0.0067702261093114417 0 0.0026501943636037003 -0.0070791737617480806 0 0.0027103206380824081 -0.0064501796928214256 0 0.0030791350704829751 -0.0069334828755743391 0 0.0027283277847101311 -0.0067702261093114417 0 0.0027103206380824081 -0.0064501796928214256 0 0.0027283277847101311 -0.0067702261093114417 0 0.002462044339976406 -0.0066587916445550394 0 0.0027283277847101311 -0.0067702261093114417 0 0.002462044339976406 -0.0066587916445550394 0 0.0026501943636037003 -0.0070791737617480806 0 0.002462044339976406 -0.0066587916445550394 0 0.0026501943636037003 -0.0070791737617480806 0 0.0021300612772108419 -0.0070280475383860423 0 0.0030791350704829751 -0.0069334828755743391 0 0.0026501943636037003 -0.0070791737617480806 0 0.0029016635016911635 -0.0076372320223276067 0 0.0026501943636037003 -0.0070791737617480806 0 0.0024170686305162131 -0.0076940982445222539 0 0.0021300612772108419 -0.0070280475383860423 0 0.0026501943636037003 -0.0070791737617480806 0 0.0029016635016911635 -0.0076372320223276067 0 0.0024170686305162131 -0.0076940982445222539 0 0.0032879994140807257 -0.008506358847836468 0 0.0028470930877814694 -0.0081327861917163645 0 0.0022034966251139802 -0.0085924270018628082 0 0.0024170686305162131 -0.0076940982445222539 0 0.0028470930877814694 -0.0081327861917163645 0 0.0022034966251139802 -0.0085924270018628082 0 0.0029016635016911635 -0.0076372320223276067 0 0.0024170686305162131 -0.0076940982445222539 0 0.0028470930877814694 -0.0081327861917163645 0 0.0029295357288223961 -0.011884798774568408 0 0.0022988982842455847 -0.012276348427313236 0 0.0028929730408720645 -0.01209608901346787 0 0.001943374777897433 -0.012109835504918143 0 0.0022017311703205786 -0.013507824023644413 0 0.0030007897866430335 -0.012990199688574998 0 0.0029295357288223961 -0.011884798774568408 0 0.0032879994140807257 -0.008506358847836468 0 0.0028470930877814694 -0.0081327861917163645 0 0.0034234099635867244 -0.0082346650769351635 0 0.0029609780247832275 -0.012484127047288452 0 0.0029295357288223961 -0.011884798774568408 0 0.0029016635016911635 -0.0076372320223276067 0 0.0028470930877814694 -0.0081327861917163645 0 0.0034234099635867244 -0.0082346650769351635 0 0.0030791350704829751 -0.0069334828755743391 0 0.0029016635016911635 -0.0076372320223276067 0 0.0034234099635867244 -0.0082346650769351635 0 0.0028674794165953251 -0.0073807812063444609 0 0.003133078522944757 -0.0088740174578448641 0 0.0036535128755747228 -0.0077949058198671746 0 0.0026489010163490041 -0.007870848293756387 0 0.0029295357288223961 -0.011884798774568408 0 0.0024552170857366235 -0.014121262918025476 0 0.0030781369404755741 -0.014453106234806039 0 0.0026302859924529857 -0.013763184003617094 0 0.0022988982842455847 -0.012276348427313236 0 0.0022440933149758479 -0.012480700708495126 0 0.0023477664865023252 -0.013829137270071748 0 0.0021359835603297003 -0.013771947227872254 0 0.0022280162440730007 -0.013579046948084945 0 0.002687798259643305 -0.016251555507813098 0 0.0022988982842455847 -0.012276348427313236 0 0.0023477664865023252 -0.013829137270071748 0 0.0021468240514512836 -0.013828874338357769 0 0.0021359835603297003 -0.013771947227872254 0 0.0029554995804764519 -0.015160803277142951 0 0.0024552170857366235 -0.014121262918025476 0 0.0030781369404755741 -0.014453106234806039 0 0.0030121401932482008 -0.015160106526429689 0 0.0029554995804764519 -0.015160803277142951 0 0.0030781369404755741 -0.014453106234806039 0 0.0024739564212834077 -0.018319255363337315 0 0.0018683996488867538 -0.018325631142606699 0 0.0020794430535283326 -0.018052454852829913 0 0.0024739564212834077 -0.018319255363337315 0 0.0020794430535283326 -0.018052454852829913 0 0.002226281980985944 -0.01773914527262762 0 0.0018683996488867538 -0.018325631142606699 0 0.0020794430535283326 -0.018052454852829913 0 0.0019227998450334978 -0.017742768601716422 0 0.0026861736959904164 -0.016522766845443845 0 0.0026382641770636302 -0.016311430574541725 0 0.0020794430535283326 -0.018052454852829913 0 0.002226281980985944 -0.01773914527262762 0 0.0019227998450334978 -0.017742768601716422 0 0.0025668262080206128 -0.018879678019995787 0 0.0026102490943543501 -0.016373476192552323 0 0.0013978292463124116 -0.022453215224831308 0 0.0012005511297531342 -0.022007371801944259 0 0.0014508836909165597 -0.022145285219178332 0 0.0030781369404755741 -0.014453106234806039 0 0.0031414712208533984 -0.013749185113677438 0 0.0026302859924529857 -0.013763184003617094 0 0.002226281980985944 -0.01773914527262762 0 0.0019227998450334978 -0.017742768601716422 0 0.0019769081079074385 -0.017157414616145322 0 0.0026382641770636302 -0.016311430574541725 0 0.0026102490943543501 -0.016373476192552323 0 0.0014164613091670914 -0.021937875607689422 0 0.0012005511297531342 -0.022007371801944259 0 0.0014508836909165597 -0.022145285219178332 0 0.0014164613091670914 -0.021937875607689422 0 0.0012005511297531342 -0.022007371801944259 0 0.0012298532864078399 -0.021691634550531351 0 0.0014164613091670914 -0.021937875607689422 0 0.0013760374444159761 -0.021664881355183144 0 0.0012298532864078399 -0.021691634550531351 0 0.0026102490943543501 -0.016373476192552323 0 0.0024567753544792572 -0.015790130640562009 0 0.0031810985534514104 -0.014895272162266221 0 0.0033265005913270212 -0.015235109442740058 0 0.0033610875832807302 -0.014861777568834821 0 0.0026158390789624512 -0.014242259329330062 0 0.0026102490943543501 -0.016373476192552323 0 0.0019899457846751876 -0.011528632135433895 0 0.0026158390789624512 -0.014242259329330062 0 0.0021469638031734301 -0.01346767092285274 0 0.0029540419365234271 -0.013317399760397844 0 0.0026302859924529857 -0.013763184003617094 0 0.0021469638031734301 -0.01346767092285274 0 0.0024591475300143307 -0.014111734153747217 0 0.0026302859924529857 -0.013763184003617094 0 0.0029540419365234271 -0.013317399760397844 0 0.0031414712208533984 -0.013749185113677438 0 0.0026302859924529857 -0.013763184003617094 0 0.003208408122473601 -0.0062763583475633905 0 0.0029599041115653591 -0.0061091070523397774 0 0.0030886174047304797 -0.0059917655629488009 0 0.0026158390789624512 -0.014242259329330062 0 0.0018417744232692914 -0.011327486921078989 0 0.0028029074752405382 -0.0063430254705501279 0 0.003208408122473601 -0.0062763583475633905 0 0.0029599041115653591 -0.0061091070523397774 0 0.0029599041115653591 -0.0061091070523397774 0 0.0030886174047304797 -0.0059917655629488009 0 0.0029383074109992835 -0.0059154266964767501 0 0.0029599041115653591 -0.0061091070523397774 0 0.0029383074109992835 -0.0059154266964767501 0 0.0028094782029483918 -0.0059569389243284273 0 0.001058384939038633 -0.021335207478917668 0 0.0011891601724195191 -0.02148878666557253 0 0.0014136435308494779 -0.021167023226121524 0 0.0025501512886706092 -0.01535898582871799 0 0.0026698825745454092 -0.016979791406388375 0 0.0026698825745454092 -0.016979791406388375 0 0.0024567753544792572 -0.015790130640562009 0 0.002327699969409958 -0.017338777645429206 0 0.0014845263573744745 -0.016356472208912818 0 0.0024390029764481997 -0.01617698017674744 0 0.002256134753902799 -0.014587511656084597 0 0.0015759052401741486 -0.012998426107015872 0 0.0029797954661404591 -0.013705625238893097 0 0.0026158390789624512 -0.014242259329330062 0 0.0024567753544792572 -0.015790130640562009 0 0.002256134753902799 -0.014587511656084597 0 0.0029797954661404591 -0.013705625238893097 0 0.0029074002271074323 -0.014465634083273849 0 0.0025501512886706092 -0.01535898582871799 0 0.0024567753544792572 -0.015790130640562009 0 0.0011891601724195191 -0.02148878666557253 0 0.0014136435308494779 -0.021167023226121524 0 0.0017448489681250556 -0.021395913863477226 0 0.0026698825745454092 -0.016979791406388375 0 0.0018975035926483963 -0.021942206922120424 0 0.0018975035926483963 -0.021942206922120424 0 0.0011606790988623042 -0.027082125044969353 0 0.0018870122105433332 -0.021651702568956856 0 0.0022020362586008388 -0.022163568470928444 0 0.0023719940842195021 -0.021568608232862191 0 0.0018870122105433332 -0.021651702568956856 0 0.001785402619939782 -0.022180864201592345 0 0.0022020362586008388 -0.022163568470928444 0 0.0014164613091670914 -0.021937875607689422 0 0.0013760374444159761 -0.021664881355183144 0 0.001785402619939782 -0.022180864201592345 0 0.0026698825745454092 -0.016979791406388375 0 0.0032650855231476875 -0.019154000244268613 0 0.0014114439798007586 -0.021733838528854056 0 0.0018870122105433332 -0.021651702568956856 0 0.001785402619939782 -0.022180864201592345 0 0.0014164613091670914 -0.021937875607689422 0 0.0014508836909165597 -0.022145285219178332 0 0.001785402619939782 -0.022180864201592345 0 0.0013978292463124116 -0.022453215224831308 0 0.0014508836909165597 -0.022145285219178332 0 0.001785402619939782 -0.022180864201592345 0 0.0013978292463124116 -0.022453215224831308 0 0.001785402619939782 -0.022180864201592345 0 0.0019213572024439796 -0.022411574815311339 0 0.0023647206382942142 -0.020007931182660973 0 0.0025668262080206128 -0.018879678019995787 0 0.0015816418731899201 -0.022876048251610413 0 0.0013978292463124116 -0.022453215224831308 0 0.0018473755066590427 -0.022667539000835454 0 0.0013978292463124116 -0.022453215224831308 0 0.0018473755066590427 -0.022667539000835454 0 0.0019213572024439796 -0.022411574815311339 0 0.0021161800844718679 -0.022871206385529936 0 0.0015816418731899201 -0.022876048251610413 0 0.0018473755066590427 -0.022667539000835454 0 0.0021161800844718679 -0.022871206385529936 0 0.0021411217254157836 -0.022708362958771999 0 0.0018473755066590427 -0.022667539000835454 0 0.0018473755066590427 -0.022667539000835454 0 0.0021532229168129179 -0.022534689294771197 0 0.0019213572024439796 -0.022411574815311339 0 0.0021411217254157836 -0.022708362958771999 0 0.0018473755066590427 -0.022667539000835454 0 0.0021532229168129179 -0.022534689294771197 0 0.001785402619939782 -0.022180864201592345 0 0.0019213572024439796 -0.022411574815311339 0 0.0022020362586008388 -0.022163568470928444 0 0.0021532229168129179 -0.022534689294771197 0 0.0019213572024439796 -0.022411574815311339 0 0.0022020362586008388 -0.022163568470928444 0 0.0021532229168129179 -0.022534689294771197 0 0.0022020362586008388 -0.022163568470928444 0 0.002324347867843695 -0.022494539365933833 0 0.0022020362586008388 -0.022163568470928444 0 0.0025005031724653947 -0.022396835415734027 0 0.0026489346480741372 -0.022052146748515397 0 0.0022020362586008388 -0.022163568470928444 0 0.0025005031724653947 -0.022396835415734027 0 0.002324347867843695 -0.022494539365933833 0 0.0010939336624204684 -0.024789218171149926 0 0.0011712696590678614 -0.02518285581218711 0 0.0021532229168129179 -0.022534689294771197 0 0.002324347867843695 -0.022494539365933833 0 0.0023317339829394511 -0.022736211765755094 0 0.0011315493354149128 -0.02765004026187139 0 0.0015496561226871325 -0.027640477546606444 0 0.0015678114158760663 -0.027729502387181627 0 0.0025005031724653947 -0.022396835415734027 0 0.002324347867843695 -0.022494539365933833 0 0.0023317339829394511 -0.022736211765755094 0 0.0021161800844718679 -0.022871206385529936 0 0.0021411217254157836 -0.022708362958771999 0 0.002322530224343893 -0.022786311419775915 0 0.0015936805663504391 -0.023848409896579624 0 0.0011712696590678614 -0.02518285581218711 0 0.0012197699393197614 -0.024280587008321666 0 0.00075407441926044546 -0.024395741780532096 0 0.00073367233700464131 -0.024482987971198928 0 0.0015496561226871325 -0.027640477546606444 0 0.001577225748546863 -0.027689411796150351 0 0.0015678114158760663 -0.027729502387181627 0 0.0021411217254157836 -0.022708362958771999 0 0.0021532229168129179 -0.022534689294771197 0 0.002322530224343893 -0.022786311419775915 0 0.00107114420753227 -0.025756768224750072 0 0.0010922779585880896 -0.025461003418190083 0 0.0021532229168129179 -0.022534689294771197 0 0.0023317339829394511 -0.022736211765755094 0 0.0023183446349774495 -0.022791628660133796 0 0.0011303941090899381 -0.025389333521615341 0 0.0010922779585880896 -0.025461003418190083 0 0.0010922779585880896 -0.025461003418190083 0 0.0011712696590678614 -0.02518285581218711 0 0.0011783701503372439 -0.025158500496574795 0 0.0011712696590678614 -0.02518285581218711 0 0.0011315493354149128 -0.02765004026187139 0 0.0015678114158760663 -0.027729502387181627 0 0.00091261718099918169 -0.02800684926513956 0 0.0025005031724653947 -0.022396835415734027 0 0.0023317339829394511 -0.022736211765755094 0 0.0029263316468808314 -0.022543582047033595 0 0.0023317339829394511 -0.022736211765755094 0 0.0023190308534335666 -0.022790250121989774 0 0.0029263316468808314 -0.022543582047033595 0 0.0011712696590678614 -0.02518285581218711 0 0.0013552470844595357 -0.028472963305864959 0 0.0014127295590155729 -0.028123109034650217 0 0.0013552470844595357 -0.028472963305864959 0 0.0025005031724653947 -0.022396835415734027 0 0.0026489346480741372 -0.022052146748515397 0 0.0029263316468808314 -0.022543582047033595 0 0.0014127295590155729 -0.028123109034650217 0 0.0011606790988623042 -0.027082125044969353 0 0.00019290503152322606 -0.034770847474913429 0 0.0002191881587787167 -0.034810015688865104 0 0.00017309499209433501 -0.034799550860539562 0 0.0022020362586008388 -0.022163568470928444 0 0.0026489346480741372 -0.022052146748515397 0 0.0023719940842195021 -0.021568608232862191 0 0.0011606790988623042 -0.027082125044969353 0 -2.7409602620404137e-05 -0.030525208612609638 0 0.0002191881587787167 -0.034810015688865104 0 0.00017270435418871872 -0.034830441708761345 0 0.00017309499209433501 -0.034799550860539562 0 5.3277133360284077e-06 -0.034864862986896353 0 -1.5338282372674225e-05 -0.034843134120816466 0 1.7835015241490498e-05 -0.034843894484475883 0 -2.5170910410728377e-05 -0.034862193353955191 0 5.3277133360284077e-06 -0.034864862986896353 0 -1.5338282372674225e-05 -0.034843134120816466 0 -2.5170910410728377e-05 -0.034862193353955191 0 -1.5338282372674225e-05 -0.034843134120816466 0 -4.9904812148996114e-05 -0.034826726616228112 0 0.0011606790988623042 -0.027082125044969353 0 0.0015486319307511454 -0.026988435774333994 0 -1.5338282372674225e-05 -0.034843134120816466 0 -1.0049025593556811e-05 -0.034821245300943736 0 -4.9904812148996114e-05 -0.034826726616228112 0 -1.5338282372674225e-05 -0.034843134120816466 0 -1.0049025593556811e-05 -0.034821245300943736 0 1.7835015241490498e-05 -0.034843894484475883 0 -1.0049025593556811e-05 -0.034821245300943736 0 -2.3090790889755285e-05 -0.034795794670838862 0 -4.2869784388961036e-05 -0.034794849721548261 0 -1.0049025593556811e-05 -0.034821245300943736 0 -2.3090790889755285e-05 -0.034795794670838862 0 1.7452972458474036e-06 -0.034808041394234254 0 -2.3090790889755285e-05 -0.034795794670838862 0 -1.276858197176408e-05 -0.03479211151683391 0 -3.6659925320276018e-05 -0.034778551597834856 0 -2.3090790889755285e-05 -0.034795794670838862 0 1.7452972458474036e-06 -0.034808041394234254 0 -1.276858197176408e-05 -0.03479211151683391 0 -2.3090790889755285e-05 -0.034795794670838862 0 -4.2869784388961036e-05 -0.034794849721548261 0 -4.015072023416897e-05 -0.034770854202129463 0 -4.2869784388961036e-05 -0.034794849721548261 0 -4.015072023416897e-05 -0.034770854202129463 0 -6.0639317934009665e-05 -0.034765774209688044 0 -1.0049025593556811e-05 -0.034821245300943736 0 -4.2869784388961036e-05 -0.034794849721548261 0 -4.9904812148996114e-05 -0.034826726616228112 0 0.0015746160977402476 -0.020012001558466934 0 0.0014409261245467632 -0.020202002146465361 0 0.0019421665614430665 -0.020656620212548056 0 -4.2869784388961036e-05 -0.034794849721548261 0 -7.3173453648725273e-05 -0.034785201644516567 0 -4.9904812148996114e-05 -0.034826726616228112 0 0.0016890007373072131 -0.025123132569834273 0 0.0015486319307511454 -0.026988435774333994 0 0.0016890007373072131 -0.025123132569834273 0 0.00060083442711600095 -0.027363272243697032 0 -4.2869784388961036e-05 -0.034794849721548261 0 -7.3173453648725273e-05 -0.034785201644516567 0 -6.0639317934009665e-05 -0.034765774209688044 0 0.0013715824515714158 -0.022729884737009241 0 0.0017943105811141166 -0.022112039090454439 0 0.0013233683956151187 -0.021955245397645221 0 0.0016890007373072131 -0.025123132569834273 0 0.00083810004367577485 -0.015931251159144406 0 0.0015816085230812814 -0.019999783043954691 0 0.0011579082386147625 -0.020042631416101835 0 0.0012106443420726316 -0.019352851557105144 0 0.0013715824515714158 -0.022729884737009241 0 0.0013233683956151187 -0.021955245397645221 0 0.00093430780194883589 -0.021964073263621698 0 0.0015816085230812814 -0.019999783043954691 0 0.0014409261245467632 -0.020202002146465361 0 0.0011579082386147625 -0.020042631416101835 0 0.0016890007373072131 -0.025123132569834273 0 0.0018870273998632487 -0.024664041414391807 0 0.0014409261245467632 -0.020202002146465361 0 0.001477277906951992 -0.020681252644130947 0 0.0011126564158102437 -0.020696858410479947 0 0.0014409261245467632 -0.020202002146465361 0 0.001477277906951992 -0.020681252644130947 0 0.0019421665614430665 -0.020656620212548056 0 0.0014136435308494779 -0.021167023226121524 0 0.0017448489681250556 -0.021395913863477226 0 0.0019421665614430665 -0.020656620212548056 0 0.0017448489681250556 -0.021395913863477226 0 0.0023052328461782116 -0.021300064804232261 0 0.0019421665614430665 -0.020656620212548056 0 0.0014136435308494779 -0.021167023226121524 0 0.001477277906951992 -0.020681252644130947 0 0.0019421665614430665 -0.020656620212548056 0 0.0014136435308494779 -0.021167023226121524 0 0.001477277906951992 -0.020681252644130947 0 0.0011126564158102437 -0.020696858410479947 0 0.0025501512886706092 -0.01535898582871799 0 0.002244023560366504 -0.01382844458105344 0 0.001058384939038633 -0.021335207478917668 0 0.0014136435308494779 -0.021167023226121524 0 0.0011126564158102437 -0.020696858410479947 0 0.0034718812699266141 -0.0067851617274679223 0 0.0032955456249209409 -0.0064350158853743013 0 0.0035247136526812516 -0.0061185420042275205 0 0.0032955456249209409 -0.0064350158853743013 0 0.0032341274803008324 -0.0062030359850892324 0 0.0035247136526812516 -0.0061185420042275205 0 0.0025501512886706092 -0.01535898582871799 0 0.0014045010200819676 -0.0098453134845756934 0 0.0034718812699266141 -0.0067851617274679223 0 0.0032955456249209409 -0.0064350158853743013 0 0.0029780755667970465 -0.006204337249260612 0 0.0015759052401741486 -0.012998426107015872 0 0.0029797954661404591 -0.013705625238893097 0 0.00089589147408480766 -0.011408688364322 0 0.0030886174047304797 -0.0059917655629488009 0 0.0029383074109992835 -0.0059154266964767501 0 0.0029677600347178881 -0.0057143329411116295 0 0.0018417744232692914 -0.011327486921078989 0 0.0014045010200819676 -0.0098453134845756934 0 0.0029383074109992835 -0.0059154266964767501 0 0.0029677600347178881 -0.0057143329411116295 0 0.0028679537730582046 -0.0058060894958129302 0 0.0032955456249209409 -0.0064350158853743013 0 0.0031617686977011934 -0.0062373874044189198 0 0.0032341274803008324 -0.0062030359850892324 0 0.0032955456249209409 -0.0064350158853743013 0 0.0029780755667970465 -0.006204337249260612 0 0.0031617686977011934 -0.0062373874044189198 0 0.0031617686977011934 -0.0062373874044189198 0 0.0032341274803008324 -0.0062030359850892324 0 0.0031210106568740825 -0.0061193397739825071 0 0.0029780755667970465 -0.006204337249260612 0 0.0031617686977011934 -0.0062373874044189198 0 0.0031210106568740825 -0.0061193397739825071 0 0.0031210106568740825 -0.0061193397739825071 0 0.0032164813199497743 -0.0060325971059734407 0 0.0030073114262156838 -0.0058872715520960983 0 0.0032341274803008324 -0.0062030359850892324 0 0.0031210106568740825 -0.0061193397739825071 0 0.0032164813199497743 -0.0060325971059734407 0 0.0029780755667970465 -0.006204337249260612 0 0.0031210106568740825 -0.0061193397739825071 0 0.0030073114262156838 -0.0058872715520960983 0 0.0032164813199497743 -0.0060325971059734407 0 0.0030073114262156838 -0.0058872715520960983 0 0.0032241352484286608 -0.0057465584364338471 0 0.0032164813199497743 -0.0060325971059734407 0 0.0035247136526812516 -0.0061185420042275205 0 0.0032241352484286608 -0.0057465584364338471 0 0.0035247136526812516 -0.0061185420042275205 0 0.0035433138291406595 -0.0055138755346489602 0 0.0032241352484286608 -0.0057465584364338471 0 0.002244023560366504 -0.01382844458105344 0 0.0017975921339616172 -0.013585359705194965 0 0.0032341274803008324 -0.0062030359850892324 0 0.0032164813199497743 -0.0060325971059734407 0 0.0035247136526812516 -0.0061185420042275205 0 0.0014409261245467632 -0.020202002146465361 0 0.0011126564158102437 -0.020696858410479947 0 0.0011579082386147625 -0.020042631416101835 0 0.0035433138291406595 -0.0055138755346489602 0 0.0031793398638267434 -0.0053017083781370811 0 0.0032241352484286608 -0.0057465584364338471 0 0.0017975921339616172 -0.013585359705194965 0 0.00083810004367577485 -0.015931251159144406 0 0.0035433138291406595 -0.0055138755346489602 0 0.0031793398638267434 -0.0053017083781370811 0 0.00356273605755082 -0.0049713052227510048 0 0.0031793398638267434 -0.0053017083781370811 0 0.0029566987625982912 -0.0055318152783418711 0 0.0027829653053884022 -0.0051115626835839759 0 0.0031793398638267434 -0.0053017083781370811 0 0.0027829653053884022 -0.0051115626835839759 0 0.0031993237162719177 -0.0049416352223470633 0 0.0031793398638267434 -0.0053017083781370811 0 0.0029566987625982912 -0.0055318152783418711 0 0.0032241352484286608 -0.0057465584364338471 0 0.0030073114262156838 -0.0058872715520960983 0 0.0029566987625982912 -0.0055318152783418711 0 0.0032241352484286608 -0.0057465584364338471 0 0.0029566987625982912 -0.0055318152783418711 0 0.0025965119104945397 -0.0056294015760516717 0 0.0027829653053884022 -0.0051115626835839759 0 0.0030073114262156838 -0.0058872715520960983 0 0.0029566987625982912 -0.0055318152783418711 0 0.0025965119104945397 -0.0056294015760516717 0 0.0014325387062487514 -0.006956020132913617 0 0.0014990669688882208 -0.0062622636165969121 0 0.0025965119104945397 -0.0056294015760516717 0 0.0027829653053884022 -0.0051115626835839759 0 0.0022469368763900007 -0.0050642410558341356 0 0.0025827084188178033 -0.0053238331687473972 0 0.0021353269715159006 -0.0052940379263697506 0 0.0022469368763900007 -0.0050642410558341356 0 0.0025827084188178033 -0.0053238331687473972 0 0.002312192484106774 -0.0055653218759425032 0 0.0021353269715159006 -0.0052940379263697506 0 0.0025827084188178033 -0.0053238331687473972 0 0.002312192484106774 -0.0055653218759425032 0 0.0025498479410936458 -0.0056438523833956629 0 0.0029780755667970465 -0.006204337249260612 0 0.0030073114262156838 -0.0058872715520960983 0 0.0025965119104945397 -0.0056294015760516717 0 0.0014045010200819676 -0.0098453134845756934 0 0.0014325387062487514 -0.006956020132913617 0 0.0025827084188178033 -0.0053238331687473972 0 0.0025498479410936458 -0.0056438523833956629 0 0.0027488953323081987 -0.0057318533038046354 0 0.0029677600347178881 -0.0057143329411116295 0 0.0025827084188178033 -0.0053238331687473972 0 0.0027488953323081987 -0.0057318533038046354 0 0.0025498479410936458 -0.0056438523833956629 0 0.0027488953323081987 -0.0057318533038046354 0 0.0026542395411885884 -0.0057654959838370056 0 0.0026542395411885884 -0.0057654959838370056 0 0.0027772870732306488 -0.005813989918682168 0 0.0027135084280848027 -0.0058440395959037088 0 0.0027488953323081987 -0.0057318533038046354 0 0.0026542395411885884 -0.0057654959838370056 0 0.0027772870732306488 -0.005813989918682168 0 0.0026542395411885884 -0.0057654959838370056 0 0.0027135084280848027 -0.0058440395959037088 0 0.0026087688831024653 -0.0058396773471689166 0 0.0029677600347178881 -0.0057143329411116295 0 0.0027488953323081987 -0.0057318533038046354 0 0.0028679537730582046 -0.0058060894958129302 0 0.0027488953323081987 -0.0057318533038046354 0 0.0027772870732306488 -0.005813989918682168 0 0.0028679537730582046 -0.0058060894958129302 0 0.0029383074109992835 -0.0059154266964767501 0 0.0028679537730582046 -0.0058060894958129302 0 0.0028094782029483918 -0.0059569389243284273 0 0.0027772870732306488 -0.005813989918682168 0 0.0028679537730582046 -0.0058060894958129302 0 0.0028094782029483918 -0.0059569389243284273 0 0.0027772870732306488 -0.005813989918682168 0 0.0028094782029483918 -0.0059569389243284273 0 0.0027135084280848027 -0.0058440395959037088 0 0.0028094782029483918 -0.0059569389243284273 0 0.0027135084280848027 -0.0058440395959037088 0 0.0026087688831024653 -0.0058396773471689166 0 0.0025029519776083933 -0.0061596556551809407 0 0.0026282344424974524 -0.0060569469584343524 0 0.0023928667710664364 -0.0059210245375793868 0 0.002312192484106774 -0.0055653218759425032 0 0.0025498479410936458 -0.0056438523833956629 0 0.0023928667710664364 -0.0059210245375793868 0 0.0026282344424974524 -0.0060569469584343524 0 0.0026087688831024653 -0.0058396773471689166 0 0.0023928667710664364 -0.0059210245375793868 0 0.0025498479410936458 -0.0056438523833956629 0 0.0026542395411885884 -0.0057654959838370056 0 0.0026087688831024653 -0.0058396773471689166 0 0.0025498479410936458 -0.0056438523833956629 0 0.0026087688831024653 -0.0058396773471689166 0 0.0023928667710664364 -0.0059210245375793868 0 8.5569846937639886e-05 -0.034924099252008456 0 0.00018043636786311859 -0.034966074514424406 0 0.00020620343445863502 -0.034802584141719807 0 8.5569846937639886e-05 -0.034924099252008456 0 0.00018043636786311859 -0.034966074514424406 0 1.2664281697570445e-05 -0.035016599710252679 0 -3.2804018485436773e-05 -0.034456845737969199 0 -6.4386591731432045e-05 -0.033809176947518345 0 0.00018043636786311859 -0.034966074514424406 0 0.00020620343445863502 -0.034802584141719807 0 0.00036375625939081256 -0.034888048425359336 0 4.2139293269564521e-05 -0.034861878368564782 0 4.9056441434476056e-05 -0.034881121432761293 0 5.9598264712873692e-05 -0.034858637316680104 0 4.2139293269564521e-05 -0.034861878368564782 0 4.9056441434476056e-05 -0.034881121432761293 0 3.2148052814681859e-05 -0.03490872863551428 0 4.9056441434476056e-05 -0.034881121432761293 0 3.2148052814681859e-05 -0.03490872863551428 0 3.983458383259399e-05 -0.034921440672476989 0 -3.2804018485436773e-05 -0.034456845737969199 0 -1.5852233641006227e-05 -0.034788897960401445 0 4.2139293269564521e-05 -0.034861878368564782 0 3.2148052814681859e-05 -0.03490872863551428 0 8.5720891859064511e-06 -0.034927472857345182 0 1.2664281697570445e-05 -0.035016599710252679 0 6.5712469440751139e-07 -0.034996813294094049 0 6.0630582278420717e-06 -0.034984414514349971 0 -1.5852233641006227e-05 -0.034788897960401445 0 -7.0795950779051682e-08 -0.034999654956802226 0 6.5712469440751139e-07 -0.034996813294094049 0 4.0145938607814583e-09 -0.034999987650685245 0 -1.1476787952231985e-08 -0.035000012955982852 0 1.2664281697570445e-05 -0.035016599710252679 0 6.5712469440751139e-07 -0.034996813294094049 0 -1.1476787952231985e-08 -0.035000012955982852 0 6.5712469440751139e-07 -0.034996813294094049 0 2.7302339466945376e-06 -0.034995696394873196 0 4.0145938607814583e-09 -0.034999987650685245 0 8.5569846937639886e-05 -0.034924099252008456 0 6.0630582278420717e-06 -0.034984414514349971 0 3.3562306621104695e-05 -0.034815262535715485 0 2.7302339466945376e-06 -0.034995696394873196 0 6.0630582278420717e-06 -0.034984414514349971 0 -1.2850563649576276e-06 -0.034997961593144535 0 6.5712469440751139e-07 -0.034996813294094049 0 2.7302339466945376e-06 -0.034995696394873196 0 6.0630582278420717e-06 -0.034984414514349971 0 8.5569846937639886e-05 -0.034924099252008456 0 1.2664281697570445e-05 -0.035016599710252679 0 6.0630582278420717e-06 -0.034984414514349971 0 3.9002916152969328e-05 -0.034915896325949811 0 5.7328388905094371e-05 -0.034863917529021647 0 2.7302339466945376e-06 -0.034995696394873196 0 -1.2850563649576276e-06 -0.034997961593144535 0 7.2185835837869229e-07 -0.034999198652321546 0 2.7302339466945376e-06 -0.034995696394873196 0 2.3252499796588107e-09 -0.034999998454975423 0 7.2185835837869229e-07 -0.034999198652321546 0 2.7302339466945376e-06 -0.034995696394873196 0 4.0145938607814583e-09 -0.034999987650685245 0 2.3252499796588107e-09 -0.034999998454975423 0 -8.8655879997033019e-10 -0.03499999848830733 0 2.3252499796588107e-09 -0.034999998454975423 0 3.5477827144841578e-07 -0.034999802143539399 0 2.3252499796588107e-09 -0.034999998454975423 0 7.2185835837869229e-07 -0.034999198652321546 0 3.5477827144841578e-07 -0.034999802143539399 0 -1.2850563649576276e-06 -0.034997961593144535 0 7.2185835837869229e-07 -0.034999198652321546 0 5.9220812708589016e-07 -0.034999768323698423 0 -1.2850563649576276e-06 -0.034997961593144535 0 5.9220812708589016e-07 -0.034999768323698423 0 -5.7808229347958048e-07 -0.03499958275320092 0 7.2185835837869229e-07 -0.034999198652321546 0 3.5477827144841578e-07 -0.034999802143539399 0 5.9220812708589016e-07 -0.034999768323698423 0 9.5297061451391995e-05 -0.034717883759767934 0 0.00011861362711647001 -0.034701732488563862 0 3.3562306621104695e-05 -0.034815262535715485 0 7.6644021561567127e-05 -0.034646801810237673 0 0.00020620343445863502 -0.034802584141719807 0 5.7328388905094371e-05 -0.034863917529021647 0 0.00011861362711647001 -0.034701732488563862 0 8.5569846937639886e-05 -0.034924099252008456 0 3.3562306621104695e-05 -0.034815262535715485 0 0.00020620343445863502 -0.034802584141719807 0 7.6644021561567127e-05 -0.034646801810237673 0 0.00020620343445863502 -0.034802584141719807 0 0.00029778299244885472 -0.034639512315630484 0 0.00011861362711647001 -0.034701732488563862 0 0.00034377762570403651 -0.03396988587258689 0 0.00020620343445863502 -0.034802584141719807 0 0.00029778299244885472 -0.034639512315630484 0 0.0004101662260437356 -0.03474043051807419 0 0.00052013190118350451 -0.034631329468599245 0 0.00029778299244885472 -0.034639512315630484 0 0.0004101662260437356 -0.03474043051807419 0 0.00052013190118350451 -0.034631329468599245 0 0.0004101662260437356 -0.03474043051807419 0 0.00054538794985095585 -0.034808618943818329 0 0.00080204926044330385 -0.032421848183809443 0 0.00034377762570403651 -0.03396988587258689 0 0.0004101662260437356 -0.03474043051807419 0 0.00054538794985095585 -0.034808618943818329 0 0.00036375625939081256 -0.034888048425359336 0 0.00010935290971321632 -0.034766214924361723 0 0.00010830261195969699 -0.034758890901260844 0 6.352126235844327e-05 -0.03481058982986128 0 9.4806711063040208e-05 -0.032361313030362736 0 -6.4386591731432045e-05 -0.033809176947518345 0 0.00020620343445863502 -0.034802584141719807 0 0.0004101662260437356 -0.03474043051807419 0 0.00036375625939081256 -0.034888048425359336 0 0.00092966964093629562 -0.030556840051269345 0 0.00094666448159244361 -0.030585243755328097 0 0.00089577464391505897 -0.030608898794394813 0 0.00071409359781307276 -0.027659577462245094 0 0.0011315493354149128 -0.02765004026187139 0 0.00091261718099918169 -0.02800684926513956 0 0.001409332737972574 -0.030244393037441877 0 0.0013552470844595357 -0.028472963305864959 0 0.00088947547770888615 -0.030559812744072937 0 0.00092966964093629562 -0.030556840051269345 0 0.00089577464391505897 -0.030608898794394813 0 0.00080204926044330385 -0.032421848183809443 0 9.4806711063040208e-05 -0.032361313030362736 0 0.00010876943618511159 -0.034756702702485071 0 0.00014877195774817449 -0.034761474252418552 0 0.00012813762471864461 -0.034774557160899847 0 0.00010935290971321632 -0.034766214924361723 0 0.00010876943618511159 -0.034756702702485071 0 0.00012813762471864461 -0.034774557160899847 0 9.8582127296360545e-05 -0.032395974827910921 0 9.4806711063040208e-05 -0.032361313030362736 0 0.00019290503152322606 -0.034770847474913429 0 0.00016731391130537284 -0.034719758527364593 0 0.00014877195774817449 -0.034761474252418552 0 0.0013552470844595357 -0.028472963305864959 0 9.4806711063040208e-05 -0.032361313030362736 0 0.00016731391130537284 -0.034719758527364593 0 0.00010876943618511159 -0.034756702702485071 0 0.00014877195774817449 -0.034761474252418552 0 0.00019290503152322606 -0.034770847474913429 0 0.00017309499209433501 -0.034799550860539562 0 0.00014877195774817449 -0.034761474252418552 0 0.00017309499209433501 -0.034799550860539562 0 0.00014877195774817449 -0.034761474252418552 0 0.00013905304770528394 -0.034804359304541552 0 0.00014877195774817449 -0.034761474252418552 0 0.00013905304770528394 -0.034804359304541552 0 0.00012813762471864461 -0.034774557160899847 0 0.00010935290971321632 -0.034766214924361723 0 0.00011554749066280864 -0.03479830635447502 0 8.7359342481193851e-05 -0.034821906859831359 0 0.00013905304770528394 -0.034804359304541552 0 0.00012813762471864461 -0.034774557160899847 0 0.00011554749066280864 -0.03479830635447502 0 0.00013905304770528394 -0.034804359304541552 0 0.00011554749066280864 -0.03479830635447502 0 0.00011230929127035897 -0.034823211285500033 0 0.00010935290971321632 -0.034766214924361723 0 0.00012813762471864461 -0.034774557160899847 0 0.00011554749066280864 -0.03479830635447502 0 0.00011554749066280864 -0.03479830635447502 0 0.00011230929127035897 -0.034823211285500033 0 8.7359342481193851e-05 -0.034821906859831359 0 0.00013905304770528394 -0.034804359304541552 0 0.00011230929127035897 -0.034823211285500033 0 0.00012114009623192242 -0.034851001349688361 0 0.00011230929127035897 -0.034823211285500033 0 6.7110360753815465e-05 -0.03486139971205212 0 0.00012114009623192242 -0.034851001349688361 0 0.00017270435418871872 -0.034830441708761345 0 0.00013905304770528394 -0.034804359304541552 0 0.00012114009623192242 -0.034851001349688361 0 0.00017270435418871872 -0.034830441708761345 0 0.00017309499209433501 -0.034799550860539562 0 0.00013905304770528394 -0.034804359304541552 0 6.352126235844327e-05 -0.03481058982986128 0 8.7359342481193851e-05 -0.034821906859831359 0 5.9598264712873692e-05 -0.034858637316680104 0 4.2139293269564521e-05 -0.034861878368564782 0 6.352126235844327e-05 -0.03481058982986128 0 5.9598264712873692e-05 -0.034858637316680104 0 0.00010935290971321632 -0.034766214924361723 0 6.352126235844327e-05 -0.03481058982986128 0 8.7359342481193851e-05 -0.034821906859831359 0 8.7359342481193851e-05 -0.034821906859831359 0 5.9598264712873692e-05 -0.034858637316680104 0 6.7110360753815465e-05 -0.03486139971205212 0 0.00011230929127035897 -0.034823211285500033 0 8.7359342481193851e-05 -0.034821906859831359 0 6.7110360753815465e-05 -0.03486139971205212 0 5.9598264712873692e-05 -0.034858637316680104 0 6.7110360753815465e-05 -0.03486139971205212 0 6.5666045120753465e-05 -0.034859419595422395 0 6.7110360753815465e-05 -0.03486139971205212 0 5.8662050747554401e-05 -0.034846866127789942 0 4.4988027021848094e-05 -0.034850492873789003 0 6.7110360753815465e-05 -0.03486139971205212 0 5.8662050747554401e-05 -0.034846866127789942 0 6.5666045120753465e-05 -0.034859419595422395 0 5.8662050747554401e-05 -0.034846866127789942 0 6.5666045120753465e-05 -0.034859419595422395 0 6.3153237116606118e-05 -0.034838881020099847 0 5.6111733038344996e-05 -0.034885323017749631 0 5.8858535662548895e-05 -0.034883138295555699 0 5.1414088113208176e-05 -0.034941738739911431 0 4.4502544718722611e-05 -0.034924528925567924 0 4.3887094812498925e-05 -0.034942458052903309 0 -2.7409602620404137e-05 -0.030525208612609638 0 -0.00023167498376734145 -0.032104973105722474 0 5.3277133360284077e-06 -0.034864862986896353 0 3.6111940635401865e-05 -0.034865942652426686 0 1.7835015241490498e-05 -0.034843894484475883 0 -0.00025029432580826868 -0.032563859178736054 0 -0.00023167498376734145 -0.032104973105722474 0 6.7110360753815465e-05 -0.03486139971205212 0 3.6111940635401865e-05 -0.034865942652426686 0 4.4988027021848094e-05 -0.034850492873789003 0 3.6111940635401865e-05 -0.034865942652426686 0 4.4988027021848094e-05 -0.034850492873789003 0 1.7835015241490498e-05 -0.034843894484475883 0 5.8662050747554401e-05 -0.034846866127789942 0 4.4988027021848094e-05 -0.034850492873789003 0 4.0854592643018826e-05 -0.034839419254998928 0 4.4988027021848094e-05 -0.034850492873789003 0 1.7835015241490498e-05 -0.034843894484475883 0 4.0854592643018826e-05 -0.034839419254998928 0 -1.0049025593556811e-05 -0.034821245300943736 0 1.7835015241490498e-05 -0.034843894484475883 0 1.8870008271498402e-05 -0.034824152121751335 0 1.7835015241490498e-05 -0.034843894484475883 0 1.8870008271498402e-05 -0.034824152121751335 0 4.0854592643018826e-05 -0.034839419254998928 0 -1.0049025593556811e-05 -0.034821245300943736 0 1.8870008271498402e-05 -0.034824152121751335 0 1.7452972458474036e-06 -0.034808041394234254 0 5.8662050747554401e-05 -0.034846866127789942 0 4.0854592643018826e-05 -0.034839419254998928 0 5.6021123784427794e-05 -0.034831964646208496 0 1.8870008271498402e-05 -0.034824152121751335 0 4.0854592643018826e-05 -0.034839419254998928 0 5.6021123784427794e-05 -0.034831964646208496 0 5.6021123784427794e-05 -0.034831964646208496 0 2.4872642272312132e-05 -0.034809447978633334 0 6.3985652898749582e-05 -0.03481781100790135 0 5.6021123784427794e-05 -0.034831964646208496 0 6.8336618346242107e-05 -0.034847879209373621 0 6.3985652898749582e-05 -0.03481781100790135 0 1.8870008271498402e-05 -0.034824152121751335 0 5.6021123784427794e-05 -0.034831964646208496 0 2.4872642272312132e-05 -0.034809447978633334 0 1.8870008271498402e-05 -0.034824152121751335 0 2.4872642272312132e-05 -0.034809447978633334 0 1.7452972458474036e-06 -0.034808041394234254 0 2.4872642272312132e-05 -0.034809447978633334 0 1.7452972458474036e-06 -0.034808041394234254 0 -1.276858197176408e-05 -0.03479211151683391 0 5.8662050747554401e-05 -0.034846866127789942 0 5.6021123784427794e-05 -0.034831964646208496 0 6.3153237116606118e-05 -0.034838881020099847 0 5.8858535662548895e-05 -0.034883138295555699 0 5.9884023045387767e-05 -0.034877084161372925 0 5.6021123784427794e-05 -0.034831964646208496 0 6.3153237116606118e-05 -0.034838881020099847 0 6.8336618346242107e-05 -0.034847879209373621 0 4.4502544718722611e-05 -0.034924528925567924 0 4.7109858945477135e-05 -0.034923324508464748 0 6.8336618346242107e-05 -0.034847879209373621 0 4.7109858945477135e-05 -0.034923324508464748 0 2.6943743600395834e-05 -0.034959054026653634 0 2.1315214037944275e-05 -0.034961957773104728 0 4.7109858945477135e-05 -0.034923324508464748 0 2.6943743600395834e-05 -0.034959054026653634 0 4.3887094812498925e-05 -0.034942458052903309 0 4.4502544718722611e-05 -0.034924528925567924 0 4.7109858945477135e-05 -0.034923324508464748 0 4.3887094812498925e-05 -0.034942458052903309 0 5.1414088113208176e-05 -0.034941738739911431 0 4.3887094812498925e-05 -0.034942458052903309 0 2.7777153038522239e-05 -0.034943822771442409 0 2.6943743600395834e-05 -0.034959054026653634 0 4.3887094812498925e-05 -0.034942458052903309 0 2.7777153038522239e-05 -0.034943822771442409 0 3.2148052814681859e-05 -0.03490872863551428 0 2.7777153038522239e-05 -0.034943822771442409 0 3.983458383259399e-05 -0.034921440672476989 0 3.2148052814681859e-05 -0.03490872863551428 0 8.5720891859064511e-06 -0.034927472857345182 0 2.7777153038522239e-05 -0.034943822771442409 0 5.2304414402830877e-05 -0.034879562135152926 0 5.6111733038344996e-05 -0.034885323017749631 0 4.9056441434476056e-05 -0.034881121432761293 0 5.9598264712873692e-05 -0.034858637316680104 0 6.5666045120753465e-05 -0.034859419595422395 0 4.9056441434476056e-05 -0.034881121432761293 0 5.1414088113208176e-05 -0.034941738739911431 0 3.983458383259399e-05 -0.034921440672476989 0 5.1414088113208176e-05 -0.034941738739911431 0 2.7777153038522239e-05 -0.034943822771442409 0 3.983458383259399e-05 -0.034921440672476989 0 8.5720891859064511e-06 -0.034927472857345182 0 -1.5322907601426868e-08 -0.034999882190710999 0 8.7727419251677119e-06 -0.034973085740478159 0 8.5720891859064511e-06 -0.034927472857345182 0 2.7777153038522239e-05 -0.034943822771442409 0 8.7727419251677119e-06 -0.034973085740478159 0 2.6943743600395834e-05 -0.034959054026653634 0 2.7777153038522239e-05 -0.034943822771442409 0 8.7727419251677119e-06 -0.034973085740478159 0 8.7727419251677119e-06 -0.034973085740478159 0 1.2925249805479713e-08 -0.034999980202284307 0 1.1364644094697296e-05 -0.03498021293206105 0 -1.5322907601426868e-08 -0.034999882190710999 0 8.7727419251677119e-06 -0.034973085740478159 0 1.2925249805479713e-08 -0.034999980202284307 0 1.2925249805479713e-08 -0.034999980202284307 0 1.1364644094697296e-05 -0.03498021293206105 0 1.0385164006860116e-08 -0.034999958074119181 0 2.6943743600395834e-05 -0.034959054026653634 0 8.7727419251677119e-06 -0.034973085740478159 0 1.1364644094697296e-05 -0.03498021293206105 0 2.6943743600395834e-05 -0.034959054026653634 0 1.1364644094697296e-05 -0.03498021293206105 0 2.1315214037944275e-05 -0.034961957773104728 0 1.1364644094697296e-05 -0.03498021293206105 0 2.1315214037944275e-05 -0.034961957773104728 0 1.0385164006860116e-08 -0.034999958074119181 0 1.0385164006860116e-08 -0.034999958074119181 0 1.324951460967592e-05 -0.034972278530203342 0 5.9764683064273452e-09 -0.034999965077089301 0 2.1315214037944275e-05 -0.034961957773104728 0 1.0385164006860116e-08 -0.034999958074119181 0 1.324951460967592e-05 -0.034972278530203342 0 2.1315214037944275e-05 -0.034961957773104728 0 1.324951460967592e-05 -0.034972278530203342 0 3.1575935142592819e-05 -0.03494017971295283 0 1.324951460967592e-05 -0.034972278530203342 0 3.1575935142592819e-05 -0.03494017971295283 0 1.2223996358460387e-05 -0.034976964440182307 0 1.324951460967592e-05 -0.034972278530203342 0 5.9764683064273452e-09 -0.034999965077089301 0 1.2223996358460387e-05 -0.034976964440182307 0 4.7109858945477135e-05 -0.034923324508464748 0 3.1575935142592819e-05 -0.03494017971295283 0 5.7972523465705136e-05 -0.034887287228963587 0 4.7109858945477135e-05 -0.034923324508464748 0 2.1315214037944275e-05 -0.034961957773104728 0 3.1575935142592819e-05 -0.03494017971295283 0 3.1575935142592819e-05 -0.03494017971295283 0 3.8740409902054463e-05 -0.034939014750607046 0 1.2223996358460387e-05 -0.034976964440182307 0 3.1575935142592819e-05 -0.03494017971295283 0 3.8740409902054463e-05 -0.034939014750607046 0 5.7972523465705136e-05 -0.034887287228963587 0 3.8740409902054463e-05 -0.034939014750607046 0 4.0544861712838533e-05 -0.03497556973473849 0 7.6698413783840962e-05 -0.034919890660488465 0 3.8740409902054463e-05 -0.034939014750607046 0 4.0544861712838533e-05 -0.03497556973473849 0 1.2223996358460387e-05 -0.034976964440182307 0 4.0544861712838533e-05 -0.03497556973473849 0 1.2223996358460387e-05 -0.034976964440182307 0 1.6724399412805629e-05 -0.034998345190042995 0 5.9764683064273452e-09 -0.034999965077089301 0 1.2223996358460387e-05 -0.034976964440182307 0 1.4991839167882867e-09 -0.034999980471170311 0 1.2223996358460387e-05 -0.034976964440182307 0 4.7807160674773054e-06 -0.034998411444953657 0 1.6724399412805629e-05 -0.034998345190042995 0 1.2223996358460387e-05 -0.034976964440182307 0 1.4991839167882867e-09 -0.034999980471170311 0 4.7807160674773054e-06 -0.034998411444953657 0 1.4991839167882867e-09 -0.034999980471170311 0 4.7807160674773054e-06 -0.034998411444953657 0 2.8260888177866792e-09 -0.035000015718070598 0 4.7807160674773054e-06 -0.034998411444953657 0 2.8260888177866792e-09 -0.035000015718070598 0 2.7902300422623789e-06 -0.03500411573952171 0 4.1738661210871901e-07 -0.034999345593831124 0 8.498028225815465e-05 -0.034852997089120027 0 6.6554021131130972e-11 -0.034999999975431358 0 3.85029290226943e-09 -0.03499987027450862 0 -8.9764193583948456e-11 -0.034999999710093398 0 6.4189253141556067e-07 -0.034999985202101756 0 6.6614481943404259e-09 -0.034999988463824412 0 6.061784022931487e-07 -0.034999646979038866 0 8.498028225815465e-05 -0.034852997089120027 0 8.76071312650491e-08 -0.03499952465641458 0 0.00095657529470578591 -0.034145287829592162 0 0.00078944845081187047 -0.034147440408652079 0 0.0007714574498212778 -0.034271704778026428 0 0.00095657529470578591 -0.034145287829592162 0 0.00078944845081187047 -0.034147440408652079 0 0.00078227696269004925 -0.034022848221564726 0 6.4189253141556067e-07 -0.034999985202101756 0 6.061784022931487e-07 -0.034999646979038866 0 -9.3600486735329934e-07 -0.034999492010193041 0 8.498028225815465e-05 -0.034852997089120027 0 0.00022638038785887846 -0.034685906640051986 0 8.498028225815465e-05 -0.034852997089120027 0 0.00032203913715132907 -0.034688264192064111 0 4.7807160674773054e-06 -0.034998411444953657 0 2.7902300422623789e-06 -0.03500411573952171 0 1.6724399412805629e-05 -0.034998345190042995 0 0.00029674616625255374 -0.03470259718283257 0 0.00032203913715132907 -0.034688264192064111 0 0.00059427975384280921 -0.034404151150498108 0 0.0007714574498212778 -0.034271704778026428 0 0.00064668868661310174 -0.034150054163419714 0 0.00059427975384280921 -0.034404151150498108 0 0.00064668868661310174 -0.034150054163419714 0 0.00047597669687901378 -0.034231924414987062 0 0.00064668868661310174 -0.034150054163419714 0 0.00047766466133084164 -0.034076086725061093 0 0.00047597669687901378 -0.034231924414987062 0 0.00078944845081187047 -0.034147440408652079 0 0.00064668868661310174 -0.034150054163419714 0 0.00078227696269004925 -0.034022848221564726 0 0.00078944845081187047 -0.034147440408652079 0 0.0007714574498212778 -0.034271704778026428 0 0.00064668868661310174 -0.034150054163419714 0 0.00021215728473657347 -0.034565357366450319 0 0.00022638038785887846 -0.034685906640051986 0 -6.7509060644229888e-06 -0.03499604622479674 0 -8.5308388176127754e-07 -0.034996233472445834 0 -9.3600486735329934e-07 -0.034999492010193041 0 0.00064668868661310174 -0.034150054163419714 0 0.00059889775768319888 -0.033900186244991956 0 0.00078227696269004925 -0.034022848221564726 0 0.00059889775768319888 -0.033900186244991956 0 0.00044125912131130448 -0.033914631282140818 0 0.00047766466133084164 -0.034076086725061093 0 0.00064668868661310174 -0.034150054163419714 0 0.00059889775768319888 -0.033900186244991956 0 0.00047766466133084164 -0.034076086725061093 0 0.00059889775768319888 -0.033900186244991956 0 0.00044125912131130448 -0.033914631282140818 0 0.00041377488460737845 -0.03379311456188068 0 0.00021215728473657347 -0.034565357366450319 0 0.00014177953631288933 -0.034499193578871871 0 -6.7509060644229888e-06 -0.03499604622479674 0 -8.5308388176127754e-07 -0.034996233472445834 0 -3.404166646380612e-06 -0.03499087575993353 0 -8.5308388176127754e-07 -0.034996233472445834 0 2.6471445470685986e-06 -0.034995723317703523 0 1.0478678504426209e-06 -0.034999078212322059 0 -8.5308388176127754e-07 -0.034996233472445834 0 2.6471445470685986e-06 -0.034995723317703523 0 -3.404166646380612e-06 -0.03499087575993353 0 -8.0541427636140335e-09 -0.035000017282977011 0 2.6471445470685986e-06 -0.034995723317703523 0 1.0478678504426209e-06 -0.034999078212322059 0 6.6614481943404259e-09 -0.034999988463824412 0 -8.0541427636140335e-09 -0.035000017282977011 0 1.0478678504426209e-06 -0.034999078212322059 0 6.6614481943404259e-09 -0.034999988463824412 0 1.0478678504426209e-06 -0.034999078212322059 0 6.061784022931487e-07 -0.034999646979038866 0 1.0478678504426209e-06 -0.034999078212322059 0 6.061784022931487e-07 -0.034999646979038866 0 -9.3600486735329934e-07 -0.034999492010193041 0 -8.5308388176127754e-07 -0.034996233472445834 0 1.0478678504426209e-06 -0.034999078212322059 0 -9.3600486735329934e-07 -0.034999492010193041 0 0.00021427513644261059 -0.034022644593237679 0 8.9890158478932243e-05 -0.033988635394070398 0 0.00016556907147385007 -0.033923993906114377 0 8.9890158478932243e-05 -0.033988635394070398 0 8.6583563120022218e-05 -0.033907575256987073 0 0.00016556907147385007 -0.033923993906114377 0 0.00021427513644261059 -0.034022644593237679 0 0.00016556907147385007 -0.033923993906114377 0 0.00025657113272754237 -0.033926133439857759 0 8.9890158478932243e-05 -0.033988635394070398 0 8.6583563120022218e-05 -0.033907575256987073 0 -1.5228988191516713e-06 -0.033922222257338756 0 8.9890158478932243e-05 -0.033988635394070398 0 2.959507731497465e-06 -0.03401592985334239 0 -1.5228988191516713e-06 -0.033922222257338756 0 8.6583563120022218e-05 -0.033907575256987073 0 5.1028342178139671e-05 -0.033852971700885394 0 -1.5228988191516713e-06 -0.033922222257338756 0 8.6583563120022218e-05 -0.033907575256987073 0 5.1028342178139671e-05 -0.033852971700885394 0 0.00014387946190875186 -0.033846869724472831 0 8.6583563120022218e-05 -0.033907575256987073 0 0.00014387946190875186 -0.033846869724472831 0 0.00016556907147385007 -0.033923993906114377 0 0.00016556907147385007 -0.033923993906114377 0 0.00020835734076053976 -0.033856606374836166 0 0.00025657113272754237 -0.033926133439857759 0 0.00014387946190875186 -0.033846869724472831 0 0.00016556907147385007 -0.033923993906114377 0 0.00020835734076053976 -0.033856606374836166 0 0.00014387946190875186 -0.033846869724472831 0 0.00020835734076053976 -0.033856606374836166 0 0.00020488337229289378 -0.033805924126384335 0 0.00020835734076053976 -0.033856606374836166 0 0.00028466739095118294 -0.033853405772840794 0 0.00025048607760536681 -0.03380609621642474 0 0.00028466739095118294 -0.033853405772840794 0 0.00031107123173729624 -0.033805786890629574 0 0.00025048607760536681 -0.03380609621642474 0 0.00028466739095118294 -0.033853405772840794 0 0.00033709990185561649 -0.033907050308227375 0 0.00035223860267488916 -0.033846348225090889 0 0.00028466739095118294 -0.033853405772840794 0 0.00035223860267488916 -0.033846348225090889 0 0.00031107123173729624 -0.033805786890629574 0 0.00028466739095118294 -0.033853405772840794 0 0.00033709990185561649 -0.033907050308227375 0 0.00025657113272754237 -0.033926133439857759 0 0.00020835734076053976 -0.033856606374836166 0 0.00028466739095118294 -0.033853405772840794 0 0.00025657113272754237 -0.033926133439857759 0 0.00035223860267488916 -0.033846348225090889 0 0.00044125912131130448 -0.033914631282140818 0 0.00041377488460737845 -0.03379311456188068 0 0.00033709990185561649 -0.033907050308227375 0 0.00035223860267488916 -0.033846348225090889 0 0.00044125912131130448 -0.033914631282140818 0 0.00044125912131130448 -0.033914631282140818 0 0.0003373640232763903 -0.033999744963535056 0 0.00047766466133084164 -0.034076086725061093 0 0.00033709990185561649 -0.033907050308227375 0 0.00044125912131130448 -0.033914631282140818 0 0.0003373640232763903 -0.033999744963535056 0 0.00021427513644261059 -0.034022644593237679 0 0.00025657113272754237 -0.033926133439857759 0 0.0003373640232763903 -0.033999744963535056 0 0.00033709990185561649 -0.033907050308227375 0 0.00025657113272754237 -0.033926133439857759 0 0.0003373640232763903 -0.033999744963535056 0 0.00021427513644261059 -0.034022644593237679 0 0.0003373640232763903 -0.033999744963535056 0 0.00031046486390411793 -0.034172185387049643 0 0.0003373640232763903 -0.033999744963535056 0 0.00031046486390411793 -0.034172185387049643 0 0.00047766466133084164 -0.034076086725061093 0 0.00031046486390411793 -0.034172185387049643 0 0.00047766466133084164 -0.034076086725061093 0 0.00047597669687901378 -0.034231924414987062 0 0.00059427975384280921 -0.034404151150498108 0 0.00047597669687901378 -0.034231924414987062 0 0.00036880524093743959 -0.034361739479975492 0 0.00031046486390411793 -0.034172185387049643 0 0.00047597669687901378 -0.034231924414987062 0 0.00036880524093743959 -0.034361739479975492 0 0.00031046486390411793 -0.034172185387049643 0 0.00018041379984932491 -0.034315261231839804 0 0.00036880524093743959 -0.034361739479975492 0 0.00018041379984932491 -0.034315261231839804 0 0.00011864882020935523 -0.034132809893757117 0 7.8555840032783645e-05 -0.03426945946909267 0 0.00031046486390411793 -0.034172185387049643 0 0.00018041379984932491 -0.034315261231839804 0 0.00011864882020935523 -0.034132809893757117 0 0.00018041379984932491 -0.034315261231839804 0 7.8555840032783645e-05 -0.03426945946909267 0 8.298899365032024e-05 -0.034405491281106072 0 0.00021427513644261059 -0.034022644593237679 0 0.00031046486390411793 -0.034172185387049643 0 0.00011864882020935523 -0.034132809893757117 0 0.00021427513644261059 -0.034022644593237679 0 8.9890158478932243e-05 -0.033988635394070398 0 0.00011864882020935523 -0.034132809893757117 0 2.959507731497465e-06 -0.03401592985334239 0 1.7779246530618843e-05 -0.034184567389945797 0 -6.3498216121848493e-05 -0.034026037533630787 0 0.00011864882020935523 -0.034132809893757117 0 2.959507731497465e-06 -0.03401592985334239 0 1.7779246530618843e-05 -0.034184567389945797 0 8.9890158478932243e-05 -0.033988635394070398 0 0.00011864882020935523 -0.034132809893757117 0 2.959507731497465e-06 -0.03401592985334239 0 1.7779246530618843e-05 -0.034184567389945797 0 -6.3498216121848493e-05 -0.034026037533630787 0 -7.1767086313855754e-05 -0.03430295701606588 0 0.00011864882020935523 -0.034132809893757117 0 1.7779246530618843e-05 -0.034184567389945797 0 7.8555840032783645e-05 -0.03426945946909267 0 1.7779246530618843e-05 -0.034184567389945797 0 7.8555840032783645e-05 -0.03426945946909267 0 -2.180634915082667e-05 -0.034334750850656098 0 1.7779246530618843e-05 -0.034184567389945797 0 -2.180634915082667e-05 -0.034334750850656098 0 -7.1767086313855754e-05 -0.03430295701606588 0 -0.00089302909817523903 -0.032212876043200757 0 -0.00072769670516014719 -0.031633230935702167 0 -2.180634915082667e-05 -0.034334750850656098 0 -8.8259683062381081e-05 -0.034402385681303112 0 -7.1767086313855754e-05 -0.03430295701606588 0 -2.180634915082667e-05 -0.034334750850656098 0 -2.5339529685996585e-06 -0.034473898960584094 0 -0.00010103997073355438 -0.034514773343824322 0 -2.5339529685996585e-06 -0.034473898960584094 0 -1.1246230884249736e-05 -0.034566404954701577 0 -0.00010103997073355438 -0.034514773343824322 0 -2.5339529685996585e-06 -0.034473898960584094 0 8.298899365032024e-05 -0.034405491281106072 0 7.0676955118953314e-05 -0.034556097725893339 0 -2.180634915082667e-05 -0.034334750850656098 0 -2.5339529685996585e-06 -0.034473898960584094 0 8.298899365032024e-05 -0.034405491281106072 0 7.8555840032783645e-05 -0.03426945946909267 0 -2.180634915082667e-05 -0.034334750850656098 0 8.298899365032024e-05 -0.034405491281106072 0 0.00018041379984932491 -0.034315261231839804 0 8.298899365032024e-05 -0.034405491281106072 0 0.00021452974094830575 -0.034499221067433659 0 8.298899365032024e-05 -0.034405491281106072 0 7.0676955118953314e-05 -0.034556097725893339 0 0.00021452974094830575 -0.034499221067433659 0 7.0676955118953314e-05 -0.034556097725893339 0 2.4663008592408273e-05 -0.034647873711669976 0 0.00012504785108734278 -0.034782094245568704 0 7.0676955118953314e-05 -0.034556097725893339 0 0.00021452974094830575 -0.034499221067433659 0 0.00012504785108734278 -0.034782094245568704 0 2.4663008592408273e-05 -0.034647873711669976 0 -1.1246230884249736e-05 -0.034566404954701577 0 -5.1822576274368095e-05 -0.034629129920526046 0 2.4663008592408273e-05 -0.034647873711669976 0 4.1875664633337017e-06 -0.034716093526763643 0 -5.1822576274368095e-05 -0.034629129920526046 0 -1.1246230884249736e-05 -0.034566404954701577 0 -0.00010103997073355438 -0.034514773343824322 0 -5.1822576274368095e-05 -0.034629129920526046 0 7.0676955118953314e-05 -0.034556097725893339 0 2.4663008592408273e-05 -0.034647873711669976 0 -1.1246230884249736e-05 -0.034566404954701577 0 -2.5339529685996585e-06 -0.034473898960584094 0 7.0676955118953314e-05 -0.034556097725893339 0 -1.1246230884249736e-05 -0.034566404954701577 0 0.00029674616625255374 -0.03470259718283257 0 0.00022522583265003877 -0.034747147512440305 0 0.00059427975384280921 -0.034404151150498108 0 0.00036880524093743959 -0.034361739479975492 0 0.00040913152463934686 -0.034568847474340809 0 0.00036880524093743959 -0.034361739479975492 0 0.00021452974094830575 -0.034499221067433659 0 0.00040913152463934686 -0.034568847474340809 0 0.00018041379984932491 -0.034315261231839804 0 0.00036880524093743959 -0.034361739479975492 0 0.00021452974094830575 -0.034499221067433659 0 0.00021452974094830575 -0.034499221067433659 0 0.00040913152463934686 -0.034568847474340809 0 0.00012504785108734278 -0.034782094245568704 0 0.00022522583265003877 -0.034747147512440305 0 0.00017638172838435633 -0.034775584900682076 0 3.8740409902054463e-05 -0.034939014750607046 0 7.6698413783840962e-05 -0.034919890660488465 0 5.7972523465705136e-05 -0.034887287228963587 0 7.6698413783840962e-05 -0.034919890660488465 0 5.7972523465705136e-05 -0.034887287228963587 0 0.00012504785108734278 -0.034782094245568704 0 5.7972523465705136e-05 -0.034887287228963587 0 6.8336618346242107e-05 -0.034847879209373621 0 0.00012504785108734278 -0.034782094245568704 0 4.7109858945477135e-05 -0.034923324508464748 0 5.7972523465705136e-05 -0.034887287228963587 0 6.8336618346242107e-05 -0.034847879209373621 0 4.1875664633337017e-06 -0.034716093526763643 0 3.1449799757548106e-05 -0.034779398085844279 0 -3.4681166188360127e-05 -0.034733823255674395 0 4.1875664633337017e-06 -0.034716093526763643 0 -6.0765848797830319e-05 -0.034688227093568356 0 -5.1822576274368095e-05 -0.034629129920526046 0 4.1875664633337017e-06 -0.034716093526763643 0 -3.4681166188360127e-05 -0.034733823255674395 0 -6.0765848797830319e-05 -0.034688227093568356 0 0.00012504785108734278 -0.034782094245568704 0 6.3985652898749582e-05 -0.03481781100790135 0 3.1449799757548106e-05 -0.034779398085844279 0 2.4663008592408273e-05 -0.034647873711669976 0 4.1875664633337017e-06 -0.034716093526763643 0 0.00012504785108734278 -0.034782094245568704 0 4.1875664633337017e-06 -0.034716093526763643 0 0.00012504785108734278 -0.034782094245568704 0 3.1449799757548106e-05 -0.034779398085844279 0 6.8336618346242107e-05 -0.034847879209373621 0 0.00012504785108734278 -0.034782094245568704 0 6.3985652898749582e-05 -0.03481781100790135 0 2.4872642272312132e-05 -0.034809447978633334 0 6.3985652898749582e-05 -0.03481781100790135 0 3.1449799757548106e-05 -0.034779398085844279 0 2.4872642272312132e-05 -0.034809447978633334 0 3.1449799757548106e-05 -0.034779398085844279 0 -3.3422328869533932e-06 -0.034780844028892706 0 3.1449799757548106e-05 -0.034779398085844279 0 -3.3422328869533932e-06 -0.034780844028892706 0 -3.4681166188360127e-05 -0.034733823255674395 0 2.4872642272312132e-05 -0.034809447978633334 0 -3.3422328869533932e-06 -0.034780844028892706 0 -1.276858197176408e-05 -0.03479211151683391 0 -1.276858197176408e-05 -0.03479211151683391 0 -3.6659925320276018e-05 -0.034778551597834856 0 -3.4470388156922898e-05 -0.034767621517751986 0 -3.3422328869533932e-06 -0.034780844028892706 0 -1.276858197176408e-05 -0.03479211151683391 0 -3.4470388156922898e-05 -0.034767621517751986 0 -2.3090790889755285e-05 -0.034795794670838862 0 -3.6659925320276018e-05 -0.034778551597834856 0 -4.015072023416897e-05 -0.034770854202129463 0 -3.6659925320276018e-05 -0.034778551597834856 0 -4.8023836964726824e-05 -0.034771099033653656 0 -4.015072023416897e-05 -0.034770854202129463 0 -3.6659925320276018e-05 -0.034778551597834856 0 -4.8023836964726824e-05 -0.034771099033653656 0 -4.799797653552035e-05 -0.03476667638480932 0 -4.8023836964726824e-05 -0.034771099033653656 0 -4.799797653552035e-05 -0.03476667638480932 0 -7.0313944242777964e-05 -0.034762443632645038 0 -3.6659925320276018e-05 -0.034778551597834856 0 -4.799797653552035e-05 -0.03476667638480932 0 -3.4470388156922898e-05 -0.034767621517751986 0 -4.799797653552035e-05 -0.03476667638480932 0 -3.4470388156922898e-05 -0.034767621517751986 0 -6.0835281785922994e-05 -0.034746328047559234 0 -4.799797653552035e-05 -0.03476667638480932 0 -6.0835281785922994e-05 -0.034746328047559234 0 -7.0313944242777964e-05 -0.034762443632645038 0 -3.3422328869533932e-06 -0.034780844028892706 0 -3.4470388156922898e-05 -0.034767621517751986 0 -3.4681166188360127e-05 -0.034733823255674395 0 -6.0835281785922994e-05 -0.034746328047559234 0 -6.0765848797830319e-05 -0.034688227093568356 0 -0.0001223074524648821 -0.034638519398417368 0 -3.4681166188360127e-05 -0.034733823255674395 0 -6.0835281785922994e-05 -0.034746328047559234 0 -6.0765848797830319e-05 -0.034688227093568356 0 0.00059587971160884315 -0.030218831629797365 0 -0.00024797855953667653 -0.03038856646865554 0 -3.4470388156922898e-05 -0.034767621517751986 0 -3.4681166188360127e-05 -0.034733823255674395 0 -6.0835281785922994e-05 -0.034746328047559234 0 -6.0835281785922994e-05 -0.034746328047559234 0 -7.0313944242777964e-05 -0.034762443632645038 0 -0.0001223074524648821 -0.034638519398417368 0 0.00018815636479983038 -0.027937585890874743 0 -3.6827994149581111e-06 -0.027823067380152951 0 0.00051383952524817306 -0.028811073977562805 0 8.9016310623279976e-05 -0.028301361128322499 0 -0.00016048954132338967 -0.029781837192363762 0 0.00018815636479983038 -0.027937585890874743 0 0.0003434589462487258 -0.026147061700168735 0 0.00018815636479983038 -0.027937585890874743 0 -0.00024797855953667653 -0.03038856646865554 0 0.00018815636479983038 -0.027937585890874743 0 0.00059587971160884315 -0.030218831629797365 0 0.00018815636479983038 -0.027937585890874743 0 0.00060083442711600095 -0.027363272243697032 0 -4.8132290260677181e-05 -0.034729043306022438 0 -3.5197757873886852e-05 -0.034747112487250438 0 -4.015072023416897e-05 -0.034770854202129463 0 -4.8132290260677181e-05 -0.034729043306022438 0 -4.015072023416897e-05 -0.034770854202129463 0 -6.0639317934009665e-05 -0.034765774209688044 0 0.00059587971160884315 -0.030218831629797365 0 0.00049839776460671587 -0.030831891553943357 0 -4.8023836964726824e-05 -0.034771099033653656 0 -7.0313944242777964e-05 -0.034762443632645038 0 -4.015072023416897e-05 -0.034770854202129463 0 0.0022313150831226826 -0.021480457417919419 0 0.0017943105811141166 -0.022112039090454439 0 0.0016692682353910881 -0.021584356230953148 0 0.0017943105811141166 -0.022112039090454439 0 0.0013233683956151187 -0.021955245397645221 0 0.0016692682353910881 -0.021584356230953148 0 0.0011636919233449445 -0.021694575517108339 0 0.00098749683105758455 -0.021425117961841211 0 0.00093430780194883589 -0.021964073263621698 0 0.0013233683956151187 -0.021955245397645221 0 0.0013731641217288029 -0.021659642860524859 0 0.0011636919233449445 -0.021694575517108339 0 0.0013233683956151187 -0.021955245397645221 0 0.0013731641217288029 -0.021659642860524859 0 0.0016692682353910881 -0.021584356230953148 0 0.0013233683956151187 -0.021955245397645221 0 0.0011636919233449445 -0.021694575517108339 0 0.00093430780194883589 -0.021964073263621698 0 0.00098749683105758455 -0.021425117961841211 0 0.0011906390515561691 -0.021148978193453426 0 0.0008913913884087977 -0.020883660496113749 0 0.0011636919233449445 -0.021694575517108339 0 0.00098749683105758455 -0.021425117961841211 0 0.0012940387498379313 -0.021441481676223211 0 0.0013731641217288029 -0.021659642860524859 0 0.0012940387498379313 -0.021441481676223211 0 0.0016692682353910881 -0.021584356230953148 0 0.0013731641217288029 -0.021659642860524859 0 0.0011636919233449445 -0.021694575517108339 0 0.0012940387498379313 -0.021441481676223211 0 0.0012940387498379313 -0.021441481676223211 0 0.0011906390515561691 -0.021148978193453426 0 0.0014861764476245794 -0.021242435443131414 0 0.00098749683105758455 -0.021425117961841211 0 0.0012940387498379313 -0.021441481676223211 0 0.0011906390515561691 -0.021148978193453426 0 0.0022313150831226826 -0.021480457417919419 0 0.0016692682353910881 -0.021584356230953148 0 0.001832379770891724 -0.02117911723375944 0 0.0010944300087956083 -0.026860561942063311 0 0.00055900305444441228 -0.026463673549805552 0 0.00039675521585264315 -0.026020608302496563 0 0.0012940387498379313 -0.021441481676223211 0 0.0016692682353910881 -0.021584356230953148 0 0.0014861764476245794 -0.021242435443131414 0 0.0016692682353910881 -0.021584356230953148 0 0.0014861764476245794 -0.021242435443131414 0 0.001832379770891724 -0.02117911723375944 0 0.0003434589462487258 -0.026147061700168735 0 0.00063725650844198513 -0.025073056286347536 0 0.0014861764476245794 -0.021242435443131414 0 0.001832379770891724 -0.02117911723375944 0 0.0014437289023198272 -0.020857930266015328 0 0.00055900305444441228 -0.026463673549805552 0 0.00039675521585264315 -0.026020608302496563 0 4.0620698857681422e-05 -0.026042071774076494 0 -3.6827994149581111e-06 -0.027823067380152951 0 0.00063725650844198513 -0.025073056286347536 0 0.0026352016093344915 -0.019692981123581199 0 0.0020908570194842243 -0.019720200338683387 0 0.0019395186541119346 -0.019117478086434003 0 0.00063725650844198513 -0.025073056286347536 0 0.0012899392212285649 -0.019991471017722307 0 -0.0017105763400585409 -0.031918163978999714 0 -0.0014074282602143835 -0.031901897728058827 0 -0.0011351957471423685 -0.032565903592096719 0 0.0011906390515561691 -0.021148978193453426 0 0.0014437289023198272 -0.020857930266015328 0 0.0008913913884087977 -0.020883660496113749 0 0.0011906390515561691 -0.021148978193453426 0 0.0014861764476245794 -0.021242435443131414 0 0.0014437289023198272 -0.020857930266015328 0 -0.00018152779049921989 -0.030012215796994795 0 6.8091043729346745e-05 -0.030344717901862345 0 0.00012711562051422658 -0.030384052432471682 0 0.00063725650844198513 -0.025073056286347536 0 0.0016340675304568359 -0.024278445759222958 0 -0.0014074282602143835 -0.031901897728058827 0 -0.0011351957471423685 -0.032565903592096719 0 -0.00062825628206437739 -0.032570513493812937 0 -3.6827994149581111e-06 -0.027823067380152951 0 0.00020243890370030406 -0.03039193007356604 0 7.9224051299314839e-05 -0.030400357004595591 0 -4.9814225552338791e-05 -0.030519702924665156 0 9.3603670649690179e-05 -0.030562941369378763 0 6.8091043729346745e-05 -0.030344717901862345 0 0.00012711562051422658 -0.030384052432471682 0 0.00031262220224711188 -0.030663595917491678 0 -0.00013309288228709076 -0.030152143828899875 0 -0.00017254710570220513 -0.030399221475661698 0 -0.00038432089249830828 -0.030384586389242525 0 -0.00013309288228709076 -0.030152143828899875 0 7.9224051299314839e-05 -0.030400357004595591 0 -0.00017254710570220513 -0.030399221475661698 0 -3.6827994149581111e-06 -0.027823067380152951 0 0.00049838349598780457 -0.02922661992049478 0 7.9224051299314839e-05 -0.030400357004595591 0 -0.00017254710570220513 -0.030399221475661698 0 -4.9814225552338791e-05 -0.030519702924665156 0 -0.00017254710570220513 -0.030399221475661698 0 -0.00030294630752480365 -0.030613652258686699 0 -4.9814225552338791e-05 -0.030519702924665156 0 -0.00017254710570220513 -0.030399221475661698 0 -0.00038432089249830828 -0.030384586389242525 0 -0.00030294630752480365 -0.030613652258686699 0 -0.00027785432290050176 -0.030618446103975086 0 -0.00058813355814929438 -0.032383701258791947 0 -0.00038432089249830828 -0.030384586389242525 0 -0.00058051120000910479 -0.030184150938483211 0 -0.00064303540349908118 -0.030563074972432984 0 -8.8259683062381081e-05 -0.034402385681303112 0 -0.00011467661342519582 -0.034295662770118938 0 -7.1767086313855754e-05 -0.03430295701606588 0 -8.8259683062381081e-05 -0.034402385681303112 0 -0.00013819802831327376 -0.034441761021225731 0 -0.00011467661342519582 -0.034295662770118938 0 -8.8259683062381081e-05 -0.034402385681303112 0 -0.00013819802831327376 -0.034441761021225731 0 -0.00011755321784301474 -0.034442034183648725 0 -0.0002526149599500703 -0.03034767959345137 0 6.2199636797976646e-05 -0.030351091162332321 0 -0.00035225512141941017 -0.030949877355107274 0 -0.00027785432290050176 -0.030618446103975086 0 -0.00044738127776575425 -0.030769532697635299 0 -0.00010103997073355438 -0.034514773343824322 0 -0.00011348595457325401 -0.034583050373203375 0 -5.1822576274368095e-05 -0.034629129920526046 0 -0.00072769670516014719 -0.031633230935702167 0 -0.00044738127776575425 -0.030769532697635299 0 -0.00011348595457325401 -0.034583050373203375 0 -5.1822576274368095e-05 -0.034629129920526046 0 -0.0001223074524648821 -0.034638519398417368 0 -6.0765848797830319e-05 -0.034688227093568356 0 -5.1822576274368095e-05 -0.034629129920526046 0 -0.0001223074524648821 -0.034638519398417368 0 -0.00027785432290050176 -0.030618446103975086 0 -0.00024797855953667653 -0.03038856646865554 0 -0.00044738127776575425 -0.030769532697635299 0 -0.00024797855953667653 -0.03038856646865554 0 -0.00013309288228709076 -0.030152143828899875 0 -0.00038432089249830828 -0.030384586389242525 0 -0.00058051120000910479 -0.030184150938483211 0 -3.6827994149581111e-06 -0.027823067380152951 0 -0.00027785432290050176 -0.030618446103975086 0 1.3132826794050799e-05 -0.028952289825406326 0 0.00048321366879585726 -0.028925390461462988 0 0.00046576391908639841 -0.029031720213357551 0 0.00029025782577188212 -0.0292843582845989 0 1.3132826794050799e-05 -0.028952289825406326 0 0.00046576391908639841 -0.029031720213357551 0 0.0024999698203499619 -0.0047209947017841768 0 0.0024384876850925261 -0.0043911132658249596 0 0.0021137651755138999 -0.0046253399499776989 0 0.0024999698203499619 -0.0047209947017841768 0 0.0027887151341767433 -0.00435275050632738 0 0.0024384876850925261 -0.0043911132658249596 0 0.0027829653053884022 -0.0051115626835839759 0 0.0024999698203499619 -0.0047209947017841768 0 0.0022469368763900007 -0.0050642410558341356 0 0.0027829653053884022 -0.0051115626835839759 0 0.0024999698203499619 -0.0047209947017841768 0 0.0029537725597665555 -0.0046842696690729806 0 0.0024999698203499619 -0.0047209947017841768 0 0.0029537725597665555 -0.0046842696690729806 0 0.0027887151341767433 -0.00435275050632738 0 0.0029537725597665555 -0.0046842696690729806 0 0.0031574447792148247 -0.0043270205383535553 0 0.0027887151341767433 -0.00435275050632738 0 0.0029537725597665555 -0.0046842696690729806 0 0.0031993237162719177 -0.0049416352223470633 0 0.0033535831394857578 -0.0046417189247750209 0 0.0029537725597665555 -0.0046842696690729806 0 0.0033535831394857578 -0.0046417189247750209 0 0.0031574447792148247 -0.0043270205383535553 0 0.0027829653053884022 -0.0051115626835839759 0 0.0029537725597665555 -0.0046842696690729806 0 0.0031993237162719177 -0.0049416352223470633 0 0.00083810004367577485 -0.015931251159144406 0 0.0011485710469472956 -0.014693329635852102 0 0.0031993237162719177 -0.0049416352223470633 0 0.00356273605755082 -0.0049713052227510048 0 0.0033535831394857578 -0.0046417189247750209 0 0.0031793398638267434 -0.0053017083781370811 0 0.0031993237162719177 -0.0049416352223470633 0 0.00356273605755082 -0.0049713052227510048 0 0.00098749683105758455 -0.021425117961841211 0 0.00093430780194883589 -0.021964073263621698 0 0.00063396190735027472 -0.021439034431722515 0 0.0011485710469472956 -0.014693329635852102 0 0.0017401252691414419 -0.014844518619255911 0 0.00098749683105758455 -0.021425117961841211 0 0.00063396190735027472 -0.021439034431722515 0 0.0008913913884087977 -0.020883660496113749 0 0.00063396190735027472 -0.021439034431722515 0 0.0008913913884087977 -0.020883660496113749 0 0.00033575006371715981 -0.020910786862789583 0 0.0020908570194842243 -0.019720200338683387 0 0.0019395186541119346 -0.019117478086434003 0 0.0015441844408331591 -0.019748752465061841 0 0.0012899392212285649 -0.019991471017722307 0 0.0017401252691414419 -0.014844518619255911 0 0.0019395186541119346 -0.019117478086434003 0 0.001207601042528309 -0.019155864987162076 0 0.0015441844408331591 -0.019748752465061841 0 0.0028099303924883799 -0.0041039068555894405 0 0.0029675510775189705 -0.0043881476517900544 0 0.0026972316669211529 -0.0043906298644075916 0 0.0015596937245260058 -0.012973381106849114 0 0.0017401252691414419 -0.014844518619255911 0 0.0017401252691414419 -0.014844518619255911 0 0.0025693598805608662 -0.011828102216644626 0 0.0025693598805608662 -0.011828102216644626 0 0.0026886989819321313 -0.010915901933242758 0 0.0028099303924883799 -0.0041039068555894405 0 0.0026972316669211529 -0.0043906298644075916 0 0.0025010400588739001 -0.004125799264635726 0 0.0028099303924883799 -0.0041039068555894405 0 0.0025010400588739001 -0.004125799264635726 0 0.0026478575871450964 -0.0038314913479363557 0 0.0025010400588739001 -0.004125799264635726 0 0.0022228675975747244 -0.0042471280860630926 0 0.002284099737042293 -0.0039957948835637738 0 0.0025010400588739001 -0.004125799264635726 0 0.0024162062325022078 -0.0039311324836779644 0 0.002284099737042293 -0.0039957948835637738 0 0.0025010400588739001 -0.004125799264635726 0 0.0024384876850925261 -0.0043911132658249596 0 0.0022228675975747244 -0.0042471280860630926 0 0.0026972316669211529 -0.0043906298644075916 0 0.0025010400588739001 -0.004125799264635726 0 0.0024384876850925261 -0.0043911132658249596 0 0.0024935490312685115 -0.0036033412905629334 0 0.0024587161891865836 -0.0036699332326074695 0 0.0026478575871450964 -0.0038314913479363557 0 0.0023624812553826075 -0.0036072247766199311 0 0.0024587161891865836 -0.0036699332326074695 0 0.0024238448360260254 -0.0035281669369262841 0 0.0023624812553826075 -0.0036072247766199311 0 0.0024587161891865836 -0.0036699332326074695 0 0.0023510652812249663 -0.0037086981961084761 0 0.0023624812553826075 -0.0036072247766199311 0 0.0023510652812249663 -0.0037086981961084761 0 0.0022609283522181953 -0.0036128146167003694 0 0.0024935490312685115 -0.0036033412905629334 0 0.0024587161891865836 -0.0036699332326074695 0 0.0024416438987782479 -0.0035680202329571834 0 0.0032154814270822581 -0.011882006951624075 0 0.0034785354083891515 -0.01331661239791063 0 0.0024587161891865836 -0.0036699332326074695 0 0.0024665165203035895 -0.0038017291620362223 0 0.0026478575871450964 -0.0038314913479363557 0 0.0024587161891865836 -0.0036699332326074695 0 0.0023510652812249663 -0.0037086981961084761 0 0.0024665165203035895 -0.0038017291620362223 0 0.0023510652812249663 -0.0037086981961084761 0 0.0023301595922499332 -0.0038349847852932385 0 0.0024665165203035895 -0.0038017291620362223 0 0.0025010400588739001 -0.004125799264635726 0 0.0024162062325022078 -0.0039311324836779644 0 0.0026478575871450964 -0.0038314913479363557 0 0.0023301595922499332 -0.0038349847852932385 0 0.0024162062325022078 -0.0039311324836779644 0 0.0024665165203035895 -0.0038017291620362223 0 0.0024162062325022078 -0.0039311324836779644 0 0.0024665165203035895 -0.0038017291620362223 0 0.0026478575871450964 -0.0038314913479363557 0 0.0023301595922499332 -0.0038349847852932385 0 0.0024162062325022078 -0.0039311324836779644 0 0.002284099737042293 -0.0039957948835637738 0 0.001207601042528309 -0.019155864987162076 0 0.00086806128853308137 -0.018560846221982143 0 0.0012376419994345367 -0.018540503693595348 0 0.0015596937245260058 -0.012973381106849114 0 0.0019041932921071468 -0.012828317058828732 0 0.0033938350463987433 -0.015211977663052488 0 0.0027775831709793372 -0.02194688181938298 0 0.0033938350463987433 -0.015211977663052488 0 0.0019041932921071468 -0.012828317058828732 0 0.00052818419085204371 -0.017961369132192144 0 0.00086806128853308137 -0.018560846221982143 0 0.0012376419994345367 -0.018540503693595348 0 0.00028038193671714364 -0.033653581403602681 0 9.8175450498980894e-05 -0.033578103275181535 0 2.9674267729813177e-05 -0.033231534997197054 0 9.8175450498980894e-05 -0.033578103275181535 0 -0.00020210457319341668 -0.033528484033607135 0 9.5924568048123715e-05 -0.033775295016383731 0 7.8723164729562644e-05 -0.033837254024225626 0 5.5306601353974174e-05 -0.033851164782780857 0 9.2219001272845645e-05 -0.033819708556253575 0 -0.00020210457319341668 -0.033528484033607135 0 2.9674267729813177e-05 -0.033231534997197054 0 -0.00028470087498531471 -0.033236930572190584 0 9.8175450498980894e-05 -0.033578103275181535 0 -0.00020210457319341668 -0.033528484033607135 0 2.9674267729813177e-05 -0.033231534997197054 0 0.0019395186541119346 -0.019117478086434003 0 0.001207601042528309 -0.019155864987162076 0 0.0012376419994345367 -0.018540503693595348 0 -0.00062825628206437739 -0.032570513493812937 0 2.9674267729813177e-05 -0.033231534997197054 0 -0.00028470087498531471 -0.033236930572190584 0 0.0016340675304568359 -0.024278445759222958 0 0.0027775831709793372 -0.02194688181938298 0 0.0002546759999612915 -0.032029305828614608 0 0.00032720409512082131 -0.03199344818371596 0 -0.0011351957471423685 -0.032565903592096719 0 -0.00062825628206437739 -0.032570513493812937 0 -0.00059051630003957426 -0.033181671331679909 0 -0.00062825628206437739 -0.032570513493812937 0 -0.00028470087498531471 -0.033236930572190584 0 -0.00059051630003957426 -0.033181671331679909 0 0.00012711562051422658 -0.030384052432471682 0 0.00042250780129526465 -0.030738066840141281 0 0.00031262220224711188 -0.030663595917491678 0 0.00020243890370030406 -0.03039193007356604 0 0.00032720409512082131 -0.03199344818371596 0 4.9051527370044995e-05 -0.033840725146850478 0 5.5306601353974174e-05 -0.033851164782780857 0 2.3848096552062514e-05 -0.033866944663474563 0 7.8723164729562644e-05 -0.033837254024225626 0 4.9051527370044995e-05 -0.033840725146850478 0 5.5306601353974174e-05 -0.033851164782780857 0 0.0004576288428261966 -0.032700031524302023 0 0.00032720409512082131 -0.03199344818371596 0 -0.00020210457319341668 -0.033528484033607135 0 -0.00028470087498531471 -0.033236930572190584 0 -0.00052957377258519296 -0.033200724929492637 0 6.7342424951766572e-05 -0.033860389808360231 0 2.1804746354982754e-05 -0.033878061087238918 0 2.8072848476459236e-05 -0.033917451670105167 0 5.5306601353974174e-05 -0.033851164782780857 0 6.7342424951766572e-05 -0.033860389808360231 0 2.1804746354982754e-05 -0.033878061087238918 0 5.5306601353974174e-05 -0.033851164782780857 0 6.7342424951766572e-05 -0.033860389808360231 0 9.2219001272845645e-05 -0.033819708556253575 0 6.7342424951766572e-05 -0.033860389808360231 0 8.6714228916095644e-05 -0.033914697129100349 0 2.8072848476459236e-05 -0.033917451670105167 0 8.6714228916095644e-05 -0.033914697129100349 0 2.8072848476459236e-05 -0.033917451670105167 0 7.0002234226650931e-05 -0.034004452445996092 0 8.6714228916095644e-05 -0.033914697129100349 0 0.00015131946424036842 -0.033837714999817303 0 0.00014334550851351679 -0.034002164882102885 0 6.7342424951766572e-05 -0.033860389808360231 0 8.6714228916095644e-05 -0.033914697129100349 0 0.00015131946424036842 -0.033837714999817303 0 0.00015131946424036842 -0.033837714999817303 0 9.2219001272845645e-05 -0.033819708556253575 0 9.5924568048123715e-05 -0.033775295016383731 0 6.7342424951766572e-05 -0.033860389808360231 0 0.00015131946424036842 -0.033837714999817303 0 9.2219001272845645e-05 -0.033819708556253575 0 7.8723164729562644e-05 -0.033837254024225626 0 9.2219001272845645e-05 -0.033819708556253575 0 9.5924568048123715e-05 -0.033775295016383731 0 0.0004576288428261966 -0.032700031524302023 0 0.00049575809179170944 -0.032911383813659337 0 0.00028038193671714364 -0.033653581403602681 0 9.8175450498980894e-05 -0.033578103275181535 0 0.00017516481559116839 -0.033732058725413794 0 9.8175450498980894e-05 -0.033578103275181535 0 9.5924568048123715e-05 -0.033775295016383731 0 0.00017516481559116839 -0.033732058725413794 0 0.00028038193671714364 -0.033653581403602681 0 0.00017516481559116839 -0.033732058725413794 0 0.00020836863599520719 -0.033737409444803239 0 0.00017516481559116839 -0.033732058725413794 0 0.00017605077734009247 -0.033769289080539527 0 0.00020836863599520719 -0.033737409444803239 0 0.00017516481559116839 -0.033732058725413794 0 0.00015187849539398529 -0.033792076348177207 0 0.00017605077734009247 -0.033769289080539527 0 9.5924568048123715e-05 -0.033775295016383731 0 0.00017516481559116839 -0.033732058725413794 0 0.00015187849539398529 -0.033792076348177207 0 0.00015131946424036842 -0.033837714999817303 0 9.5924568048123715e-05 -0.033775295016383731 0 0.00015187849539398529 -0.033792076348177207 0 0.00015131946424036842 -0.033837714999817303 0 0.00015187849539398529 -0.033792076348177207 0 0.00017565591615360289 -0.033759230410005163 0 0.0011315833658486791 -0.032958314480254845 0 0.001305602941898304 -0.032647603645350777 0 0.00015131946424036842 -0.033837714999817303 0 0.00017565591615360289 -0.033759230410005163 0 0.00023117669559887959 -0.033638024839115085 0 0.00017565591615360289 -0.033759230410005163 0 0.00016256148589222568 -0.033750454615348979 0 0.00015146498278579046 -0.033706487873520256 0 0.00017565591615360289 -0.033759230410005163 0 0.00015146498278579046 -0.033706487873520256 0 0.00023117669559887959 -0.033638024839115085 0 0.00017565591615360289 -0.033759230410005163 0 0.00017605077734009247 -0.033769289080539527 0 0.00016256148589222568 -0.033750454615348979 0 0.00015187849539398529 -0.033792076348177207 0 0.00017565591615360289 -0.033759230410005163 0 0.00017605077734009247 -0.033769289080539527 0 0.00017605077734009247 -0.033769289080539527 0 0.00017145535824894515 -0.033749759747050627 0 0.00016256148589222568 -0.033750454615348979 0 0.00017145535824894515 -0.033749759747050627 0 0.00016256148589222568 -0.033750454615348979 0 0.0001243770091547141 -0.033741475465121754 0 0.00015146498278579046 -0.033706487873520256 0 0.0001243770091547141 -0.033741475465121754 0 0.00010018963555884741 -0.033627017725207056 0 0.00016256148589222568 -0.033750454615348979 0 0.00015146498278579046 -0.033706487873520256 0 0.0001243770091547141 -0.033741475465121754 0 0.0001243770091547141 -0.033741475465121754 0 7.9135316597458421e-05 -0.033755311302268963 0 0.00010018963555884741 -0.033627017725207056 0 0.0031863349780501824 -0.015415714194067046 0 0.0033815254051009361 -0.015227642870721357 0 0.004659859527272125 -0.011037557535803048 0 0.0055593093378784987 -0.015262994680886004 0 0.003425506439902846 -0.01151849184075065 0 0.0033815254051009361 -0.015227642870721357 0 0.004021033645240351 -0.015000796083101644 0 0.0033815254051009361 -0.015227642870721357 0 0.0048100496355929319 -0.012672884696398492 0 0.004021033645240351 -0.015000796083101644 0 0.0048100496355929319 -0.012672884696398492 0 0.00017145535824894515 -0.033749759747050627 0 0.00013658978006310667 -0.033739159394411307 0 0.00020784151659450109 -0.033737430645363657 0 0.00017145535824894515 -0.033749759747050627 0 0.0001243770091547141 -0.033741475465121754 0 0.00013658978006310667 -0.033739159394411307 0 0.005088742561433328 -0.012521743846645051 0 0.005197331348348687 -0.013032606634150179 0 0.0039016579570172747 -0.011976983861645613 0 0.00017605077734009247 -0.033769289080539527 0 0.00017145535824894515 -0.033749759747050627 0 0.00020836863599520719 -0.033737409444803239 0 0.00017145535824894515 -0.033749759747050627 0 0.00020784151659450109 -0.033737430645363657 0 0.00020836863599520719 -0.033737409444803239 0 0.0030727076132723995 -0.014482306204979995 0 0.0030522649255347394 -0.01445664130293558 0 0.0030584732066545189 -0.014473502398134358 0 0.00028038193671714364 -0.033653581403602681 0 0.00020784151659450109 -0.033737430645363657 0 0.00020836863599520719 -0.033737409444803239 0 0.0033938350463987433 -0.015211977663052488 0 0.004021033645240351 -0.015000796083101644 0 0.0033938350463987433 -0.015211977663052488 0 0.0034785354083891515 -0.01331661239791063 0 0.0023624812553826075 -0.0036072247766199311 0 0.0024238448360260254 -0.0035281669369262841 0 0.0022802073249227305 -0.0035184816642064593 0 0.004021033645240351 -0.015000796083101644 0 0.0034785354083891515 -0.01331661239791063 0 -4.3470519273572304e-05 -0.03396437097646391 0 -3.8676623475767325e-05 -0.033937021400151007 0 -4.7777131941584875e-05 -0.033971577761068142 0 -4.3470519273572304e-05 -0.03396437097646391 0 -3.8676623475767325e-05 -0.033937021400151007 0 -2.4464884579324654e-05 -0.033918429472241968 0 -4.3470519273572304e-05 -0.03396437097646391 0 -6.3498216121848493e-05 -0.034026037533630787 0 -4.7777131941584875e-05 -0.033971577761068142 0 2.959507731497465e-06 -0.03401592985334239 0 -6.3498216121848493e-05 -0.034026037533630787 0 -4.7777131941584875e-05 -0.033971577761068142 0 -4.3470519273572304e-05 -0.03396437097646391 0 -6.3498216121848493e-05 -0.034026037533630787 0 -6.9710930803775929e-05 -0.033925178193397923 0 -0.00059519247176713168 -0.03303170064405668 0 -0.00058813355814929438 -0.032383701258791947 0 -6.3498216121848493e-05 -0.034026037533630787 0 -0.00015644722016245084 -0.034287524589258982 0 -7.1767086313855754e-05 -0.03430295701606588 0 -0.00058813355814929438 -0.032383701258791947 0 -0.00054063353163087322 -0.032423290450703593 0 -0.00058813355814929438 -0.032383701258791947 0 -0.00021308768847454589 -0.032274694996661718 0 -0.00038432089249830828 -0.030384586389242525 0 -0.00064303540349908118 -0.030563074972432984 0 -0.00030294630752480365 -0.030613652258686699 0 -4.3470519273572304e-05 -0.03396437097646391 0 -6.9710930803775929e-05 -0.033925178193397923 0 -2.4464884579324654e-05 -0.033918429472241968 0 -2.4464884579324654e-05 -0.033918429472241968 0 2.4321015614024593e-06 -0.03387076700217672 0 -1.0783463094508111e-05 -0.033896638909045103 0 -0.00021308768847454589 -0.032274694996661718 0 5.6177999698404341e-05 -0.032156975005383795 0 -0.00030294630752480365 -0.030613652258686699 0 -4.9814225552338791e-05 -0.030519702924665156 0 3.9957425470019036e-05 -0.030669772888102229 0 0.00032720409512082131 -0.03199344818371596 0 5.6177999698404341e-05 -0.032156975005383795 0 0.00042250780129526465 -0.030738066840141281 0 0.00031262220224711188 -0.030663595917491678 0 3.9957425470019036e-05 -0.030669772888102229 0 4.9051527370044995e-05 -0.033840725146850478 0 2.4321015614024593e-06 -0.03387076700217672 0 2.3848096552062514e-05 -0.033866944663474563 0 7.9224051299314839e-05 -0.030400357004595591 0 0.00031262220224711188 -0.030663595917491678 0 9.3603670649690179e-05 -0.030562941369378763 0 0.00031262220224711188 -0.030663595917491678 0 9.3603670649690179e-05 -0.030562941369378763 0 3.9957425470019036e-05 -0.030669772888102229 0 0.00049838349598780457 -0.02922661992049478 0 0.00063001844852311262 -0.029624967549326978 0 -4.9814225552338791e-05 -0.030519702924665156 0 9.3603670649690179e-05 -0.030562941369378763 0 3.9957425470019036e-05 -0.030669772888102229 0 2.4321015614024593e-06 -0.03387076700217672 0 2.3848096552062514e-05 -0.033866944663474563 0 -1.0783463094508111e-05 -0.033896638909045103 0 2.3848096552062514e-05 -0.033866944663474563 0 -1.0783463094508111e-05 -0.033896638909045103 0 2.1804746354982754e-05 -0.033878061087238918 0 5.5306601353974174e-05 -0.033851164782780857 0 2.3848096552062514e-05 -0.033866944663474563 0 2.1804746354982754e-05 -0.033878061087238918 0 -3.8676623475767325e-05 -0.033937021400151007 0 -2.4464884579324654e-05 -0.033918429472241968 0 -1.0783463094508111e-05 -0.033896638909045103 0 -3.8676623475767325e-05 -0.033937021400151007 0 -1.0783463094508111e-05 -0.033896638909045103 0 -2.8043684107100374e-05 -0.03391126944965802 0 -2.8043684107100374e-05 -0.03391126944965802 0 2.1804746354982754e-05 -0.033878061087238918 0 2.8072848476459236e-05 -0.033917451670105167 0 -1.0783463094508111e-05 -0.033896638909045103 0 -2.8043684107100374e-05 -0.03391126944965802 0 2.1804746354982754e-05 -0.033878061087238918 0 -2.8043684107100374e-05 -0.03391126944965802 0 2.8072848476459236e-05 -0.033917451670105167 0 -5.4711831645321461e-05 -0.033936122781387752 0 -2.8043684107100374e-05 -0.03391126944965802 0 -5.4711831645321461e-05 -0.033936122781387752 0 -5.2213500633365177e-05 -0.03392857293400868 0 -5.4711831645321461e-05 -0.033936122781387752 0 -5.2213500633365177e-05 -0.03392857293400868 0 -4.2724186263925134e-05 -0.033867413731583806 0 -3.8676623475767325e-05 -0.033937021400151007 0 -5.2213500633365177e-05 -0.03392857293400868 0 -4.7777131941584875e-05 -0.033971577761068142 0 -3.8676623475767325e-05 -0.033937021400151007 0 -2.8043684107100374e-05 -0.03391126944965802 0 -5.2213500633365177e-05 -0.03392857293400868 0 -5.2213500633365177e-05 -0.03392857293400868 0 -4.7777131941584875e-05 -0.033971577761068142 0 -1.5228988191516713e-06 -0.033922222257338756 0 2.959507731497465e-06 -0.03401592985334239 0 -4.7777131941584875e-05 -0.033971577761068142 0 -1.5228988191516713e-06 -0.033922222257338756 0 5.1028342178139671e-05 -0.033852971700885394 0 -1.5228988191516713e-06 -0.033922222257338756 0 -4.2724186263925134e-05 -0.033867413731583806 0 -5.2213500633365177e-05 -0.03392857293400868 0 -1.5228988191516713e-06 -0.033922222257338756 0 -4.2724186263925134e-05 -0.033867413731583806 0 -4.0442365336590986e-05 -0.034084877986317659 0 -1.8068339154749017e-05 -0.034197676525739303 0 -0.00018881434765618171 -0.033978115328601177 0 -0.00021382490465191587 -0.034042548474634476 0 -0.00030467374525635233 -0.034016638585678716 0 5.1028342178139671e-05 -0.033852971700885394 0 -4.2724186263925134e-05 -0.033867413731583806 0 5.3797794898633217e-05 -0.033780402263805943 0 -0.00021382490465191587 -0.034042548474634476 0 -0.00016643996769462899 -0.034109570145275478 0 -0.00029457888842896195 -0.034076958372568807 0 6.1578377418530794e-05 -0.034279713650069536 0 1.3045335347348299e-05 -0.03432701987309774 0 0.00030854475120563638 -0.034353817556275951 0 0.00030021079658787349 -0.034360478294399678 0 0.00030449159292169492 -0.034373534116766226 0 -0.00016643996769462899 -0.034109570145275478 0 -0.0001097831923408295 -0.034036260778449387 0 -3.9294847983381376e-05 -0.034148612397122129 0 -0.00021382490465191587 -0.034042548474634476 0 -0.00016643996769462899 -0.034109570145275478 0 -0.0001097831923408295 -0.034036260778449387 0 -0.00018881434765618171 -0.033978115328601177 0 -0.00021382490465191587 -0.034042548474634476 0 -0.0001097831923408295 -0.034036260778449387 0 -5.4711831645321461e-05 -0.033936122781387752 0 -0.00018881434765618171 -0.033978115328601177 0 -0.0001097831923408295 -0.034036260778449387 0 -3.4615914282589761e-05 -0.034051694115657546 0 -4.0442365336590986e-05 -0.034084877986317659 0 -5.4711831645321461e-05 -0.033936122781387752 0 -0.0001097831923408295 -0.034036260778449387 0 -7.2598919945924844e-06 -0.034023920034873381 0 2.8072848476459236e-05 -0.033917451670105167 0 -5.4711831645321461e-05 -0.033936122781387752 0 -7.2598919945924844e-06 -0.034023920034873381 0 2.8072848476459236e-05 -0.033917451670105167 0 -7.2598919945924844e-06 -0.034023920034873381 0 7.0002234226650931e-05 -0.034004452445996092 0 -7.2598919945924844e-06 -0.034023920034873381 0 6.1656239037419125e-05 -0.034086873792090827 0 7.0002234226650931e-05 -0.034004452445996092 0 -7.2598919945924844e-06 -0.034023920034873381 0 6.1656239037419125e-05 -0.034086873792090827 0 -3.9294847983381376e-05 -0.034148612397122129 0 -0.0001097831923408295 -0.034036260778449387 0 -7.2598919945924844e-06 -0.034023920034873381 0 -3.9294847983381376e-05 -0.034148612397122129 0 6.1578377418530794e-05 -0.034279713650069536 0 0.0001086406103674228 -0.034260707230972756 0 0.00030854475120563638 -0.034353817556275951 0 0.0002501972703839442 -0.034314322396118715 0 0.00027111301338543335 -0.03427938592214614 0 0.0001086406103674228 -0.034260707230972756 0 0.00013207568143846845 -0.034254774042329225 0 0.0002501972703839442 -0.034314322396118715 0 0.00027111301338543335 -0.03427938592214614 0 0.00014343468586264268 -0.03420572678185043 0 6.1656239037419125e-05 -0.034086873792090827 0 -3.9294847983381376e-05 -0.034148612397122129 0 0.00014343468586264268 -0.03420572678185043 0 0.00027111301338543335 -0.03427938592214614 0 0.00014343468586264268 -0.03420572678185043 0 0.00023198270268646483 -0.034229590958965612 0 0.00027111301338543335 -0.03427938592214614 0 0.00031188290800507145 -0.034331117776242391 0 0.00031497598778239743 -0.034294121307066411 0 0.00031188290800507145 -0.034331117776242391 0 0.00031497598778239743 -0.034294121307066411 0 0.00031632876821335718 -0.034353215826491819 0 0.00031188290800507145 -0.034331117776242391 0 0.00031632876821335718 -0.034353215826491819 0 0.00030449159292169492 -0.034373534116766226 0 0.00030854475120563638 -0.034353817556275951 0 0.00031188290800507145 -0.034331117776242391 0 0.00030449159292169492 -0.034373534116766226 0 0.00030854475120563638 -0.034353817556275951 0 0.00027111301338543335 -0.03427938592214614 0 0.00031188290800507145 -0.034331117776242391 0 0.001690971951602252 -0.031275475377339858 0 0.001305602941898304 -0.032647603645350777 0 0.00010899411413272185 -0.033333972251586408 0 0.00010018963555884741 -0.033627017725207056 0 -4.0145866467469926e-05 -0.033511553442777932 0 7.9135316597458421e-05 -0.033755311302268963 0 0.00010018963555884741 -0.033627017725207056 0 -4.0145866467469926e-05 -0.033511553442777932 0 0.00010899411413272185 -0.033333972251586408 0 0.00010018963555884741 -0.033627017725207056 0 0.00023117669559887959 -0.033638024839115085 0 0.0033815254051009361 -0.015227642870721357 0 0.0027874923041718916 -0.022761214465238124 0 0.00015146498278579046 -0.033706487873520256 0 0.00010018963555884741 -0.033627017725207056 0 0.00023117669559887959 -0.033638024839115085 0 0.00024104310786311422 -0.034108236733098478 0 0.00024010094920207554 -0.03401423393972676 0 0.00021138498240285813 -0.034131411741451269 0 0.00024010094920207554 -0.03401423393972676 0 0.00018340530316883952 -0.034115726475844349 0 0.00021138498240285813 -0.034131411741451269 0 0.00018340530316883952 -0.034115726475844349 0 0.00012905672876780273 -0.034081016854565313 0 0.00014343468586264268 -0.03420572678185043 0 0.00018340530316883952 -0.034115726475844349 0 0.00014334550851351679 -0.034002164882102885 0 0.00012905672876780273 -0.034081016854565313 0 0.00015131946424036842 -0.033837714999817303 0 0.00024010094920207554 -0.03401423393972676 0 0.00014334550851351679 -0.034002164882102885 0 0.00024010094920207554 -0.03401423393972676 0 0.00018340530316883952 -0.034115726475844349 0 0.00014334550851351679 -0.034002164882102885 0 0.00014334550851351679 -0.034002164882102885 0 7.0002234226650931e-05 -0.034004452445996092 0 0.00012905672876780273 -0.034081016854565313 0 8.6714228916095644e-05 -0.033914697129100349 0 0.00014334550851351679 -0.034002164882102885 0 7.0002234226650931e-05 -0.034004452445996092 0 6.1656239037419125e-05 -0.034086873792090827 0 0.00012905672876780273 -0.034081016854565313 0 0.00014343468586264268 -0.03420572678185043 0 6.1656239037419125e-05 -0.034086873792090827 0 7.0002234226650931e-05 -0.034004452445996092 0 0.00012905672876780273 -0.034081016854565313 0 0.00014343468586264268 -0.03420572678185043 0 0.0001772940234654307 -0.034199661276345675 0 0.00017755419579669568 -0.034178279175408818 0 0.00014343468586264268 -0.03420572678185043 0 0.0001772940234654307 -0.034199661276345675 0 0.00023198270268646483 -0.034229590958965612 0 0.0001772940234654307 -0.034199661276345675 0 0.00017755419579669568 -0.034178279175408818 0 0.0001816852659201902 -0.03417617924315703 0 0.00017755419579669568 -0.034178279175408818 0 0.00019274768727540114 -0.034164327375506183 0 0.0001816852659201902 -0.03417617924315703 0 0.00018340530316883952 -0.034115726475844349 0 0.00014343468586264268 -0.03420572678185043 0 0.00017755419579669568 -0.034178279175408818 0 0.00018340530316883952 -0.034115726475844349 0 0.00017755419579669568 -0.034178279175408818 0 0.00021138498240285813 -0.034131411741451269 0 0.00017755419579669568 -0.034178279175408818 0 0.00021138498240285813 -0.034131411741451269 0 0.00019274768727540114 -0.034164327375506183 0 0.00021138498240285813 -0.034131411741451269 0 0.00019274768727540114 -0.034164327375506183 0 0.00021257902444858716 -0.034142831749696796 0 0.00019274768727540114 -0.034164327375506183 0 0.00019487562781938207 -0.034155729204213101 0 0.00018395395212085695 -0.034158144825009409 0 0.00019274768727540114 -0.034164327375506183 0 0.00019487562781938207 -0.034155729204213101 0 0.00021257902444858716 -0.034142831749696796 0 0.00019487562781938207 -0.034155729204213101 0 0.00021257902444858716 -0.034142831749696796 0 0.00021903895913271914 -0.034141631958341204 0 0.00019487562781938207 -0.034155729204213101 0 0.00018258144500647583 -0.034156594050313668 0 0.00021903895913271914 -0.034141631958341204 0 0.00024104310786311422 -0.034108236733098478 0 0.00021257902444858716 -0.034142831749696796 0 0.00021903895913271914 -0.034141631958341204 0 0.00024104310786311422 -0.034108236733098478 0 0.00021138498240285813 -0.034131411741451269 0 0.00021257902444858716 -0.034142831749696796 0 0.001690971951602252 -0.031275475377339858 0 0.0014839231916303529 -0.026750377172005499 0 0.00054189487087885082 -0.027059683127103204 0 0.0013304844631077115 -0.02493665999876751 0 0.00021805408751562834 -0.031757525088899917 0 0.00078042817828588259 -0.028697401664576253 0 0.00083276359873204304 -0.031372120378438215 0 0.0010985261847408145 -0.031026185864469563 0 0.001254250906933335 -0.030277450473700045 0 0.00086767659317288132 -0.026940043902250257 0 0.0007793722640652965 -0.027241833792525021 0 0.00094910459752228728 -0.026769264384085147 0 0.0001366089590666201 -0.034096100193022699 0 0.00017174745265960634 -0.034140074603962157 0 0.00018258144500647583 -0.034156594050313668 0 0.00083276359873204304 -0.031372120378438215 0 0.0010985261847408145 -0.031026185864469563 0 0.00094211641132593241 -0.031760628539838583 0 0.00064606981435530865 -0.028207398955461638 0 0.00054189487087885082 -0.027059683127103204 0 0.0001366089590666201 -0.034096100193022699 0 0.00016608859982193458 -0.034114799452641141 0 0.0002035718066359654 -0.033984525324974528 0 0.00016608859982193458 -0.034114799452641141 0 0.00017174745265960634 -0.034140074603962157 0 0.00017594273434473894 -0.03414216782430092 0 0.0001366089590666201 -0.034096100193022699 0 0.00016608859982193458 -0.034114799452641141 0 0.00017174745265960634 -0.034140074603962157 0 0.00018320624080608728 -0.03415425047042276 0 0.00017174745265960634 -0.034140074603962157 0 0.00018258144500647583 -0.034156594050313668 0 0.00064606981435530865 -0.028207398955461638 0 0.00078042817828588259 -0.028697401664576253 0 0.00019487562781938207 -0.034155729204213101 0 0.00018320624080608728 -0.03415425047042276 0 0.00018258144500647583 -0.034156594050313668 0 0.00019487562781938207 -0.034155729204213101 0 0.00018320624080608728 -0.03415425047042276 0 0.00018395395212085695 -0.034158144825009409 0 0.00018320624080608728 -0.03415425047042276 0 0.00017174745265960634 -0.034140074603962157 0 0.00018395395212085695 -0.034158144825009409 0 0.00017174745265960634 -0.034140074603962157 0 0.00018395395212085695 -0.034158144825009409 0 0.00017594273434473894 -0.03414216782430092 0 0.00018395395212085695 -0.034158144825009409 0 0.00017993057269495197 -0.034150324127096149 0 0.00017594273434473894 -0.03414216782430092 0 0.00018395395212085695 -0.034158144825009409 0 0.00017993057269495197 -0.034150324127096149 0 0.0001816852659201902 -0.03417617924315703 0 0.00019274768727540114 -0.034164327375506183 0 0.00018395395212085695 -0.034158144825009409 0 0.0001816852659201902 -0.03417617924315703 0 0.00021919333553682441 -0.034105194042396376 0 0.00028081043662408443 -0.034098265055112972 0 0.00016608859982193458 -0.034114799452641141 0 0.00041741552781426341 -0.034033687321894712 0 0.0002035718066359654 -0.033984525324974528 0 0.00016608859982193458 -0.034114799452641141 0 0.00017993057269495197 -0.034150324127096149 0 0.00018410669828640441 -0.034153751295000846 0 0.00016608859982193458 -0.034114799452641141 0 0.00017993057269495197 -0.034150324127096149 0 0.00017594273434473894 -0.03414216782430092 0 0.00017993057269495197 -0.034150324127096149 0 0.00018410669828640441 -0.034153751295000846 0 0.0001816852659201902 -0.03417617924315703 0 0.00018410669828640441 -0.034153751295000846 0 0.0001816852659201902 -0.03417617924315703 0 0.00019246002595040866 -0.034182333313906903 0 0.0001772940234654307 -0.034199661276345675 0 0.00019246002595040866 -0.034182333313906903 0 0.00023198270268646483 -0.034229590958965612 0 0.0001772940234654307 -0.034199661276345675 0 0.0001816852659201902 -0.03417617924315703 0 0.00019246002595040866 -0.034182333313906903 0 0.00018410669828640441 -0.034153751295000846 0 0.00019246002595040866 -0.034182333313906903 0 0.00021979568822998714 -0.034146742778907169 0 0.00028081043662408443 -0.034098265055112972 0 0.000360177387544686 -0.034091978837208915 0 0.00041741552781426341 -0.034033687321894712 0 0.00046438241097457821 -0.03393256078815865 0 0.00051400309151597619 -0.033999038163761035 0 0.00046438241097457821 -0.03393256078815865 0 0.00051094737289514162 -0.033907179553386825 0 0.00051400309151597619 -0.033999038163761035 0 0.00046438241097457821 -0.03393256078815865 0 0.00051094737289514162 -0.033907179553386825 0 0.00044376598308297596 -0.033802534112303398 0 0.00051094737289514162 -0.033907179553386825 0 0.00044376598308297596 -0.033802534112303398 0 0.00048520192634597952 -0.033748291640585695 0 0.00046438241097457821 -0.03393256078815865 0 0.00044376598308297596 -0.033802534112303398 0 0.00033521709484476872 -0.033893785103660118 0 0.00044376598308297596 -0.033802534112303398 0 0.00034366217142835275 -0.033673566371904183 0 0.00043160611070224068 -0.033572277981079368 0 0.00044376598308297596 -0.033802534112303398 0 0.00033521709484476872 -0.033893785103660118 0 0.00034366217142835275 -0.033673566371904183 0 0.00041741552781426341 -0.034033687321894712 0 0.00046438241097457821 -0.03393256078815865 0 0.00033521709484476872 -0.033893785103660118 0 0.00041741552781426341 -0.034033687321894712 0 0.0002035718066359654 -0.033984525324974528 0 0.00033521709484476872 -0.033893785103660118 0 0.0002035718066359654 -0.033984525324974528 0 0.00024145922597800624 -0.033880440388831597 0 0.00014895608769291307 -0.033831468645472165 0 0.0002035718066359654 -0.033984525324974528 0 0.00024145922597800624 -0.033880440388831597 0 0.00033521709484476872 -0.033893785103660118 0 0.00033521709484476872 -0.033893785103660118 0 0.00026970773556838626 -0.033821880692048292 0 0.00034366217142835275 -0.033673566371904183 0 0.0001280108506173451 -0.032706556606460498 0 0.00011939489831646377 -0.032951473970687581 0 0.00034366217142835275 -0.033673566371904183 0 0.00014895608769291307 -0.033831468645472165 0 0.00033880637639581473 -0.033336261192710277 0 0.00024145922597800624 -0.033880440388831597 0 0.00033521709484476872 -0.033893785103660118 0 0.00026970773556838626 -0.033821880692048292 0 0.00026970773556838626 -0.033821880692048292 0 0.00034366217142835275 -0.033673566371904183 0 0.00014895608769291307 -0.033831468645472165 0 0.00024145922597800624 -0.033880440388831597 0 0.00026970773556838626 -0.033821880692048292 0 0.00014895608769291307 -0.033831468645472165 0 0.00060295365352432974 -0.032595926452339233 0 0.0006464444402596171 -0.032765280162998137 0 0.00057430911791009722 -0.033043927967072333 0 0.00046305515355142269 -0.032422660082060045 0 0.00077744829863210247 -0.032363221867139365 0 0.00057430911791009722 -0.033043927967072333 0 -0.00022703088426241126 -0.027780579184146122 0 -0.0004555174120108992 -0.029735678333089838 0 0.00068238891713881208 -0.032841709543337323 0 0.0006464444402596171 -0.032765280162998137 0 0.00057430911791009722 -0.033043927967072333 0 0.00070675315953256084 -0.032708888902125921 0 0.00076430170222048423 -0.032634673946630478 0 0.00076981580417891473 -0.032770748083981893 0 0.00068238891713881208 -0.032841709543337323 0 0.00070675315953256084 -0.032708888902125921 0 0.00076981580417891473 -0.032770748083981893 0 0.00068238891713881208 -0.032841709543337323 0 0.0006464444402596171 -0.032765280162998137 0 0.00070675315953256084 -0.032708888902125921 0 0.0006464444402596171 -0.032765280162998137 0 0.00070675315953256084 -0.032708888902125921 0 0.0006746701304137121 -0.032665777774836147 0 0.00070675315953256084 -0.032708888902125921 0 0.0006746701304137121 -0.032665777774836147 0 0.00076430170222048423 -0.032634673946630478 0 0.00060295365352432974 -0.032595926452339233 0 0.0006746701304137121 -0.032665777774836147 0 0.00076430170222048423 -0.032634673946630478 0 0.00060295365352432974 -0.032595926452339233 0 0.0006464444402596171 -0.032765280162998137 0 0.0006746701304137121 -0.032665777774836147 0 -0.00022703088426241126 -0.027780579184146122 0 0.00054189487087885082 -0.027059683127103204 0 0.00083276359873204304 -0.031372120378438215 0 0.00046305515355142269 -0.032422660082060045 0 0.00094211641132593241 -0.031760628539838583 0 0.0014728324676015841 -0.022769974968110913 0 0.0016645860524926927 -0.022042331954641666 0 0.0025663780309325831 -0.022153252300068735 0 0.0001366089590666201 -0.034096100193022699 0 0.0002035718066359654 -0.033984525324974528 0 0.00014895608769291307 -0.033831468645472165 0 0.00021805408751562834 -0.031757525088899917 0 0.0001280108506173451 -0.032706556606460498 0 0.00046305515355142269 -0.032422660082060045 0 0.00077744829863210247 -0.032363221867139365 0 0.00094211641132593241 -0.031760628539838583 0 0.00034644893816917642 -0.034267209422596735 0 0.00030592180338205073 -0.034234655531791267 0 0.00039283604996963848 -0.034132053060985955 0 0.00034644893816917642 -0.034267209422596735 0 0.00039283604996963848 -0.034132053060985955 0 0.00036470514365018539 -0.034247371840916731 0 0.00034644893816917642 -0.034267209422596735 0 0.00036470514365018539 -0.034247371840916731 0 0.00032382943695684395 -0.034336881931150989 0 0.00031632876821335718 -0.034353215826491819 0 0.00034644893816917642 -0.034267209422596735 0 0.00032382943695684395 -0.034336881931150989 0 0.00031497598778239743 -0.034294121307066411 0 0.00031632876821335718 -0.034353215826491819 0 0.00034644893816917642 -0.034267209422596735 0 0.00031497598778239743 -0.034294121307066411 0 0.00034644893816917642 -0.034267209422596735 0 0.00030592180338205073 -0.034234655531791267 0 0.00027111301338543335 -0.03427938592214614 0 0.00031497598778239743 -0.034294121307066411 0 0.00030592180338205073 -0.034234655531791267 0 0.00027111301338543335 -0.03427938592214614 0 0.00030592180338205073 -0.034234655531791267 0 0.00023198270268646483 -0.034229590958965612 0 0.00030592180338205073 -0.034234655531791267 0 0.00023198270268646483 -0.034229590958965612 0 0.00021979568822998714 -0.034146742778907169 0 0.00019246002595040866 -0.034182333313906903 0 0.00023198270268646483 -0.034229590958965612 0 0.00021979568822998714 -0.034146742778907169 0 0.00030592180338205073 -0.034234655531791267 0 0.00021979568822998714 -0.034146742778907169 0 0.00039283604996963848 -0.034132053060985955 0 0.000360177387544686 -0.034091978837208915 0 0.00039307667176384097 -0.034094390246150776 0 0.00051400309151597619 -0.033999038163761035 0 0.0005124051513565902 -0.034016322013565671 0 0.00039283604996963848 -0.034132053060985955 0 0.00051094737289514162 -0.033907179553386825 0 0.00051400309151597619 -0.033999038163761035 0 0.0005124051513565902 -0.034016322013565671 0 0.00051094737289514162 -0.033907179553386825 0 0.0005124051513565902 -0.034016322013565671 0 0.00051371667750204058 -0.033783607124731524 0 0.0005124051513565902 -0.034016322013565671 0 0.00044212310613784872 -0.034144248964037692 0 0.00039283604996963848 -0.034132053060985955 0 0.00044212310613784872 -0.034144248964037692 0 0.00039283604996963848 -0.034132053060985955 0 0.00036470514365018539 -0.034247371840916731 0 0.00044212310613784872 -0.034144248964037692 0 0.00036470514365018539 -0.034247371840916731 0 0.00034209038607533866 -0.034287319425275416 0 0.00034209038607533866 -0.034287319425275416 0 0.00025385874525138988 -0.034430251310102925 0 0.00029766705933558418 -0.034368206895982779 0 0.00034209038607533866 -0.034287319425275416 0 0.00025385874525138988 -0.034430251310102925 0 0.00029780939665707769 -0.034356009713335134 0 0.00025385874525138988 -0.034430251310102925 0 0.00029766705933558418 -0.034368206895982779 0 0.00022852271446120536 -0.034470374710079354 0 0.00036470514365018539 -0.034247371840916731 0 0.00034209038607533866 -0.034287319425275416 0 0.00029766705933558418 -0.034368206895982779 0 0.00029766705933558418 -0.034368206895982779 0 0.00027573811869008818 -0.034421116403371553 0 0.00032382943695684395 -0.034336881931150989 0 0.00036470514365018539 -0.034247371840916731 0 0.00029766705933558418 -0.034368206895982779 0 0.00032382943695684395 -0.034336881931150989 0 0.00029766705933558418 -0.034368206895982779 0 0.00027573811869008818 -0.034421116403371553 0 0.00022852271446120536 -0.034470374710079354 0 0.00027573811869008818 -0.034421116403371553 0 0.00028962985053742116 -0.034408630797652169 0 0.00025460794969076018 -0.034466234585428163 0 0.00027573811869008818 -0.034421116403371553 0 0.00032382943695684395 -0.034336881931150989 0 0.00028962985053742116 -0.034408630797652169 0 0.00031632876821335718 -0.034353215826491819 0 0.00032382943695684395 -0.034336881931150989 0 0.00028962985053742116 -0.034408630797652169 0 0.00017742267282640404 -0.034574011425693635 0 0.00015427529151845873 -0.034585584478136026 0 0.0001271178600242899 -0.03465474687075442 0 0.00017742267282640404 -0.034574011425693635 0 0.00021655243064434043 -0.034511032173193963 0 0.00020988674280564843 -0.034531326504700713 0 0.00017742267282640404 -0.034574011425693635 0 0.0001271178600242899 -0.03465474687075442 0 0.00016385616967204484 -0.034593725894565081 0 0.00021655243064434043 -0.034511032173193963 0 0.00025460794969076018 -0.034466234585428163 0 0.00020988674280564843 -0.034531326504700713 0 0.00027573811869008818 -0.034421116403371553 0 0.00021655243064434043 -0.034511032173193963 0 0.00025460794969076018 -0.034466234585428163 0 0.00027573811869008818 -0.034421116403371553 0 0.00021655243064434043 -0.034511032173193963 0 0.00022852271446120536 -0.034470374710079354 0 0.00021655243064434043 -0.034511032173193963 0 0.00015427529151845873 -0.034585584478136026 0 0.00022852271446120536 -0.034470374710079354 0 0.00017742267282640404 -0.034574011425693635 0 0.00021655243064434043 -0.034511032173193963 0 0.00015427529151845873 -0.034585584478136026 0 0.00015427529151845873 -0.034585584478136026 0 0.0001741664824786863 -0.034527187505589516 0 0.0001293434612527716 -0.034597022129284623 0 0.00015427529151845873 -0.034585584478136026 0 0.0001741664824786863 -0.034527187505589516 0 0.00022852271446120536 -0.034470374710079354 0 0.00025385874525138988 -0.034430251310102925 0 0.0001741664824786863 -0.034527187505589516 0 0.00022852271446120536 -0.034470374710079354 0 0.00025385874525138988 -0.034430251310102925 0 0.0001741664824786863 -0.034527187505589516 0 0.00018901242158426068 -0.034544518660773599 0 0.0001741664824786863 -0.034527187505589516 0 0.00010315807043851292 -0.034600892660156271 0 0.00018901242158426068 -0.034544518660773599 0 0.00010315807043851292 -0.034600892660156271 0 6.9055649684524287e-05 -0.034632780864926806 0 7.2175539874512072e-05 -0.034674854504284341 0 6.9055649684524287e-05 -0.034632780864926806 0 7.2175539874512072e-05 -0.034674854504284341 0 7.0968822092086736e-05 -0.03470046352242348 0 0.00010315807043851292 -0.034600892660156271 0 7.2175539874512072e-05 -0.034674854504284341 0 9.1833332677880144e-05 -0.034672016154795017 0 7.2175539874512072e-05 -0.034674854504284341 0 7.1571714360454196e-05 -0.034737709740224401 0 6.1850966649168749e-05 -0.034777760895081014 0 7.2175539874512072e-05 -0.034674854504284341 0 7.1571714360454196e-05 -0.034737709740224401 0 9.1833332677880144e-05 -0.034672016154795017 0 0.00015427529151845873 -0.034585584478136026 0 9.1833332677880144e-05 -0.034672016154795017 0 0.0001293434612527716 -0.034597022129284623 0 0.0001741664824786863 -0.034527187505589516 0 0.00010315807043851292 -0.034600892660156271 0 0.0001293434612527716 -0.034597022129284623 0 0.00010315807043851292 -0.034600892660156271 0 9.1833332677880144e-05 -0.034672016154795017 0 0.0001293434612527716 -0.034597022129284623 0 1.2716349957789209e-10 -0.035000035492582023 0 9.9825151966257822e-06 -0.03499910040413088 0 2.7998594885490985e-06 -0.035001093766330482 0 0.00013885030008424778 -0.034687216506259159 0 8.8626123660255824e-05 -0.034635958663906341 0 7.0968822092086736e-05 -0.03470046352242348 0 0.00013885030008424778 -0.034687216506259159 0 7.0968822092086736e-05 -0.03470046352242348 0 6.9895839026569271e-05 -0.034799888732436973 0 6.9055649684524287e-05 -0.034632780864926806 0 8.8626123660255824e-05 -0.034635958663906341 0 7.0968822092086736e-05 -0.03470046352242348 0 7.2175539874512072e-05 -0.034674854504284341 0 7.0968822092086736e-05 -0.03470046352242348 0 6.1850966649168749e-05 -0.034777760895081014 0 6.1850966649168749e-05 -0.034777760895081014 0 6.9895839026569271e-05 -0.034799888732436973 0 5.3643238569545291e-05 -0.03486508822914787 0 7.0968822092086736e-05 -0.03470046352242348 0 6.1850966649168749e-05 -0.034777760895081014 0 6.9895839026569271e-05 -0.034799888732436973 0 1.2716349957789209e-10 -0.035000035492582023 0 9.9825151966257822e-06 -0.03499910040413088 0 3.8478355186665683e-05 -0.034955015068748242 0 0.00013885030008424778 -0.034687216506259159 0 6.9895839026569271e-05 -0.034799888732436973 0 3.8478355186665683e-05 -0.034955015068748242 0 1.2716349957789209e-10 -0.035000035492582023 0 9.8145908636343515e-08 -0.034999717881489936 0 3.8478355186665683e-05 -0.034955015068748242 0 4.4909094599039891e-05 -0.034834234367769917 0 4.6459172906582807e-05 -0.034852690431435275 0 6.9895839026569271e-05 -0.034799888732436973 0 3.8478355186665683e-05 -0.034955015068748242 0 5.3643238569545291e-05 -0.03486508822914787 0 9.8145908636343515e-08 -0.034999717881489936 0 3.8400414408770678e-05 -0.034919551289394474 0 2.4021684703635206e-05 -0.034929595851251188 0 9.8145908636343515e-08 -0.034999717881489936 0 3.8478355186665683e-05 -0.034955015068748242 0 3.8400414408770678e-05 -0.034919551289394474 0 3.8478355186665683e-05 -0.034955015068748242 0 3.8400414408770678e-05 -0.034919551289394474 0 5.3643238569545291e-05 -0.03486508822914787 0 3.8400414408770678e-05 -0.034919551289394474 0 5.5787827506666685e-05 -0.034837707047646577 0 2.4021684703635206e-05 -0.034929595851251188 0 3.8400414408770678e-05 -0.034919551289394474 0 5.5787827506666685e-05 -0.034837707047646577 0 5.3643238569545291e-05 -0.03486508822914787 0 6.1850966649168749e-05 -0.034777760895081014 0 5.5787827506666685e-05 -0.034837707047646577 0 5.3643238569545291e-05 -0.03486508822914787 0 7.1571714360454196e-05 -0.034737709740224401 0 6.1850966649168749e-05 -0.034777760895081014 0 5.5787827506666685e-05 -0.034837707047646577 0 5.5787827506666685e-05 -0.034837707047646577 0 5.495167020876145e-05 -0.034815006157542121 0 7.725751339512239e-05 -0.03474693102501944 0 5.5787827506666685e-05 -0.034837707047646577 0 5.495167020876145e-05 -0.034815006157542121 0 2.4021684703635206e-05 -0.034929595851251188 0 5.495167020876145e-05 -0.034815006157542121 0 2.4021684703635206e-05 -0.034929595851251188 0 2.9573117677038659e-05 -0.034864732887998691 0 9.8145908636343515e-08 -0.034999717881489936 0 2.4021684703635206e-05 -0.034929595851251188 0 9.3958644938836843e-09 -0.034999807762034166 0 0.00015427529151845873 -0.034585584478136026 0 9.1833332677880144e-05 -0.034672016154795017 0 0.00010770929338290648 -0.03467435614001637 0 0.00015427529151845873 -0.034585584478136026 0 0.00010770929338290648 -0.03467435614001637 0 0.0001271178600242899 -0.03465474687075442 0 9.1833332677880144e-05 -0.034672016154795017 0 0.00010770929338290648 -0.03467435614001637 0 7.725751339512239e-05 -0.03474693102501944 0 7.1571714360454196e-05 -0.034737709740224401 0 9.1833332677880144e-05 -0.034672016154795017 0 7.725751339512239e-05 -0.03474693102501944 0 7.1571714360454196e-05 -0.034737709740224401 0 5.5787827506666685e-05 -0.034837707047646577 0 7.725751339512239e-05 -0.03474693102501944 0 0.00010770929338290648 -0.03467435614001637 0 7.725751339512239e-05 -0.03474693102501944 0 8.6561842296604277e-05 -0.034730684886661804 0 5.495167020876145e-05 -0.034815006157542121 0 8.6561842296604277e-05 -0.034730684886661804 0 7.7564303263662912e-05 -0.034731751762050303 0 5.495167020876145e-05 -0.034815006157542121 0 7.725751339512239e-05 -0.03474693102501944 0 8.6561842296604277e-05 -0.034730684886661804 0 8.6561842296604277e-05 -0.034730684886661804 0 0.0001271178600242899 -0.03465474687075442 0 7.7564303263662912e-05 -0.034731751762050303 0 0.00010770929338290648 -0.03467435614001637 0 8.6561842296604277e-05 -0.034730684886661804 0 0.0001271178600242899 -0.03465474687075442 0 0.0001271178600242899 -0.03465474687075442 0 7.7564303263662912e-05 -0.034731751762050303 0 0.00016385616967204484 -0.034593725894565081 0 7.7564303263662912e-05 -0.034731751762050303 0 1.3050270757347758e-05 -0.03484972810061561 0 9.7488858583257116e-05 -0.034618456218921893 0 3.3140675576260872e-05 -0.034696613755498533 0 2.6153470196276319e-05 -0.03467190965057497 0 7.7564303263662912e-05 -0.034731751762050303 0 9.7488858583257116e-05 -0.034618456218921893 0 0.00016385616967204484 -0.034593725894565081 0 9.7488858583257116e-05 -0.034618456218921893 0 0.00018783398873092945 -0.034489010344604533 0 0.00016385616967204484 -0.034593725894565081 0 2.4021684703635206e-05 -0.034929595851251188 0 9.3958644938836843e-09 -0.034999807762034166 0 2.9573117677038659e-05 -0.034864732887998691 0 5.495167020876145e-05 -0.034815006157542121 0 7.7564303263662912e-05 -0.034731751762050303 0 2.9573117677038659e-05 -0.034864732887998691 0 7.7564303263662912e-05 -0.034731751762050303 0 2.9573117677038659e-05 -0.034864732887998691 0 1.3050270757347758e-05 -0.03484972810061561 0 9.3958644938836843e-09 -0.034999807762034166 0 2.9573117677038659e-05 -0.034864732887998691 0 1.3050270757347758e-05 -0.03484972810061561 0 9.3958644938836843e-09 -0.034999807762034166 0 1.3050270757347758e-05 -0.03484972810061561 0 4.4789403209911875e-08 -0.034999895371142897 0 1.3050270757347758e-05 -0.03484972810061561 0 4.4789403209911875e-08 -0.034999895371142897 0 -4.4365961313884218e-06 -0.03496296549656118 0 1.3050270757347758e-05 -0.03484972810061561 0 -4.4365961313884218e-06 -0.03496296549656118 0 -4.7334592577370641e-05 -0.034934404493958786 0 2.6471445470685986e-06 -0.034995723317703523 0 -4.4365961313884218e-06 -0.03496296549656118 0 -5.2417083972458954e-05 -0.034992902706574042 0 1.3503627615451241e-06 -0.034895899848041659 0 -9.5979854706522589e-06 -0.034862353105527592 0 2.6471445470685986e-06 -0.034995723317703523 0 4.4789403209911875e-08 -0.034999895371142897 0 -4.4365961313884218e-06 -0.03496296549656118 0 -8.0541427636140335e-09 -0.035000017282977011 0 2.6471445470685986e-06 -0.034995723317703523 0 4.4789403209911875e-08 -0.034999895371142897 0 2.6153470196276319e-05 -0.03467190965057497 0 1.9508047772123185e-05 -0.034607820468977528 0 -0.00010611909574424853 -0.034942265031098964 0 -0.00015445446639636643 -0.034971544679770351 0 -0.000176272187314515 -0.034919587614519437 0 -0.00010611909574424853 -0.034942265031098964 0 -9.6607231992196807e-05 -0.034893312757840342 0 -0.000176272187314515 -0.034919587614519437 0 1.3050270757347758e-05 -0.03484972810061561 0 -9.6607231992196807e-05 -0.034893312757840342 0 -4.7334592577370641e-05 -0.034934404493958786 0 -0.00010611909574424853 -0.034942265031098964 0 -9.6607231992196807e-05 -0.034893312757840342 0 -4.7334592577370641e-05 -0.034934404493958786 0 -4.4365961313884218e-06 -0.03496296549656118 0 -4.7334592577370641e-05 -0.034934404493958786 0 -5.2417083972458954e-05 -0.034992902706574042 0 -0.00010611909574424853 -0.034942265031098964 0 -4.7334592577370641e-05 -0.034934404493958786 0 -5.2417083972458954e-05 -0.034992902706574042 0 -6.7509060644229888e-06 -0.03499604622479674 0 -3.404166646380612e-06 -0.03499087575993353 0 -1.2670037755887596e-05 -0.03498600956218282 0 -0.00010611909574424853 -0.034942265031098964 0 -5.2417083972458954e-05 -0.034992902706574042 0 -0.00015445446639636643 -0.034971544679770351 0 -6.7509060644229888e-06 -0.03499604622479674 0 -1.5097023492354053e-05 -0.034989427410691151 0 -1.2670037755887596e-05 -0.03498600956218282 0 -9.5979854706522589e-06 -0.034862353105527592 0 -1.803169936351048e-05 -0.034747161310844481 0 -1.5097023492354053e-05 -0.034989427410691151 0 -1.2670037755887596e-05 -0.03498600956218282 0 -2.4643595835891291e-05 -0.034980878669239109 0 -1.803169936351048e-05 -0.034747161310844481 0 5.0409624388866258e-05 -0.034497363812439549 0 0.00035223860267488916 -0.033846348225090889 0 0.00041377488460737845 -0.03379311456188068 0 0.00031107123173729624 -0.033805786890629574 0 -0.00015445446639636643 -0.034971544679770351 0 -0.000176272187314515 -0.034919587614519437 0 -0.00024709343589041994 -0.034948164616220828 0 0.00018783398873092945 -0.034489010344604533 0 0.00023180781987431514 -0.034477363603257469 0 0.00025444932488558145 -0.034434342102533107 0 -0.000176272187314515 -0.034919587614519437 0 -0.00025610941914478786 -0.034941786767843701 0 -0.00024709343589041994 -0.034948164616220828 0 1.9508047772123185e-05 -0.034607820468977528 0 5.8710195061887858e-05 -0.03448513575037563 0 0.00023180781987431514 -0.034477363603257469 0 0.00025444932488558145 -0.034434342102533107 0 0.00025908879853596428 -0.034452710700891009 0 0.00024617406378412337 -0.033706424785339875 0 0.00022477431018877366 -0.033723387198400026 0 0.00020891920848407355 -0.033699965416063918 0 5.0409624388866258e-05 -0.034497363812439549 0 5.2413066298080335e-05 -0.03445395564113099 0 5.7167505128021683e-05 -0.034455918315037658 0 6.2606608044739616e-05 -0.034459693213163591 0 5.2230902312687736e-05 -0.034457322363364941 0 5.8710195061887858e-05 -0.03448513575037563 0 5.0409624388866258e-05 -0.034497363812439549 0 0.00041377488460737845 -0.03379311456188068 0 0.000278420451766885 -0.033759800789950958 0 0.00031107123173729624 -0.033805786890629574 0 0.00024617406378412337 -0.033706424785339875 0 0.00024181185143866299 -0.033735977194347164 0 0.000278420451766885 -0.033759800789950958 0 0.00024181185143866299 -0.033735977194347164 0 0.00022477431018877366 -0.033723387198400026 0 0.00021785592556289765 -0.033754610734686719 0 0.00041377488460737845 -0.03379311456188068 0 0.00024617406378412337 -0.033706424785339875 0 0.000278420451766885 -0.033759800789950958 0 0.00024617406378412337 -0.033706424785339875 0 0.00024181185143866299 -0.033735977194347164 0 0.00022477431018877366 -0.033723387198400026 0 0.00014177953631288933 -0.034499193578871871 0 5.0409624388866258e-05 -0.034497363812439549 0 0.00024181185143866299 -0.033735977194347164 0 0.000278420451766885 -0.033759800789950958 0 0.00021785592556289765 -0.033754610734686719 0 0.00025048607760536681 -0.03380609621642474 0 0.00020488337229289378 -0.033805924126384335 0 0.00021785592556289765 -0.033754610734686719 0 0.000278420451766885 -0.033759800789950958 0 0.00025048607760536681 -0.03380609621642474 0 0.00021785592556289765 -0.033754610734686719 0 0.000278420451766885 -0.033759800789950958 0 0.00031107123173729624 -0.033805786890629574 0 0.00025048607760536681 -0.03380609621642474 0 0.00014387946190875186 -0.033846869724472831 0 0.00020488337229289378 -0.033805924126384335 0 0.00017088428451242894 -0.033790536660862576 0 0.00016781077306237806 -0.033749234611265534 0 5.3797794898633217e-05 -0.033780402263805943 0 0.00020891920848407355 -0.033699965416063918 0 0.00020835734076053976 -0.033856606374836166 0 0.00025048607760536681 -0.03380609621642474 0 0.00020488337229289378 -0.033805924126384335 0 0.00012183504814795012 -0.033793205518889584 0 0.00016781077306237806 -0.033749234611265534 0 5.3797794898633217e-05 -0.033780402263805943 0 -1.8068339154749017e-05 -0.034197676525739303 0 5.2413066298080335e-05 -0.03445395564113099 0 0.00020488337229289378 -0.033805924126384335 0 0.00017088428451242894 -0.033790536660862576 0 0.00021785592556289765 -0.033754610734686719 0 0.00014387946190875186 -0.033846869724472831 0 0.00017088428451242894 -0.033790536660862576 0 0.00012183504814795012 -0.033793205518889584 0 0.00017088428451242894 -0.033790536660862576 0 0.00012183504814795012 -0.033793205518889584 0 0.00016781077306237806 -0.033749234611265534 0 0.00022477431018877366 -0.033723387198400026 0 0.00020482175631778094 -0.033732027485719469 0 0.00020891920848407355 -0.033699965416063918 0 0.00022477431018877366 -0.033723387198400026 0 0.00020482175631778094 -0.033732027485719469 0 0.00021785592556289765 -0.033754610734686719 0 0.00016781077306237806 -0.033749234611265534 0 0.00020482175631778094 -0.033732027485719469 0 0.00021785592556289765 -0.033754610734686719 0 0.00016781077306237806 -0.033749234611265534 0 0.00020482175631778094 -0.033732027485719469 0 0.00020891920848407355 -0.033699965416063918 0 0.00017088428451242894 -0.033790536660862576 0 0.00016781077306237806 -0.033749234611265534 0 0.00021785592556289765 -0.033754610734686719 0 5.1028342178139671e-05 -0.033852971700885394 0 0.00012183504814795012 -0.033793205518889584 0 5.3797794898633217e-05 -0.033780402263805943 0 5.1028342178139671e-05 -0.033852971700885394 0 0.00014387946190875186 -0.033846869724472831 0 0.00012183504814795012 -0.033793205518889584 0 -0.00030467374525635233 -0.034016638585678716 0 -0.00029457888842896195 -0.034076958372568807 0 -0.00041379075027135235 -0.034049678705578117 0 0.00030021079658787349 -0.034360478294399678 0 0.00028956868736822346 -0.034365562394608105 0 0.00030449159292169492 -0.034373534116766226 0 -0.00021382490465191587 -0.034042548474634476 0 -0.00030467374525635233 -0.034016638585678716 0 -0.00029457888842896195 -0.034076958372568807 0 0.00030021079658787349 -0.034360478294399678 0 0.00027669829568713366 -0.034354687684122281 0 0.00028956868736822346 -0.034365562394608105 0 1.3045335347348299e-05 -0.03432701987309774 0 5.2413066298080335e-05 -0.03445395564113099 0 0.00027444259617319741 -0.034355341793720177 0 0.00027669829568713366 -0.034354687684122281 0 0.00028956868736822346 -0.034365562394608105 0 5.8710195061887858e-05 -0.03448513575037563 0 5.2413066298080335e-05 -0.03445395564113099 0 5.8710195061887858e-05 -0.03448513575037563 0 0.00017296995588590562 -0.034488023688666533 0 0.00025444932488558145 -0.034434342102533107 0 0.00027961405234588416 -0.034429372831800434 0 0.00025908879853596428 -0.034452710700891009 0 0.00025908879853596428 -0.034452710700891009 0 0.00027722543364515736 -0.03443127890949213 0 0.00024135976419725291 -0.034483231035795668 0 0.00027961405234588416 -0.034429372831800434 0 0.00025908879853596428 -0.034452710700891009 0 0.00027722543364515736 -0.03443127890949213 0 0.00027961405234588416 -0.034429372831800434 0 0.00027722543364515736 -0.03443127890949213 0 0.00030449159292169492 -0.034373534116766226 0 0.00027722543364515736 -0.03443127890949213 0 0.00030449159292169492 -0.034373534116766226 0 0.0002971328212536923 -0.03439147927024587 0 0.00017296995588590562 -0.034488023688666533 0 0.00020540883859801516 -0.034485495775259001 0 0.00027722543364515736 -0.03443127890949213 0 0.00028962985053742116 -0.034408630797652169 0 0.0002971328212536923 -0.03439147927024587 0 0.00031632876821335718 -0.034353215826491819 0 0.00030449159292169492 -0.034373534116766226 0 0.0002971328212536923 -0.03439147927024587 0 0.00031632876821335718 -0.034353215826491819 0 0.00028962985053742116 -0.034408630797652169 0 0.0002971328212536923 -0.03439147927024587 0 0.00027722543364515736 -0.03443127890949213 0 0.00025460794969076018 -0.034466234585428163 0 0.00024135976419725291 -0.034483231035795668 0 0.00027722543364515736 -0.03443127890949213 0 0.00028962985053742116 -0.034408630797652169 0 0.00025460794969076018 -0.034466234585428163 0 0.00020988674280564843 -0.034531326504700713 0 0.0002085818989611508 -0.034523357399396354 0 0.00024135976419725291 -0.034483231035795668 0 0.00025460794969076018 -0.034466234585428163 0 0.00020988674280564843 -0.034531326504700713 0 0.00024135976419725291 -0.034483231035795668 0 0.00020988674280564843 -0.034531326504700713 0 0.00016385616967204484 -0.034593725894565081 0 0.0002085818989611508 -0.034523357399396354 0 0.00017742267282640404 -0.034574011425693635 0 0.00020988674280564843 -0.034531326504700713 0 0.00016385616967204484 -0.034593725894565081 0 0.00018783398873092945 -0.034489010344604533 0 0.00016385616967204484 -0.034593725894565081 0 0.0002085818989611508 -0.034523357399396354 0 0.00018783398873092945 -0.034489010344604533 0 0.00023180781987431514 -0.034477363603257469 0 0.0002085818989611508 -0.034523357399396354 0 0.00023180781987431514 -0.034477363603257469 0 0.0002085818989611508 -0.034523357399396354 0 0.00024135976419725291 -0.034483231035795668 0 0.00023180781987431514 -0.034477363603257469 0 0.00025908879853596428 -0.034452710700891009 0 0.00024135976419725291 -0.034483231035795668 0 0.0026125912247317402 0.0065872315231556627 0 0.0031963440506230416 0.0049927896198630039 0 0.0014180353733274692 0.0049793994911848409 0 0.0026125912247317402 0.0065872315231556627 0 0.004706278975918108 0.0051174208790184484 0 0.0031963440506230416 0.0049927896198630039 0 0.0005642514816201345 0.0052672814124554608 0 -0.00057408492916827063 0.0061199512586351725 0 0.0026125912247317402 0.0065872315231556627 0 0.00086659701707733725 0.0069492541125914138 0 0.0014180353733274692 0.0049793994911848409 0 0.00086659701707733725 0.0069492541125914138 0 0.0014180353733274692 0.0049793994911848409 0 -0.00024791007502289144 0.0067910327778641782 0 0.0026125912247317402 0.0065872315231556627 0 0.0016268436119150742 0.0075134488923984536 0 0.00086659701707733725 0.0069492541125914138 0 0.0016268436119150742 0.0075134488923984536 0 0.00086659701707733725 0.0069492541125914138 0 0.00092682259530823359 0.0081594909917830048 0 0.00086659701707733725 0.0069492541125914138 0 0.00092682259530823359 0.0081594909917830048 0 -0.00030663584753408017 0.0077698646106789592 0 0.00086659701707733725 0.0069492541125914138 0 -0.00024791007502289144 0.0067910327778641782 0 -0.00030663584753408017 0.0077698646106789592 0 0.00092682259530823359 0.0081594909917830048 0 -0.00030663584753408017 0.0077698646106789592 0 0.00014114257963733403 0.0089105973797300713 0 0.0016268436119150742 0.0075134488923984536 0 0.00092682259530823359 0.0081594909917830048 0 0.0020879517722414156 0.0085669691755815066 0 0.00092682259530823359 0.0081594909917830048 0 0.0020879517722414156 0.0085669691755815066 0 0.0011715167890743252 0.0092510572634897561 0 0.0026125912247317402 0.0065872315231556627 0 0.0020879517722414156 0.0085669691755815066 0 0.0042653705233392496 0.0082771809356621193 0 0.0026125912247317402 0.0065872315231556627 0 0.0016268436119150742 0.0075134488923984536 0 0.0020879517722414156 0.0085669691755815066 0 0.0041543719198396858 0.0076925736205454469 0 0.0055332195289794564 0.007401281775279483 0 0.004706278975918108 0.0051174208790184484 0 0.0041543719198396858 0.0076925736205454469 0 0.0055332195289794564 0.007401281775279483 0 0.0053879503275804036 0.0089662203539195694 0 0.0064519191268311805 0.0066565954217885749 0 0.0055332195289794564 0.007401281775279483 0 0.0070141843118517715 0.0083101006957636264 0 0.0064519191268311805 0.0066565954217885749 0 0.0063220388961789178 0.0052322199323686907 0 0.004706278975918108 0.0051174208790184484 0 0.0064519191268311805 0.0066565954217885749 0 0.0055332195289794564 0.007401281775279483 0 0.004706278975918108 0.0051174208790184484 0 0.004175118234770109 0.0083836336739583697 0 0.0044615046845759791 0.006789945241190894 0 0.0026125912247317402 0.0065872315231556627 0 0.0042653705233392496 0.0082771809356621193 0 0.004706278975918108 0.0051174208790184484 0 0.004706278975918108 0.0051174208790184484 0 0.0064314920471715969 0.003990723966712675 0 0.0040048913284723708 0.0033865767762697781 0 0.004706278975918108 0.0051174208790184484 0 0.0040048913284723708 0.0033865767762697781 0 0.0031963440506230416 0.0049927896198630039 0 0.0063220388961789178 0.0052322199323686907 0 0.004706278975918108 0.0051174208790184484 0 0.0064314920471715969 0.003990723966712675 0 0.0064314920471715969 0.003990723966712675 0 0.0040048913284723708 0.0033865767762697781 0 0.0061315146726570397 0.0019376106891632312 0 0.0024653602941326659 0.0038432116108348272 0 0.0043765854387008826 0.0023234773731518102 0 0.0002066811857729634 0.0033245155548308329 0 0.00092811636154711374 0.0023509912147726317 0 0.0011375336222477466 0.0043975518342997677 0 -0.00033030209730252816 0.0044110232482094053 0 0.0010259033760067532 0.0028627035025184664 0 0.0011375336222477466 0.0043975518342997677 0 -0.00041685750800402299 0.0055660184248702074 0 -0.00033030209730252816 0.0044110232482094053 0 0.0024653602941326659 0.0038432116108348272 0 0.0005642514816201345 0.0052672814124554608 0 0.0040048913284723708 0.0033865767762697781 0 0.0031963440506230416 0.0049927896198630039 0 0.0014180353733274692 0.0049793994911848409 0 -0.00041685750800402299 0.0055660184248702074 0 -0.00099345496073757148 0.0050853721986129129 0 -0.00033030209730252816 0.0044110232482094053 0 -0.00041685750800402299 0.0055660184248702074 0 -0.00099345496073757148 0.0050853721986129129 0 -0.0012546993862090118 0.0059197498122109679 0 -0.00099345496073757148 0.0050853721986129129 0 -0.00033030209730252816 0.0044110232482094053 0 -0.0013328000812794967 0.0042235378594503029 0 -0.00033030209730252816 0.0044110232482094053 0 -0.0013328000812794967 0.0042235378594503029 0 -0.00035527371889172553 0.0027861644006201723 0 -0.0018768388590621079 0.0045780579541935627 0 -0.0028330100268697976 0.0046384138528694592 0 -0.0030467670968607956 0.0051628256791133396 0 -0.0018768388590621079 0.0045780579541935627 0 -0.0028330100268697976 0.0046384138528694592 0 -0.0028237358735474856 0.003587409140338955 0 -0.0034665492058219829 0.0050580124947116343 0 -0.0034171032335627528 0.0052504538925537241 0 -0.0036974959632006476 0.005229839077604076 0 -0.0034893098198062111 0.005160960837390911 0 -0.0028330100268697976 0.0046384138528694592 0 -0.0028237358735474856 0.003587409140338955 0 -0.0034893098198062111 0.005160960837390911 0 -0.0034665492058219829 0.0050580124947116343 0 -0.0036974959632006476 0.005229839077604076 0 -0.0032909233894111867 0.004541400430256126 0 -0.0031168350989377188 0.0042778925772340637 0 -0.0034665492058219829 0.0050580124947116343 0 -0.0031601614964523253 0.005195464764291547 0 -0.0034171032335627528 0.0052504538925537241 0 -0.0034893098198062111 0.005160960837390911 0 -0.0028330100268697976 0.0046384138528694592 0 -0.0030467670968607956 0.0051628256791133396 0 -0.0034893098198062111 0.005160960837390911 0 -0.0034665492058219829 0.0050580124947116343 0 -0.0036879705000431103 0.0055591424432308882 0 -0.0034893098198062111 0.005160960837390911 0 -0.0030467670968607956 0.0051628256791133396 0 -0.0036879705000431103 0.0055591424432308882 0 -0.0030467670968607956 0.0051628256791133396 0 -0.0029972720793407012 0.0056772353714549624 0 -0.0036879705000431103 0.0055591424432308882 0 -0.0018768388590621079 0.0045780579541935627 0 -0.0030467670968607956 0.0051628256791133396 0 -0.0029972720793407012 0.0056772353714549624 0 -0.00099345496073757148 0.0050853721986129129 0 -0.0013328000812794967 0.0042235378594503029 0 -0.0015810987858031135 0.0053075691221906619 0 -0.0013328000812794967 0.0042235378594503029 0 -0.0023843845286494981 0.0054594619970540336 0 -0.0015810987858031135 0.0053075691221906619 0 -0.0023843845286494981 0.0054594619970540336 0 -0.0015810987858031135 0.0053075691221906619 0 -0.0019445850049978921 0.0058840502516811985 0 -0.0016540374903656944 0.0044081065145185425 0 -0.0026164835549300895 0.0054609960698712295 0 -0.00099345496073757148 0.0050853721986129129 0 -0.0015810987858031135 0.0053075691221906619 0 -0.0012546993862090118 0.0059197498122109679 0 -0.0018669551667026101 0.013758729009663569 0 -0.0018268562838964081 0.013564260062865149 0 -0.002775441432510671 0.0052410157256147878 0 -0.0030023275386864639 0.0048806116448695536 0 -0.002640309150813805 0.0046436985326557007 0 -0.002775441432510671 0.0052410157256147878 0 -0.002640309150813805 0.0046436985326557007 0 -0.0022196280148525935 0.0053528121438501785 0 -0.002775441432510671 0.0052410157256147878 0 -0.0030023275386864639 0.0048806116448695536 0 -0.0031601614964523253 0.005195464764291547 0 -0.0034665492058219829 0.0050580124947116343 0 -0.0031601614964523253 0.005195464764291547 0 -0.0032094209477389161 0.0049081225449178392 0 -0.0030023275386864639 0.0048806116448695536 0 -0.0031601614964523253 0.005195464764291547 0 -0.0032094209477389161 0.0049081225449178392 0 -0.0013297099356976102 0.0074026633755574769 0 -0.0012859077548838544 0.0087057142838949057 0 -0.0030023275386864639 0.0048806116448695536 0 -0.0032028447687932515 0.004483092906608809 0 -0.002640309150813805 0.0046436985326557007 0 -0.0034665492058219829 0.0050580124947116343 0 -0.0032094209477389161 0.0049081225449178392 0 -0.0032028447687932515 0.004483092906608809 0 -0.0030023275386864639 0.0048806116448695536 0 -0.0032094209477389161 0.0049081225449178392 0 -0.0032028447687932515 0.004483092906608809 0 -0.0011438953858115982 0.022557775366144752 0 -0.0012380794428510234 0.023052919649003342 0 -0.00080671231892646739 0.023265194333540302 0 -0.0018669551667026101 0.013758729009663569 0 -0.0016573186873098591 0.014518494074312081 0 -0.0011438953858115982 0.022557775366144752 0 -0.0012380794428510234 0.023052919649003342 0 -0.0015920542137214115 0.022898816840844237 0 -0.0012380794428510234 0.023052919649003342 0 -0.0011887004257227062 0.023405304420608491 0 -0.0014363772396797612 0.023265345017514146 0 -0.0012380794428510234 0.023052919649003342 0 -0.00080671231892646739 0.023265194333540302 0 -0.0011887004257227062 0.023405304420608491 0 -0.0012859077548838544 0.0087057142838949057 0 -0.0016573186873098591 0.014518494074312081 0 -0.0036879705000431103 0.0055591424432308882 0 -0.0040495418540533118 0.0067629209678823276 0 -0.0038327644485733618 0.0068284642257367542 0 -0.0032028447687932515 0.004483092906608809 0 -0.002640309150813805 0.0046436985326557007 0 -0.0030136065735695285 0.0039723563283297807 0 -0.00043825535329584757 0.022066193162255231 0 0.00024865890328957873 0.023426622981470382 0 -0.00084916976173356315 0.023260418416186916 0 -0.0016573186873098591 0.014518494074312081 0 -0.0008995139390418328 0.015309752773010684 0 -0.0038327644485733618 0.0068284642257367542 0 -0.003143934534955668 0.0070295019678445142 0 -0.0031182350140912633 0.0086671745466573597 0 -0.0040495418540533118 0.0067629209678823276 0 -0.0038327644485733618 0.0068284642257367542 0 -0.0031182350140912633 0.0086671745466573597 0 -0.0016573186873098591 0.014518494074312081 0 -0.0023866098758886264 0.020589474275010452 0 -0.00080671231892646739 0.023265194333540302 0 -0.0011887004257227062 0.023405304420608491 0 -0.0010109690353831689 0.023848662595782631 0 -0.0011887004257227062 0.023405304420608491 0 -0.0010109690353831689 0.023848662595782631 0 -0.0014977465189633435 0.023565905236959905 0 -0.0011887004257227062 0.023405304420608491 0 -0.0014363772396797612 0.023265345017514146 0 -0.0014977465189633435 0.023565905236959905 0 -0.00041685750800402299 0.0055660184248702074 0 -0.0012546993862090118 0.0059197498122109679 0 -0.0016328963087539764 0.0068845711582077151 0 0.0014180353733274692 0.0049793994911848409 0 -0.00024791007502289144 0.0067910327778641782 0 -0.0016328963087539764 0.0068845711582077151 0 -0.0015816598630087934 0.0063127519159545207 0 -0.0012546993862090118 0.0059197498122109679 0 -0.0016328963087539764 0.0068845711582077151 0 -0.0015816598630087934 0.0063127519159545207 0 -0.0018114562104330995 0.0066036532466417211 0 -0.0021297973006744152 0.0064604596142542733 0 -0.0018114562104330995 0.0066036532466417211 0 -0.0018946869298772171 0.0067740563329152939 0 -0.0021297973006744152 0.0064604596142542733 0 -0.0018114562104330995 0.0066036532466417211 0 -0.0018946869298772171 0.0067740563329152939 0 -0.0016328963087539764 0.0068845711582077151 0 -0.0015816598630087934 0.0063127519159545207 0 -0.0018114562104330995 0.0066036532466417211 0 -0.0016328963087539764 0.0068845711582077151 0 -0.0015816598630087934 0.0063127519159545207 0 -0.0019445850049978921 0.0058840502516811985 0 -0.0021297973006744152 0.0064604596142542733 0 -0.0015816598630087934 0.0063127519159545207 0 -0.0012546993862090118 0.0059197498122109679 0 -0.0019445850049978921 0.0058840502516811985 0 -0.0015810987858031135 0.0053075691221906619 0 -0.0012546993862090118 0.0059197498122109679 0 -0.0019445850049978921 0.0058840502516811985 0 -0.0023843845286494981 0.0054594619970540336 0 -0.0023138087432388863 0.0060498139086821922 0 -0.002809189042107797 0.0064129044369099497 0 -0.0029972720793407012 0.0056772353714549624 0 -0.0036879705000431103 0.0055591424432308882 0 -0.0038327644485733618 0.0068284642257367542 0 -0.0023843845286494981 0.0054594619970540336 0 -0.0038327644485733618 0.0068284642257367542 0 -0.002809189042107797 0.0064129044369099497 0 -0.0026164835549300895 0.0054609960698712295 0 -0.003192379137508093 0.0060845251015771117 0 -0.0019445850049978921 0.0058840502516811985 0 -0.0023138087432388863 0.0060498139086821922 0 -0.0021297973006744152 0.0064604596142542733 0 -0.0023843845286494981 0.0054594619970540336 0 -0.0019445850049978921 0.0058840502516811985 0 -0.0023138087432388863 0.0060498139086821922 0 -0.0038327644485733618 0.0068284642257367542 0 -0.002809189042107797 0.0064129044369099497 0 -0.003143934534955668 0.0070295019678445142 0 -0.002809189042107797 0.0064129044369099497 0 -0.0021297973006744152 0.0064604596142542733 0 -0.0025441992784313379 0.0070775908860109538 0 -0.0023138087432388863 0.0060498139086821922 0 -0.002809189042107797 0.0064129044369099497 0 -0.0021297973006744152 0.0064604596142542733 0 -0.0021297973006744152 0.0064604596142542733 0 -0.0021099445910326537 0.006838473082899167 0 -0.0025441992784313379 0.0070775908860109538 0 -0.0018946869298772171 0.0067740563329152939 0 -0.0021297973006744152 0.0064604596142542733 0 -0.0021099445910326537 0.006838473082899167 0 8.5804159998623187e-06 0.011970579134577075 0 -0.0008995139390418328 0.015309752773010684 0 -0.0021099445910326537 0.006838473082899167 0 -0.0025441992784313379 0.0070775908860109538 0 -0.0018586110986341347 0.0070542164031407667 0 -0.0025441992784313379 0.0070775908860109538 0 -0.003143934534955668 0.0070295019678445142 0 -0.0031182350140912633 0.0086671745466573597 0 -0.0018586110986341347 0.0070542164031407667 0 -0.0020738880535820518 0.0088256645575283312 0 -0.0036734270778314075 0.0096031538612169603 0 -0.0025441992784313379 0.0070775908860109538 0 -0.0018586110986341347 0.0070542164031407667 0 -0.0031182350140912633 0.0086671745466573597 0 -0.002809189042107797 0.0064129044369099497 0 -0.0025441992784313379 0.0070775908860109538 0 -0.003143934534955668 0.0070295019678445142 0 -0.001386615995946558 0.0083049333002794597 0 -0.0018586110986341347 0.0070542164031407667 0 -0.0020738880535820518 0.0088256645575283312 0 -0.001386615995946558 0.0083049333002794597 0 -0.0014033868936532618 0.0074413002285738652 0 -0.0010200282545037534 0.007808521816465094 0 -0.001386615995946558 0.0083049333002794597 0 -0.0014033868936532618 0.0074413002285738652 0 -0.0018586110986341347 0.0070542164031407667 0 -0.0014033868936532618 0.0074413002285738652 0 -0.00093790960101573957 0.0073411800393567879 0 -0.0010200282545037534 0.007808521816465094 0 -0.0014033868936532618 0.0074413002285738652 0 -0.0016328963087539764 0.0068845711582077151 0 -0.00093790960101573957 0.0073411800393567879 0 -0.0018946869298772171 0.0067740563329152939 0 -0.0016328963087539764 0.0068845711582077151 0 -0.0018586110986341347 0.0070542164031407667 0 -0.0014033868936532618 0.0074413002285738652 0 -0.0016328963087539764 0.0068845711582077151 0 -0.0018586110986341347 0.0070542164031407667 0 -0.0018946869298772171 0.0067740563329152939 0 -0.0021099445910326537 0.006838473082899167 0 -0.0018586110986341347 0.0070542164031407667 0 -0.00024791007502289144 0.0067910327778641782 0 -0.00093790960101573957 0.0073411800393567879 0 -0.00030663584753408017 0.0077698646106789592 0 -0.00024791007502289144 0.0067910327778641782 0 -0.0016328963087539764 0.0068845711582077151 0 -0.00093790960101573957 0.0073411800393567879 0 -0.00093790960101573957 0.0073411800393567879 0 -0.00030663584753408017 0.0077698646106789592 0 -0.0010200282545037534 0.007808521816465094 0 -0.00030663584753408017 0.0077698646106789592 0 -0.00071199359536468676 0.0084747308062674449 0 0.00014114257963733403 0.0089105973797300713 0 -0.00030663584753408017 0.0077698646106789592 0 -0.0010200282545037534 0.007808521816465094 0 -0.00071199359536468676 0.0084747308062674449 0 -0.001386615995946558 0.0083049333002794597 0 -0.0010200282545037534 0.007808521816465094 0 -0.00071199359536468676 0.0084747308062674449 0 -0.00071199359536468676 0.0084747308062674449 0 -0.00085451033347737956 0.0094904822491812153 0 0.00014114257963733403 0.0089105973797300713 0 -0.001386615995946558 0.0083049333002794597 0 -0.00071199359536468676 0.0084747308062674449 0 -0.00085451033347737956 0.0094904822491812153 0 -0.00085451033347737956 0.0094904822491812153 0 -0.00062720553601598207 0.011261713910920247 0 0.00052357106093513359 0.010270080296803295 0 -0.00085451033347737956 0.0094904822491812153 0 -0.0017874594090476999 0.010242588801310551 0 -0.00062720553601598207 0.011261713910920247 0 -0.00085451033347737956 0.0094904822491812153 0 -0.0017874594090476999 0.010242588801310551 0 -0.0020738880535820518 0.0088256645575283312 0 -0.001386615995946558 0.0083049333002794597 0 -0.00085451033347737956 0.0094904822491812153 0 -0.0020738880535820518 0.0088256645575283312 0 -0.0017874594090476999 0.010242588801310551 0 -0.0020738880535820518 0.0088256645575283312 0 -0.0036734270778314075 0.0096031538612169603 0 -0.0017874594090476999 0.010242588801310551 0 -0.0036734270778314075 0.0096031538612169603 0 -0.0022221324979658599 0.012339248068130278 0 -0.0008995139390418328 0.015309752773010684 0 -0.00036544631976365822 0.014993992911825066 0 0.0009415088664903895 0.015682046645654878 0 0.0014192838676559396 0.016603392976091522 0 0.00086097437045822402 0.016649692741290682 0 -0.0017874594090476999 0.010242588801310551 0 -0.0022221324979658599 0.012339248068130278 0 -0.00062720553601598207 0.011261713910920247 0 -0.0022221324979658599 0.012339248068130278 0 -0.00062720553601598207 0.011261713910920247 0 -0.00032826571686442194 0.012996828775975636 0 -0.0010109690353831689 0.023848662595782631 0 -0.0016145507330374504 0.023869234437960633 0 -0.0015763873005188976 0.024254777849607036 0 -0.0023866098758886264 0.020589474275010452 0 -0.0024937508245458373 0.022080262664285935 0 -0.0010109690353831689 0.023848662595782631 0 -0.0014977465189633435 0.023565905236959905 0 -0.0016145507330374504 0.023869234437960633 0 0.00024865890328957873 0.023426622981470382 0 -0.00084916976173356315 0.023260418416186916 0 -0.00058594100386900091 0.024504438770454561 0 0.0009415088664903895 0.015682046645654878 0 0.00036261087958405368 0.016447171168997399 0 0.00086097437045822402 0.016649692741290682 0 -0.0008995139390418328 0.015309752773010684 0 -0.0013131204979079565 0.018782470049605947 0 -0.00084916976173356315 0.023260418416186916 0 -0.00058594100386900091 0.024504438770454561 0 -0.0011883046465029116 0.024428078650444281 0 -0.0010109690353831689 0.023848662595782631 0 -0.0011883046465029116 0.024428078650444281 0 -0.0015763873005188976 0.024254777849607036 0 -0.00058594100386900091 0.024504438770454561 0 -0.0011883046465029116 0.024428078650444281 0 -0.0011513553211842456 0.02478535765117779 0 -0.0011883046465029116 0.024428078650444281 0 -0.0013913681211880492 0.024769391252812752 0 -0.0011513553211842456 0.02478535765117779 0 -0.0011883046465029116 0.024428078650444281 0 -0.0013913681211880492 0.024769391252812752 0 -0.001465713906357179 0.024522509707619305 0 -0.0011883046465029116 0.024428078650444281 0 -0.001465713906357179 0.024522509707619305 0 -0.0015763873005188976 0.024254777849607036 0 0.00036261087958405368 0.016447171168997399 0 -0.00022770038738568124 0.017207661280986171 0 -0.00016394522160045392 0.017173726578506916 0 -0.00058594100386900091 0.024504438770454561 0 -0.0012450854111275438 0.025248840420839413 0 -0.0011513553211842456 0.02478535765117779 0 0.00036261087958405368 0.016447171168997399 0 -0.00016394522160045392 0.017173726578506916 0 0.00046738785151021476 0.017119473340472518 0 -0.0013131204979079565 0.018782470049605947 0 -0.0015875372673513019 0.020484049584477668 0 -0.00023012455429387779 0.017206106949544331 0 -0.00016394522160045392 0.017173726578506916 0 -0.00018121583629103724 0.017363793098655052 0 -0.0015875372673513019 0.020484049584477668 0 -0.001576621051930177 0.020474963820393804 0 -0.0012450854111275438 0.025248840420839413 0 -0.0013107187013803676 0.024966187136985594 0 -0.0015199491819621401 0.025098382034669308 0 -0.0013107187013803676 0.024966187136985594 0 -0.0013913681211880492 0.024769391252812752 0 -0.0015199491819621401 0.025098382034669308 0 -0.0012450854111275438 0.025248840420839413 0 -0.0013107187013803676 0.024966187136985594 0 -0.0011513553211842456 0.02478535765117779 0 -0.0013107187013803676 0.024966187136985594 0 -0.0013913681211880492 0.024769391252812752 0 -0.0011513553211842456 0.02478535765117779 0 -0.00016394522160045392 0.017173726578506916 0 0.00046738785151021476 0.017119473340472518 0 1.9347422316981373e-05 0.017469522652369555 0 0.00036261087958405368 0.016447171168997399 0 0.00046738785151021476 0.017119473340472518 0 0.00086097437045822402 0.016649692741290682 0 0.00046738785151021476 0.017119473340472518 0 0.00086097437045822402 0.016649692741290682 0 0.0010771967955696701 0.017266538094100562 0 0.00052761192982765366 0.017608973521633681 0 0.00013714416749133979 0.017883442154182885 0 0.00095903957551249852 0.017984774394124145 0 0.00052761192982765366 0.017608973521633681 0 0.0010771967955696701 0.017266538094100562 0 0.00095903957551249852 0.017984774394124145 0 0.00046738785151021476 0.017119473340472518 0 0.00052761192982765366 0.017608973521633681 0 0.0010771967955696701 0.017266538094100562 0 0.00046738785151021476 0.017119473340472518 0 0.00052761192982765366 0.017608973521633681 0 1.9347422316981373e-05 0.017469522652369555 0 1.9347422316981373e-05 0.017469522652369555 0 0.00013714416749133979 0.017883442154182885 0 -0.00027555832078078531 0.01762342151795411 0 0.00052761192982765366 0.017608973521633681 0 1.9347422316981373e-05 0.017469522652369555 0 0.00013714416749133979 0.017883442154182885 0 0.00013714416749133979 0.017883442154182885 0 -0.00027555832078078531 0.01762342151795411 0 -0.00040425724142663177 0.017986124082909394 0 -0.00027555832078078531 0.01762342151795411 0 -0.00018121583629103724 0.017363793098655052 0 -0.00035617688081816752 0.017353752690089142 0 1.9347422316981373e-05 0.017469522652369555 0 -0.00027555832078078531 0.01762342151795411 0 -0.00018121583629103724 0.017363793098655052 0 -0.00016394522160045392 0.017173726578506916 0 1.9347422316981373e-05 0.017469522652369555 0 -0.00018121583629103724 0.017363793098655052 0 -0.00023012455429387779 0.017206106949544331 0 -0.00018121583629103724 0.017363793098655052 0 -0.00035617688081816752 0.017353752690089142 0 -0.0015875372673513019 0.020484049584477668 0 -0.0015251491523628629 0.020388494194314585 0 -0.00036544631976365822 0.014993992911825066 0 0.00077891526635527001 0.016119838192471279 0 -0.0022221324979658599 0.012339248068130278 0 -0.00032826571686442194 0.012996828775975636 0 -0.00077308043618195003 0.015118555585613754 0 0.0014192838676559396 0.016603392976091522 0 0.00086097437045822402 0.016649692741290682 0 0.0010771967955696701 0.017266538094100562 0 0.0014192838676559396 0.016603392976091522 0 0.0010771967955696701 0.017266538094100562 0 0.0018968027904032489 0.017526848248101776 0 0.00077891526635527001 0.016119838192471279 0 0.00057621749434763907 0.017093382154015329 0 0.0010771967955696701 0.017266538094100562 0 0.0018968027904032489 0.017526848248101776 0 0.00095903957551249852 0.017984774394124145 0 0.001765145383908856 0.01758167648250869 0 0.00097468155852579042 0.017961259918115809 0 0.0016034182684906968 0.018129611738526581 0 0.00077891526635527001 0.016119838192471279 0 0.0012078020295831996 0.016848331109356258 0 0.00016426759130741978 0.014798276223252313 0 0.0017180205102440673 0.015329570280507299 0 0.00099305283961801023 0.0163687330924683 0 0.0017180205102440673 0.015329570280507299 0 0.003258385344335743 0.014786456017434394 0 0.0015996275548975859 0.014097288794291844 0 0.00077891526635527001 0.016119838192471279 0 0.0014408687960677984 0.015401750000790842 0 0.00016426759130741978 0.014798276223252313 0 0.0017180205102440673 0.015329570280507299 0 0.0015996275548975859 0.014097288794291844 0 0.003258385344335743 0.014786456017434394 0 0.0045998784595030397 0.01564672608767901 0 0.0027469724955267731 0.016246938122610362 0 0.0017180205102440673 0.015329570280507299 0 0.003258385344335743 0.014786456017434394 0 0.0027469724955267731 0.016246938122610362 0 0.0034022720216116691 0.012888756690900447 0 0.0036844386374283405 0.011192177774564892 0 0.003258385344335743 0.014786456017434394 0 0.0028497360405576912 0.013334847662228363 0 0.0015996275548975859 0.014097288794291844 0 0.003258385344335743 0.014786456017434394 0 0.0028497360405576912 0.013334847662228363 0 0.0037242179386039872 0.011728146500185837 0 0.0018555249032864755 0.015074808580906658 0 0.0014408687960677984 0.015401750000790842 0 0.0028497360405576912 0.013334847662228363 0 0.0010013378022244303 0.014268170696249048 0 0.00099163372401954116 0.012012351236720106 0 -0.00032826571686442194 0.012996828775975636 0 0.0010013378022244303 0.014268170696249048 0 0.00099163372401954116 0.012012351236720106 0 -0.00032826571686442194 0.012996828775975636 0 -0.00077308043618195003 0.015118555585613754 0 0.0010013378022244303 0.014268170696249048 0 -0.00062720553601598207 0.011261713910920247 0 -0.00032826571686442194 0.012996828775975636 0 0.00099163372401954116 0.012012351236720106 0 -0.00062720553601598207 0.011261713910920247 0 0.00099163372401954116 0.012012351236720106 0 0.00052357106093513359 0.010270080296803295 0 0.00099163372401954116 0.012012351236720106 0 0.0021742869707995862 0.010357348193535761 0 0.00052357106093513359 0.010270080296803295 0 0.0028497360405576912 0.013334847662228363 0 0.00099163372401954116 0.012012351236720106 0 0.0024442779778389681 0.011864800282678346 0 0.0028497360405576912 0.013334847662228363 0 0.0024442779778389681 0.011864800282678346 0 0.0037242179386039872 0.011728146500185837 0 0.0024442779778389681 0.011864800282678346 0 0.0021742869707995862 0.010357348193535761 0 0.0037242179386039872 0.011728146500185837 0 0.00099163372401954116 0.012012351236720106 0 0.0024442779778389681 0.011864800282678346 0 0.0021742869707995862 0.010357348193535761 0 0.0020879517722414156 0.0085669691755815066 0 0.0042653705233392496 0.0082771809356621193 0 0.0021742869707995862 0.010357348193535761 0 0.0042653705233392496 0.0082771809356621193 0 0.0021742869707995862 0.010357348193535761 0 0.0037242179386039872 0.011728146500185837 0 0.0020879517722414156 0.0085669691755815066 0 0.0021742869707995862 0.010357348193535761 0 0.0011715167890743252 0.0092510572634897561 0 -0.00085451033347737956 0.0094904822491812153 0 0.00014114257963733403 0.0089105973797300713 0 0.00052357106093513359 0.010270080296803295 0 0.0011715167890743252 0.0092510572634897561 0 0.00014114257963733403 0.0089105973797300713 0 0.00052357106093513359 0.010270080296803295 0 0.00092682259530823359 0.0081594909917830048 0 0.0011715167890743252 0.0092510572634897561 0 0.00014114257963733403 0.0089105973797300713 0 0.0021742869707995862 0.010357348193535761 0 0.0011715167890743252 0.0092510572634897561 0 0.00052357106093513359 0.010270080296803295 0 0.0055332195289794564 0.007401281775279483 0 0.0053879503275804036 0.0089662203539195694 0 0.0070141843118517715 0.0083101006957636264 0 0.0053879503275804036 0.0089662203539195694 0 0.0070141843118517715 0.0083101006957636264 0 0.0069716079960203186 0.010371132216139266 0 0.0041543719198396858 0.0076925736205454469 0 0.0053879503275804036 0.0089662203539195694 0 0.0034742657485477592 0.011228546876291625 0 0.004175118234770109 0.0083836336739583697 0 0.0036844386374283405 0.011192177774564892 0 0.0053879503275804036 0.0089662203539195694 0 0.0034742657485477592 0.011228546876291625 0 0.0055159617963423165 0.011493232343543469 0 0.007290597993646686 0.0091301966461720223 0 0.0084429403374869667 0.0097153835283161141 0 0.0053879503275804036 0.0089662203539195694 0 0.0055159617963423165 0.011493232343543469 0 0.0076321830541443165 0.011951314993832615 0 0.005565072143161702 0.013718977487263199 0 0.0073371014375809502 0.01421229525309598 0 0.0076321830541443165 0.011951314993832615 0 0.0055159617963423165 0.011493232343543469 0 0.005565072143161702 0.013718977487263199 0 0.0076321830541443165 0.011951314993832615 0 0.003258385344335743 0.014786456017434394 0 0.0034742657485477592 0.011228546876291625 0 0.005565072143161702 0.013718977487263199 0 0.0034742657485477592 0.011228546876291625 0 0.0055159617963423165 0.011493232343543469 0 0.005565072143161702 0.013718977487263199 0 0.005565072143161702 0.013718977487263199 0 0.0045998784595030397 0.01564672608767901 0 0.0060026351482154565 0.016141917065346328 0 0.003258385344335743 0.014786456017434394 0 0.005565072143161702 0.013718977487263199 0 0.0045998784595030397 0.01564672608767901 0 0.005565072143161702 0.013718977487263199 0 0.0073371014375809502 0.01421229525309598 0 0.0060026351482154565 0.016141917065346328 0 0.0073371014375809502 0.01421229525309598 0 0.0076579682194318462 0.015821675951075986 0 0.0060026351482154565 0.016141917065346328 0 0.0084934000067284181 0.011987296783587549 0 0.0097613138810762091 0.010227579253262736 0 0.0069716079960203186 0.010371132216139266 0 0.0073371014375809502 0.01421229525309598 0 0.0092990008836940936 0.014393750981519784 0 0.0076579682194318462 0.015821675951075986 0 0.010074517180104966 0.0088230380297793631 0 0.0084429403374869667 0.0097153835283161141 0 0.0073371014375809502 0.01421229525309598 0 0.0092990008836940936 0.014393750981519784 0 0.0076321830541443165 0.011951314993832615 0 0.010074517180104966 0.0088230380297793631 0 0.0064740465129408927 -0.0021955971297468978 0 0.0084934000067284181 0.011987296783587549 0 0.010814182363371965 0.012186268879703111 0 0.0099709747005279417 0.013622904254079783 0 0.0014670870685829572 -0.032596311644017294 0 0.001380491562529722 -0.032630801193819441 0 0.0014331790310480597 -0.032389494532160293 0 0.0014670870685829572 -0.032596311644017294 0 0.001380491562529722 -0.032630801193819441 0 0.0014037086502011343 -0.032725354047882654 0 0.0076207899363666641 -0.007294723464665435 0 0.0080172648813049852 -0.0089334908403323841 0 0.010814182363371965 0.012186268879703111 0 0.0097613138810762091 0.010227579253262736 0 0.011687673183916978 0.010712026282767712 0 0.0084934000067284181 0.011987296783587549 0 0.010814182363371965 0.012186268879703111 0 0.0097613138810762091 0.010227579253262736 0 0.0097613138810762091 0.010227579253262736 0 0.011115405385286489 0.0095509663476124624 0 0.011687673183916978 0.010712026282767712 0 0.0097613138810762091 0.010227579253262736 0 0.011115405385286489 0.0095509663476124624 0 0.010452668320700449 0.0080498859840212201 0 0.011115405385286489 0.0095509663476124624 0 0.010452668320700449 0.0080498859840212201 0 0.012545980848227662 0.0092116758651969635 0 0.013320519941266335 -0.0013133497118064351 0 0.0082828085474706444 -0.0086096885160445152 0 0.0097613138810762091 0.010227579253262736 0 0.010452668320700449 0.0080498859840212201 0 0.0085456462029312816 0.0088239787962422194 0 0.010452668320700449 0.0080498859840212201 0 0.0085456462029312816 0.0088239787962422194 0 0.0085765214727780616 0.0070641522280042836 0 0.0085456462029312816 0.0088239787962422194 0 0.0070141843118517715 0.0083101006957636264 0 0.0085765214727780616 0.0070641522280042836 0 0.0097613138810762091 0.010227579253262736 0 0.0085456462029312816 0.0088239787962422194 0 0.0069716079960203186 0.010371132216139266 0 0.0085456462029312816 0.0088239787962422194 0 0.0070141843118517715 0.0083101006957636264 0 0.0069716079960203186 0.010371132216139266 0 0.0016645860524926927 -0.022042331954641666 0 0.0025663780309325831 -0.022153252300068735 0 0.0023049918048083685 -0.021480166534224569 0 -0.00022703088426241126 -0.027780579184146122 0 0.00073180621728167398 -0.024530415414788717 0 0.00060295365352432974 -0.032595926452339233 0 0.00091296070727702936 -0.032436211387032114 0 0.00076430170222048423 -0.032634673946630478 0 0.00091296070727702936 -0.032436211387032114 0 0.00088600302786796207 -0.032676990531119277 0 0.0010098305084682781 -0.032618406250091818 0 0.00091296070727702936 -0.032436211387032114 0 0.00076430170222048423 -0.032634673946630478 0 0.00088600302786796207 -0.032676990531119277 0 0.00076430170222048423 -0.032634673946630478 0 0.00076981580417891473 -0.032770748083981893 0 0.00088600302786796207 -0.032676990531119277 0 0.00076981580417891473 -0.032770748083981893 0 0.00088600302786796207 -0.032676990531119277 0 0.00083869415431709043 -0.032827294189142611 0 0.00088600302786796207 -0.032676990531119277 0 0.00083869415431709043 -0.032827294189142611 0 0.00095747530143505655 -0.032764646611874629 0 0.00088600302786796207 -0.032676990531119277 0 0.0010098305084682781 -0.032618406250091818 0 0.00095747530143505655 -0.032764646611874629 0 0.0010098305084682781 -0.032618406250091818 0 0.0011246273117392401 -0.0326770712891674 0 0.0011238714456245525 -0.032495782591326398 0 0.0010098305084682781 -0.032618406250091818 0 0.0011246273117392401 -0.0326770712891674 0 0.00095747530143505655 -0.032764646611874629 0 0.00091296070727702936 -0.032436211387032114 0 0.0010098305084682781 -0.032618406250091818 0 0.0011238714456245525 -0.032495782591326398 0 0.00091296070727702936 -0.032436211387032114 0 0.0011238714456245525 -0.032495782591326398 0 0.0011330108390665034 -0.032305046972555373 0 0.00073180621728167398 -0.024530415414788717 0 0.0020004828688325927 -0.019626627572880917 0 0.0011238714456245525 -0.032495782591326398 0 0.0012726924779643193 -0.032390457460941387 0 0.0011330108390665034 -0.032305046972555373 0 0.0011238714456245525 -0.032495782591326398 0 0.0012726924779643193 -0.032390457460941387 0 0.0012607634980411977 -0.032567605438632179 0 0.0011246273117392401 -0.0326770712891674 0 0.0011238714456245525 -0.032495782591326398 0 0.0012607634980411977 -0.032567605438632179 0 0.0011246273117392401 -0.0326770712891674 0 0.0012607634980411977 -0.032567605438632179 0 0.0012449056039247578 -0.032718143876019692 0 0.0012607634980411977 -0.032567605438632179 0 0.001380491562529722 -0.032630801193819441 0 0.0012449056039247578 -0.032718143876019692 0 0.0012607634980411977 -0.032567605438632179 0 0.001380491562529722 -0.032630801193819441 0 0.0014331790310480597 -0.032389494532160293 0 0.0012726924779643193 -0.032390457460941387 0 0.0012607634980411977 -0.032567605438632179 0 0.0014331790310480597 -0.032389494532160293 0 0.011115405385286489 0.0095509663476124624 0 0.011687673183916978 0.010712026282767712 0 0.012545980848227662 0.0092116758651969635 0 0.0080172648813049852 -0.0089334908403323841 0 0.0082828085474706444 -0.0086096885160445152 0 0.0012726924779643193 -0.032390457460941387 0 0.0014331790310480597 -0.032389494532160293 0 0.0013475722506889314 -0.032167187417516389 0 0.012688478040262805 0.0092223778947398503 0 0.01377039979606285 0.0073699029011042895 0 0.01234584463224417 0.0077983447592550621 0 0.010452668320700449 0.0080498859840212201 0 0.012688478040262805 0.0092223778947398503 0 0.01234584463224417 0.0077983447592550621 0 0.0082828085474706444 -0.0086096885160445152 0 0.0079308524260327008 -0.007326315238914448 0 0.004684165423747914 -0.020937640482048707 0 0.0035452658887826808 -0.020486439465583574 0 0.004019799477170705 -0.019793874370099013 0 0.004684165423747914 -0.020937640482048707 0 0.0036321489464647377 -0.021539470837002923 0 0.0035452658887826808 -0.020486439465583574 0 0.0082828085474706444 -0.0086096885160445152 0 0.0020004828688325927 -0.019626627572880917 0 0.0012726924779643193 -0.032390457460941387 0 0.0013475722506889314 -0.032167187417516389 0 0.0011330108390665034 -0.032305046972555373 0 0.0036321489464647377 -0.021539470837002923 0 0.0028947929207227834 -0.021044595489643783 0 0.0035452658887826808 -0.020486439465583574 0 0.0025663780309325831 -0.022153252300068735 0 0.0036321489464647377 -0.021539470837002923 0 0.0028947929207227834 -0.021044595489643783 0 0.0028947929207227834 -0.021044595489643783 0 0.0035452658887826808 -0.020486439465583574 0 0.0028789338713804033 -0.020140551800793102 0 0.0028789338713804033 -0.020140551800793102 0 0.0020329546328855942 -0.020728436905448146 0 0.0023438132665147093 -0.019603501274122571 0 0.0013304844631077115 -0.02493665999876751 0 0.0013611098241638807 -0.025814707951371783 0 0.00095512924858343225 -0.026637943242724088 0 0.00094910459752228728 -0.026769264384085147 0 0.0010956540891313342 -0.026352675457283942 0 0.0028947929207227834 -0.021044595489643783 0 0.0028789338713804033 -0.020140551800793102 0 0.0020329546328855942 -0.020728436905448146 0 0.00086767659317288132 -0.026940043902250257 0 0.00095512924858343225 -0.026637943242724088 0 0.00094910459752228728 -0.026769264384085147 0 0.0028947929207227834 -0.021044595489643783 0 0.0020329546328855942 -0.020728436905448146 0 0.0023049918048083685 -0.021480166534224569 0 0.0025663780309325831 -0.022153252300068735 0 0.0028947929207227834 -0.021044595489643783 0 0.0023049918048083685 -0.021480166534224569 0 0.0016645860524926927 -0.022042331954641666 0 0.0020329546328855942 -0.020728436905448146 0 0.0023049918048083685 -0.021480166534224569 0 0.00010899411413272185 -0.033333972251586408 0 -0.00014840368199776658 -0.033149538149704588 0 -0.00011440934010074212 -0.032980714045005514 0 0.0023610612016011644 -0.01880194478032355 0 0.0025968700477787608 -0.01877054109178309 0 0.0025318309633172607 -0.018095954450968024 0 0.0025968700477787608 -0.01877054109178309 0 0.0024103789720680935 -0.019456783031813182 0 0.0031648785038987173 -0.019485676109401322 0 0.0017779518973625376 -0.023987451470246415 0 0.0013835984149612366 -0.025644348335329338 0 0.0025968700477787608 -0.01877054109178309 0 0.0022349929504642727 -0.019408395742627035 0 0.0023879040805018454 -0.019627606328613018 0 0.0023610612016011644 -0.01880194478032355 0 0.0025968700477787608 -0.01877054109178309 0 0.0022349929504642727 -0.019408395742627035 0 0.0021619048222961995 -0.025013698603468051 0 0.0014839231916303529 -0.026750377172005499 0 0.00069806545601994326 -0.028262604455158245 0 0.0012484852623736793 -0.025568511964759219 0 0.0014541631180760078 -0.026384186270711412 0 0.00078042817828588259 -0.028697401664576253 0 0.0014839231916303529 -0.026750377172005499 0 0.0012484852623736793 -0.025568511964759219 0 0.0014541631180760078 -0.026384186270711412 0 0.0015549143406639594 -0.026006680671787658 0 0.0014839231916303529 -0.026750377172005499 0 0.0013835984149612366 -0.025644348335329338 0 0.0013611098241638807 -0.025814707951371783 0 0.0013835984149612366 -0.025644348335329338 0 0.00078042817828588259 -0.028697401664576253 0 0.0013611098241638807 -0.025814707951371783 0 0.0028789338713804033 -0.020140551800793102 0 0.0023438132665147093 -0.019603501274122571 0 0.0023840911082346878 -0.019450358768609337 0 0.00099753884102108206 -0.024345576491178186 0 0.0013835984149612366 -0.025644348335329338 0 0.0031648785038987173 -0.019485676109401322 0 0.0033768709725872808 -0.018664729708895912 0 0.004019799477170705 -0.019793874370099013 0 0.0035452658887826808 -0.020486439465583574 0 0.0028789338713804033 -0.020140551800793102 0 0.0031648785038987173 -0.019485676109401322 0 0.0035452658887826808 -0.020486439465583574 0 0.0031648785038987173 -0.019485676109401322 0 0.004019799477170705 -0.019793874370099013 0 0.0028789338713804033 -0.020140551800793102 0 0.0024103789720680935 -0.019456783031813182 0 0.0031648785038987173 -0.019485676109401322 0 0.0025968700477787608 -0.01877054109178309 0 0.0031648785038987173 -0.019485676109401322 0 0.0033768709725872808 -0.018664729708895912 0 0.0025968700477787608 -0.01877054109178309 0 0.0033768709725872808 -0.018664729708895912 0 0.0025318309633172607 -0.018095954450968024 0 0.0076281042350939757 -0.00771014587348737 0 0.0079308524260327008 -0.007326315238914448 0 0.014920483115274559 0.0054420069105657002 0 0.013453269820375936 0.0059524578760804031 0 0.012869906482719871 0.004622269217701638 0 0.014920483115274559 0.0054420069105657002 0 0.013453269820375936 0.0059524578760804031 0 0.01377039979606285 0.0073699029011042895 0 0.013453269820375936 0.0059524578760804031 0 0.01377039979606285 0.0073699029011042895 0 0.012274356835964811 0.0063525230776357976 0 0.01377039979606285 0.0073699029011042895 0 0.01234584463224417 0.0077983447592550621 0 0.012274356835964811 0.0063525230776357976 0 0.012274356835964811 0.0063525230776357976 0 0.012869906482719871 0.004622269217701638 0 0.010579409871444586 0.0055343471754591804 0 0.013453269820375936 0.0059524578760804031 0 0.012274356835964811 0.0063525230776357976 0 0.012869906482719871 0.004622269217701638 0 0.011572447308001039 0.0038276271211041793 0 0.010691690559857374 0.0031488636234004064 0 0.01323255720044419 0.0024927014592275002 0 0.010982732895817414 0.0030239153390509686 0 0.011633531044068793 0.0011415975817817055 0 0.012869906482719871 0.004622269217701638 0 0.01323255720044419 0.0024927014592275002 0 0.010982732895817414 0.0030239153390509686 0 0.01323255720044419 0.0024927014592275002 0 0.014409397810696395 0.0037871127200582682 0 0.014740217833141106 0.0025975017717245986 0 0.01323255720044419 0.0024927014592275002 0 0.014740217833141106 0.0025975017717245986 0 0.014360036664482731 0.0015470429556551468 0 0.014920483115274559 0.0054420069105657002 0 0.012869906482719871 0.004622269217701638 0 0.014409397810696395 0.0037871127200582682 0 0.012869906482719871 0.004622269217701638 0 0.01323255720044419 0.0024927014592275002 0 0.014409397810696395 0.0037871127200582682 0 0.0033768709725872808 -0.018664729708895912 0 0.0027400298674680103 -0.017496350898630057 0 0.0025318309633172607 -0.018095954450968024 0 0.0076281042350939757 -0.00771014587348737 0 0.0067038951984255378 -0.0091209605493899008 0 0.014920483115274559 0.0054420069105657002 0 0.014409397810696395 0.0037871127200582682 0 0.016124384954595266 0.003367165727546511 0 0.014740217833141106 0.0025975017717245986 0 0.016124384954595266 0.003367165727546511 0 0.015530682980187673 0.0018322496652151844 0 0.014409397810696395 0.0037871127200582682 0 0.014740217833141106 0.0025975017717245986 0 0.016124384954595266 0.003367165727546511 0 0.0018745196059336865 -0.016400298079645003 0 0.0022031395717509519 -0.016952208276321802 0 0.0021111890375611329 -0.017594252937660388 0 0.0067038951984255378 -0.0091209605493899008 0 0.0048100496355929319 -0.012672884696398492 0 0.0027400298674680103 -0.017496350898630057 0 0.0022031395717509519 -0.016952208276321802 0 0.0020873296801829314 -0.016316259536128822 0 0.016124384954595266 0.003367165727546511 0 0.017303205550003607 0.0012515411912012819 0 0.015530682980187673 0.0018322496652151844 0 0.0027400298674680103 -0.017496350898630057 0 0.0022031395717509519 -0.016952208276321802 0 0.0021111890375611329 -0.017594252937660388 0 0.00010899411413272185 -0.033333972251586408 0 -0.00014840368199776658 -0.033149538149704588 0 -4.0145866467469926e-05 -0.033511553442777932 0 0.0023833996946977807 -0.018809782951283861 0 0.0021111890375611329 -0.017594252937660388 0 0.0025318309633172607 -0.018095954450968024 0 0.0021619048222961995 -0.025013698603468051 0 0.0027874923041718916 -0.022761214465238124 0 0.0027400298674680103 -0.017496350898630057 0 0.0021111890375611329 -0.017594252937660388 0 0.0025318309633172607 -0.018095954450968024 0 0.0021619048222961995 -0.025013698603468051 0 0.0024076377092471257 -0.023448732756101029 0 0.0085765214727780616 0.0070641522280042836 0 0.010579409871444586 0.0055343471754591804 0 0.0080087521651987272 0.0049883300094766027 0 0.0064519191268311805 0.0066565954217885749 0 0.0063220388961789178 0.0052322199323686907 0 0.0080087521651987272 0.0049883300094766027 0 0.0064519191268311805 0.0066565954217885749 0 0.0085765214727780616 0.0070641522280042836 0 0.0080087521651987272 0.0049883300094766027 0 0.0064519191268311805 0.0066565954217885749 0 0.0070141843118517715 0.0083101006957636264 0 0.0085765214727780616 0.0070641522280042836 0 0.010452668320700449 0.0080498859840212201 0 0.0085765214727780616 0.0070641522280042836 0 0.010579409871444586 0.0055343471754591804 0 0.010452668320700449 0.0080498859840212201 0 0.012274356835964811 0.0063525230776357976 0 0.010579409871444586 0.0055343471754591804 0 0.010452668320700449 0.0080498859840212201 0 0.01234584463224417 0.0077983447592550621 0 0.012274356835964811 0.0063525230776357976 0 0.010579409871444586 0.0055343471754591804 0 0.0095509449671234217 0.0037059651045088793 0 0.0080087521651987272 0.0049883300094766027 0 0.012869906482719871 0.004622269217701638 0 0.010579409871444586 0.0055343471754591804 0 0.011339878996429589 0.0032928422488179266 0 0.010579409871444586 0.0055343471754591804 0 0.011339878996429589 0.0032928422488179266 0 0.0095509449671234217 0.0037059651045088793 0 0.010691690559857374 0.0031488636234004064 0 0.008919197584162656 0.0019142258830914061 0 0.011339878996429589 0.0032928422488179266 0 0.0095509449671234217 0.0037059651045088793 0 0.0097632352405379215 0.0018718194779705486 0 0.0095509449671234217 0.0037059651045088793 0 0.0080344043542116255 0.0028294770915054551 0 0.0097632352405379215 0.0018718194779705486 0 0.0095509449671234217 0.0037059651045088793 0 0.0080344043542116255 0.0028294770915054551 0 0.0080087521651987272 0.0049883300094766027 0 0.0064314920471715969 0.003990723966712675 0 0.0080344043542116255 0.0028294770915054551 0 0.0080087521651987272 0.0049883300094766027 0 0.0063220388961789178 0.0052322199323686907 0 0.0064314920471715969 0.003990723966712675 0 0.0080087521651987272 0.0049883300094766027 0 0.0064314920471715969 0.003990723966712675 0 0.0080344043542116255 0.0028294770915054551 0 0.0061315146726570397 0.0019376106891632312 0 0.0080344043542116255 0.0028294770915054551 0 0.0081522786902698489 0.00044110532795303545 0 0.0061315146726570397 0.0019376106891632312 0 0.0064482032755950212 0.00046684742576819815 0 0.0043765854387008826 0.0023234773731518102 0 0.0043656581852658041 0.0016893046187738577 0 0.0045246428949197144 0.0018273811064141966 0 0.002827014078001022 0.0031249018956591101 0 0.0034219557397558355 0.0014248167871193321 0 0.0043656581852658041 0.0016893046187738577 0 0.002827014078001022 0.0031249018956591101 0 0.0034219557397558355 0.0014248167871193321 0 0.0043656581852658041 0.0016893046187738577 0 0.0041675503855982685 0.0012503940196919956 0 0.004577849612079363 0.0014027024911201073 0 0.0045235628915536443 0.0018259586159623245 0 0.0050421704667162233 0.0010688523845953238 0 0.0044122776824620964 0.0013405983277418316 0 0.0043656581852658041 0.0016893046187738577 0 0.0041675503855982685 0.0012503940196919956 0 0.004577849612079363 0.0014027024911201073 0 0.0044122776824620964 0.0013405983277418316 0 0.0043656581852658041 0.0016893046187738577 0 0.004577849612079363 0.0014027024911201073 0 0.0043656581852658041 0.0016893046187738577 0 0.0045235628915536443 0.0018259586159623245 0 0.0064361014136411644 0.00046652968609097497 0 0.0064482032755950212 0.00046684742576819815 0 0.0080344043542116255 0.0028294770915054551 0 0.0081522786902698489 0.00044110532795303545 0 0.0097632352405379215 0.0018718194779705486 0 0.0064482032755950212 0.00046684742576819815 0 0.008919197584162656 0.0019142258830914061 0 0.0091490294238344236 0.00143405383525558 0 0.010401857793807529 -7.0353275293773111e-05 0 0.011633531044068793 0.0011415975817817055 0 0.010982732895817414 0.0030239153390509686 0 0.0091490294238344236 0.00143405383525558 0 0.011633531044068793 0.0011415975817817055 0 0.010401857793807529 -7.0353275293773111e-05 0 0.0094953432363203121 -0.0018122230342300693 0 0.012132638265177947 -0.00078194324387689514 0 0.010401857793807529 -7.0353275293773111e-05 0 0.011633531044068793 0.0011415975817817055 0 0.012132638265177947 -0.00078194324387689514 0 0.010401857793807529 -7.0353275293773111e-05 0 0.00914812074017172 -0.00017093902810584978 0 0.0094953432363203121 -0.0018122230342300693 0 0.0073226318093476041 -0.00015479594471999041 0 0.0091490294238344236 0.00143405383525558 0 0.00914812074017172 -0.00017093902810584978 0 0.0073226318093476041 -0.00015479594471999041 0 0.00914812074017172 -0.00017093902810584978 0 0.0094953432363203121 -0.0018122230342300693 0 0.0091490294238344236 0.00143405383525558 0 0.010401857793807529 -7.0353275293773111e-05 0 0.00914812074017172 -0.00017093902810584978 0 0.0054215854355603244 -0.0015769046662608675 0 0.0037592290535229307 -0.0018396835580478034 0 0.0061395735891689052 0.00058854750345894709 0 0.0050421704667162233 0.0010688523845953238 0 0.0050142011705941684 0.00015109225558071184 0 0.0013654870941216257 -0.0036311641322232216 0 0.0014845764707856345 -0.0037226445478014472 0 0.0016098636677949123 -0.0036766496837259363 0 0.0013654870941216257 -0.0036311641322232216 0 0.0016296248187765529 -0.0035344759301224721 0 0.0016098636677949123 -0.0036766496837259363 0 0.0054215854355603244 -0.0015769046662608675 0 0.0070082997262536709 -0.0032481728188425989 0 0.0054215854355603244 -0.0015769046662608675 0 0.0046594850609361317 -0.0015188806053018469 0 0.0014845764707856345 -0.0037226445478014472 0 0.0012921429801409797 -0.0037677807541183429 0 0.0015316514114996431 -0.0038937008701416666 0 0.0013258009167821992 -0.0035795591007458231 0 0.0014845764707856345 -0.0037226445478014472 0 0.0012921429801409797 -0.0037677807541183429 0 0.0013258009167821992 -0.0035795591007458231 0 0.0012921429801409797 -0.0037677807541183429 0 0.0011435073470443271 -0.0036402958306417542 0 0.0012921429801409797 -0.0037677807541183429 0 0.0011435073470443271 -0.0036402958306417542 0 0.0010827427950611641 -0.0037954449011668901 0 0.00099822556485891305 -0.0036919740240032068 0 0.0011435073470443271 -0.0036402958306417542 0 0.0010827427950611641 -0.0037954449011668901 0 0.0027160250593143338 -0.0019451327172257699 0 0.0037592290535229307 -0.0018396835580478034 0 0.0027160250593143338 -0.0019451327172257699 0 0.0025866000702119358 -0.0021440909608132432 0 0.00095990927643604647 -0.0035961269905860848 0 0.00090709222706096321 -0.0038578954782902118 0 0.00075689049688334217 -0.0035908377821010948 0 0.0027160250593143338 -0.0019451327172257699 0 0.001917424865249061 -0.002514737329322469 0 0.0034219557397558355 0.0014248167871193321 0 0.0040915752262248159 0.0007087976959572797 0 0.0024534375095679544 0.0012823176329917231 0 0.0038867624295873663 -0.00028980446926987248 0 0.0040915752262248159 0.0007087976959572797 0 0.0024534375095679544 0.0012823176329917231 0 0.0027160250593143338 -0.0019451327172257699 0 0.0021118730439305066 0.00038697107744390828 0 0.0034219557397558355 0.0014248167871193321 0 0.0040915752262248159 0.0007087976959572797 0 0.0041675503855982685 0.0012503940196919956 0 0.0040915752262248159 0.0007087976959572797 0 0.0041675503855982685 0.0012503940196919956 0 0.0045381094561635733 0.0010200740852328778 0 0.0064482032755950212 0.00046684742576819815 0 0.0054215854355603244 -0.0015769046662608675 0 0.0045235628915536443 0.0018259586159623245 0 0.0061395735891689052 0.00058854750345894709 0 0.0050421704667162233 0.0010688523845953238 0 0.0044122776824620964 0.0013405983277418316 0 0.0041675503855982685 0.0012503940196919956 0 0.0045381094561635733 0.0010200740852328778 0 0.004577849612079363 0.0014027024911201073 0 0.0044122776824620964 0.0013405983277418316 0 0.0045381094561635733 0.0010200740852328778 0 0.004577849612079363 0.0014027024911201073 0 0.0045381094561635733 0.0010200740852328778 0 0.0050421704667162233 0.0010688523845953238 0 0.0045381094561635733 0.0010200740852328778 0 0.0050421704667162233 0.0010688523845953238 0 0.0050142011705941684 0.00015109225558071184 0 0.0038867624295873663 -0.00028980446926987248 0 0.0040915752262248159 0.0007087976959572797 0 0.0050142011705941684 0.00015109225558071184 0 0.0040915752262248159 0.0007087976959572797 0 0.0045381094561635733 0.0010200740852328778 0 0.0050142011705941684 0.00015109225558071184 0 0.0024238448360260254 -0.0035281669369262841 0 0.0022802073249227305 -0.0035184816642064593 0 0.0021620344268263566 -0.0033224978295555668 0 0.0034785354083891515 -0.01331661239791063 0 0.0052670555532250939 -0.010394636257371342 0 0.0021745429240380551 -0.0035235265722015929 0 0.0021620344268263566 -0.0033224978295555668 0 0.0020251133076914667 -0.0035308044142369145 0 0.0022802073249227305 -0.0035184816642064593 0 0.0021745429240380551 -0.0035235265722015929 0 0.0022609283522181953 -0.0036128146167003694 0 0.0022802073249227305 -0.0035184816642064593 0 0.0021745429240380551 -0.0035235265722015929 0 0.0021620344268263566 -0.0033224978295555668 0 0.005088742561433328 -0.012521743846645051 0 0.0046197209119211791 -0.011698205819129458 0 0.0039016579570172747 -0.011976983861645613 0 0.017303205550003607 0.0012515411912012819 0 0.016302673579670381 0.00086689439155972063 0 0.015530682980187673 0.0018322496652151844 0 0.0048100496355929319 -0.012672884696398492 0 0.0052670555532250939 -0.010394636257371342 0 0.0018745196059336865 -0.016400298079645003 0 0.0022031395717509519 -0.016952208276321802 0 0.0020873296801829314 -0.016316259536128822 0 0.015530682980187673 0.0018322496652151844 0 0.01474045839740061 0.00025215359554447688 0 0.014360036664482731 0.0015470429556551468 0 0.016302673579670381 0.00086689439155972063 0 0.015530682980187673 0.0018322496652151844 0 0.01474045839740061 0.00025215359554447688 0 0.014740217833141106 0.0025975017717245986 0 0.015530682980187673 0.0018322496652151844 0 0.014360036664482731 0.0015470429556551468 0 0.0052670555532250939 -0.010394636257371342 0 0.007595930203948411 -0.0061878288377937313 0 0.0019456462452883249 -0.0034075871647995747 0 0.0020251133076914667 -0.0035308044142369145 0 0.0018584847679842449 -0.0036443680535223253 0 0.0021620344268263566 -0.0033224978295555668 0 0.0019456462452883249 -0.0034075871647995747 0 0.0020251133076914667 -0.0035308044142369145 0 0.007595930203948411 -0.0061878288377937313 0 0.0070082997262536709 -0.0032481728188425989 0 0.01474045839740061 0.00025215359554447688 0 0.013229600648704053 0.0009217395410532458 0 0.012132638265177947 -0.00078194324387689514 0 0.0019456462452883249 -0.0034075871647995747 0 0.0016296248187765529 -0.0035344759301224721 0 0.0018584847679842449 -0.0036443680535223253 0 0.01474045839740061 0.00025215359554447688 0 0.013229600648704053 0.0009217395410532458 0 0.014360036664482731 0.0015470429556551468 0 0.01323255720044419 0.0024927014592275002 0 0.013229600648704053 0.0009217395410532458 0 0.014360036664482731 0.0015470429556551468 0 0.01323255720044419 0.0024927014592275002 0 0.013229600648704053 0.0009217395410532458 0 0.011633531044068793 0.0011415975817817055 0 0.013229600648704053 0.0009217395410532458 0 0.011633531044068793 0.0011415975817817055 0 0.012132638265177947 -0.00078194324387689514 0 0.0016098636677949123 -0.0036766496837259363 0 0.0017035737429909454 -0.0038105142060840388 0 0.0018584847679842449 -0.0036443680535223253 0 0.0016296248187765529 -0.0035344759301224721 0 0.0016098636677949123 -0.0036766496837259363 0 0.0018584847679842449 -0.0036443680535223253 0 0.0014845764707856345 -0.0037226445478014472 0 0.0016098636677949123 -0.0036766496837259363 0 0.0017035737429909454 -0.0038105142060840388 0 0.0014845764707856345 -0.0037226445478014472 0 0.0017035737429909454 -0.0038105142060840388 0 0.0015316514114996431 -0.0038937008701416666 0 0.0017035737429909454 -0.0038105142060840388 0 0.0018687745013060996 -0.0038163836089783556 0 0.0018584847679842449 -0.0036443680535223253 0 0.0017035737429909454 -0.0038105142060840388 0 0.0017765013064350661 -0.0039265809140165333 0 0.0016864175180373625 -0.003939137344413055 0 0.0017035737429909454 -0.0038105142060840388 0 0.0018687745013060996 -0.0038163836089783556 0 0.0017765013064350661 -0.0039265809140165333 0 0.0018687745013060996 -0.0038163836089783556 0 0.0018752460310253907 -0.0039889876714667722 0 0.0017765013064350661 -0.0039265809140165333 0 0.0020251133076914667 -0.0035308044142369145 0 0.0018584847679842449 -0.0036443680535223253 0 0.0019872028034168794 -0.0037077415801736002 0 0.0020251133076914667 -0.0035308044142369145 0 0.0019872028034168794 -0.0037077415801736002 0 0.0021254901633676864 -0.0036458568965377172 0 0.0021745429240380551 -0.0035235265722015929 0 0.0020251133076914667 -0.0035308044142369145 0 0.0021254901633676864 -0.0036458568965377172 0 0.0019872028034168794 -0.0037077415801736002 0 0.0020518957437230269 -0.0038257793116677936 0 0.0021254901633676864 -0.0036458568965377172 0 0.0018687745013060996 -0.0038163836089783556 0 0.0018584847679842449 -0.0036443680535223253 0 0.0019872028034168794 -0.0037077415801736002 0 0.0018687745013060996 -0.0038163836089783556 0 0.0019872028034168794 -0.0037077415801736002 0 0.0020518957437230269 -0.0038257793116677936 0 0.0018687745013060996 -0.0038163836089783556 0 0.0020518957437230269 -0.0038257793116677936 0 0.0018752460310253907 -0.0039889876714667722 0 0.0020518957437230269 -0.0038257793116677936 0 0.0021969372918496108 -0.0038759017163889887 0 0.0020748456679707673 -0.0040555075436713786 0 0.0020518957437230269 -0.0038257793116677936 0 0.0021969372918496108 -0.0038759017163889887 0 0.0022252691808894091 -0.0037326981597397423 0 0.0023301595922499332 -0.0038349847852932385 0 0.0021969372918496108 -0.0038759017163889887 0 0.002284099737042293 -0.0039957948835637738 0 0.0023301595922499332 -0.0038349847852932385 0 0.0021969372918496108 -0.0038759017163889887 0 0.0022252691808894091 -0.0037326981597397423 0 0.0023510652812249663 -0.0037086981961084761 0 0.0023301595922499332 -0.0038349847852932385 0 0.0022252691808894091 -0.0037326981597397423 0 0.0023510652812249663 -0.0037086981961084761 0 0.0022252691808894091 -0.0037326981597397423 0 0.0022609283522181953 -0.0036128146167003694 0 0.0020518957437230269 -0.0038257793116677936 0 0.0022252691808894091 -0.0037326981597397423 0 0.0021254901633676864 -0.0036458568965377172 0 0.0022252691808894091 -0.0037326981597397423 0 0.0021254901633676864 -0.0036458568965377172 0 0.0022609283522181953 -0.0036128146167003694 0 0.0021745429240380551 -0.0035235265722015929 0 0.0021254901633676864 -0.0036458568965377172 0 0.0022609283522181953 -0.0036128146167003694 0 0.0023624812553826075 -0.0036072247766199311 0 0.0022802073249227305 -0.0035184816642064593 0 0.0022609283522181953 -0.0036128146167003694 0 0.0022228675975747244 -0.0042471280860630926 0 0.0020748456679707673 -0.0040555075436713786 0 0.0019928451319764502 -0.0043499428329863716 0 0.0024384876850925261 -0.0043911132658249596 0 0.0022228675975747244 -0.0042471280860630926 0 0.0021137651755138999 -0.0046253399499776989 0 0.0022228675975747244 -0.0042471280860630926 0 0.0019928451319764502 -0.0043499428329863716 0 0.0021137651755138999 -0.0046253399499776989 0 0.0022228675975747244 -0.0042471280860630926 0 0.002284099737042293 -0.0039957948835637738 0 0.0020748456679707673 -0.0040555075436713786 0 0.0021969372918496108 -0.0038759017163889887 0 0.002284099737042293 -0.0039957948835637738 0 0.0020748456679707673 -0.0040555075436713786 0 0.0020518957437230269 -0.0038257793116677936 0 0.0020748456679707673 -0.0040555075436713786 0 0.0018752460310253907 -0.0039889876714667722 0 0.0020748456679707673 -0.0040555075436713786 0 0.0018752460310253907 -0.0039889876714667722 0 0.0018549510273150589 -0.0042195656327415638 0 0.0019928451319764502 -0.0043499428329863716 0 0.0018549510273150589 -0.0042195656327415638 0 0.0017122115708378719 -0.0045900121629193266 0 0.0020748456679707673 -0.0040555075436713786 0 0.0019928451319764502 -0.0043499428329863716 0 0.0018549510273150589 -0.0042195656327415638 0 0.0014470575163303455 -0.0043095917119388115 0 0.0012627788231239483 -0.0044612774394008183 0 0.0015004123845364853 -0.00456994837644262 0 0.0015990421967104146 -0.0042727888490277522 0 0.0016309332135669512 -0.0045890801883849454 0 0.0018549510273150589 -0.0042195656327415638 0 0.0016413574620812307 -0.0041691658836223036 0 0.0017122115708378719 -0.0045900121629193266 0 0.0018752460310253907 -0.0039889876714667722 0 0.0018549510273150589 -0.0042195656327415638 0 0.0016413574620812307 -0.0041691658836223036 0 0.0016762040540825808 -0.00420363754744091 0 0.0015990421967104146 -0.0042727888490277522 0 0.0018752460310253907 -0.0039889876714667722 0 0.0017765013064350661 -0.0039265809140165333 0 0.0017677067334988209 -0.0040295148969056588 0 0.0017765013064350661 -0.0039265809140165333 0 0.0017677067334988209 -0.0040295148969056588 0 0.0016864175180373625 -0.003939137344413055 0 0.0017035737429909454 -0.0038105142060840388 0 0.0016864175180373625 -0.003939137344413055 0 0.0015316514114996431 -0.0038937008701416666 0 0.0017677067334988209 -0.0040295148969056588 0 0.0016864175180373625 -0.003939137344413055 0 0.0016466102630746521 -0.0040273461195521132 0 0.0016864175180373625 -0.003939137344413055 0 0.0016466102630746521 -0.0040273461195521132 0 0.0015316514114996431 -0.0038937008701416666 0 0.0015990421967104146 -0.0042727888490277522 0 0.0014460778739608809 -0.0043660309526140102 0 0.0016466102630746521 -0.0040273461195521132 0 0.0016084381406742886 -0.0041755442879047311 0 0.0015030858946055879 -0.0040349442232686444 0 0.0017677067334988209 -0.0040295148969056588 0 0.0016466102630746521 -0.0040273461195521132 0 0.0016084381406742886 -0.0041755442879047311 0 0.0012627788231239483 -0.0044612774394008183 0 0.0013192998147505447 -0.0046679673472406306 0 0.0015004123845364853 -0.00456994837644262 0 0.0013192998147505447 -0.0046679673472406306 0 0.0015728529574843544 -0.0048452271463330244 0 0.0012106999194679416 -0.0048741704436062435 0 0.0016309332135669512 -0.0045890801883849454 0 0.0016793779024608451 -0.00492769571233833 0 0.0013192998147505447 -0.0046679673472406306 0 0.0015004123845364853 -0.00456994837644262 0 0.0015728529574843544 -0.0048452271463330244 0 0.0019928451319764502 -0.0043499428329863716 0 0.0017122115708378719 -0.0045900121629193266 0 0.0021137651755138999 -0.0046253399499776989 0 0.0017122115708378719 -0.0045900121629193266 0 0.0021137651755138999 -0.0046253399499776989 0 0.0017729176821403474 -0.0049875580313870471 0 0.0021137651755138999 -0.0046253399499776989 0 0.0022469368763900007 -0.0050642410558341356 0 0.0017729176821403474 -0.0049875580313870471 0 0.0024999698203499619 -0.0047209947017841768 0 0.0021137651755138999 -0.0046253399499776989 0 0.0022469368763900007 -0.0050642410558341356 0 0.0011094267467663514 -0.0040373333293339904 0 0.001062806610145878 -0.0043465302765946902 0 0.00087587984005147682 -0.0042021029340348964 0 0.0011094267467663514 -0.0040373333293339904 0 0.00090709222706096321 -0.0038578954782902118 0 0.00087587984005147682 -0.0042021029340348964 0 0.00090709222706096321 -0.0038578954782902118 0 0.00087587984005147682 -0.0042021029340348964 0 0.00064424585166416519 -0.0039652925798766376 0 0.00095990927643604647 -0.0035961269905860848 0 0.00090709222706096321 -0.0038578954782902118 0 0.0010827427950611641 -0.0037954449011668901 0 0.0011094267467663514 -0.0040373333293339904 0 0.0010827427950611641 -0.0037954449011668901 0 0.0012174930535843696 -0.0038752497767619272 0 0.0011094267467663514 -0.0040373333293339904 0 0.00090709222706096321 -0.0038578954782902118 0 0.0010827427950611641 -0.0037954449011668901 0 0.0011094267467663514 -0.0040373333293339904 0 0.0012174930535843696 -0.0038752497767619272 0 0.001357846658173296 -0.0039596436697746165 0 0.0012921429801409797 -0.0037677807541183429 0 0.0010827427950611641 -0.0037954449011668901 0 0.0012174930535843696 -0.0038752497767619272 0 0.0012921429801409797 -0.0037677807541183429 0 0.0012174930535843696 -0.0038752497767619272 0 0.001357846658173296 -0.0039596436697746165 0 0.0012921429801409797 -0.0037677807541183429 0 0.001357846658173296 -0.0039596436697746165 0 0.0015316514114996431 -0.0038937008701416666 0 0.001357846658173296 -0.0039596436697746165 0 0.0015316514114996431 -0.0038937008701416666 0 0.0015030858946055879 -0.0040349442232686444 0 0.0016466102630746521 -0.0040273461195521132 0 0.0015316514114996431 -0.0038937008701416666 0 0.0015030858946055879 -0.0040349442232686444 0 0.0016084381406742886 -0.0041755442879047311 0 0.0015030858946055879 -0.0040349442232686444 0 0.0013515094690635331 -0.0041488788344286581 0 0.001357846658173296 -0.0039596436697746165 0 0.0015030858946055879 -0.0040349442232686444 0 0.0013515094690635331 -0.0041488788344286581 0 0.0011094267467663514 -0.0040373333293339904 0 0.0013515094690635331 -0.0041488788344286581 0 0.001062806610145878 -0.0043465302765946902 0 0.0011094267467663514 -0.0040373333293339904 0 0.001357846658173296 -0.0039596436697746165 0 0.0013515094690635331 -0.0041488788344286581 0 0.0013991465429194145 -0.0043913391127174458 0 0.0010384639361439207 -0.0046847104187858583 0 0.001062806610145878 -0.0043465302765946902 0 0.0013515094690635331 -0.0041488788344286581 0 0.0013991465429194145 -0.0043913391127174458 0 0.001062806610145878 -0.0043465302765946902 0 0.0016084381406742886 -0.0041755442879047311 0 0.0013515094690635331 -0.0041488788344286581 0 0.0013991465429194145 -0.0043913391127174458 0 0.0014460778739608809 -0.0043660309526140102 0 0.0012854089715352689 -0.0044875962474064945 0 0.0012627788231239483 -0.0044612774394008183 0 0.0013192998147505447 -0.0046679673472406306 0 0.0010947530021148508 -0.0046139079234426422 0 0.0013192998147505447 -0.0046679673472406306 0 0.0010947530021148508 -0.0046139079234426422 0 0.0012106999194679416 -0.0048741704436062435 0 0.0010947530021148508 -0.0046139079234426422 0 0.0012106999194679416 -0.0048741704436062435 0 0.001045673945805022 -0.0048680781169432984 0 0.0012854089715352689 -0.0044875962474064945 0 0.0011977581355260322 -0.0045576899997041721 0 0.0010947530021148508 -0.0046139079234426422 0 0.0010384639361439207 -0.0046847104187858583 0 0.001045673945805022 -0.0048680781169432984 0 0.0010384639361439207 -0.0046847104187858583 0 0.001062806610145878 -0.0043465302765946902 0 0.00081447406585681559 -0.0046133327648578467 0 0.001062806610145878 -0.0043465302765946902 0 0.00087587984005147682 -0.0042021029340348964 0 0.00081447406585681559 -0.0046133327648578467 0 0.00087587984005147682 -0.0042021029340348964 0 0.00081447406585681559 -0.0046133327648578467 0 0.00066755126753892749 -0.0043800580614764984 0 0.00081447406585681559 -0.0046133327648578467 0 0.00049568446669604165 -0.0046770253840917589 0 0.00066755126753892749 -0.0043800580614764984 0 0.00049568446669604165 -0.0046770253840917589 0 0.00042257591563654479 -0.0043861883650518525 0 0.00066755126753892749 -0.0043800580614764984 0 0.00027806101888537972 -0.0045459537886543026 0 0.00015762615292151251 -0.0046986445765150086 0 0.00049568446669604165 -0.0046770253840917589 0 0.00042257591563654479 -0.0043861883650518525 0 0.00015672097129844985 -0.004715750335059902 0 0.00042257591563654479 -0.0043861883650518525 0 0.00064424585166416519 -0.0039652925798766376 0 0.00039876798971074572 -0.0041034138832713209 0 0.00042257591563654479 -0.0043861883650518525 0 0.00017433103274096029 -0.0042250538198778682 0 0.00039876798971074572 -0.0041034138832713209 0 0.00042257591563654479 -0.0043861883650518525 0 0.00066755126753892749 -0.0043800580614764984 0 0.00064424585166416519 -0.0039652925798766376 0 0.00087587984005147682 -0.0042021029340348964 0 0.00066755126753892749 -0.0043800580614764984 0 0.00064424585166416519 -0.0039652925798766376 0 5.4837547579500288e-05 -0.0044027489806756324 0 -0.00018402970776022033 -0.0045380455712963463 0 -4.6087925031240023e-05 -0.0047111688947258784 0 5.4837547579500288e-05 -0.0044027489806756324 0 -4.6087925031240023e-05 -0.0047111688947258784 0 0.0001495749966851971 -0.0046579365363731019 0 0.00042257591563654479 -0.0043861883650518525 0 5.4837547579500288e-05 -0.0044027489806756324 0 0.0001495749966851971 -0.0046579365363731019 0 0.00042257591563654479 -0.0043861883650518525 0 0.00017433103274096029 -0.0042250538198778682 0 5.4837547579500288e-05 -0.0044027489806756324 0 0.00017433103274096029 -0.0042250538198778682 0 5.4837547579500288e-05 -0.0044027489806756324 0 1.0208941252629974e-05 -0.0042188868792948442 0 5.4837547579500288e-05 -0.0044027489806756324 0 -0.00012166053647340397 -0.0041727013304383399 0 -0.00018402970776022033 -0.0045380455712963463 0 -0.0025204188637391995 0.0042308353065815324 0 -0.0018876400500435627 0.0025030828468646342 0 5.4837547579500288e-05 -0.0044027489806756324 0 1.0208941252629974e-05 -0.0042188868792948442 0 -0.00012166053647340397 -0.0041727013304383399 0 -0.0022168565921727918 0.0039596380690781032 0 -0.0016116744357388838 0.0037938310870915832 0 -0.0025204188637391995 0.0042308353065815324 0 -0.0016116744357388838 0.0037938310870915832 0 -0.0022817356664983955 0.0041367394522556725 0 -0.0023137994868376015 0.0039897210724688702 0 -0.002042571990315011 0.0040523003384177071 0 1.0208941252629974e-05 -0.0042188868792948442 0 -0.00012166053647340397 -0.0041727013304383399 0 7.5297209868435436e-05 -0.0041183125940826978 0 -0.0022168565921727918 0.0039596380690781032 0 -0.0025204188637391995 0.0042308353065815324 0 -0.0044349943788762605 0.0079134801393892801 0 -0.0043514938510040594 0.0083090009336418344 0 -0.004059604574700359 0.0080092472602846 0 -0.001325034358372055 -0.0038923268265752499 0 7.5297209868435436e-05 -0.0041183125940826978 0 -9.8609816868460085e-05 -0.0035212718556022898 0 0.00017433103274096029 -0.0042250538198778682 0 1.0208941252629974e-05 -0.0042188868792948442 0 7.5297209868435436e-05 -0.0041183125940826978 0 0.00017433103274096029 -0.0042250538198778682 0 7.5297209868435436e-05 -0.0041183125940826978 0 0.00039876798971074572 -0.0041034138832713209 0 7.5297209868435436e-05 -0.0041183125940826978 0 -9.8609816868460085e-05 -0.0035212718556022898 0 0.00042395053134496735 -0.0038478293007142179 0 7.5297209868435436e-05 -0.0041183125940826978 0 0.00039876798971074572 -0.0041034138832713209 0 0.00042395053134496735 -0.0038478293007142179 0 -9.8609816868460085e-05 -0.0035212718556022898 0 9.9787593832473685e-05 -0.0020942604023350894 0 -0.0011946076463008552 -0.0023308109953735119 0 -9.8609816868460085e-05 -0.0035212718556022898 0 0.00068456903544906003 -0.0033588718341348192 0 9.9787593832473685e-05 -0.0020942604023350894 0 -9.8609816868460085e-05 -0.0035212718556022898 0 0.00042395053134496735 -0.0038478293007142179 0 0.00068456903544906003 -0.0033588718341348192 0 -0.001325034358372055 -0.0038923268265752499 0 -9.8609816868460085e-05 -0.0035212718556022898 0 -0.0011946076463008552 -0.0023308109953735119 0 -0.0044088870113129959 0.0077012052043150016 0 -0.0045515327322334922 0.0070691237182049244 0 -0.0040870189461966067 0.0071855761424257474 0 -0.0022168565921727918 0.0039596380690781032 0 -0.0023254680118309765 0.0029578606466051371 0 0.00064424585166416519 -0.0039652925798766376 0 0.00039876798971074572 -0.0041034138832713209 0 0.00042395053134496735 -0.0038478293007142179 0 0.00064424585166416519 -0.0039652925798766376 0 0.00042395053134496735 -0.0038478293007142179 0 0.00068456903544906003 -0.0033588718341348192 0 0.0014581673871065198 -0.0027599239250420708 0 0.001917424865249061 -0.002514737329322469 0 0.00064424585166416519 -0.0039652925798766376 0 0.00068456903544906003 -0.0033588718341348192 0 0.00075689049688334217 -0.0035908377821010948 0 0.00090709222706096321 -0.0038578954782902118 0 0.00064424585166416519 -0.0039652925798766376 0 0.00075689049688334217 -0.0035908377821010948 0 0.0030754148295519079 -0.0025180271871674217 0 0.0014998341358462499 -0.0012973724956343994 0 0.0030491004064821729 0.00066675402783198745 0 0.0051901228922453047 -0.0016919942602938057 0 0.0030754148295519079 -0.0025180271871674217 0 0.0030491004064821729 0.00066675402783198745 0 0.001488612333993897 0.00017246865377312177 0 0.0014998341358462499 -0.0012973724956343994 0 0.0030491004064821729 0.00066675402783198745 0 0.001488612333993897 0.00017246865377312177 0 0.00052596294652783337 -0.00059274630753850086 0 0.000483644778303951 0.0005639250194275601 0 0.001488612333993897 0.00017246865377312177 0 0.0014998341358462499 -0.0012973724956343994 0 0.00052596294652783337 -0.00059274630753850086 0 0.0014998341358462499 -0.0012973724956343994 0 9.9787593832473685e-05 -0.0020942604023350894 0 0.00052596294652783337 -0.00059274630753850086 0 0.00068456903544906003 -0.0033588718341348192 0 0.0030754148295519079 -0.0025180271871674217 0 0.0014998341358462499 -0.0012973724956343994 0 0.00068456903544906003 -0.0033588718341348192 0 0.0014998341358462499 -0.0012973724956343994 0 9.9787593832473685e-05 -0.0020942604023350894 0 9.9787593832473685e-05 -0.0020942604023350894 0 -0.0011946076463008552 -0.0023308109953735119 0 -0.00049093838671384411 -0.00083384636879675384 0 9.9787593832473685e-05 -0.0020942604023350894 0 0.00052596294652783337 -0.00059274630753850086 0 -0.00049093838671384411 -0.00083384636879675384 0 -0.0045515327322334922 0.0070691237182049244 0 -0.0044016854899721633 0.0066304702638987495 0 -0.0046967708096987363 0.0064250192678761316 0 -0.0011946076463008552 -0.0023308109953735119 0 -0.0009253115158605155 -0.0003119371890442196 0 -0.00049093838671384411 -0.00083384636879675384 0 -0.0045515327322334922 0.0070691237182049244 0 -0.0040913571734028948 0.0066865633151709037 0 -0.0040870189461966067 0.0071855761424257474 0 -0.0023254680118309765 0.0029578606466051371 0 -0.0020613194059409092 0.0029729575773587555 0 -0.0045515327322334922 0.0070691237182049244 0 -0.0044016854899721633 0.0066304702638987495 0 -0.0040913571734028948 0.0066865633151709037 0 -0.0046967708096987363 0.0064250192678761316 0 -0.0042664108722161344 0.0063384237439580351 0 -0.0042359913004930486 0.0058488463320951495 0 -0.0044016854899721633 0.0066304702638987495 0 -0.0042664108722161344 0.0063384237439580351 0 -0.0040913571734028948 0.0066865633151709037 0 -0.0044016854899721633 0.0066304702638987495 0 -0.0046967708096987363 0.0064250192678761316 0 -0.0042664108722161344 0.0063384237439580351 0 -0.00096615193669729628 -0.000189822771313698 0 -0.00015296673187017965 0.00012043611119861258 0 -0.00031195576472352928 0.0015952349266191677 0 0.00052596294652783337 -0.00059274630753850086 0 -0.00049093838671384411 -0.00083384636879675384 0 -0.00015296673187017965 0.00012043611119861258 0 -0.00096615193669729628 -0.000189822771313698 0 -0.00049093838671384411 -0.00083384636879675384 0 -0.00015296673187017965 0.00012043611119861258 0 -0.0020613194059409092 0.0029729575773587555 0 -0.0019072808164031859 0.0027488680930014479 0 0.00052596294652783337 -0.00059274630753850086 0 -0.00015296673187017965 0.00012043611119861258 0 0.000483644778303951 0.0005639250194275601 0 -0.0020613194059409092 0.0029729575773587555 0 -0.00198479374163888 0.0024183870666104981 0 -0.00031195576472352928 0.0015952349266191677 0 -0.00035527371889172553 0.0027861644006201723 0 0.00086089622166477268 0.001460299578501146 0 0.000483644778303951 0.0005639250194275601 0 -0.00031195576472352928 0.0015952349266191677 0 0.00086089622166477268 0.001460299578501146 0 -0.00015296673187017965 0.00012043611119861258 0 0.000483644778303951 0.0005639250194275601 0 -0.00031195576472352928 0.0015952349266191677 0 -0.00058491721234957283 0.0003524700827324612 0 -0.00031195576472352928 0.0015952349266191677 0 -0.0017329859182154894 0.0018492720180192171 0 -0.0020613194059409092 0.0029729575773587555 0 -0.0027436479757559696 0.0037719863094065153 0 -0.00031195576472352928 0.0015952349266191677 0 -0.00035527371889172553 0.0027861644006201723 0 -0.0017329859182154894 0.0018492720180192171 0 -0.0016540374903656944 0.0044081065145185425 0 -0.0010459124876972261 0.0037301915381531491 0 -0.0018768388590621079 0.0045780579541935627 0 -0.00035527371889172553 0.0027861644006201723 0 -0.0017081942961403253 0.0032065707145357905 0 -0.00035527371889172553 0.0027861644006201723 0 -0.0017081942961403253 0.0032065707145357905 0 -0.0017329859182154894 0.0018492720180192171 0 -0.00033030209730252816 0.0044110232482094053 0 -0.00035527371889172553 0.0027861644006201723 0 0.0010588945627763113 0.0028029584483906739 0 -0.00035527371889172553 0.0027861644006201723 0 0.0010588945627763113 0.0028029584483906739 0 0.00086089622166477268 0.001460299578501146 0 0.0011375336222477466 0.0043975518342997677 0 0.0010259033760067532 0.0028627035025184664 0 0.002827014078001022 0.0031249018956591101 0 0.0010259033760067532 0.0028627035025184664 0 0.002827014078001022 0.0031249018956591101 0 0.0024534375095679544 0.0012823176329917231 0 0.0034219557397558355 0.0014248167871193321 0 0.002827014078001022 0.0031249018956591101 0 0.0024534375095679544 0.0012823176329917231 0 0.0010588945627763113 0.0028029584483906739 0 0.0030491004064821729 0.00066675402783198745 0 0.00086089622166477268 0.001460299578501146 0 0.001488612333993897 0.00017246865377312177 0 0.0030491004064821729 0.00066675402783198745 0 0.00086089622166477268 0.001460299578501146 0 0.00092811636154711374 0.0023509912147726317 0 0.0021118730439305066 0.00038697107744390828 0 0.001488612333993897 0.00017246865377312177 0 0.000483644778303951 0.0005639250194275601 0 0.00086089622166477268 0.001460299578501146 0 -0.0029658793824421186 0.0058608654776209027 0 -0.0032644385777571504 0.0060420378982821319 0 -0.0030390140167025526 0.0063591708128916897 0 -0.0029658793824421186 0.0058608654776209027 0 -0.0032856393735557531 0.005517670625795815 0 -0.0032644385777571504 0.0060420378982821319 0 -0.0029658793824421186 0.0058608654776209027 0 -0.0027324648028875047 0.0061215993147430998 0 -0.0030390140167025526 0.0063591708128916897 0 -0.0025747904940271143 0.0057619228614263739 0 -0.0024151226182799546 0.006269320695678423 0 -0.0022228354029865819 0.0059754624046659344 0 -0.0027324648028875047 0.0061215993147430998 0 -0.0025747904940271143 0.0057619228614263739 0 -0.0024151226182799546 0.006269320695678423 0 -0.0029658793824421186 0.0058608654776209027 0 -0.0027324648028875047 0.0061215993147430998 0 -0.0025747904940271143 0.0057619228614263739 0 -0.002775441432510671 0.0052410157256147878 0 -0.0025747904940271143 0.0057619228614263739 0 -0.0022196280148525935 0.0053528121438501785 0 -0.0025747904940271143 0.0057619228614263739 0 -0.0022196280148525935 0.0053528121438501785 0 -0.0022228354029865819 0.0059754624046659344 0 -0.002775441432510671 0.0052410157256147878 0 -0.0025747904940271143 0.0057619228614263739 0 -0.0029643863850470969 0.0055373689979031776 0 -0.002775441432510671 0.0052410157256147878 0 -0.0031601614964523253 0.005195464764291547 0 -0.0029643863850470969 0.0055373689979031776 0 -0.0029658793824421186 0.0058608654776209027 0 -0.0025747904940271143 0.0057619228614263739 0 -0.0029643863850470969 0.0055373689979031776 0 -0.0029658793824421186 0.0058608654776209027 0 -0.0029643863850470969 0.0055373689979031776 0 -0.0032856393735557531 0.005517670625795815 0 -0.0031601614964523253 0.005195464764291547 0 -0.0034171032335627528 0.0052504538925537241 0 -0.0032856393735557531 0.005517670625795815 0 -0.0031601614964523253 0.005195464764291547 0 -0.0029643863850470969 0.0055373689979031776 0 -0.0032856393735557531 0.005517670625795815 0 -0.0034171032335627528 0.0052504538925537241 0 -0.0032856393735557531 0.005517670625795815 0 -0.0036974959632006476 0.005229839077604076 0 -0.0032856393735557531 0.005517670625795815 0 -0.0036974959632006476 0.005229839077604076 0 -0.0035932618197476586 0.0058624991502061507 0 -0.0031168350989377188 0.0042778925772340637 0 -0.0027436479757559696 0.0037719863094065153 0 -0.0036974959632006476 0.005229839077604076 0 -0.0042359913004930486 0.0058488463320951495 0 -0.0035932618197476586 0.0058624991502061507 0 -0.0017081942961403253 0.0032065707145357905 0 -0.0028237358735474856 0.003587409140338955 0 -0.0017329859182154894 0.0018492720180192171 0 -0.0018768388590621079 0.0045780579541935627 0 -0.0017081942961403253 0.0032065707145357905 0 -0.0028237358735474856 0.003587409140338955 0 -0.0042359913004930486 0.0058488463320951495 0 -0.0035932618197476586 0.0058624991502061507 0 -0.0039185477982471078 0.0062097314578444104 0 -0.0042664108722161344 0.0063384237439580351 0 -0.0042359913004930486 0.0058488463320951495 0 -0.0039185477982471078 0.0062097314578444104 0 -0.0032644385777571504 0.0060420378982821319 0 -0.0035932618197476586 0.0058624991502061507 0 -0.0035585011063683078 0.0064393047071517797 0 -0.0032856393735557531 0.005517670625795815 0 -0.0032644385777571504 0.0060420378982821319 0 -0.0035932618197476586 0.0058624991502061507 0 -0.0035932618197476586 0.0058624991502061507 0 -0.0035585011063683078 0.0064393047071517797 0 -0.0039185477982471078 0.0062097314578444104 0 -0.0032644385777571504 0.0060420378982821319 0 -0.0035585011063683078 0.0064393047071517797 0 -0.0030390140167025526 0.0063591708128916897 0 -0.0035585011063683078 0.0064393047071517797 0 -0.003228843605989793 0.006766803774171895 0 -0.0030390140167025526 0.0063591708128916897 0 -0.0035585011063683078 0.0064393047071517797 0 -0.0039185477982471078 0.0062097314578444104 0 -0.0040913571734028948 0.0066865633151709037 0 -0.0042664108722161344 0.0063384237439580351 0 -0.0039185477982471078 0.0062097314578444104 0 -0.0040913571734028948 0.0066865633151709037 0 -0.0035585011063683078 0.0064393047071517797 0 -0.0040913571734028948 0.0066865633151709037 0 -0.003644477764708096 0.0069932088602135409 0 -0.0040913571734028948 0.0066865633151709037 0 -0.003644477764708096 0.0069932088602135409 0 -0.0040870189461966067 0.0071855761424257474 0 -0.003644477764708096 0.0069932088602135409 0 -0.003228843605989793 0.006766803774171895 0 -0.0030711643759393547 0.0072632976062428382 0 -0.0035585011063683078 0.0064393047071517797 0 -0.003644477764708096 0.0069932088602135409 0 -0.003228843605989793 0.006766803774171895 0 -0.003228843605989793 0.006766803774171895 0 -0.0027203500000838798 0.0068170178386618733 0 -0.0030711643759393547 0.0072632976062428382 0 -0.0030390140167025526 0.0063591708128916897 0 -0.0026802253946595035 0.0064412292831216118 0 -0.0027203500000838798 0.0068170178386618733 0 -0.003228843605989793 0.006766803774171895 0 -0.0030390140167025526 0.0063591708128916897 0 -0.0027203500000838798 0.0068170178386618733 0 -0.0027324648028875047 0.0061215993147430998 0 -0.0030390140167025526 0.0063591708128916897 0 -0.0026802253946595035 0.0064412292831216118 0 -0.0024151226182799546 0.006269320695678423 0 -0.002393141759570382 0.0065617504989277722 0 -0.0021048629596945967 0.0064043202605676818 0 -0.0024151226182799546 0.006269320695678423 0 -0.0026802253946595035 0.0064412292831216118 0 -0.002393141759570382 0.0065617504989277722 0 -0.0027324648028875047 0.0061215993147430998 0 -0.0024151226182799546 0.006269320695678423 0 -0.0026802253946595035 0.0064412292831216118 0 -0.0026802253946595035 0.0064412292831216118 0 -0.002393141759570382 0.0065617504989277722 0 -0.0027203500000838798 0.0068170178386618733 0 -0.0027203500000838798 0.0068170178386618733 0 -0.0022736035359840322 0.0070803722156595958 0 -0.0030711643759393547 0.0072632976062428382 0 -0.0029486069524312739 0.0064640573189934398 0 -0.0032362518113473659 0.0063751768684733416 0 -0.0022591156223232454 0.010194090536694641 0 -0.0019772030946935788 0.010897702101622666 0 -0.0027203500000838798 0.0068170178386618733 0 -0.0022736035359840322 0.0070803722156595958 0 -0.0018591207865436288 0.0068762260455318578 0 -0.002393141759570382 0.0065617504989277722 0 -0.0027203500000838798 0.0068170178386618733 0 -0.0020892845798282603 0.0068256140028949567 0 -0.0022736035359840322 0.0070803722156595958 0 -0.0022745934282776686 0.0074222333189481425 0 -0.0029810027736397963 0.0073928259643299635 0 -0.0022736035359840322 0.0070803722156595958 0 -0.0022745934282776686 0.0074222333189481425 0 -0.0018959109195010369 0.0072950034939356099 0 -0.0022745934282776686 0.0074222333189481425 0 -0.0024008601855837145 0.0077212633492095822 0 -0.0029810027736397963 0.0073928259643299635 0 -0.0022745934282776686 0.0074222333189481425 0 -0.0024008601855837145 0.0077212633492095822 0 -0.0017652565865470251 0.0076342446303890961 0 -0.0024008601855837145 0.0077212633492095822 0 -0.0027742472661057469 0.0077938448702828955 0 -0.0025297835565744678 0.0080018292104221955 0 -0.0029810027736397963 0.0073928259643299635 0 -0.0027742472661057469 0.0077938448702828955 0 -0.0030735406618826828 0.0081219996823107196 0 -0.0024008601855837145 0.0077212633492095822 0 -0.0029810027736397963 0.0073928259643299635 0 -0.0027742472661057469 0.0077938448702828955 0 -0.0027742472661057469 0.0077938448702828955 0 -0.0030735406618826828 0.0081219996823107196 0 -0.0025297835565744678 0.0080018292104221955 0 -0.0030735406618826828 0.0081219996823107196 0 -0.0023507480699989374 0.0084620402165494768 0 -0.0027386021978094656 0.0084494933397911681 0 -0.0026908433061545857 0.0086262756148204091 0 -0.0023356710221954405 0.0088291232808134935 0 -0.0030735406618826828 0.0081219996823107196 0 -0.0033740021798489691 0.0085554040434846056 0 -0.0027386021978094656 0.0084494933397911681 0 -0.0030735406618826828 0.0081219996823107196 0 -0.0022718833176217693 0.0083561726525040181 0 -0.0025297835565744678 0.0080018292104221955 0 -0.0024008601855837145 0.0077212633492095822 0 -0.0025297835565744678 0.0080018292104221955 0 -0.002113596757509442 0.008011883017917382 0 -0.0022718833176217693 0.0083561726525040181 0 -0.0025297835565744678 0.0080018292104221955 0 -0.002113596757509442 0.008011883017917382 0 -0.0022168565921727918 0.0039596380690781032 0 -0.0034853176393019958 0.005810780320045162 0 -0.0044088870113129959 0.0077012052043150016 0 -0.0040870189461966067 0.0071855761424257474 0 -0.0037401449419425122 0.0074715035885938447 0 -0.0044349943788762605 0.0079134801393892801 0 -0.0037028717372935083 0.0076576987439245557 0 -0.004059604574700359 0.0080092472602846 0 -0.003644477764708096 0.0069932088602135409 0 -0.0040870189461966067 0.0071855761424257474 0 -0.0037401449419425122 0.0074715035885938447 0 -0.003644477764708096 0.0069932088602135409 0 -0.0030711643759393547 0.0072632976062428382 0 -0.0037401449419425122 0.0074715035885938447 0 -0.0032362518113473659 0.0063751768684733416 0 -0.0034853176393019958 0.005810780320045162 0 -0.0029810027736397963 0.0073928259643299635 0 -0.0030735406618826828 0.0081219996823107196 0 -0.0037028717372935083 0.0076576987439245557 0 -0.0030735406618826828 0.0081219996823107196 0 -0.0037487846094734971 0.0081572504399642417 0 -0.0033740021798489691 0.0085554040434846056 0 -0.0030735406618826828 0.0081219996823107196 0 -0.0037028717372935083 0.0076576987439245557 0 -0.0037487846094734971 0.0081572504399642417 0 -0.0043514938510040594 0.0083090009336418344 0 -0.0037487846094734971 0.0081572504399642417 0 -0.0033740021798489691 0.0085554040434846056 0 -0.0043514938510040594 0.0083090009336418344 0 -0.0037487846094734971 0.0081572504399642417 0 -0.004059604574700359 0.0080092472602846 0 -0.0037028717372935083 0.0076576987439245557 0 -0.0037487846094734971 0.0081572504399642417 0 -0.004059604574700359 0.0080092472602846 0 -0.0026275976477427234 0.0086676612751068749 0 -0.0025714919481412009 0.0087305806778998647 0 -0.0025968370440663797 0.0088029817593339912 0 -0.0026275976477427234 0.0086676612751068749 0 -0.0025714919481412009 0.0087305806778998647 0 -0.0024983340285133571 0.0087141641143656957 0 -0.0025204188637391995 0.0042308353065815324 0 -0.0025050007975406323 0.0065395605261340164 0 -0.0025714919481412009 0.0087305806778998647 0 -0.0024983340285133571 0.0087141641143656957 0 -0.0025237587767481971 0.0087815882733761931 0 -0.0024983340285133571 0.0087141641143656957 0 -0.0025237587767481971 0.0087815882733761931 0 -0.002458569841968706 0.0087960923675403958 0 -0.0025237587767481971 0.0087815882733761931 0 -0.002458569841968706 0.0087960923675403958 0 -0.0025002350558848267 0.0088678384539193737 0 -0.0025237587767481971 0.0087815882733761931 0 -0.0025968370440663797 0.0088029817593339912 0 -0.0025002350558848267 0.0088678384539193737 0 -0.0025714919481412009 0.0087305806778998647 0 -0.0025237587767481971 0.0087815882733761931 0 -0.0025968370440663797 0.0088029817593339912 0 -0.0024218468413054971 0.0087413475200935394 0 -0.0022595012514077901 0.0087109659233565936 0 -0.0022979921477351761 0.0088216089510286567 0 -0.0023507480699989374 0.0084620402165494768 0 -0.0024218468413054971 0.0087413475200935394 0 -0.0022595012514077901 0.0087109659233565936 0 -0.0023507480699989374 0.0084620402165494768 0 -0.0024218468413054971 0.0087413475200935394 0 -0.0027386021978094656 0.0084494933397911681 0 -0.0033740021798489691 0.0085554040434846056 0 -0.0024218468413054971 0.0087413475200935394 0 -0.0027386021978094656 0.0084494933397911681 0 -0.0025050007975406323 0.0065395605261340164 0 -0.0023604264881109667 0.0071837098727578182 0 -0.0024983340285133571 0.0087141641143656957 0 -0.0024218468413054971 0.0087413475200935394 0 -0.002458569841968706 0.0087960923675403958 0 -0.0024218468413054971 0.0087413475200935394 0 -0.002458569841968706 0.0087960923675403958 0 -0.0023938634093385136 0.0088196094003913303 0 -0.002458569841968706 0.0087960923675403958 0 -0.0023938634093385136 0.0088196094003913303 0 -0.0024092846973289153 0.0088888097021262609 0 -0.0024218468413054971 0.0087413475200935394 0 -0.0023938634093385136 0.0088196094003913303 0 -0.0022979921477351761 0.0088216089510286567 0 -0.0023938634093385136 0.0088196094003913303 0 -0.0023273673827847443 0.0088696482272679848 0 -0.0022979921477351761 0.0088216089510286567 0 -0.0023273673827847443 0.0088696482272679848 0 -0.0024092846973289153 0.0088888097021262609 0 -0.002317459783999676 0.0089377557643381955 0 -0.0023938634093385136 0.0088196094003913303 0 -0.0023273673827847443 0.0088696482272679848 0 -0.0024092846973289153 0.0088888097021262609 0 -0.0024092846973289153 0.0088888097021262609 0 -0.0024398094424802801 0.0089416988430140749 0 -0.0025002350558848267 0.0088678384539193737 0 -0.002458569841968706 0.0087960923675403958 0 -0.0024092846973289153 0.0088888097021262609 0 -0.0025002350558848267 0.0088678384539193737 0 -0.0024092846973289153 0.0088888097021262609 0 -0.0024398094424802801 0.0089416988430140749 0 -0.0023889837049509473 0.0089708190714539188 0 -0.0024398094424802801 0.0089416988430140749 0 -0.0023889837049509473 0.0089708190714539188 0 -0.0024549467700068451 0.0089877350558065974 0 -0.0023889837049509473 0.0089708190714539188 0 -0.002317459783999676 0.0089377557643381955 0 -0.0023233854662788322 0.0090352156952725939 0 -0.0024092846973289153 0.0088888097021262609 0 -0.0023889837049509473 0.0089708190714539188 0 -0.002317459783999676 0.0089377557643381955 0 -0.0023889837049509473 0.0089708190714539188 0 -0.0023233854662788322 0.0090352156952725939 0 -0.0024066141841295459 0.0090295793815871623 0 -0.0023889837049509473 0.0089708190714539188 0 -0.0024066141841295459 0.0090295793815871623 0 -0.0024549467700068451 0.0089877350558065974 0 -0.0024066141841295459 0.0090295793815871623 0 -0.0024534147143451283 0.0090501461132408926 0 -0.0024549467700068451 0.0089877350558065974 0 -0.0024066141841295459 0.0090295793815871623 0 -0.0024107082733567805 0.0090974277300056739 0 -0.0024534147143451283 0.0090501461132408926 0 -0.0024107082733567805 0.0090974277300056739 0 -0.0024613039486104924 0.0090903860228656527 0 -0.0024534147143451283 0.0090501461132408926 0 0.0025136063837541698 0.0199506950392755 0 0.0031536103846043621 0.019327986760456089 0 0.0023358429651697287 0.019344690985199614 0 -0.0023233854662788322 0.0090352156952725939 0 -0.0024066141841295459 0.0090295793815871623 0 -0.0024107082733567805 0.0090974277300056739 0 -0.00059260200811123598 0.013491734409539451 0 -0.00081555719786579705 0.01159796869599255 0 -0.0001921951023678987 -0.005262394258256831 0 -0.00024811639355532705 -0.0052587374058648446 0 -0.00020248728789777561 -0.0052016473003173753 0 -0.00011361501207467126 -0.0052301091612660978 0 -0.00015158346676782768 -0.0052933832015420066 0 -8.349082443916932e-05 -0.0053071717894454416 0 -0.0001921951023678987 -0.005262394258256831 0 -0.00011361501207467126 -0.0052301091612660978 0 -0.00015158346676782768 -0.0052933832015420066 0 -0.0001921951023678987 -0.005262394258256831 0 -0.00020248728789777561 -0.0052016473003173753 0 -0.00011361501207467126 -0.0052301091612660978 0 -0.00015158346676782768 -0.0052933832015420066 0 -8.349082443916932e-05 -0.0053071717894454416 0 -0.00014881331012022049 -0.0053506486057225454 0 -0.0001921951023678987 -0.005262394258256831 0 -0.00024811639355532705 -0.0052587374058648446 0 -0.00021062489361732878 -0.0053172933608869408 0 -0.00015158346676782768 -0.0052933832015420066 0 -0.00021062489361732878 -0.0053172933608869408 0 -0.00014881331012022049 -0.0053506486057225454 0 -0.0001921951023678987 -0.005262394258256831 0 -0.00015158346676782768 -0.0052933832015420066 0 -0.00021062489361732878 -0.0053172933608869408 0 -0.0025093367336876697 0.0090571329541432495 0 -0.0024613039486104924 0.0090903860228656527 0 -0.0024534147143451283 0.0090501461132408926 0 -0.0025093367336876697 0.0090571329541432495 0 -0.0024534147143451283 0.0090501461132408926 0 -0.0024833583507362939 0.0090166650722414594 0 -0.0024534147143451283 0.0090501461132408926 0 -0.0024833583507362939 0.0090166650722414594 0 -0.0024549467700068451 0.0089877350558065974 0 -0.0025093367336876697 0.0090571329541432495 0 -0.0024833583507362939 0.0090166650722414594 0 -0.0025045547682725554 0.0089827506098555093 0 -0.0024833583507362939 0.0090166650722414594 0 -0.0024549467700068451 0.0089877350558065974 0 -0.0025045547682725554 0.0089827506098555093 0 -0.0025093367336876697 0.0090571329541432495 0 -0.0025045547682725554 0.0089827506098555093 0 -0.0025580475754566714 0.0089346869619626509 0 -0.00084966852030580401 0.0023784593226896674 0 -0.0014129177898095633 0.002147087964077594 0 -0.00020248728789777561 -0.0052016473003173753 0 -0.00023156863778846232 -0.004893617088290057 0 -4.6205735465816214e-05 -0.004913907575636838 0 -0.00011844003868060476 -0.0050642447638200505 0 -2.1665738305954761e-05 -0.0049334895635578897 0 -0.00024811639355532705 -0.0052587374058648446 0 -0.00020248728789777561 -0.0052016473003173753 0 -0.00023156863778846232 -0.004893617088290057 0 -0.00020248728789777561 -0.0052016473003173753 0 -0.00011361501207467126 -0.0052301091612660978 0 -4.8637050820707955e-05 -0.0049990367201810859 0 -0.0024398094424802801 0.0089416988430140749 0 -0.0024935428899064602 0.00894086898893162 0 -0.0025002350558848267 0.0088678384539193737 0 -0.0025580475754566714 0.0089346869619626509 0 -0.0024935428899064602 0.00894086898893162 0 -0.0025002350558848267 0.0088678384539193737 0 -0.0024549467700068451 0.0089877350558065974 0 -0.0025045547682725554 0.0089827506098555093 0 -0.0024935428899064602 0.00894086898893162 0 -0.0024398094424802801 0.0089416988430140749 0 -0.0024549467700068451 0.0089877350558065974 0 -0.0024935428899064602 0.00894086898893162 0 -0.0025045547682725554 0.0089827506098555093 0 -0.0025580475754566714 0.0089346869619626509 0 -0.0024935428899064602 0.00894086898893162 0 -0.00018402970776022033 -0.0045380455712963463 0 -0.00023156863778846232 -0.004893617088290057 0 -4.6087925031240023e-05 -0.0047111688947258784 0 -0.0018876400500435627 0.0025030828468646342 0 -0.0014129177898095633 0.002147087964077594 0 -0.0025968370440663797 0.0088029817593339912 0 -0.0025580475754566714 0.0089346869619626509 0 -0.0025002350558848267 0.0088678384539193737 0 -4.6087925031240023e-05 -0.0047111688947258784 0 0.0001495749966851971 -0.0046579365363731019 0 -4.6205735465816214e-05 -0.004913907575636838 0 0.00015762615292151251 -0.0046986445765150086 0 -2.1665738305954761e-05 -0.0049334895635578897 0 0.00015672097129844985 -0.004715750335059902 0 0.00014221570156367351 -0.0049733357027347443 0 0.00035047146489559325 -0.0049220984536129612 0 0.00014221570156367351 -0.0049733357027347443 0 0.00035047146489559325 -0.0049220984536129612 0 0.00020261906575327044 -0.0051032916468806777 0 0.00015672097129844985 -0.004715750335059902 0 0.00014221570156367351 -0.0049733357027347443 0 -4.8637050820707955e-05 -0.0049990367201810859 0 -0.00023156863778846232 -0.004893617088290057 0 -4.6087925031240023e-05 -0.0047111688947258784 0 -4.6205735465816214e-05 -0.004913907575636838 0 0.00014221570156367351 -0.0049733357027347443 0 -4.8637050820707955e-05 -0.0049990367201810859 0 6.1102279492201056e-05 -0.0051083959348271687 0 0.00081447406585681559 -0.0046133327648578467 0 0.00049568446669604165 -0.0046770253840917589 0 0.00064938316129164748 -0.0048890660706362834 0 0.00049568446669604165 -0.0046770253840917589 0 0.00064938316129164748 -0.0048890660706362834 0 0.00035047146489559325 -0.0049220984536129612 0 0.00049568446669604165 -0.0046770253840917589 0 0.00015672097129844985 -0.004715750335059902 0 0.00035047146489559325 -0.0049220984536129612 0 0.00035047146489559325 -0.0049220984536129612 0 0.00047553666971806647 -0.0051438656368015291 0 0.00020261906575327044 -0.0051032916468806777 0 0.00064938316129164748 -0.0048890660706362834 0 0.00047553666971806647 -0.0051438656368015291 0 0.00073674515480174902 -0.0051118742794477381 0 0.00064938316129164748 -0.0048890660706362834 0 0.00035047146489559325 -0.0049220984536129612 0 0.00047553666971806647 -0.0051438656368015291 0 0.00047553666971806647 -0.0051438656368015291 0 0.00073674515480174902 -0.0051118742794477381 0 0.00070476472860833618 -0.0053961689033712405 0 0.00047553666971806647 -0.0051438656368015291 0 0.00023726302398564575 -0.0052484776040597992 0 0.00020261906575327044 -0.0051032916468806777 0 0.00037154926816459447 -0.0053862809963337527 0 0.00023726302398564575 -0.0052484776040597992 0 9.7660496695291013e-05 -0.0053669996885366842 0 0.00037154926816459447 -0.0053862809963337527 0 9.7660496695291013e-05 -0.0053669996885366842 0 0.00014361118968821412 -0.0055821998291033965 0 0.00047553666971806647 -0.0051438656368015291 0 0.00037154926816459447 -0.0053862809963337527 0 0.00023726302398564575 -0.0052484776040597992 0 0.00047553666971806647 -0.0051438656368015291 0 0.00037154926816459447 -0.0053862809963337527 0 0.00070476472860833618 -0.0053961689033712405 0 -0.00011361501207467126 -0.0052301091612660978 0 -4.8637050820707955e-05 -0.0049990367201810859 0 -2.2757236304726586e-05 -0.005206541803411094 0 -4.8637050820707955e-05 -0.0049990367201810859 0 -2.2757236304726586e-05 -0.005206541803411094 0 6.1102279492201056e-05 -0.0051083959348271687 0 -2.2757236304726586e-05 -0.005206541803411094 0 6.1102279492201056e-05 -0.0051083959348271687 0 7.313613344549398e-05 -0.0052493764239718984 0 0.00014221570156367351 -0.0049733357027347443 0 6.1102279492201056e-05 -0.0051083959348271687 0 0.00020261906575327044 -0.0051032916468806777 0 0.00023726302398564575 -0.0052484776040597992 0 0.00020261906575327044 -0.0051032916468806777 0 7.313613344549398e-05 -0.0052493764239718984 0 6.1102279492201056e-05 -0.0051083959348271687 0 0.00020261906575327044 -0.0051032916468806777 0 7.313613344549398e-05 -0.0052493764239718984 0 7.313613344549398e-05 -0.0052493764239718984 0 9.7660496695291013e-05 -0.0053669996885366842 0 3.4164939344831168e-08 -0.0053172680615994452 0 0.00023726302398564575 -0.0052484776040597992 0 7.313613344549398e-05 -0.0052493764239718984 0 9.7660496695291013e-05 -0.0053669996885366842 0 9.7660496695291013e-05 -0.0053669996885366842 0 3.4164939344831168e-08 -0.0053172680615994452 0 1.3754889165322553e-05 -0.0053892999250350973 0 3.4164939344831168e-08 -0.0053172680615994452 0 -4.5044577512340478e-05 -0.0053642210133762035 0 1.3754889165322553e-05 -0.0053892999250350973 0 -2.2757236304726586e-05 -0.005206541803411094 0 7.313613344549398e-05 -0.0052493764239718984 0 3.4164939344831168e-08 -0.0053172680615994452 0 -2.2757236304726586e-05 -0.005206541803411094 0 3.4164939344831168e-08 -0.0053172680615994452 0 -8.349082443916932e-05 -0.0053071717894454416 0 -0.00011361501207467126 -0.0052301091612660978 0 -2.2757236304726586e-05 -0.005206541803411094 0 -8.349082443916932e-05 -0.0053071717894454416 0 3.4164939344831168e-08 -0.0053172680615994452 0 -8.349082443916932e-05 -0.0053071717894454416 0 -4.5044577512340478e-05 -0.0053642210133762035 0 -8.349082443916932e-05 -0.0053071717894454416 0 -9.723029970209241e-05 -0.0053724882217414428 0 -4.5044577512340478e-05 -0.0053642210133762035 0 -9.723029970209241e-05 -0.0053724882217414428 0 -4.5044577512340478e-05 -0.0053642210133762035 0 -5.9014444752020891e-05 -0.0054253932854155112 0 -9.723029970209241e-05 -0.0053724882217414428 0 -5.9014444752020891e-05 -0.0054253932854155112 0 -0.00013238279264723507 -0.005424388693102182 0 -5.9014444752020891e-05 -0.0054253932854155112 0 -5.9708111282410709e-06 -0.0054410839867778593 0 1.3754889165322553e-05 -0.0053892999250350973 0 -4.5044577512340478e-05 -0.0053642210133762035 0 -5.9014444752020891e-05 -0.0054253932854155112 0 1.3754889165322553e-05 -0.0053892999250350973 0 -0.00029728046229505074 -0.0046024977184519322 0 -0.00029247284204238466 -0.0041168966904990252 0 9.7660496695291013e-05 -0.0053669996885366842 0 0.00014361118968821412 -0.0055821998291033965 0 6.091657885226002e-06 -0.0056976211043532005 0 9.7660496695291013e-05 -0.0053669996885366842 0 1.3754889165322553e-05 -0.0053892999250350973 0 5.4193390608761381e-05 -0.0054430148969785647 0 -0.00033147665711229268 -0.0042189656914521636 0 -0.00029247284204238466 -0.0041168966904990252 0 -5.9708111282410709e-06 -0.0054410839867778593 0 1.3754889165322553e-05 -0.0053892999250350973 0 5.4193390608761381e-05 -0.0054430148969785647 0 0.00014361118968821412 -0.0055821998291033965 0 -3.3158097116889553e-05 -0.0057361832158573673 0 1.6397950914458109e-05 -0.0060388555649072322 0 -3.3158097116889553e-05 -0.0057361832158573673 0 1.6397950914458109e-05 -0.0060388555649072322 0 -7.2992930370515839e-05 -0.0061541696207378553 0 2.4527646622039991e-05 -0.0029078188384923944 0 0.00028641217937880163 -0.0026759088578188527 0 9.0547936255147153e-05 -0.0024776500026215437 0 -0.00029247284204238466 -0.0041168966904990252 0 8.3043767707870078e-05 -0.0040311671766948545 0 -3.4535841144151117e-05 -0.0055096534258937038 0 -0.00012455415860163982 -0.0055780288567612588 0 -0.00012521638037261569 -0.0054978913480360856 0 5.4479783652065763e-05 -0.0026280995108185741 0 0.00099225471363318437 -0.00023754992134419442 0 -5.9014444752020891e-05 -0.0054253932854155112 0 -3.4535841144151117e-05 -0.0055096534258937038 0 -0.00012521638037261569 -0.0054978913480360856 0 -5.9708111282410709e-06 -0.0054410839867778593 0 5.4193390608761381e-05 -0.0054430148969785647 0 -3.4535841144151117e-05 -0.0055096534258937038 0 -0.00029247284204238466 -0.0041168966904990252 0 5.4479783652065763e-05 -0.0026280995108185741 0 -5.9014444752020891e-05 -0.0054253932854155112 0 -5.9708111282410709e-06 -0.0054410839867778593 0 -3.4535841144151117e-05 -0.0055096534258937038 0 0.00027795531134604723 -0.0057894651384536328 0 0.00049405765582680313 -0.0055977149861369483 0 0.00037154926816459447 -0.0053862809963337527 0 0.00044278579528768392 -0.0056606502119589076 0 0.00070476472860833618 -0.0053961689033712405 0 0.0001223818088633933 -0.00599211869702278 0 0.00020048229871694534 -0.0060888880339058996 0 0.00026825503894672341 -0.0058097790333723693 0 0.00037154926816459447 -0.0053862809963337527 0 0.00014361118968821412 -0.0055821998291033965 0 0.00044278579528768392 -0.0056606502119589076 0 1.6397950914458109e-05 -0.0060388555649072322 0 0.0001223818088633933 -0.00599211869702278 0 0.00012046801035008879 -0.0061088218980819668 0 0.00014361118968821412 -0.0055821998291033965 0 1.6397950914458109e-05 -0.0060388555649072322 0 0.00044278579528768392 -0.0056606502119589076 0 0.00014898083567824354 -0.0058973298458876418 0 0.00027795531134604723 -0.0057894651384536328 0 0.0001223818088633933 -0.00599211869702278 0 0.00012046801035008879 -0.0061088218980819668 0 0.00020048229871694534 -0.0060888880339058996 0 0.00020048229871694534 -0.0060888880339058996 0 0.00023701744766973785 -0.006210703629322494 0 0.00032104675567278695 -0.0061276866721353285 0 0.00012046801035008879 -0.0061088218980819668 0 0.00023701744766973785 -0.006210703629322494 0 0.00012042314808395014 -0.0062372783233976348 0 0.00012046801035008879 -0.0061088218980819668 0 0.00020048229871694534 -0.0060888880339058996 0 0.00023701744766973785 -0.006210703629322494 0 0.00012046801035008879 -0.0061088218980819668 0 0.00012042314808395014 -0.0062372783233976348 0 4.792210359712241e-05 -0.0061652560512705529 0 1.6397950914458109e-05 -0.0060388555649072322 0 0.00012046801035008879 -0.0061088218980819668 0 4.792210359712241e-05 -0.0061652560512705529 0 0.00012042314808395014 -0.0062372783233976348 0 4.792210359712241e-05 -0.0061652560512705529 0 2.2415538766796989e-05 -0.0062522330684861415 0 0.00012042314808395014 -0.0062372783233976348 0 9.4844626858301719e-05 -0.0063406441945194148 0 0.00021041221688168198 -0.0063311340101118519 0 0.00012042314808395014 -0.0062372783233976348 0 9.4844626858301719e-05 -0.0063406441945194148 0 2.2415538766796989e-05 -0.0062522330684861415 0 0.00023701744766973785 -0.006210703629322494 0 0.00021041221688168198 -0.0063311340101118519 0 0.00029459516257641146 -0.0063202989545387165 0 0.00023701744766973785 -0.006210703629322494 0 0.00012042314808395014 -0.0062372783233976348 0 0.00021041221688168198 -0.0063311340101118519 0 0.00026938301301884934 -0.0024124646504615592 0 9.0547936255147153e-05 -0.0024776500026215437 0 0.00015557869640798897 -0.0020533738530454384 0 0.00054808157433539409 -0.0034252655355057537 0 0.00099225471363318437 -0.00023754992134419442 0 0.00026938301301884934 -0.0024124646504615592 0 0.00015557869640798897 -0.0020533738530454384 0 0.00054517656341451521 -0.0024448860649531308 0 0.00028641217937880163 -0.0026759088578188527 0 0.00026938301301884934 -0.0024124646504615592 0 0.00054517656341451521 -0.0024448860649531308 0 0.00028641217937880163 -0.0026759088578188527 0 0.00026938301301884934 -0.0024124646504615592 0 9.0547936255147153e-05 -0.0024776500026215437 0 8.3043767707870078e-05 -0.0040311671766948545 0 0.00054808157433539409 -0.0034252655355057537 0 -7.2992930370515839e-05 -0.0061541696207378553 0 2.2415538766796989e-05 -0.0062522330684861415 0 -7.6238485983847699e-05 -0.0063050962326296599 0 1.6397950914458109e-05 -0.0060388555649072322 0 -7.2992930370515839e-05 -0.0061541696207378553 0 4.792210359712241e-05 -0.0061652560512705529 0 -7.2992930370515839e-05 -0.0061541696207378553 0 4.792210359712241e-05 -0.0061652560512705529 0 2.2415538766796989e-05 -0.0062522330684861415 0 9.4844626858301719e-05 -0.0063406441945194148 0 2.2415538766796989e-05 -0.0062522330684861415 0 -7.6238485983847699e-05 -0.0063050962326296599 0 0.0011950939341186654 -0.0012751527762641555 0 0.0014324538304312643 -0.0012752206071040173 0 0.0014209738971241355 -0.0015014666343112859 0 0.0011950939341186654 -0.0012751527762641555 0 0.0014324538304312643 -0.0012752206071040173 0 0.0013192281207321335 -0.0011518855796130727 0 0.0014324538304312643 -0.0012752206071040173 0 0.0014209738971241355 -0.0015014666343112859 0 0.0015759935477006181 -0.0013659763135107062 0 0.0014324538304312643 -0.0012752206071040173 0 0.0015754065376993767 -0.0012164822088436725 0 0.0014913238766530725 -0.0011245515148207675 0 0.0014324538304312643 -0.0012752206071040173 0 0.0015759935477006181 -0.0013659763135107062 0 0.0015754065376993767 -0.0012164822088436725 0 0.00099225471363318437 -0.00023754992134419442 0 0.0011639063636358063 0.0006222970673795793 0 0.0013948466841830461 0.0018077188310066021 0 0.0013318560651748434 0.0018299778208570882 0 0.0013277109978159663 0.0017486056318936417 0 0.002148507795500017 0.0046781770297295942 0 0.0014155919795901233 0.0045448805901808801 0 0.0023913758751467687 0.0058167515776407011 0 0.0013318560651748434 0.0018299778208570882 0 0.0012811076759761779 0.0017888721762037581 0 0.0013005264648074711 0.0018917671322076046 0 0.0013318560651748434 0.0018299778208570882 0 0.0012811076759761779 0.0017888721762037581 0 0.0013277109978159663 0.0017486056318936417 0 0.0011639063636358063 0.0006222970673795793 0 0.0013088398922855185 0.0016375540674613087 0 0.0012228418036514439 0.0034477651881666144 0 0.0013088398922855185 0.0016375540674613087 0 0.0012811076759761779 0.0017888721762037581 0 0.0013277109978159663 0.0017486056318936417 0 0.0012618394507095652 0.0016881320224600839 0 0.0015759935477006181 -0.0013659763135107062 0 0.0015754065376993767 -0.0012164822088436725 0 0.0017331406720378856 -0.0012287192718252128 0 0.0019068453759678043 0.0035341842299580349 0 0.0014516790613604809 0.0034417756210154207 0 0.0012283836711108511 0.0038118567683399058 0 0.0019068453759678043 0.0035341842299580349 0 0.0012283836711108511 0.0038118567683399058 0 0.0014155919795901233 0.0045448805901808801 0 0.0012283836711108511 0.0038118567683399058 0 0.00065829206576542749 0.0043632583768638423 0 0.0010511492843215337 0.0028995961581391619 0 0.002148507795500017 0.0046781770297295942 0 0.0019068453759678043 0.0035341842299580349 0 0.0014155919795901233 0.0045448805901808801 0 0.0014516790613604809 0.0034417756210154207 0 0.0012283836711108511 0.0038118567683399058 0 0.0010511492843215337 0.0028995961581391619 0 0.0012283836711108511 0.0038118567683399058 0 0.00065829206576542749 0.0043632583768638423 0 0.0014155919795901233 0.0045448805901808801 0 0.000832596666373384 0.0033895556555078254 0 0.0010143131363933408 0.0026412024311237544 0 0.00049902513363914592 0.0035360305117629661 0 0.00065829206576542749 0.0043632583768638423 0 0.0010387854256373845 0.0029444632249855515 0 0.00017268921030226441 0.0034244240351092902 0 0.00049902513363914592 0.0035360305117629661 0 8.2907743775101131e-05 0.0040985251516626386 0 0.00049902513363914592 0.0035360305117629661 0 8.2907743775101131e-05 0.0040985251516626386 0 0.00065829206576542749 0.0043632583768638423 0 8.2907743775101131e-05 0.0040985251516626386 0 0.00084456207211992633 0.0050226924999551368 0 -0.00068023718167600203 0.0042418393306154923 0 8.2907743775101131e-05 0.0040985251516626386 0 0.00065829206576542749 0.0043632583768638423 0 0.00084456207211992633 0.0050226924999551368 0 0.0023204811045262367 0.0092063270664654931 0 0.0011502769280338707 0.0095982085561419385 0 0.00084456207211992633 0.0050226924999551368 0 0.0014155919795901233 0.0045448805901808801 0 0.0023913758751467687 0.0058167515776407011 0 0.00065829206576542749 0.0043632583768638423 0 0.00084456207211992633 0.0050226924999551368 0 0.0014155919795901233 0.0045448805901808801 0 0.0029302167043463697 0.018197381807751552 0 0.0032503828508994932 0.018723373803008699 0 0.0037507588573562614 0.018604150645984072 0 0.0023204811045262367 0.0092063270664654931 0 0.0010025972375788312 0.0054588198308713042 0 0.0029302167043463697 0.018197381807751552 0 0.002651083985536421 0.01880440567296051 0 0.0023131245968283629 0.01841476844895942 0 0.0029302167043463697 0.018197381807751552 0 0.0032503828508994932 0.018723373803008699 0 0.002651083985536421 0.01880440567296051 0 0.0031536103846043621 0.019327986760456089 0 0.002651083985536421 0.01880440567296051 0 0.0023358429651697287 0.019344690985199614 0 -0.00081555719786579705 0.01159796869599255 0 0.00064979006387307959 0.0053818947485245079 0 0.0031536103846043621 0.019327986760456089 0 0.0032503828508994932 0.018723373803008699 0 0.002651083985536421 0.01880440567296051 0 0.0031536103846043621 0.019327986760456089 0 0.0032503828508994932 0.018723373803008699 0 0.0037686056177995051 0.01868358991926012 0 -0.0025093367336876697 0.0090571329541432495 0 -0.0024613039486104924 0.0090903860228656527 0 -0.0024716982477655442 0.009154294225469586 0 -0.00024811639355532705 -0.0052587374058648446 0 -0.00021062489361732878 -0.0053172933608869408 0 -0.00024536486421921012 -0.0054562166810932433 0 -0.00084966852030580401 0.0023784593226896674 0 0.00064979006387307959 0.0053818947485245079 0 -0.0024107082733567805 0.0090974277300056739 0 -0.0024613039486104924 0.0090903860228656527 0 -0.0024716982477655442 0.009154294225469586 0 -0.00021062489361732878 -0.0053172933608869408 0 -0.00019827876466192417 -0.0053699930388063808 0 -0.00024536486421921012 -0.0054562166810932433 0 -0.00021062489361732878 -0.0053172933608869408 0 -0.00019827876466192417 -0.0053699930388063808 0 -0.00014881331012022049 -0.0053506486057225454 0 -0.00019827876466192417 -0.0053699930388063808 0 -0.00014881331012022049 -0.0053506486057225454 0 -0.0001613158967425385 -0.0053855931340396892 0 -9.723029970209241e-05 -0.0053724882217414428 0 -0.0001613158967425385 -0.0053855931340396892 0 -0.00013238279264723507 -0.005424388693102182 0 -8.349082443916932e-05 -0.0053071717894454416 0 -9.723029970209241e-05 -0.0053724882217414428 0 -0.00014881331012022049 -0.0053506486057225454 0 -9.723029970209241e-05 -0.0053724882217414428 0 -0.00014881331012022049 -0.0053506486057225454 0 -0.0001613158967425385 -0.0053855931340396892 0 -0.00019827876466192417 -0.0053699930388063808 0 -0.00018746534239189088 -0.0054166327287584635 0 -0.00024536486421921012 -0.0054562166810932433 0 -0.0001613158967425385 -0.0053855931340396892 0 -0.00013238279264723507 -0.005424388693102182 0 -0.00018746534239189088 -0.0054166327287584635 0 -0.00019827876466192417 -0.0053699930388063808 0 -0.0001613158967425385 -0.0053855931340396892 0 -0.00018746534239189088 -0.0054166327287584635 0 -0.00013238279264723507 -0.005424388693102182 0 -0.00016645322833719258 -0.0054395268064395541 0 -0.00018746534239189088 -0.0054166327287584635 0 -0.00016645322833719258 -0.0054395268064395541 0 -0.00018746534239189088 -0.0054166327287584635 0 -0.00020036289563793463 -0.0054485286627126671 0 0.0013948466841830461 0.0018077188310066021 0 0.0013318560651748434 0.0018299778208570882 0 0.0013109742286460501 0.0018970872066061382 0 -0.00020036289563793463 -0.0054485286627126671 0 -0.00012521638037261569 -0.0054978913480360856 0 -0.00023821125061861522 -0.0054642575158593684 0 0.00099225471363318437 -0.00023754992134419442 0 0.00073438667520619267 0.0049805798868120862 0 -0.00016645322833719258 -0.0054395268064395541 0 -0.00020036289563793463 -0.0054485286627126671 0 -0.00012521638037261569 -0.0054978913480360856 0 -0.00012455415860163982 -0.0055780288567612588 0 -0.00012521638037261569 -0.0054978913480360856 0 -0.00023821125061861522 -0.0054642575158593684 0 -5.9014444752020891e-05 -0.0054253932854155112 0 -0.00013238279264723507 -0.005424388693102182 0 -0.00012521638037261569 -0.0054978913480360856 0 -0.00013238279264723507 -0.005424388693102182 0 -0.00016645322833719258 -0.0054395268064395541 0 -0.00012521638037261569 -0.0054978913480360856 0 0.0013318560651748434 0.0018299778208570882 0 0.0013005264648074711 0.0018917671322076046 0 0.0013109742286460501 0.0018970872066061382 0 0.0032503828508994932 0.018723373803008699 0 0.0037686056177995051 0.01868358991926012 0 0.0037507588573562614 0.018604150645984072 0 0.0012228418036514439 0.0034477651881666144 0 0.0010025972375788312 0.0054588198308713042 0 -0.00018746534239189088 -0.0054166327287584635 0 -0.00020036289563793463 -0.0054485286627126671 0 -0.00024536486421921012 -0.0054562166810932433 0 0.00064979006387307959 0.0053818947485245079 0 0.00073438667520619267 0.0049805798868120862 0 0.00048100476635214406 0.004685787828117763 0 0.00073438667520619267 0.0049805798868120862 0 -0.00020036289563793463 -0.0054485286627126671 0 -0.00024536486421921012 -0.0054562166810932433 0 -0.00023602894300823898 -0.0054642041366948857 0 0.00064979006387307959 0.0053818947485245079 0 0.0010025972375788312 0.0054588198308713042 0 0.00034600140134303088 0.0042960257435396033 0 0.00020042529463517279 0.0036225216792587413 0 0.00073993156555387694 0.0038978175469178522 0 0.0010025972375788312 0.0054588198308713042 0 0.00073438667520619267 0.0049805798868120862 0 0.002312192484106774 -0.0055653218759425032 0 0.0023928667710664364 -0.0059210245375793868 0 0.0021118610098510328 -0.005885786976275017 0 0.0021118610098510328 -0.005885786976275017 0 0.0017554067196139955 -0.0057083621430668594 0 0.0018196521522210326 -0.0061894309366596354 0 0.002312192484106774 -0.0055653218759425032 0 0.0021118610098510328 -0.005885786976275017 0 0.0017554067196139955 -0.0057083621430668594 0 0.0023928667710664364 -0.0059210245375793868 0 0.0021118610098510328 -0.005885786976275017 0 0.0022759743573875072 -0.0062314369920673874 0 0.0017602436987903527 -0.0054607752330649668 0 0.001730592740457979 -0.0052627120934784014 0 0.0017554067196139955 -0.0057083621430668594 0 0.0021353269715159006 -0.0052940379263697506 0 0.0018085725617467358 -0.0053401163052952125 0 0.0017554067196139955 -0.0057083621430668594 0 0.0016556802261687592 -0.0052120670387267622 0 0.001403937444016587 -0.0055725087815893509 0 0.002312192484106774 -0.0055653218759425032 0 0.0017554067196139955 -0.0057083621430668594 0 0.0021353269715159006 -0.0052940379263697506 0 0.0021353269715159006 -0.0052940379263697506 0 0.0022469368763900007 -0.0050642410558341356 0 0.0017729176821403474 -0.0049875580313870471 0 0.001730592740457979 -0.0052627120934784014 0 0.0016793779024608451 -0.00492769571233833 0 0.0021353269715159006 -0.0052940379263697506 0 0.0018085725617467358 -0.0053401163052952125 0 0.0017729176821403474 -0.0049875580313870471 0 0.0016556802261687592 -0.0052120670387267622 0 0.0015728529574843544 -0.0048452271463330244 0 0.0012907557454114068 -0.0052208838998126237 0 0.0015728529574843544 -0.0048452271463330244 0 0.0012106999194679416 -0.0048741704436062435 0 0.0012907557454114068 -0.0052208838998126237 0 0.0012907557454114068 -0.0052208838998126237 0 0.001403937444016587 -0.0055725087815893509 0 0.0011283819111717881 -0.0056916477825503468 0 0.001403937444016587 -0.0055725087815893509 0 0.0011283819111717881 -0.0056916477825503468 0 0.0012188957028632123 -0.0062309666578287612 0 0.0017554067196139955 -0.0057083621430668594 0 0.001403937444016587 -0.0055725087815893509 0 0.0012188957028632123 -0.0062309666578287612 0 0.0016556802261687592 -0.0052120670387267622 0 0.0012907557454114068 -0.0052208838998126237 0 0.001403937444016587 -0.0055725087815893509 0 0.0011283819111717881 -0.0056916477825503468 0 0.00080757933888797042 -0.0057650348461144099 0 0.001033187883126384 -0.006022803384994186 0 0.00080757933888797042 -0.0057650348461144099 0 0.00052275732364693434 -0.0055299595474131722 0 0.00054477240217824547 -0.0059580168263746172 0 0.00083790324012611569 -0.0052992774249958326 0 0.00071164989647887016 -0.005404986927806131 0 0.00080757933888797042 -0.0057650348461144099 0 0.00097418890634826973 -0.0051556402901891769 0 0.00052275732364693434 -0.0055299595474131722 0 0.0012907557454114068 -0.0052208838998126237 0 0.0011283819111717881 -0.0056916477825503468 0 0.00097418890634826973 -0.0051556402901891769 0 0.0011283819111717881 -0.0056916477825503468 0 0.00080757933888797042 -0.0057650348461144099 0 0.00097418890634826973 -0.0051556402901891769 0 0.0012106999194679416 -0.0048741704436062435 0 0.0012907557454114068 -0.0052208838998126237 0 0.00097418890634826973 -0.0051556402901891769 0 0.0012106999194679416 -0.0048741704436062435 0 0.001045673945805022 -0.0048680781169432984 0 0.00097418890634826973 -0.0051556402901891769 0 0.0010384639361439207 -0.0046847104187858583 0 0.001045673945805022 -0.0048680781169432984 0 0.0008985779436909906 -0.0049632384030959638 0 0.00097418890634826973 -0.0051556402901891769 0 0.0008985779436909906 -0.0049632384030959638 0 0.00090267825049200156 -0.0051977691274419976 0 0.001045673945805022 -0.0048680781169432984 0 0.00097418890634826973 -0.0051556402901891769 0 0.0008985779436909906 -0.0049632384030959638 0 0.0010384639361439207 -0.0046847104187858583 0 0.00081447406585681559 -0.0046133327648578467 0 0.0008985779436909906 -0.0049632384030959638 0 0.00081447406585681559 -0.0046133327648578467 0 0.00064938316129164748 -0.0048890660706362834 0 0.0008985779436909906 -0.0049632384030959638 0 0.00064938316129164748 -0.0048890660706362834 0 0.0008985779436909906 -0.0049632384030959638 0 0.00073674515480174902 -0.0051118742794477381 0 0.00073674515480174902 -0.0051118742794477381 0 0.00090267825049200156 -0.0051977691274419976 0 0.00070476472860833618 -0.0053961689033712405 0 0.0008985779436909906 -0.0049632384030959638 0 0.00073674515480174902 -0.0051118742794477381 0 0.00090267825049200156 -0.0051977691274419976 0 0.00052275732364693434 -0.0055299595474131722 0 0.00026825503894672341 -0.0058097790333723693 0 0.00054477240217824547 -0.0059580168263746172 0 0.00071164989647887016 -0.005404986927806131 0 0.00049405765582680313 -0.0055977149861369483 0 0.00020048229871694534 -0.0060888880339058996 0 0.00026825503894672341 -0.0058097790333723693 0 0.00032104675567278695 -0.0061276866721353285 0 0.00026825503894672341 -0.0058097790333723693 0 0.00054477240217824547 -0.0059580168263746172 0 0.00032104675567278695 -0.0061276866721353285 0 0.00054477240217824547 -0.0059580168263746172 0 0.00032104675567278695 -0.0061276866721353285 0 0.00059282334573922623 -0.0062672212076179132 0 -0.00018255109000344381 -0.0066854882256660985 0 -0.00022679673926780653 -0.0071161492571040399 0 0.00023701744766973785 -0.006210703629322494 0 0.00032104675567278695 -0.0061276866721353285 0 0.00034398874783923882 -0.0062475690908842755 0 0.00023701744766973785 -0.006210703629322494 0 0.00034398874783923882 -0.0062475690908842755 0 0.00029459516257641146 -0.0063202989545387165 0 0.00034398874783923882 -0.0062475690908842755 0 0.00029459516257641146 -0.0063202989545387165 0 0.00038902202047983846 -0.0063915586922894327 0 -0.00022679673926780653 -0.0071161492571040399 0 -0.00024925558682292964 -0.0087628786275092633 0 0.00037899460964813391 -0.0064760112466559537 0 0.00062585881719794665 -0.0065639592057665543 0 0.00046045034823531428 -0.0067715935434551344 0 0.00025566481585493039 -0.00798783305813279 0 -0.00024925558682292964 -0.0087628786275092633 0 0.00062585881719794665 -0.0065639592057665543 0 0.00066210876086161439 -0.0067287658906810431 0 0.00046910163144291671 -0.0067567670252240922 0 0.00032104675567278695 -0.0061276866721353285 0 0.00037899460964813391 -0.0064760112466559537 0 0.00059282334573922623 -0.0062672212076179132 0 0.00037899460964813391 -0.0064760112466559537 0 0.00059282334573922623 -0.0062672212076179132 0 0.00062585881719794665 -0.0065639592057665543 0 0.00059282334573922623 -0.0062672212076179132 0 0.00076296201300503407 -0.0064031998425256673 0 0.00062585881719794665 -0.0065639592057665543 0 0.00062585881719794665 -0.0065639592057665543 0 0.00083959885525378738 -0.0066681691049581739 0 0.00066210876086161439 -0.0067287658906810431 0 0.00076296201300503407 -0.0064031998425256673 0 0.00062585881719794665 -0.0065639592057665543 0 0.00083959885525378738 -0.0066681691049581739 0 0.00083959885525378738 -0.0066681691049581739 0 0.00098149541740473727 -0.0064016666785278323 0 0.0010669050691902045 -0.0066034496465218256 0 0.00076296201300503407 -0.0064031998425256673 0 0.00083959885525378738 -0.0066681691049581739 0 0.00098149541740473727 -0.0064016666785278323 0 0.00076296201300503407 -0.0064031998425256673 0 0.00098149541740473727 -0.0064016666785278323 0 0.00083132215033931479 -0.0061662791036181438 0 0.00098149541740473727 -0.0064016666785278323 0 0.00083132215033931479 -0.0061662791036181438 0 0.0010844678040962522 -0.0062335269444031552 0 0.00083132215033931479 -0.0061662791036181438 0 0.001033187883126384 -0.006022803384994186 0 0.0010844678040962522 -0.0062335269444031552 0 0.00054477240217824547 -0.0059580168263746172 0 0.00059282334573922623 -0.0062672212076179132 0 0.00083132215033931479 -0.0061662791036181438 0 0.00059282334573922623 -0.0062672212076179132 0 0.00076296201300503407 -0.0064031998425256673 0 0.00083132215033931479 -0.0061662791036181438 0 0.00080757933888797042 -0.0057650348461144099 0 0.00054477240217824547 -0.0059580168263746172 0 0.00083132215033931479 -0.0061662791036181438 0 0.00080757933888797042 -0.0057650348461144099 0 0.00083132215033931479 -0.0061662791036181438 0 0.001033187883126384 -0.006022803384994186 0 0.0011283819111717881 -0.0056916477825503468 0 0.001033187883126384 -0.006022803384994186 0 0.0012188957028632123 -0.0062309666578287612 0 0.00092442514456328429 -0.0068336732870978092 0 0.00085478189854730122 -0.0071851035813450719 0 0.0012188957028632123 -0.0062309666578287612 0 0.0010844678040962522 -0.0062335269444031552 0 0.001245891833509032 -0.006374515149015803 0 0.0012188957028632123 -0.0062309666578287612 0 0.00060643327275515318 -0.0072149704787942484 0 0.0015798986088541096 -0.0067098303572410006 0 0.001033187883126384 -0.006022803384994186 0 0.0012188957028632123 -0.0062309666578287612 0 0.0010844678040962522 -0.0062335269444031552 0 0.00098149541740473727 -0.0064016666785278323 0 0.0010669050691902045 -0.0066034496465218256 0 0.001245891833509032 -0.006374515149015803 0 0.00098149541740473727 -0.0064016666785278323 0 0.0010844678040962522 -0.0062335269444031552 0 0.001245891833509032 -0.006374515149015803 0 0.0010669050691902045 -0.0066034496465218256 0 0.0012506787508263953 -0.0066642518610095366 0 0.001245891833509032 -0.006374515149015803 0 0.00072447256013081075 -0.0080433186656964292 0 0.00085478189854730122 -0.0071851035813450719 0 -7.4842759053337857e-05 -0.0085330747319460661 0 0.00060643327275515318 -0.0072149704787942484 0 0.00086176621131785018 -0.0080708302090467653 0 -7.4842759053337857e-05 -0.0085330747319460661 0 0.00086176621131785018 -0.0080708302090467653 0 0.00081038622166552314 -0.0088873216206104052 0 0.00060643327275515318 -0.0072149704787942484 0 0.0015803866558696538 -0.0076493262566265539 0 0.0015798986088541096 -0.0067098303572410006 0 0.00060643327275515318 -0.0072149704787942484 0 0.0015803866558696538 -0.0076493262566265539 0 0.00086176621131785018 -0.0080708302090467653 0 0.0015803866558696538 -0.0076493262566265539 0 0.00086176621131785018 -0.0080708302090467653 0 0.0013791697622261316 -0.0082953909975599163 0 0.00086176621131785018 -0.0080708302090467653 0 0.0013791697622261316 -0.0082953909975599163 0 0.00081038622166552314 -0.0088873216206104052 0 0.0015803866558696538 -0.0076493262566265539 0 0.0013791697622261316 -0.0082953909975599163 0 0.0022034966251139802 -0.0085924270018628082 0 0.0024170686305162131 -0.0076940982445222539 0 0.0015803866558696538 -0.0076493262566265539 0 0.0022034966251139802 -0.0085924270018628082 0 0.0015803866558696538 -0.0076493262566265539 0 0.0021300612772108419 -0.0070280475383860423 0 0.0015798986088541096 -0.0067098303572410006 0 0.0024170686305162131 -0.0076940982445222539 0 0.0015803866558696538 -0.0076493262566265539 0 0.0021300612772108419 -0.0070280475383860423 0 0.002462044339976406 -0.0066587916445550394 0 0.0021300612772108419 -0.0070280475383860423 0 0.0020375476756822656 -0.0065487035724773116 0 0.002462044339976406 -0.0066587916445550394 0 0.0020375476756822656 -0.0065487035724773116 0 0.0022759743573875072 -0.0062314369920673874 0 0.0021300612772108419 -0.0070280475383860423 0 0.0020375476756822656 -0.0065487035724773116 0 0.0015798986088541096 -0.0067098303572410006 0 0.0012188957028632123 -0.0062309666578287612 0 0.0015798986088541096 -0.0067098303572410006 0 0.0018196521522210326 -0.0061894309366596354 0 0.0020375476756822656 -0.0065487035724773116 0 0.0015798986088541096 -0.0067098303572410006 0 0.0018196521522210326 -0.0061894309366596354 0 0.0017554067196139955 -0.0057083621430668594 0 0.0012188957028632123 -0.0062309666578287612 0 0.0018196521522210326 -0.0061894309366596354 0 0.0021118610098510328 -0.005885786976275017 0 0.0018196521522210326 -0.0061894309366596354 0 0.0022759743573875072 -0.0062314369920673874 0 0.0020375476756822656 -0.0065487035724773116 0 0.0018196521522210326 -0.0061894309366596354 0 0.0022759743573875072 -0.0062314369920673874 0 0.0017273544559508673 -0.017003786934534776 0 0.0012740977219303012 -0.016893795680188499 0 0.0050136011828253724 -0.015573158670257504 0 0.0034906431717219239 -0.014473116911313894 0 0.0025570541665152408 -0.016082138485057081 0 0.0034906431717219239 -0.014473116911313894 0 0.0022694920406655774 -0.014390095032302437 0 0.0029642140366086373 -0.013332282047232307 0 0.0050136011828253724 -0.015573158670257504 0 0.0034906431717219239 -0.014473116911313894 0 0.0042555517057659411 -0.014154104924992085 0 0.0034906431717219239 -0.014473116911313894 0 0.0022694920406655774 -0.014390095032302437 0 0.0025570541665152408 -0.016082138485057081 0 0.0013911556055762426 -0.015102581806076518 0 0.0022694920406655774 -0.014390095032302437 0 0.0025570541665152408 -0.016082138485057081 0 0.0013911556055762426 -0.015102581806076518 0 -0.00034049201364156603 -0.016601711599357478 0 0.0025570541665152408 -0.016082138485057081 0 0.0013911556055762426 -0.015102581806076518 0 0.00030866231388990134 -0.015167213618573889 0 -0.00034049201364156603 -0.016601711599357478 0 0.00030866231388990134 -0.015167213618573889 0 0.0011608731161351258 -0.01410315783159473 0 0.00039033857821716778 -0.014104942132642732 0 0.0013911556055762426 -0.015102581806076518 0 0.00030866231388990134 -0.015167213618573889 0 0.0011608731161351258 -0.01410315783159473 0 0.0013911556055762426 -0.015102581806076518 0 0.0011608731161351258 -0.01410315783159473 0 0.0022694920406655774 -0.014390095032302437 0 0.0011608731161351258 -0.01410315783159473 0 0.0022694920406655774 -0.014390095032302437 0 0.0020005057251026308 -0.013365125050262874 0 0.0011608731161351258 -0.01410315783159473 0 0.0020005057251026308 -0.013365125050262874 0 0.0012419909332489207 -0.012727804777389107 0 0.0020005057251026308 -0.013365125050262874 0 0.0022319727153419242 -0.012223518342694048 0 0.0029642140366086373 -0.013332282047232307 0 0.0011608731161351258 -0.01410315783159473 0 0.0012419909332489207 -0.012727804777389107 0 0.00032076504729284432 -0.013302843064518458 0 0.0011608731161351258 -0.01410315783159473 0 0.00032076504729284432 -0.013302843064518458 0 0.00039033857821716778 -0.014104942132642732 0 0.0012419909332489207 -0.012727804777389107 0 0.0022319727153419242 -0.012223518342694048 0 0.0010069146407971877 -0.011225163199949921 0 0.0012419909332489207 -0.012727804777389107 0 0.00022889316225687773 -0.012227548427731676 0 0.00032076504729284432 -0.013302843064518458 0 0.0012419909332489207 -0.012727804777389107 0 0.0010069146407971877 -0.011225163199949921 0 0.00022889316225687773 -0.012227548427731676 0 0.0020005057251026308 -0.013365125050262874 0 0.0012419909332489207 -0.012727804777389107 0 0.0022319727153419242 -0.012223518342694048 0 0.0022319727153419242 -0.012223518342694048 0 0.0032676774795890565 -0.012449871302092212 0 0.0029642140366086373 -0.013332282047232307 0 0.0022694920406655774 -0.014390095032302437 0 0.0020005057251026308 -0.013365125050262874 0 0.0029642140366086373 -0.013332282047232307 0 0.0032676774795890565 -0.012449871302092212 0 0.0029642140366086373 -0.013332282047232307 0 0.0039276240873146948 -0.013252640153110095 0 0.0034906431717219239 -0.014473116911313894 0 0.0042555517057659411 -0.014154104924992085 0 0.0039276240873146948 -0.013252640153110095 0 0.0034906431717219239 -0.014473116911313894 0 0.0029642140366086373 -0.013332282047232307 0 0.0039276240873146948 -0.013252640153110095 0 0.0045921528033722441 -0.013319615724154615 0 0.0042555517057659411 -0.014154104924992085 0 0.0039276240873146948 -0.013252640153110095 0 0.0047613699942271855 -0.012953524570454341 0 0.0039276240873146948 -0.013252640153110095 0 0.0040875412616000343 -0.012310482463136433 0 0.0032676774795890565 -0.012449871302092212 0 0.0039276240873146948 -0.013252640153110095 0 0.0040875412616000343 -0.012310482463136433 0 0.0046316603861307143 -0.011596782719464903 0 0.0040875412616000343 -0.012310482463136433 0 0.0032163215612881252 -0.01127833949581806 0 0.0032676774795890565 -0.012449871302092212 0 0.0040875412616000343 -0.012310482463136433 0 0.0032163215612881252 -0.01127833949581806 0 0.0022319727153419242 -0.012223518342694048 0 0.0032676774795890565 -0.012449871302092212 0 0.0032163215612881252 -0.01127833949581806 0 0.0030088713059191973 -0.011238677229059024 0 0.0030342061236782757 -0.010215725829845104 0 0.0020460025888023006 -0.0099266058438968671 0 0.0039712902205490171 -0.010573939770562406 0 0.0030088713059191973 -0.011238677229059024 0 0.0030342061236782757 -0.010215725829845104 0 0.0039712902205490171 -0.010573939770562406 0 0.0030342061236782757 -0.010215725829845104 0 0.003428538827773451 -0.0089066079894231272 0 0.0030342061236782757 -0.010215725829845104 0 0.003428538827773451 -0.0089066079894231272 0 0.0020460025888023006 -0.0099266058438968671 0 0.0026357800486084496 -0.010813269401275182 0 0.0018694018005441383 -0.010368106297027876 0 0.003428538827773451 -0.0089066079894231272 0 0.00081038622166552314 -0.0088873216206104052 0 0.0020460025888023006 -0.0099266058438968671 0 0.0013791697622261316 -0.0082953909975599163 0 0.0022034966251139802 -0.0085924270018628082 0 0.00081038622166552314 -0.0088873216206104052 0 0.00081038622166552314 -0.0088873216206104052 0 0.0020460025888023006 -0.0099266058438968671 0 0.00050118841613626018 -0.0099303744545261932 0 0.0022319727153419242 -0.012223518342694048 0 0.0032163215612881252 -0.01127833949581806 0 0.0010069146407971877 -0.011225163199949921 0 0.0027982687844772761 -0.013417509819836127 0 0.0023328395626641628 -0.013129187834891818 0 0.0020460025888023006 -0.0099266058438968671 0 0.0010069146407971877 -0.011225163199949921 0 0.00050118841613626018 -0.0099303744545261932 0 0.0030088713059191973 -0.011238677229059024 0 0.0020460025888023006 -0.0099266058438968671 0 0.0010069146407971877 -0.011225163199949921 0 0.0010069146407971877 -0.011225163199949921 0 -0.00080970895804045721 -0.010934536999933976 0 0.00022889316225687773 -0.012227548427731676 0 0.0010069146407971877 -0.011225163199949921 0 -0.00080970895804045721 -0.010934536999933976 0 0.00050118841613626018 -0.0099303744545261932 0 -0.00080970895804045721 -0.010934536999933976 0 -0.00039844653795561842 -0.012829671263402306 0 0.00022889316225687773 -0.012227548427731676 0 0.0012506787508263953 -0.0066642518610095366 0 0.0012387648877868183 -0.0069718558583803953 0 0.0011233041608231862 -0.0067935914811310446 0 -7.4842759053337857e-05 -0.0085330747319460661 0 -0.00080970895804045721 -0.010934536999933976 0 0.00050118841613626018 -0.0099303744545261932 0 0.00072447256013081075 -0.0080433186656964292 0 0.00063465004704157664 -0.0093867294472063916 0 -7.4842759053337857e-05 -0.0085330747319460661 0 0.00081038622166552314 -0.0088873216206104052 0 0.00050118841613626018 -0.0099303744545261932 0 0.0010669050691902045 -0.0066034496465218256 0 0.0011233041608231862 -0.0067935914811310446 0 0.0010026297010707352 -0.0067873773836263007 0 0.0010669050691902045 -0.0066034496465218256 0 0.0012506787508263953 -0.0066642518610095366 0 0.0011233041608231862 -0.0067935914811310446 0 0.0011233041608231862 -0.0067935914811310446 0 0.001059543489451194 -0.0069474766450818128 0 0.0010026297010707352 -0.0067873773836263007 0 0.0012387648877868183 -0.0069718558583803953 0 0.0011233041608231862 -0.0067935914811310446 0 0.001059543489451194 -0.0069474766450818128 0 0.0012387648877868183 -0.0069718558583803953 0 0.001059543489451194 -0.0069474766450818128 0 0.0011167379465183492 -0.0070795963495638896 0 0.001059543489451194 -0.0069474766450818128 0 0.0011167379465183492 -0.0070795963495638896 0 0.00095800791124156677 -0.0071029982457510403 0 0.0012387648877868183 -0.0069718558583803953 0 0.0011167379465183492 -0.0070795963495638896 0 0.0012130925782567702 -0.0072883213568106847 0 -0.0022792226923385147 -0.013867487242431366 0 -0.001855508263186044 -0.013949363777892215 0 -0.0021394900299277248 -0.01407918062084822 0 0.00069517399616966747 -0.011400359039873131 0 2.3030371360337488e-05 -0.010578208905243299 0 0.0011167379465183492 -0.0070795963495638896 0 0.0012130925782567702 -0.0072883213568106847 0 0.00095800791124156677 -0.0071029982457510403 0 -0.00080970895804045721 -0.010934536999933976 0 -0.00039844653795561842 -0.012829671263402306 0 -0.0013013545515402946 -0.013745414762986879 0 0.00063465004704157664 -0.0093867294472063916 0 0.00069517399616966747 -0.011400359039873131 0 -0.00039844653795561842 -0.012829671263402306 0 0.00022889316225687773 -0.012227548427731676 0 0.00032076504729284432 -0.013302843064518458 0 -0.00039844653795561842 -0.012829671263402306 0 0.00032076504729284432 -0.013302843064518458 0 -0.00022117611966247739 -0.013866719401674379 0 0.00032076504729284432 -0.013302843064518458 0 -0.00022117611966247739 -0.013866719401674379 0 0.00039033857821716778 -0.014104942132642732 0 -0.00039844653795561842 -0.012829671263402306 0 -0.00022117611966247739 -0.013866719401674379 0 -0.0013013545515402946 -0.013745414762986879 0 -0.0016432357221383444 -0.014436282590944541 0 -0.00098299465410166742 -0.015524097344748739 0 -0.0016456394713508201 -0.016427143557164778 0 0.00069517399616966747 -0.011400359039873131 0 0.00066970064520812007 -0.011503033992281048 0 0.00030866231388990134 -0.015167213618573889 0 -0.0015959762188081348 -0.013900607763508249 0 -0.0016432357221383444 -0.014436282590944541 0 0.00030866231388990134 -0.015167213618573889 0 -0.0016432357221383444 -0.014436282590944541 0 -0.00098299465410166742 -0.015524097344748739 0 0.00030866231388990134 -0.015167213618573889 0 -0.00022117611966247739 -0.013866719401674379 0 0.00039033857821716778 -0.014104942132642732 0 0.00085155485091205406 -0.012021646760926732 0 0.00069517399616966747 -0.011400359039873131 0 0.00030866231388990134 -0.015167213618573889 0 -0.00022117611966247739 -0.013866719401674379 0 -0.0013013545515402946 -0.013745414762986879 0 0.00030866231388990134 -0.015167213618573889 0 -0.00098299465410166742 -0.015524097344748739 0 -0.00034049201364156603 -0.016601711599357478 0 -0.0016805533486569757 -0.013962360209142169 0 -0.0014700698804695322 -0.014065294010501703 0 -0.0022792226923385147 -0.013867487242431366 0 -0.0019132041886567852 -0.012983683515795498 0 -0.0024131278924569783 -0.012477247391472128 0 -0.0022792226923385147 -0.013867487242431366 0 -0.0016432357221383444 -0.014436282590944541 0 -0.0016456394713508201 -0.016427143557164778 0 -0.0022792226923385147 -0.013867487242431366 0 -0.0024131278924569783 -0.012477247391472128 0 -0.0032394048113897874 -0.01222526300984462 0 -0.0022792226923385147 -0.013867487242431366 0 -0.001855508263186044 -0.013949363777892215 0 -0.0016432357221383444 -0.014436282590944541 0 -0.001393110632500803 -0.013238417621841419 0 -0.0019132041886567852 -0.012983683515795498 0 -0.0018974907348444758 -0.013706380012572858 0 -0.0022792226923385147 -0.013867487242431366 0 -0.0019132041886567852 -0.012983683515795498 0 -0.0018974907348444758 -0.013706380012572858 0 -0.0019132041886567852 -0.012983683515795498 0 -0.0014609352065679498 -0.012647771407990812 0 -0.001944814013116443 -0.012010771373779709 0 -0.001393110632500803 -0.013238417621841419 0 -0.0019132041886567852 -0.012983683515795498 0 -0.0014609352065679498 -0.012647771407990812 0 -0.001393110632500803 -0.013238417621841419 0 -0.0014609352065679498 -0.012647771407990812 0 -0.0010034682727186983 -0.012838134531925317 0 -0.0014609352065679498 -0.012647771407990812 0 -0.0010034682727186983 -0.012838134531925317 0 -0.0010539229301480839 -0.012091087551869184 0 -0.0010034682727186983 -0.012838134531925317 0 -0.00026947766677209002 -0.012830706268219036 0 -0.0010539229301480839 -0.012091087551869184 0 -0.0010034682727186983 -0.012838134531925317 0 -0.00074745874628640203 -0.013428157682109349 0 -0.00026947766677209002 -0.012830706268219036 0 -0.001393110632500803 -0.013238417621841419 0 -0.0010034682727186983 -0.012838134531925317 0 -0.00074745874628640203 -0.013428157682109349 0 -0.001393110632500803 -0.013238417621841419 0 -0.00074745874628640203 -0.013428157682109349 0 -0.001078728426817354 -0.013989963540325525 0 -0.00074745874628640203 -0.013428157682109349 0 -0.001078728426817354 -0.013989963540325525 0 -5.2294249961286279e-05 -0.014257943118748343 0 -0.001078728426817354 -0.013989963540325525 0 -0.0018974907348444758 -0.013706380012572858 0 -0.0021394900299277248 -0.01407918062084822 0 -0.001393110632500803 -0.013238417621841419 0 -0.001078728426817354 -0.013989963540325525 0 -0.0018974907348444758 -0.013706380012572858 0 -0.0022792226923385147 -0.013867487242431366 0 -0.0018974907348444758 -0.013706380012572858 0 -0.0021394900299277248 -0.01407918062084822 0 0.001059543489451194 -0.0069474766450818128 0 0.00095800791124156677 -0.0071029982457510403 0 0.00090097461926689625 -0.0069113205212612194 0 0.00095800791124156677 -0.0071029982457510403 0 0.00090097461926689625 -0.0069113205212612194 0 0.0007162418205919922 -0.0069269252020942211 0 2.3030371360337488e-05 -0.010578208905243299 0 0.00011074960307052386 -0.010074102522352342 0 0.00083959885525378738 -0.0066681691049581739 0 0.0010669050691902045 -0.0066034496465218256 0 0.0010026297010707352 -0.0067873773836263007 0 0.00083959885525378738 -0.0066681691049581739 0 0.00090097461926689625 -0.0069113205212612194 0 0.0010026297010707352 -0.0067873773836263007 0 0.00083959885525378738 -0.0066681691049581739 0 0.00090097461926689625 -0.0069113205212612194 0 0.0007162418205919922 -0.0069269252020942211 0 0.001059543489451194 -0.0069474766450818128 0 0.00090097461926689625 -0.0069113205212612194 0 0.0010026297010707352 -0.0067873773836263007 0 0.00083959885525378738 -0.0066681691049581739 0 0.00066210876086161439 -0.0067287658906810431 0 0.0007162418205919922 -0.0069269252020942211 0 0.00066210876086161439 -0.0067287658906810431 0 0.0007162418205919922 -0.0069269252020942211 0 0.00046910163144291671 -0.0067567670252240922 0 -0.001078728426817354 -0.013989963540325525 0 -0.00091941087875859113 -0.014993485948247271 0 -5.2294249961286279e-05 -0.014257943118748343 0 -0.001078728426817354 -0.013989963540325525 0 -0.0021394900299277248 -0.01407918062084822 0 -0.00091941087875859113 -0.014993485948247271 0 -0.00091941087875859113 -0.014993485948247271 0 0.00020536671267900453 -0.015744376647517232 0 -5.2294249961286279e-05 -0.014257943118748343 0 -0.00054264742635722518 -0.010291519956997834 0 -0.00069073360969358546 -0.010479430348277301 0 -0.00049059769406626947 -0.010602024032022954 0 -0.00024925558682292964 -0.0087628786275092633 0 -9.0742716869493515e-05 -0.011619991102665907 0 0.00011074960307052386 -0.010074102522352342 0 -0.00024925558682292964 -0.0087628786275092633 0 0.00038902202047983846 -0.0063915586922894327 0 0.00028588417098923897 -0.0064062141930557003 0 0.00030348770467160917 -0.0065013086060558955 0 -0.00024925558682292964 -0.0087628786275092633 0 -0.00010142584152980455 -0.0081934029047544196 0 0.00021041221688168198 -0.0063311340101118519 0 0.00029459516257641146 -0.0063202989545387165 0 0.00028588417098923897 -0.0064062141930557003 0 0.00029459516257641146 -0.0063202989545387165 0 0.00038902202047983846 -0.0063915586922894327 0 0.00028588417098923897 -0.0064062141930557003 0 0.00028588417098923897 -0.0064062141930557003 0 0.00030348770467160917 -0.0065013086060558955 0 0.00020583955131953549 -0.0064588271897113936 0 -0.00069073360969358546 -0.010479430348277301 0 -0.00069867285085380333 -0.0106136922586238 0 -0.00049059769406626947 -0.010602024032022954 0 -0.00069073360969358546 -0.010479430348277301 0 -0.00069867285085380333 -0.0106136922586238 0 -0.00082181220953510368 -0.010644777880658705 0 -0.00010142584152980455 -0.0081934029047544196 0 0.00025932477037445429 -0.0073362139926317384 0 -0.00069867285085380333 -0.0106136922586238 0 -0.00073201597570733093 -0.010736942151480909 0 -0.00082181220953510368 -0.010644777880658705 0 -0.00073201597570733093 -0.010736942151480909 0 -0.00060414845764987827 -0.010694982866141917 0 -0.00055067298539752463 -0.010829074209966821 0 -0.00069867285085380333 -0.0106136922586238 0 -0.00060414845764987827 -0.010694982866141917 0 -0.00049059769406626947 -0.010602024032022954 0 -0.00069867285085380333 -0.0106136922586238 0 -0.00073201597570733093 -0.010736942151480909 0 -0.00060414845764987827 -0.010694982866141917 0 -9.0742716869493515e-05 -0.011619991102665907 0 -0.00024601824052306054 -0.011633163848743602 0 -0.00074745874628640203 -0.013428157682109349 0 -5.2294249961286279e-05 -0.014257943118748343 0 -0.00026947766677209002 -0.012830706268219036 0 -0.00060414845764987827 -0.010694982866141917 0 -0.00049059769406626947 -0.010602024032022954 0 -0.00055067298539752463 -0.010829074209966821 0 -0.00049059769406626947 -0.010602024032022954 0 -0.00055067298539752463 -0.010829074209966821 0 -0.00045979468002163017 -0.010880066031453398 0 -0.00045979468002163017 -0.010880066031453398 0 -0.00054599032273259303 -0.010894439635631583 0 -0.00051999064592623807 -0.010923899446233894 0 -0.00055067298539752463 -0.010829074209966821 0 -0.00045979468002163017 -0.010880066031453398 0 -0.00054599032273259303 -0.010894439635631583 0 0.00041379279474538486 -0.0078966461273150615 0 0.00057861405210257917 -0.008767092150644442 0 -0.00068785912123953163 -0.01075383248121151 0 -0.00055067298539752463 -0.010829074209966821 0 -0.00054599032273259303 -0.010894439635631583 0 0.00041379279474538486 -0.0078966461273150615 0 0.00038376046209274831 -0.0082919613991043264 0 -0.00060137394649225902 -0.010815648423762852 0 -0.00054599032273259303 -0.010894439635631583 0 -0.00057909808362392994 -0.010887867760812299 0 -0.00060137394649225902 -0.010815648423762852 0 -0.00057909808362392994 -0.010887867760812299 0 -0.00064732749705852341 -0.010790020755992691 0 0.00067416059828451474 -0.0095048006187903687 0 0.0003288882206362417 -0.0069779065978190632 0 5.9724018641866038e-05 -0.011434030319396252 0 0.0005347552903113426 -0.01150064519383537 0 0.00037899347047426967 -0.011220304675441561 0 5.9724018641866038e-05 -0.011434030319396252 0 8.6529248988486903e-05 -0.010989635188907613 0 -0.0004969806498798813 -0.010920455658147222 0 8.6529248988486903e-05 -0.010989635188907613 0 0.00031731147549147592 -0.010655369190060524 0 0.00051537814433651468 -0.01093401525245846 0 8.6529248988486903e-05 -0.010989635188907613 0 0.00051537814433651468 -0.01093401525245846 0 0.00037899347047426967 -0.011220304675441561 0 5.9724018641866038e-05 -0.011434030319396252 0 8.6529248988486903e-05 -0.010989635188907613 0 0.00037899347047426967 -0.011220304675441561 0 -0.00054599032273259303 -0.010894439635631583 0 -0.00057909808362392994 -0.010887867760812299 0 -0.0004969806498798813 -0.010920455658147222 0 -0.00054599032273259303 -0.010894439635631583 0 -0.00051999064592623807 -0.010923899446233894 0 -0.0004969806498798813 -0.010920455658147222 0 8.6529248988486903e-05 -0.010989635188907613 0 -0.0004969806498798813 -0.010920455658147222 0 -0.00015841296322184032 -0.010751239375954156 0 0.00067416059828451474 -0.0095048006187903687 0 0.00051815180101047584 -0.0099358547813155722 0 -0.00051999064592623807 -0.010923899446233894 0 -0.0004969806498798813 -0.010920455658147222 0 -0.00064529517097090838 -0.010972456768903644 0 -0.0004969806498798813 -0.010920455658147222 0 -0.00015841296322184032 -0.010751239375954156 0 -0.00041853237809242255 -0.010400626940796917 0 -0.0004969806498798813 -0.010920455658147222 0 -0.00041853237809242255 -0.010400626940796917 0 -0.00064529517097090838 -0.010972456768903644 0 -0.00015841296322184032 -0.010751239375954156 0 -0.00041853237809242255 -0.010400626940796917 0 -0.00015038227351453097 -0.010151322469288628 0 -0.00015841296322184032 -0.010751239375954156 0 -0.00015038227351453097 -0.010151322469288628 0 0.00018183308161818766 -0.0096850276986362831 0 -0.00015841296322184032 -0.010751239375954156 0 0.00031731147549147592 -0.010655369190060524 0 0.0004450963875404055 -0.0100531131613478 0 -0.00055269208106945445 -0.0097454344628880776 0 -0.00040197243870688344 -0.0090964359104703275 0 8.6529248988486903e-05 -0.010989635188907613 0 -0.00015841296322184032 -0.010751239375954156 0 0.00031731147549147592 -0.010655369190060524 0 -0.00015038227351453097 -0.010151322469288628 0 -0.00018740866029633079 -0.0098903200293960613 0 0.00018183308161818766 -0.0096850276986362831 0 -3.1288497717530203e-07 -0.008853594968943607 0 -0.00018740866029633079 -0.0098903200293960613 0 -8.2245821970247176e-07 -0.010531370482297759 0 -3.1288497717530203e-07 -0.008853594968943607 0 -0.00018740866029633079 -0.0098903200293960613 0 0.00018183308161818766 -0.0096850276986362831 0 -0.00018740866029633079 -0.0098903200293960613 0 -8.2245821970247176e-07 -0.010531370482297759 0 -0.00020847937121204038 -0.01073523801777832 0 -0.00041853237809242255 -0.010400626940796917 0 -0.00015038227351453097 -0.010151322469288628 0 -0.00018740866029633079 -0.0098903200293960613 0 -0.00037605423727729082 -0.011192059905666626 0 -0.00045215330072419864 -0.011397864212004911 0 -0.00041853237809242255 -0.010400626940796917 0 -0.00018740866029633079 -0.0098903200293960613 0 -0.00070271037349618315 -0.0099855454205083835 0 -0.00070271037349618315 -0.0099855454205083835 0 -0.0011523256224616819 -0.010568652554282647 0 -0.00072032174729267241 -0.010462149003267038 0 -0.00041853237809242255 -0.010400626940796917 0 -0.00070271037349618315 -0.0099855454205083835 0 -0.00072032174729267241 -0.010462149003267038 0 -0.00070271037349618315 -0.0099855454205083835 0 -0.0015747860494937833 -0.010147840813417615 0 -0.0011523256224616819 -0.010568652554282647 0 -0.00045215330072419864 -0.011397864212004911 0 -0.00074531583961913125 -0.01203485045286257 0 -8.2245821970247176e-07 -0.010531370482297759 0 -0.00020847937121204038 -0.01073523801777832 0 1.2462706225820296e-06 -0.012203812115413399 0 -0.00020847937121204038 -0.01073523801777832 0 1.2462706225820296e-06 -0.012203812115413399 0 0.00063245563578717115 -0.010525401764310988 0 -1.2485821495959255e-06 -0.012206745551651292 0 -0.00074531583961913125 -0.01203485045286257 0 1.5249311437480707e-06 -0.012209486407264037 0 0.00033004359376707145 -0.01405641814082558 0 -0.00013691981799730877 -0.01371105862210145 0 -0.00074531583961913125 -0.01203485045286257 0 -0.00087117195188812248 -0.013142396692651362 0 -0.0016340550018541921 -0.010068113841578009 0 -0.0017872035238639715 -0.011042756648855801 0 -0.0027381945854433303 -0.010426114304413337 0 -0.0017995718381889959 -0.010926736784448268 0 -0.0011523256224616819 -0.010568652554282647 0 -0.0012807233488138429 -0.011338517077352363 0 -0.00074531583961913125 -0.01203485045286257 0 -0.00094451365204858257 -0.011643122077472038 0 -0.0015747860494937833 -0.010147840813417615 0 -0.0017995718381889959 -0.010926736784448268 0 -0.0011523256224616819 -0.010568652554282647 0 -0.0011523256224616819 -0.010568652554282647 0 -0.00072032174729267241 -0.010462149003267038 0 -0.00064529517097090838 -0.010972456768903644 0 -0.00041853237809242255 -0.010400626940796917 0 -0.00072032174729267241 -0.010462149003267038 0 -0.00064529517097090838 -0.010972456768903644 0 -0.0011523256224616819 -0.010568652554282647 0 -0.00064529517097090838 -0.010972456768903644 0 -0.0012807233488138429 -0.011338517077352363 0 -0.00064529517097090838 -0.010972456768903644 0 -0.0012807233488138429 -0.011338517077352363 0 -0.0010539229301480839 -0.012091087551869184 0 -0.00026947766677209002 -0.012830706268219036 0 -0.00064529517097090838 -0.010972456768903644 0 -0.0010539229301480839 -0.012091087551869184 0 -0.00024601824052306054 -0.011633163848743602 0 -0.00035993282674708711 -0.01135137826368403 0 -0.00045979468002163017 -0.010880066031453398 0 -0.00051999064592623807 -0.010923899446233894 0 -0.00064529517097090838 -0.010972456768903644 0 -0.0014609352065679498 -0.012647771407990812 0 -0.0010539229301480839 -0.012091087551869184 0 -0.001944814013116443 -0.012010771373779709 0 -0.0019132041886567852 -0.012983683515795498 0 -0.001944814013116443 -0.012010771373779709 0 -0.0024131278924569783 -0.012477247391472128 0 -0.0017872035238639715 -0.011042756648855801 0 -0.001944814013116443 -0.012010771373779709 0 -0.0026680085128997859 -0.011405085403618493 0 -0.00094451365204858257 -0.011643122077472038 0 -0.0010316194363788078 -0.011677017863399251 0 -0.0017995718381889959 -0.010926736784448268 0 -0.0012807233488138429 -0.011338517077352363 0 -0.001944814013116443 -0.012010771373779709 0 -0.0012807233488138429 -0.011338517077352363 0 -0.0010539229301480839 -0.012091087551869184 0 -0.001944814013116443 -0.012010771373779709 0 -0.001944814013116443 -0.012010771373779709 0 -0.0024131278924569783 -0.012477247391472128 0 -0.0026680085128997859 -0.011405085403618493 0 -0.0024131278924569783 -0.012477247391472128 0 -0.0032394048113897874 -0.01222526300984462 0 -0.0026680085128997859 -0.011405085403618493 0 -0.0032394048113897874 -0.01222526300984462 0 -0.0038623995613570926 -0.010787431026444722 0 -0.0026680085128997859 -0.011405085403618493 0 -0.0016456394713508201 -0.016427143557164778 0 -0.00068535589972294243 -0.018028412386417586 0 -0.00025323545461809012 -0.017375545731698219 0 -0.00098299465410166742 -0.015524097344748739 0 -0.0016456394713508201 -0.016427143557164778 0 -0.00034049201364156603 -0.016601711599357478 0 -0.0016456394713508201 -0.016427143557164778 0 -0.00034049201364156603 -0.016601711599357478 0 -0.00025323545461809012 -0.017375545731698219 0 -0.0014700698804695322 -0.014065294010501703 0 -0.00066185623616691713 -0.014415613318190509 0 -0.00066185623616691713 -0.014415613318190509 0 -0.00087117195188812248 -0.013142396692651362 0 -0.0038623995613570926 -0.010787431026444722 0 -0.0026680085128997859 -0.011405085403618493 0 -0.0027381945854433303 -0.010426114304413337 0 -0.0017872035238639715 -0.011042756648855801 0 -0.0026680085128997859 -0.011405085403618493 0 -0.0027381945854433303 -0.010426114304413337 0 0.00033004359376707145 -0.01405641814082558 0 -0.00013095726444551728 -0.01414217040280793 0 -0.00013691981799730877 -0.01371105862210145 0 -0.00013095726444551728 -0.01414217040280793 0 -0.00013691981799730877 -0.01371105862210145 0 -0.00012576236665474597 -0.014105121091769037 0 -1.4875462476903309e-06 -0.014127679278322529 0 -0.00013691981799730877 -0.01371105862210145 0 -0.00012576236665474597 -0.014105121091769037 0 1.5249311437480707e-06 -0.012209486407264037 0 -1.4875462476903309e-06 -0.014127679278322529 0 -0.00013691981799730877 -0.01371105862210145 0 -1.4875462476903309e-06 -0.014127679278322529 0 -3.1932619835632756e-05 -0.014452144203703915 0 1.4449695257481417e-06 -0.015980770421275756 0 -1.4875462476903309e-06 -0.014127679278322529 0 -0.00012576236665474597 -0.014105121091769037 0 -3.1932619835632756e-05 -0.014452144203703915 0 -0.00066185623616691713 -0.014415613318190509 0 -0.00020176558380518461 -0.01535581112450859 0 -0.00010420265258216847 -0.014126410301946687 0 -0.00012576236665474597 -0.014105121091769037 0 -3.1932619835632756e-05 -0.014452144203703915 0 -0.00010420265258216847 -0.014126410301946687 0 -0.00013095726444551728 -0.01414217040280793 0 -0.00012576236665474597 -0.014105121091769037 0 0.0003911390304490744 -0.01776261348900568 0 0.00051736372210353936 -0.017511411822908371 0 0.00028046386825743524 -0.017714164871309813 0 0.00051736372210353936 -0.017511411822908371 0 6.2401275041135593e-05 -0.017120495011183335 0 5.1142874354887306e-05 -0.017835819915682397 0 0.00051736372210353936 -0.017511411822908371 0 5.1142874354887306e-05 -0.017835819915682397 0 0.00028046386825743524 -0.017714164871309813 0 0.00051736372210353936 -0.017511411822908371 0 6.2401275041135593e-05 -0.017120495011183335 0 1.3166258236633115e-06 -0.015987059305857813 0 -0.00020176558380518461 -0.01535581112450859 0 -0.00012241634629637629 -0.015531181651536526 0 6.2401275041135593e-05 -0.017120495011183335 0 1.3166258236633115e-06 -0.015987059305857813 0 -2.4092873736107285e-05 -0.017569059048975978 0 -4.2693377036470247e-07 -0.01796859629867191 0 1.3166258236633115e-06 -0.015987059305857813 0 -2.4092873736107285e-05 -0.017569059048975978 0 6.2401275041135593e-05 -0.017120495011183335 0 -2.4092873736107285e-05 -0.017569059048975978 0 5.1142874354887306e-05 -0.017835819915682397 0 0.00013389220653961339 -0.018509522597629807 0 -2.4092873736107285e-05 -0.017569059048975978 0 5.1142874354887306e-05 -0.017835819915682397 0 0.00049364975110484735 -0.017586664238808499 0 5.1142874354887306e-05 -0.017835819915682397 0 0.000330086665146144 -0.0174084474207062 0 5.1142874354887306e-05 -0.017835819915682397 0 0.00016217924807519782 -0.017609113610689536 0 0.000330086665146144 -0.0174084474207062 0 0.0003911390304490744 -0.01776261348900568 0 0.00028046386825743524 -0.017714164871309813 0 0.00016217924807519782 -0.017609113610689536 0 -0.00066185623616691713 -0.014415613318190509 0 -0.00064783911695834599 -0.014886818004608964 0 5.1142874354887306e-05 -0.017835819915682397 0 0.00028046386825743524 -0.017714164871309813 0 0.00016217924807519782 -0.017609113610689536 0 -0.00068535589972294243 -0.018028412386417586 0 -0.00025323545461809012 -0.017375545731698219 0 0.00016217924807519782 -0.017609113610689536 0 -0.00025323545461809012 -0.017375545731698219 0 0.00016217924807519782 -0.017609113610689536 0 0.00023976600994707749 -0.016982305007304722 0 0.00078364275508797389 -0.016913587145765799 0 0.0012740977219303012 -0.016893795680188499 0 -0.00034049201364156603 -0.016601711599357478 0 -0.00025323545461809012 -0.017375545731698219 0 0.00023976600994707749 -0.016982305007304722 0 0.00016217924807519782 -0.017609113610689536 0 0.000330086665146144 -0.0174084474207062 0 0.00023976600994707749 -0.016982305007304722 0 0.00059118975401290885 -0.017035532112628204 0 0.000330086665146144 -0.0174084474207062 0 0.00023976600994707749 -0.016982305007304722 0 0.0016579102696822317 -0.00074558191493721468 0 0.0014560657693577462 -0.00078875251032847705 0 0.0015827163363357467 -0.00061133364993522352 0 0.0016579102696822317 -0.00074558191493721468 0 0.0014560657693577462 -0.00078875251032847705 0 0.0015622715942825707 -0.00091725827220335535 0 0.0016579102696822317 -0.00074558191493721468 0 0.0018288242624333424 -0.00081393271127191752 0 0.0017075439818284705 -0.0008986448542461109 0 0.0014560657693577462 -0.00078875251032847705 0 0.0014139985292231456 -0.00061710201374215229 0 0.0013093143253151821 -0.00074670103207937085 0 0.0014560657693577462 -0.00078875251032847705 0 0.0014139985292231456 -0.00061710201374215229 0 0.0015827163363357467 -0.00061133364993522352 0 0.0014139985292231456 -0.00061710201374215229 0 0.0015827163363357467 -0.00061133364993522352 0 0.0015713292040722255 -0.00041254917569629856 0 0.0014139985292231456 -0.00061710201374215229 0 0.0015713292040722255 -0.00041254917569629856 0 0.0014682365135982778 -0.00036128584950880009 0 0.0016579102696822317 -0.00074558191493721468 0 0.0015827163363357467 -0.00061133364993522352 0 0.0017554500822864125 -0.00053863810626959819 0 0.0015827163363357467 -0.00061133364993522352 0 0.0017554500822864125 -0.00053863810626959819 0 0.0015713292040722255 -0.00041254917569629856 0 0.0025388419261594361 0.0042896349223393694 0 0.0030763908795022605 0.0027312981636018114 0 0.003923803697955224 0.0056682540107212106 0 0.004119510126350776 0.0068726926556710597 0 0.0052076963022613986 0.0045475358199614044 0 0.0015808571665987771 0.00050970379090819833 0 0.0012312725244782411 0.0010994301104786633 0 0.0013606125648420739 0.00014408707400387106 0 0.00075778850074952866 0.0012681693094812783 0 0.0012312725244782411 0.0010994301104786633 0 0.0013606125648420739 0.00014408707400387106 0 0.0041679449422267851 0.0047082916066120799 0 0.003923803697955224 0.0056682540107212106 0 0.0052076963022613986 0.0045475358199614044 0 0.0013221328855943049 0.0025750390486416648 0 0.0014119572426604134 0.0045098517340487277 0 0.0011301045353796725 0.00041482544275776498 0 0.0010581489810403688 0.00024369250914863682 0 0.00071670861433012186 0.00072544921278760294 0 0.0041679449422267851 0.0047082916066120799 0 0.003923803697955224 0.0056682540107212106 0 0.0027451092126806577 0.0057404108506520649 0 0.0025308553528784567 0.0031761832670297529 0 0.0014119572426604134 0.0045098517340487277 0 0.003923803697955224 0.0056682540107212106 0 0.0033743322856735051 0.0064734589189423706 0 0.0027451092126806577 0.0057404108506520649 0 0.003923803697955224 0.0056682540107212106 0 0.0033743322856735051 0.0064734589189423706 0 0.004119510126350776 0.0068726926556710597 0 0.0033743322856735051 0.0064734589189423706 0 0.004119510126350776 0.0068726926556710597 0 0.0033439022522210185 0.0073504724290145117 0 0.0033743322856735051 0.0064734589189423706 0 0.0033439022522210185 0.0073504724290145117 0 0.0027259734973258043 0.0070534908997570266 0 0.0015775424103967135 0.00026363626244135471 0 0.0013687388118501867 0.0010519330679021031 0 0.0016579102696822317 -0.00074558191493721468 0 0.0017554500822864125 -0.00053863810626959819 0 0.0018288242624333424 -0.00081393271127191752 0 0.0015808571665987771 0.00050970379090819833 0 0.0012312725244782411 0.0010994301104786633 0 0.0013260593955137191 0.0015135682675322048 0 0.00075778850074952866 0.0012681693094812783 0 0.0012312725244782411 0.0010994301104786633 0 0.0013756896497709604 0.0015692285012271167 0 0.0013694390368256273 0.0010777729041154343 0 0.0013687388118501867 0.0010519330679021031 0 0.0013687388118501867 0.0010519330679021031 0 0.0013565644570074449 0.0011375521547863832 0 0.0014586249451794535 0.0014289764405653234 0 0.0016857278813372347 0.0024825772477406909 0 0.0010511492843215337 0.0028995961581391619 0 0.0018288242624333424 -0.00081393271127191752 0 0.0017801827490636884 -0.0010227557759059944 0 0.0017075439818284705 -0.0008986448542461109 0 0.0013756896497709604 0.0015692285012271167 0 0.00076097626666852961 0.0022306954561203151 0 0.0010387854256373845 0.0029444632249855515 0 0.0013687388118501867 0.0010519330679021031 0 0.0010143131363933408 0.0026412024311237544 0 0.00075778850074952866 0.0012681693094812783 0 0.0013756896497709604 0.0015692285012271167 0 0.00076097626666852961 0.0022306954561203151 0 0.004119510126350776 0.0068726926556710597 0 0.0033439022522210185 0.0073504724290145117 0 0.0030255478568900589 0.0092211428554323498 0 0.00075778850074952866 0.0012681693094812783 0 0.00076097626666852961 0.0022306954561203151 0 3.9415909898997173e-05 0.0027286510165965001 0 0.0025388419261594361 0.0042896349223393694 0 0.0018930813782061376 0.0063956119965325308 0 0.0033439022522210185 0.0073504724290145117 0 0.0030255478568900589 0.0092211428554323498 0 0.0029004785924654128 0.0078390085509367075 0 0.00076097626666852961 0.0022306954561203151 0 0.00052633812449212147 0.0028318972994619833 0 3.9415909898997173e-05 0.0027286510165965001 0 0.00076097626666852961 0.0022306954561203151 0 0.00052633812449212147 0.0028318972994619833 0 0.0010387854256373845 0.0029444632249855515 0 0.00052633812449212147 0.0028318972994619833 0 0.00056048844510335645 0.0031141875061606234 0 0.0010387854256373845 0.0029444632249855515 0 0.00049902513363914592 0.0035360305117629661 0 0.00056048844510335645 0.0031141875061606234 0 0.0010387854256373845 0.0029444632249855515 0 0.00017268921030226441 0.0034244240351092902 0 0.00052633812449212147 0.0028318972994619833 0 3.9415909898997173e-05 0.0027286510165965001 0 0.00017268921030226441 0.0034244240351092902 0 0.00052633812449212147 0.0028318972994619833 0 0.00056048844510335645 0.0031141875061606234 0 0.00017268921030226441 0.0034244240351092902 0 0.00049902513363914592 0.0035360305117629661 0 0.00056048844510335645 0.0031141875061606234 0 0.001909672936166921 0.0035302165891786556 0 0.0016857278813372347 0.0024825772477406909 0 0.0014011817026533539 0.0030820475439616315 0 0.0013088398922855185 0.0016375540674613087 0 0.0013565644570074449 0.0011375521547863832 0 0.0016857278813372347 0.0024825772477406909 0 0.0010511492843215337 0.0028995961581391619 0 0.0014011817026533539 0.0030820475439616315 0 0.0014516790613604809 0.0034417756210154207 0 0.0010511492843215337 0.0028995961581391619 0 0.0014011817026533539 0.0030820475439616315 0 0.0019068453759678043 0.0035341842299580349 0 0.0014516790613604809 0.0034417756210154207 0 0.0014011817026533539 0.0030820475439616315 0 0.0013088398922855185 0.0016375540674613087 0 0.0014457965928431707 0.0018268950225186643 0 0.0016453011701006175 -0.0010868686239945079 0 0.0015622715942825707 -0.00091725827220335535 0 0.0014913238766530725 -0.0011245515148207675 0 0.0015754065376993767 -0.0012164822088436725 0 0.0017331406720378856 -0.0012287192718252128 0 0.0016453011701006175 -0.0010868686239945079 0 0.0017331406720378856 -0.0012287192718252128 0 0.0017801827490636884 -0.0010227557759059944 0 0.0016453011701006175 -0.0010868686239945079 0 0.0015754065376993767 -0.0012164822088436725 0 0.0016453011701006175 -0.0010868686239945079 0 0.0014913238766530725 -0.0011245515148207675 0 0.0016453011701006175 -0.0010868686239945079 0 0.0015622715942825707 -0.00091725827220335535 0 0.0017075439818284705 -0.0008986448542461109 0 0.0017801827490636884 -0.0010227557759059944 0 0.0016453011701006175 -0.0010868686239945079 0 0.0017075439818284705 -0.0008986448542461109 0 0.0016579102696822317 -0.00074558191493721468 0 0.0015622715942825707 -0.00091725827220335535 0 0.0017075439818284705 -0.0008986448542461109 0 0.0015622715942825707 -0.00091725827220335535 0 0.0013925321460385263 -0.00095104025208947072 0 0.0014913238766530725 -0.0011245515148207675 0 0.0014560657693577462 -0.00078875251032847705 0 0.0013925321460385263 -0.00095104025208947072 0 0.0013271562042086503 -0.00084829132094929854 0 0.0014560657693577462 -0.00078875251032847705 0 0.0015622715942825707 -0.00091725827220335535 0 0.0013925321460385263 -0.00095104025208947072 0 0.0014324538304312643 -0.0012752206071040173 0 0.0014913238766530725 -0.0011245515148207675 0 0.0013192281207321335 -0.0011518855796130727 0 0.0014913238766530725 -0.0011245515148207675 0 0.0013192281207321335 -0.0011518855796130727 0 0.0012356628922675099 -0.001003619502125138 0 0.00054808157433539409 -0.0034252655355057537 0 0.000895179062476816 -0.003126179822387496 0 0.0013925321460385263 -0.00095104025208947072 0 0.0014913238766530725 -0.0011245515148207675 0 0.0012346580297475068 -0.0009942899979815008 0 0.00084769752799346374 -0.002619002479791382 0 0.000895179062476816 -0.003126179822387496 0 0.0011950939341186654 -0.0012751527762641555 0 0.0013192281207321335 -0.0011518855796130727 0 0.0012356628922675099 -0.001003619502125138 0 -0.00036262891098299085 -0.0043315286067945437 0 -0.00048163677290242042 -0.0051396182270001924 0 0.00034814526677930249 -0.0050546373294023542 0 0.00054808157433539409 -0.0034252655355057537 0 0.00038973139749530315 -0.0055299727610285078 0 9.4844626858301719e-05 -0.0063406441945194148 0 -7.6238485983847699e-05 -0.0063050962326296599 0 7.7446712856318561e-05 -0.0064554074684732548 0 -0.00048163677290242042 -0.0051396182270001924 0 0.00034814526677930249 -0.0050546373294023542 0 0.0003463888302000522 -0.0052298912843311493 0 0.000895179062476816 -0.003126179822387496 0 0.00036149895397127673 -0.0043989622403652409 0 -0.00048163677290242042 -0.0051396182270001924 0 0.0003463888302000522 -0.0052298912843311493 0 0.00020705721726018564 -0.0054868579821195605 0 0.0011411991249239107 -0.00086467505992222124 0 0.0012350715714300614 -0.00099100867719442427 0 0.001019329124822938 -0.00086487229256526459 0 0.0011411991249239107 -0.00086467505992222124 0 0.0012459356804296654 -0.00092270875616358417 0 0.0012371844459321529 -0.00082953194938960371 0 0.0012459356804296654 -0.00092270875616358417 0 0.0013271562042086503 -0.00084829132094929854 0 0.0012371844459321529 -0.00082953194938960371 0 0.0013925321460385263 -0.00095104025208947072 0 0.0012459356804296654 -0.00092270875616358417 0 0.0013271562042086503 -0.00084829132094929854 0 0.0013925321460385263 -0.00095104025208947072 0 0.0012459356804296654 -0.00092270875616358417 0 0.0012346580297475068 -0.0009942899979815008 0 0.0011411991249239107 -0.00086467505992222124 0 0.0012459356804296654 -0.00092270875616358417 0 0.0012350715714300614 -0.00099100867719442427 0 0.00091419191729322268 -0.0029996394381607925 0 0.000895179062476816 -0.003126179822387496 0 0.00021041221688168198 -0.0063311340101118519 0 0.00028588417098923897 -0.0064062141930557003 0 0.00020583955131953549 -0.0064588271897113936 0 9.4844626858301719e-05 -0.0063406441945194148 0 0.00021041221688168198 -0.0063311340101118519 0 0.00020583955131953549 -0.0064588271897113936 0 9.4844626858301719e-05 -0.0063406441945194148 0 0.00020583955131953549 -0.0064588271897113936 0 7.7446712856318561e-05 -0.0064554074684732548 0 0.0003463888302000522 -0.0052298912843311493 0 0.00020705721726018564 -0.0054868579821195605 0 0.00088738768870948431 -0.0058280702229214342 0 0.00034814526677930249 -0.0050546373294023542 0 0.0003463888302000522 -0.0052298912843311493 0 0.0010729626665652678 -0.0057954424875672848 0 0.00013162899524490136 -0.0061038239092179323 0 0.00019787852976632479 -0.0064542090130894009 0 0.00030348770467160917 -0.0065013086060558955 0 0.00020583955131953549 -0.0064588271897113936 0 0.00022274202450130743 -0.0066033384215939675 0 0.00038973139749530315 -0.0055299727610285078 0 0.00025932477037445429 -0.0073362139926317384 0 0.00020583955131953549 -0.0064588271897113936 0 7.7446712856318561e-05 -0.0064554074684732548 0 0.00022274202450130743 -0.0066033384215939675 0 0.0003463888302000522 -0.0052298912843311493 0 0.0010729626665652678 -0.0057954424875672848 0 0.00090479329759165172 -0.0058527185432344728 0 0.00039987093562925889 -0.0075105612464138397 0 2.2866572508452501e-05 -0.007129167807404687 0 -0.00011810732735078568 -0.0073037401690508284 0 0.00041379279474538486 -0.0078966461273150615 0 0.00025932477037445429 -0.0073362139926317384 0 0.00041379279474538486 -0.0078966461273150615 0 0.0003288882206362417 -0.0069779065978190632 0 0.0010729626665652678 -0.0057954424875672848 0 0.00090479329759165172 -0.0058527185432344728 0 0.00096940772730699559 -0.0059239704771929377 0 0.00025932477037445429 -0.0073362139926317384 0 0.0003288882206362417 -0.0069779065978190632 0 0.00019787852976632479 -0.0064542090130894009 0 0.0003288882206362417 -0.0069779065978190632 0 0.0009720194422784585 -0.00079967363951316355 0 0.00098367369160851223 -0.00080402986297188411 0 0.00097019762720667831 -0.00080023389901173465 0 0.00036149895397127673 -0.0043989622403652409 0 0.00019787852976632479 -0.0064542090130894009 0 0.00098367369160851223 -0.00080402986297188411 0 0.00097019762720667831 -0.00080023389901173465 0 0.00097005485085614968 -0.00092441224517422857 0 0.001019329124822938 -0.00086487229256526459 0 0.0009720194422784585 -0.00079967363951316355 0 0.00097019762720667831 -0.00080023389901173465 0 0.00097019762720667831 -0.00080023389901173465 0 0.0010687056662899664 -0.00077573811153344903 0 0.0011001546943312003 -0.00058741213739727145 0 0.001019329124822938 -0.00086487229256526459 0 0.00097019762720667831 -0.00080023389901173465 0 0.0010687056662899664 -0.00077573811153344903 0 0.00097005485085614968 -0.00092441224517422857 0 0.00080923002247697631 -0.00092826035683468493 0 0.00085524263103011107 -0.001108040054420095 0 0.00097019762720667831 -0.00080023389901173465 0 0.00097005485085614968 -0.00092441224517422857 0 0.00080923002247697631 -0.00092826035683468493 0 0.0011010862750932045 -0.0010854047197848028 0 0.001047090656421418 -0.0012327708248046055 0 0.00059012543776573777 -0.012006115396142332 0 0.00098426950869138965 -0.011530061842686044 0 0.0005347552903113426 -0.01150064519383537 0 0.0003288882206362417 -0.0069779065978190632 0 0.00068996205832811894 -0.0062615937287445397 0 5.9724018641866038e-05 -0.011434030319396252 0 0.00059012543776573777 -0.012006115396142332 0 0.0005347552903113426 -0.01150064519383537 0 0.00098426950869138965 -0.011530061842686044 0 0.0005347552903113426 -0.01150064519383537 0 0.00070561301730139481 -0.011240198633531085 0 0.0005347552903113426 -0.01150064519383537 0 0.00037899347047426967 -0.011220304675441561 0 0.00070561301730139481 -0.011240198633531085 0 0.0013093143253151821 -0.00074670103207937085 0 0.0011785747755167296 -0.00074408316216398828 0 0.0012512970934374648 -0.00062086886116202158 0 0.0014139985292231456 -0.00061710201374215229 0 0.0013093143253151821 -0.00074670103207937085 0 0.0012512970934374648 -0.00062086886116202158 0 0.0014560657693577462 -0.00078875251032847705 0 0.0013271562042086503 -0.00084829132094929854 0 0.0013093143253151821 -0.00074670103207937085 0 0.0013271562042086503 -0.00084829132094929854 0 0.0013093143253151821 -0.00074670103207937085 0 0.0012371844459321529 -0.00082953194938960371 0 0.0013093143253151821 -0.00074670103207937085 0 0.0012371844459321529 -0.00082953194938960371 0 0.0011785747755167296 -0.00074408316216398828 0 0.0010687056662899664 -0.00077573811153344903 0 0.0011785747755167296 -0.00074408316216398828 0 0.0011001546943312003 -0.00058741213739727145 0 0.0011411991249239107 -0.00086467505992222124 0 0.0010687056662899664 -0.00077573811153344903 0 0.0011785747755167296 -0.00074408316216398828 0 0.0011411991249239107 -0.00086467505992222124 0 0.0012371844459321529 -0.00082953194938960371 0 0.0011785747755167296 -0.00074408316216398828 0 0.0011411991249239107 -0.00086467505992222124 0 0.001019329124822938 -0.00086487229256526459 0 0.0010687056662899664 -0.00077573811153344903 0 0.0011785747755167296 -0.00074408316216398828 0 0.0011001546943312003 -0.00058741213739727145 0 0.0012512970934374648 -0.00062086886116202158 0 0.00065455854039075077 -0.0013643701440642106 0 0.00066697035945298693 -0.0019350151884637795 0 0.0011001546943312003 -0.00058741213739727145 0 0.0012512970934374648 -0.00062086886116202158 0 0.0012834353646454049 -0.00040690549826208263 0 0.0014139985292231456 -0.00061710201374215229 0 0.0012512970934374648 -0.00062086886116202158 0 0.0012834353646454049 -0.00040690549826208263 0 0.00066697035945298693 -0.0019350151884637795 0 0.00084548650517323094 -0.0018162390538009959 0 0.00061623237863559345 -0.0011075512781857735 0 0.00085524263103011107 -0.001108040054420095 0 0.00071406708805958022 -0.0012946387693772642 0 0.001047090656421418 -0.0012327708248046055 0 0.00066697035945298693 -0.0019350151884637795 0 0.00080923002247697631 -0.00092826035683468493 0 0.00061623237863559345 -0.0011075512781857735 0 0.00085524263103011107 -0.001108040054420095 0 0.0013894809332408104 -0.011038948115203347 0 0.0014004458462623713 -0.010402159332603154 0 0.0017935657790912861 -0.010537524207540809 0 0.00080335842070821111 -0.0057437654115023397 0 0.00085967126177659541 -0.0050494110385656162 0 0.0014004458462623713 -0.010402159332603154 0 0.0017935657790912861 -0.010537524207540809 0 0.0015369637387972574 -0.010059069186852964 0 0.00031900813608548638 -0.0036435359911639585 0 8.9926179192717054e-05 -0.0032177822272496837 0 0.00069496811535271199 -0.0032954889515043463 0 8.9926179192717054e-05 -0.0032177822272496837 0 0.00037097356075758373 -0.002869793463684898 0 0.00069496811535271199 -0.0032954889515043463 0 0.00085967126177659541 -0.0050494110385656162 0 0.00091534289612291858 -0.0045055507688313359 0 0.00066697035945298693 -0.0019350151884637795 0 0.00085967126177659541 -0.0050494110385656162 0 0.00051537814433651468 -0.01093401525245846 0 0.00037899347047426967 -0.011220304675441561 0 0.00070561301730139481 -0.011240198633531085 0 0.00051537814433651468 -0.01093401525245846 0 0.00070561301730139481 -0.011240198633531085 0 0.00097602686653800992 -0.010948762745180677 0 0.00068996205832811894 -0.0062615937287445397 0 0.00080335842070821111 -0.0057437654115023397 0 0.00098426950869138965 -0.011530061842686044 0 0.0013894809332408104 -0.011038948115203347 0 0.00097602686653800992 -0.010948762745180677 0 0.00098426950869138965 -0.011530061842686044 0 0.00070561301730139481 -0.011240198633531085 0 0.00097602686653800992 -0.010948762745180677 0 0.0013894809332408104 -0.011038948115203347 0 0.00097602686653800992 -0.010948762745180677 0 0.0010669494892955949 -0.010558767114264725 0 0.0013894809332408104 -0.011038948115203347 0 0.0014004458462623713 -0.010402159332603154 0 0.0010669494892955949 -0.010558767114264725 0 0.0014004458462623713 -0.010402159332603154 0 0.0010669494892955949 -0.010558767114264725 0 0.001178465180837255 -0.010252865513332319 0 0.0010669494892955949 -0.010558767114264725 0 0.00069727272006386821 -0.010543474149129222 0 0.00093071308339361981 -0.010151683000782806 0 0.00097602686653800992 -0.010948762745180677 0 0.0010669494892955949 -0.010558767114264725 0 0.00069727272006386821 -0.010543474149129222 0 0.00031731147549147592 -0.010655369190060524 0 0.00069727272006386821 -0.010543474149129222 0 0.0004450963875404055 -0.0100531131613478 0 0.00051537814433651468 -0.01093401525245846 0 0.00097602686653800992 -0.010948762745180677 0 0.00069727272006386821 -0.010543474149129222 0 0.00031731147549147592 -0.010655369190060524 0 0.00051537814433651468 -0.01093401525245846 0 0.00069727272006386821 -0.010543474149129222 0 0.0004450963875404055 -0.0100531131613478 0 0.00093071308339361981 -0.010151683000782806 0 0.0010969897268786118 -0.0097507581281033717 0 0.00069727272006386821 -0.010543474149129222 0 0.0004450963875404055 -0.0100531131613478 0 0.00093071308339361981 -0.010151683000782806 0 0.00093071308339361981 -0.010151683000782806 0 0.0011378524482737588 -0.010048609073945881 0 0.0010969897268786118 -0.0097507581281033717 0 0.0010669494892955949 -0.010558767114264725 0 0.00093071308339361981 -0.010151683000782806 0 0.001178465180837255 -0.010252865513332319 0 0.0014004458462623713 -0.010402159332603154 0 0.001178465180837255 -0.010252865513332319 0 0.0013452239192867658 -0.010038485389769421 0 0.00093071308339361981 -0.010151683000782806 0 0.001178465180837255 -0.010252865513332319 0 0.0011378524482737588 -0.010048609073945881 0 0.001178465180837255 -0.010252865513332319 0 0.0011378524482737588 -0.010048609073945881 0 0.0013452239192867658 -0.010038485389769421 0 0.0011378524482737588 -0.010048609073945881 0 0.0010969897268786118 -0.0097507581281033717 0 0.0013452239192867658 -0.010038485389769421 0 0.0010969897268786118 -0.0097507581281033717 0 0.0013452239192867658 -0.010038485389769421 0 0.001538608524733399 -0.010059090003193064 0 0.0004450963875404055 -0.0100531131613478 0 0.0010969897268786118 -0.0097507581281033717 0 0.0010626344163288828 -0.0093684559337493204 0 0.0010969897268786118 -0.0097507581281033717 0 0.0011731534477689787 -0.0093746853435102469 0 0.001538608524733399 -0.010059090003193064 0 0.0010969897268786118 -0.0097507581281033717 0 0.0011731534477689787 -0.0093746853435102469 0 0.0010626344163288828 -0.0093684559337493204 0 1.3720954827218758e-07 -0.0069640057968687356 0 2.4593897096183526e-05 -0.0070095163435134836 0 -1.371165922182851e-07 -0.0071451206114905505 0 0.00012695108347074292 -0.006850300174134666 0 0.00010460800136096948 -0.0070373619501413178 0 3.6979511051709808e-06 -0.0069611288140219892 0 0.00012695108347074292 -0.006850300174134666 0 -3.1288497717530203e-07 -0.008853594968943607 0 0.00018183308161818766 -0.0096850276986362831 0 1.1177059973134263e-06 -0.0071483301297405755 0 -0.00040197243870688344 -0.0090964359104703275 0 0.00010460800136096948 -0.0070373619501413178 0 0.00059760245681025588 -0.004429373944041165 0 0.00070149612091106525 -0.0044436665066943729 0 0.00063857648753553459 -0.0044858006399697151 0 0.00091534289612291858 -0.0045055507688313359 0 0.00083027995992726285 -0.0058087233633705385 0 0.00057627346561251347 -0.0044547218412857208 0 0.00063857648753553459 -0.0044858006399697151 0 0.00057240772164826007 -0.004501627712332759 0 0.00057627346561251347 -0.0044547218412857208 0 0.00059760245681025588 -0.004429373944041165 0 0.00063857648753553459 -0.0044858006399697151 0 0.00090603487473170949 -0.0045100930620035505 0 0.00091534289612291858 -0.0045055507688313359 0 0.00085967126177659541 -0.0050494110385656162 0 0.00083027995992726285 -0.0058087233633705385 0 0.00064580633026298034 -0.0051386849614555256 0 0.0006684063923718778 -0.0051105985379000241 0 0.00062872363116007438 -0.0051070827599880636 0 0.0014004458462623713 -0.010402159332603154 0 0.0013452239192867658 -0.010038485389769421 0 0.0015369637387972574 -0.010059069186852964 0 0.00088332640944679551 -0.0058762229759697351 0 0.00083027995992726285 -0.0058087233633705385 0 0.00076520131359179464 -0.0045664625394304182 0 0.00063714048282166374 -0.004555500613577082 0 0.00063857648753553459 -0.0044858006399697151 0 8.9576205457631146e-08 -0.0069634682994109218 0 1.3125929447989521e-06 -0.0068765750503791872 0 -8.949154572248138e-08 -0.0054618141636216229 0 0.00012695108347074292 -0.006850300174134666 0 2.0751021560177948e-05 -0.0053323763885838593 0 1.3125929447989521e-06 -0.0068765750503791872 0 -8.949154572248138e-08 -0.0054618141636216229 0 -3.9433509035596267e-06 -0.0052748511242376433 0 0.00076520131359179464 -0.0045664625394304182 0 0.00070149612091106525 -0.0044436665066943729 0 0.00063857648753553459 -0.0044858006399697151 0 0.00012695108347074292 -0.006850300174134666 0 0.00083027995992726285 -0.0058087233633705385 0 -8.949154572248138e-08 -0.0054618141636216229 0 -3.9433509035596267e-06 -0.0052748511242376433 0 8.9756073576893335e-08 -0.0039614131501039072 0 2.0751021560177948e-05 -0.0053323763885838593 0 0.00023940570535412931 -0.0040243482799389172 0 0.00063714048282166374 -0.004555500613577082 0 0.00057240772164826007 -0.004501627712332759 0 0.00050876778543837171 -0.0045447718974968299 0 0.00063714048282166374 -0.004555500613577082 0 0.00063857648753553459 -0.0044858006399697151 0 0.00057240772164826007 -0.004501627712332759 0 -3.9433509035596267e-06 -0.0052748511242376433 0 8.9756073576893335e-08 -0.0039614131501039072 0 7.8825506990111543e-06 -0.0038008508346474156 0 0.00050876778543837171 -0.0045447718974968299 0 0.00041604412166632292 -0.0044372204274562383 0 0.00050036580888228744 -0.0044670985295557049 0 1.4841111139854393e-06 -0.0039603594378028028 0 0.00023940570535412931 -0.0040243482799389172 0 7.6988933477136181e-09 -0.0039596422010468374 0 -5.6983866377297881e-09 -0.0037500499260855959 0 -7.5279923113159267e-06 -0.0036970940785992141 0 0.00057240772164826007 -0.004501627712332759 0 0.00050876778543837171 -0.0045447718974968299 0 0.00050036580888228744 -0.0044670985295557049 0 -5.6983866377297881e-09 -0.0037500499260855959 0 -7.5279923113159267e-06 -0.0036970940785992141 0 -0.00032276071064691936 -0.0035684464531605064 0 -7.5279923113159267e-06 -0.0036970940785992141 0 -0.0002090764031746689 -0.0034633651621046985 0 -0.00032276071064691936 -0.0035684464531605064 0 2.5816439857251883e-07 -0.0037461940640568722 0 0.00024029954854061343 -0.0019436396429455645 0 4.2796653597248405e-07 -0.0037480517291249528 0 0.00019352495882099275 -0.0010702726770634124 0 4.8976479931918632e-07 -0.0017604395799797775 0 0.00023940570535412931 -0.0040243482799389172 0 0.00066411664540531271 -0.0018508274661861092 0 0.00066411664540531271 -0.0018508274661861092 0 0.00024029954854061343 -0.0019436396429455645 0 0.00041604412166632292 -0.0044372204274562383 0 0.00045002423820917741 -0.0044062581349833766 0 0.00050036580888228744 -0.0044670985295557049 0 0.00066411664540531271 -0.0018508274661861092 0 0.0007992176092417062 -0.0018492032152087868 0 0.00098665500741278796 -0.0007929725404087507 0 0.00062042337670224496 -0.0011327452698301401 0 0.0013660989969069151 -0.001216614522778998 0 0.0016223180528502515 -0.00024485020712965177 0 0.0016221652930869296 -0.00025452730236641326 0 0.0015415270384762246 -0.00030753846012711859 0 0.0007992176092417062 -0.0018492032152087868 0 0.00091892160396963803 -0.00065537080914688552 0 0.00066411664540531271 -0.0018508274661861092 0 0.00091892160396963803 -0.00065537080914688552 0 0.00056515278338190055 -0.00061779525762839678 0 0.00047724111733689079 -0.00051845053959871754 0 0.0004553930988670072 -0.0006168277746794866 0 0.00057627346561251347 -0.0044547218412857208 0 0.00059831171948749717 -0.0044276381607257489 0 0.00045002423820917741 -0.0044062581349833766 0 0.00057627346561251347 -0.0044547218412857208 0 0.00045002423820917741 -0.0044062581349833766 0 0.00050036580888228744 -0.0044670985295557049 0 0.00091534289612291858 -0.0045055507688313359 0 0.0007992176092417062 -0.0018492032152087868 0 0.00057627346561251347 -0.0044547218412857208 0 0.00057240772164826007 -0.004501627712332759 0 0.00050036580888228744 -0.0044670985295557049 0 0.00037097356075758373 -0.002869793463684898 0 0.0010700956860311287 -0.0029467147819375828 0 0.00069496811535271199 -0.0032954889515043463 0 0.0014906816285351989 -0.0002322085612794948 0 0.0015797086852769046 -0.00024619553817959773 0 0.0014682365135982778 -0.00036128584950880009 0 0.0016223180528502515 -0.00024485020712965177 0 0.0014906816285351989 -0.0002322085612794948 0 0.0015797086852769046 -0.00024619553817959773 0 0.0007992176092417062 -0.0018492032152087868 0 0.00084548650517323094 -0.0018162390538009959 0 0.0031545312722256764 0.001695009215904266 0 0.0031662505256385177 0.0023938506123247633 0 0.0016221652930869296 -0.00025452730236641326 0 0.0016359827072597217 -0.0002443945130470528 0 0.0014841375814172604 -0.00016475136736377727 0 0.0016221652930869296 -0.00025452730236641326 0 0.0015129960380121476 0.00011942138127473339 0 0.0015091126340428045 -0.00017066071447511969 0 0.0016223180528502515 -0.00024485020712965177 0 0.0016221652930869296 -0.00025452730236641326 0 0.0015797086852769046 -0.00024619553817959773 0 0.0016221652930869296 -0.00025452730236641326 0 0.0015091126340428045 -0.00017066071447511969 0 0.0015415270384762246 -0.00030753846012711859 0 0.0016221652930869296 -0.00025452730236641326 0 0.0015797086852769046 -0.00024619553817959773 0 0.0016359827072597217 -0.0002443945130470528 0 0.0015775424103967135 0.00026363626244135471 0 0.0016277519468648469 4.839919103345372e-05 0 0.0015797086852769046 -0.00024619553817959773 0 0.0016359827072597217 -0.0002443945130470528 0 0.0015713292040722255 -0.00041254917569629856 0 0.0017554500822864125 -0.00053863810626959819 0 0.0016359827072597217 -0.0002443945130470528 0 0.0015713292040722255 -0.00041254917569629856 0 0.0015797086852769046 -0.00024619553817959773 0 0.0015713292040722255 -0.00041254917569629856 0 0.0014682365135982778 -0.00036128584950880009 0 0.0014139985292231456 -0.00061710201374215229 0 0.0013056632352901304 -0.00035775714434954376 0 0.0014682365135982778 -0.00036128584950880009 0 0.0013056632352901304 -0.00035775714434954376 0 0.0014906816285351989 -0.0002322085612794948 0 0.0014682365135982778 -0.00036128584950880009 0 0.0019489142655962092 0.004906537260095282 0 0.0014529082377856193 0.0043533395679694296 0 0.0011019802302607517 0.004759498452171022 0 0.0019489142655962092 0.004906537260095282 0 0.0023271172345434928 0.0042924093544515502 0 0.0019180669957404987 0.0043288466381060202 0 0.0019489142655962092 0.004906537260095282 0 0.0019180669957404987 0.0043288466381060202 0 0.0014529082377856193 0.0043533395679694296 0 0.0011301045353796725 0.00041482544275776498 0 0.0010581489810403688 0.00024369250914863682 0 0.0015129960380121476 0.00011942138127473339 0 0.0015808571665987771 0.00050970379090819833 0 0.0016359827072597217 -0.0002443945130470528 0 0.0013606125648420739 0.00014408707400387106 0 0.0010581489810403688 0.00024369250914863682 0 0.0015129960380121476 0.00011942138127473339 0 0.0013740756596569259 -0.00018675100839637775 0 0.0025308553528784567 0.0031761832670297529 0 0.0031662505256385177 0.0023938506123247633 0 0.0041679449422267851 0.0047082916066120799 0 0.0052076963022613986 0.0045475358199614044 0 0.0056110682379280994 0.0036895646176297193 0 0.0030763908795022605 0.0027312981636018114 0 0.0031662505256385177 0.0023938506123247633 0 0.0016359827072597217 -0.0002443945130470528 0 0.0013606125648420739 0.00014408707400387106 0 0.0014841375814172604 -0.00016475136736377727 0 0.0013221328855943049 0.0025750390486416648 0 0.0010560611208420615 0.00077456076696292555 0 0.0025609930866834865 0.00402902011615534 0 0.0019430454671959688 0.0037662164885782163 0 0.0028926169283782009 0.0036496158254651447 0 0.0019489142655962092 0.004906537260095282 0 0.0023271172345434928 0.0042924093544515502 0 0.0025605256599105352 0.0040259756015403516 0 0.001017188698136662 0.00092636454272824987 0 0.0010560611208420615 0.00077456076696292555 0 0.0015129960380121476 0.00011942138127473339 0 0.0015091126340428045 -0.00017066071447511969 0 0.0013740756596569259 -0.00018675100839637775 0 0.0010560611208420615 0.00077456076696292555 0 0.00091892160396963803 -0.00065537080914688552 0 0.0015091126340428045 -0.00017066071447511969 0 0.0013740756596569259 -0.00018675100839637775 0 0.0015415270384762246 -0.00030753846012711859 0 0.0023271172345434928 0.0042924093544515502 0 0.0025609930866834865 0.00402902011615534 0 0.0019430454671959688 0.0037662164885782163 0 0.0023271172345434928 0.0042924093544515502 0 0.0019430454671959688 0.0037662164885782163 0 0.0019180669957404987 0.0043288466381060202 0 0.0019430454671959688 0.0037662164885782163 0 0.0019180669957404987 0.0043288466381060202 0 0.0014529082377856193 0.0043533395679694296 0 0.00018764748341738418 -0.00048275434682846943 0 0.00016619214741159143 -0.00059399457549213152 0 -0.00010571266521532364 -0.00044682003202026487 0 0.00018764748341738418 -0.00048275434682846943 0 0.00016619214741159143 -0.00059399457549213152 0 0.00034406334034609888 -0.00059243961893411397 0 0.00021699646491340059 0.00082853935198221225 0 8.4699204918290707e-05 -0.00013708566853740087 0 8.4356658112562158e-05 0.001061598235726424 0 0.00016619214741159143 -0.00059399457549213152 0 0.00034406334034609888 -0.00059243961893411397 0 0.0004348368108239977 -0.00073867962823396811 0 -0.00014637865484646412 -0.00037210783934918797 0 0.00024029954854061343 -0.0019436396429455645 0 0.00018764748341738418 -0.00048275434682846943 0 0.00047724111733689079 -0.00051845053959871754 0 0.00034406334034609888 -0.00059243961893411397 0 0.00021699646491340059 0.00082853935198221225 0 0.00038466334648842404 -0.00080042110969836156 0 0.00019632071890298818 -0.00097017459854124529 0 0.00064520226111132895 0.00026033099836292648 0 0.00091892160396963803 -0.00065537080914688552 0 0.00047724111733689079 -0.00051845053959871754 0 0.00034406334034609888 -0.00059243961893411397 0 0.0004553930988670072 -0.0006168277746794866 0 0.00034406334034609888 -0.00059243961893411397 0 0.0004553930988670072 -0.0006168277746794866 0 0.0004348368108239977 -0.00073867962823396811 0 0.00056515278338190055 -0.00061779525762839678 0 0.0004553930988670072 -0.0006168277746794866 0 0.0004348368108239977 -0.00073867962823396811 0 0.00019352495882099275 -0.0010702726770634124 0 0.00019632071890298818 -0.00097017459854124529 0 4.8976479931918632e-07 -0.0017604395799797775 0 0.00024029954854061343 -0.0019436396429455645 0 0.00025149319528629651 -0.001923597198694612 0 0.00019632071890298818 -0.00097017459854124529 0 4.8976479931918632e-07 -0.0017604395799797775 0 8.4699204918290707e-05 -0.00013708566853740087 0 8.4699204918290707e-05 -0.00013708566853740087 0 -1.2902432736926584e-08 0.00022723033089149729 0 8.4356658112562158e-05 0.001061598235726424 0 4.8976479931918632e-07 -0.0017604395799797775 0 8.4699204918290707e-05 -0.00013708566853740087 0 -1.2902432736926584e-08 0.00022723033089149729 0 0.00021699646491340059 0.00082853935198221225 0 0.00019632071890298818 -0.00097017459854124529 0 8.4699204918290707e-05 -0.00013708566853740087 0 -1.2902432736926584e-08 0.00022723033089149729 0 -3.2695663740466856e-05 0.0015341229013683929 0 8.4356658112562158e-05 0.001061598235726424 0 -3.2695663740466856e-05 0.0015341229013683929 0 -8.7010504285230011e-05 0.0024389615081861441 0 -2.935167278198211e-07 0.0022147855948206744 0 -1.2902432736926584e-08 0.00022723033089149729 0 -3.2695663740466856e-05 0.0015341229013683929 0 -2.935167278198211e-07 0.0022147855948206744 0 -3.2695663740466856e-05 0.0015341229013683929 0 -8.7010504285230011e-05 0.0024389615081861441 0 6.2199941033831254e-05 0.001988592119470973 0 -8.7010504285230011e-05 0.0024389615081861441 0 5.6346245060263923e-05 0.0024157685544698927 0 6.2199941033831254e-05 0.001988592119470973 0 0.00021699646491340059 0.00082853935198221225 0 8.4356658112562158e-05 0.001061598235726424 0 0.00018430141903169055 0.0022835101998801787 0 6.2199941033831254e-05 0.001988592119470973 0 8.4356658112562158e-05 0.001061598235726424 0 0.00018430141903169055 0.0022835101998801787 0 5.6346245060263923e-05 0.0024157685544698927 0 6.2199941033831254e-05 0.001988592119470973 0 0.00018430141903169055 0.0022835101998801787 0 -0.00014637865484646412 -0.00037210783934918797 0 -0.00013187943078228864 0.00073085255374430317 0 -3.2695663740466856e-05 0.0015341229013683929 0 6.2199941033831254e-05 0.001988592119470973 0 8.4356658112562158e-05 0.001061598235726424 0 -1.0233442655970451e-06 0.0042020315834650048 0 -0.00032611356582503705 0.0032127883421822043 0 -0.00035655030986968901 0.0040102776729235047 0 -8.7010504285230011e-05 0.0024389615081861441 0 -2.935167278198211e-07 0.0022147855948206744 0 -0.00032611356582503705 0.0032127883421822043 0 -1.0233442655970451e-06 0.0042020315834650048 0 -2.935167278198211e-07 0.0022147855948206744 0 -0.00032611356582503705 0.0032127883421822043 0 -8.7010504285230011e-05 0.0024389615081861441 0 -0.00032611356582503705 0.0032127883421822043 0 -0.0002480111044019803 0.003337353065202938 0 -0.00032611356582503705 0.0032127883421822043 0 -0.00055172655903281851 0.0037375922556552969 0 -0.00035655030986968901 0.0040102776729235047 0 -0.00055172655903281851 0.0037375922556552969 0 -0.0006240281547633548 0.0037220547160691834 0 -0.00035655030986968901 0.0040102776729235047 0 -0.00055172655903281851 0.0037375922556552969 0 -0.00066452990189036856 0.0052315181542156464 0 -0.0006240281547633548 0.0037220547160691834 0 -0.00032611356582503705 0.0032127883421822043 0 -0.00055172655903281851 0.0037375922556552969 0 -0.0002480111044019803 0.003337353065202938 0 -0.00055172655903281851 0.0037375922556552969 0 -0.0002480111044019803 0.003337353065202938 0 -0.00025159631405969457 0.0044455832341309832 0 -0.0002480111044019803 0.003337353065202938 0 -0.00025159631405969457 0.0044455832341309832 0 0.0001030277110539204 0.0032764477507341979 0 -0.00080063716173640117 0.0021342497329225069 0 -0.00060144746105973799 0.0017645437226448911 0 -0.00055172655903281851 0.0037375922556552969 0 -0.00025159631405969457 0.0044455832341309832 0 -0.00066452990189036856 0.0052315181542156464 0 -0.00025159631405969457 0.0044455832341309832 0 -0.00014349252954601904 0.0051898315154194552 0 0.00040024429783632354 0.0048324622370722247 0 -0.00025159631405969457 0.0044455832341309832 0 -0.00014349252954601904 0.0051898315154194552 0 -0.00066452990189036856 0.0052315181542156464 0 -0.00014349252954601904 0.0051898315154194552 0 -0.00066452990189036856 0.0052315181542156464 0 -0.00049205358280247761 0.0056464918377931907 0 -0.00066452990189036856 0.0052315181542156464 0 -0.00071030206918153182 0.0059617838259584718 0 -0.0008419999812812654 0.0067463703803855614 0 -0.00066452990189036856 0.0052315181542156464 0 -0.00071030206918153182 0.0059617838259584718 0 -0.00067009860239797541 0.0058541408420224438 0 -0.00038602574903780868 0.0056991613019649933 0 -0.00043216974852081005 0.0057092419751430864 0 0.0019430454671959688 0.0037662164885782163 0 0.0014529082377856193 0.0043533395679694296 0 0.00099550413982020416 0.0038864062254751171 0 0.00064520226111132895 0.00026033099836292648 0 -0.00013187943078228864 0.00073085255374430317 0 0.0008197416966735972 0.0043478937373770616 0 0.0014529082377856193 0.0043533395679694296 0 0.00099550413982020416 0.0038864062254751171 0 5.6346245060263923e-05 0.0024157685544698927 0 0.00018430141903169055 0.0022835101998801787 0 0.0001030277110539204 0.0032764477507341979 0 -0.00013187943078228864 0.00073085255374430317 0 -0.00060144746105973799 0.0017645437226448911 0 -8.7010504285230011e-05 0.0024389615081861441 0 5.6346245060263923e-05 0.0024157685544698927 0 0.0001030277110539204 0.0032764477507341979 0 -8.7010504285230011e-05 0.0024389615081861441 0 -0.0002480111044019803 0.003337353065202938 0 0.0001030277110539204 0.0032764477507341979 0 0.0008197416966735972 0.0043478937373770616 0 0.00099550413982020416 0.0038864062254751171 0 0.0003502412686156891 0.004235664952353474 0 0.0008197416966735972 0.0043478937373770616 0 0.0003502412686156891 0.004235664952353474 0 0.00040024429783632354 0.0048324622370722247 0 -0.00025159631405969457 0.0044455832341309832 0 0.0003502412686156891 0.004235664952353474 0 0.00040024429783632354 0.0048324622370722247 0 -0.00014349252954601904 0.0051898315154194552 0 0.00040024429783632354 0.0048324622370722247 0 0.00024445769501230786 0.0053573796531253782 0 0.00040024429783632354 0.0048324622370722247 0 0.00097244424831625952 0.0053080048192587544 0 0.00024445769501230786 0.0053573796531253782 0 0.0019489142655962092 0.004906537260095282 0 0.0011019802302607517 0.004759498452171022 0 0.00097244424831625952 0.0053080048192587544 0 0.00040024429783632354 0.0048324622370722247 0 0.0011019802302607517 0.004759498452171022 0 0.00097244424831625952 0.0053080048192587544 0 0.0008197416966735972 0.0043478937373770616 0 0.00040024429783632354 0.0048324622370722247 0 0.0011019802302607517 0.004759498452171022 0 0.0008197416966735972 0.0043478937373770616 0 0.0014529082377856193 0.0043533395679694296 0 0.0011019802302607517 0.004759498452171022 0 0.0019489142655962092 0.004906537260095282 0 0.00097244424831625952 0.0053080048192587544 0 0.0013156507647619842 0.0058111446116667692 0 0.0013156507647619842 0.0058111446116667692 0 0.00063879273101274806 0.0063000613518066169 0 0.00049718881439353652 0.0056677284507400559 0 0.00097244424831625952 0.0053080048192587544 0 0.0013156507647619842 0.0058111446116667692 0 0.00049718881439353652 0.0056677284507400559 0 0.0033743322856735051 0.0064734589189423706 0 0.0027451092126806577 0.0057404108506520649 0 0.0027259734973258043 0.0070534908997570266 0 0.0027411989162639534 0.0057368254558817422 0 0.0016450008108793179 0.0072800044527669963 0 0.0015684709215487585 0.0065924375167927375 0 0.0027451092126806577 0.0057404108506520649 0 0.0016438305900159066 0.0072800113883147001 0 0.0027259734973258043 0.0070534908997570266 0 0.0014119572426604134 0.0045098517340487277 0 0.00095359034101640883 0.0062413771855451454 0 0.0014119572426604134 0.0045098517340487277 0 0.0009275700563105817 0.0057628506351930595 0 0.0016438305900159066 0.0072800113883147001 0 0.0027259734973258043 0.0070534908997570266 0 0.0022371103738025606 0.0078081783956936383 0 0.0033439022522210185 0.0073504724290145117 0 0.0027259734973258043 0.0070534908997570266 0 0.0029004785924654128 0.0078390085509367075 0 -2.8312126740530735e-05 0.0067836017761323851 0 0.00063879273101274806 0.0063000613518066169 0 0.00049718881439353652 0.0056677284507400559 0 0.00056363233572237742 0.0067500957223158272 0 0.00063199307656030754 0.0063297171995008381 0 -0.00010622384777255108 0.0062000087803105348 0 -2.2795019389329251e-05 0.0058956551392436319 0 0.00049718881439353652 0.0056677284507400559 0 0.0016450008108793179 0.0072800044527669963 0 0.00039019675768480703 0.0074486500824709236 0 0.0015684709215487585 0.0065924375167927375 0 0.00056363233572237742 0.0067500957223158272 0 0.0009275700563105817 0.0057628506351930595 0 -2.2795019389329251e-05 0.0058956551392436319 0 6.859337592738842e-05 0.0056577834344910156 0 0.00049718881439353652 0.0056677284507400559 0 0.00097244424831625952 0.0053080048192587544 0 0.00049718881439353652 0.0056677284507400559 0 0.00024445769501230786 0.0053573796531253782 0 6.859337592738842e-05 0.0056577834344910156 0 0.00049718881439353652 0.0056677284507400559 0 0.00024445769501230786 0.0053573796531253782 0 6.859337592738842e-05 0.0056577834344910156 0 0.00024445769501230786 0.0053573796531253782 0 -9.4302514864080521e-05 0.0055254106012220753 0 -0.00014349252954601904 0.0051898315154194552 0 -9.4302514864080521e-05 0.0055254106012220753 0 -0.00049205358280247761 0.0056464918377931907 0 -9.4302514864080521e-05 0.0055254106012220753 0 -0.00049205358280247761 0.0056464918377931907 0 -0.00022946473256801653 0.0057878988376261192 0 -0.00014349252954601904 0.0051898315154194552 0 0.00024445769501230786 0.0053573796531253782 0 -9.4302514864080521e-05 0.0055254106012220753 0 -0.00049205358280247761 0.0056464918377931907 0 -0.00022946473256801653 0.0057878988376261192 0 -0.00044947147589977288 0.005932883735923448 0 6.859337592738842e-05 0.0056577834344910156 0 -9.4302514864080521e-05 0.0055254106012220753 0 -0.00022946473256801653 0.0057878988376261192 0 -2.2795019389329251e-05 0.0058956551392436319 0 6.859337592738842e-05 0.0056577834344910156 0 -0.00022946473256801653 0.0057878988376261192 0 -0.00049205358280247761 0.0056464918377931907 0 -0.00067009860239797541 0.0058541408420224438 0 -0.00056525620460983405 0.0058636858337929292 0 -0.00066452990189036856 0.0052315181542156464 0 -0.00049205358280247761 0.0056464918377931907 0 -0.00067009860239797541 0.0058541408420224438 0 -0.00049205358280247761 0.0056464918377931907 0 -0.00056525620460983405 0.0058636858337929292 0 -0.00044947147589977288 0.005932883735923448 0 -0.00067009860239797541 0.0058541408420224438 0 -0.00058604500427127419 0.0059811981896392957 0 -0.00061910835148536528 0.006040639500560531 0 -0.00067009860239797541 0.0058541408420224438 0 -0.00056525620460983405 0.0058636858337929292 0 -0.00058604500427127419 0.0059811981896392957 0 -0.00058604500427127419 0.0059811981896392957 0 -0.00043663958948788353 0.0060857889283083616 0 -0.00050281924389088172 0.0061084699365810029 0 -0.00056525620460983405 0.0058636858337929292 0 -0.00058604500427127419 0.0059811981896392957 0 -0.00044947147589977288 0.005932883735923448 0 -0.00058604500427127419 0.0059811981896392957 0 -0.00043663958948788353 0.0060857889283083616 0 -0.00044947147589977288 0.005932883735923448 0 -2.2795019389329251e-05 0.0058956551392436319 0 -0.00022946473256801653 0.0057878988376261192 0 -0.0002704151603873239 0.006067056287055954 0 -0.00022946473256801653 0.0057878988376261192 0 -0.00044947147589977288 0.005932883735923448 0 -0.0002704151603873239 0.006067056287055954 0 -0.00043663958948788353 0.0060857889283083616 0 -0.0002704151603873239 0.006067056287055954 0 -0.00033846537248817819 0.0061289944058132853 0 -0.00043663958948788353 0.0060857889283083616 0 -0.00044947147589977288 0.005932883735923448 0 -0.0002704151603873239 0.006067056287055954 0 -0.0002704151603873239 0.006067056287055954 0 -0.00026294631976535543 0.006186360861139416 0 -0.00033846537248817819 0.0061289944058132853 0 -0.00010622384777255108 0.0062000087803105348 0 -0.0002704151603873239 0.006067056287055954 0 -0.00026294631976535543 0.006186360861139416 0 -0.00010622384777255108 0.0062000087803105348 0 -2.2795019389329251e-05 0.0058956551392436319 0 -0.0002704151603873239 0.006067056287055954 0 0.00056363233572237742 0.0067500957223158272 0 0.00054148068617263499 0.0067463879022640616 0 0.00056363233572237742 0.0067500957223158272 0 0.00052329951607794271 0.0089756438154652944 0 0.00039019675768480703 0.0074486500824709236 0 -0.0003743698933421818 0.0090738943753622524 0 0.00054293140823775444 0.0088294467329865234 0 -0.0002258279584640993 0.0061831800722250609 0 -0.00026294631976535543 0.006186360861139416 0 -0.00034408242403089932 0.0062026609412021557 0 -0.00026294631976535543 0.006186360861139416 0 -0.00033846537248817819 0.0061289944058132853 0 -0.00038032696990343546 0.0061665322271424279 0 -0.00043663958948788353 0.0060857889283083616 0 -0.00033846537248817819 0.0061289944058132853 0 -0.00038032696990343546 0.0061665322271424279 0 -0.00026294631976535543 0.006186360861139416 0 -0.00038032696990343546 0.0061665322271424279 0 -0.00034408242403089932 0.0062026609412021557 0 -0.00043663958948788353 0.0060857889283083616 0 -0.00038032696990343546 0.0061665322271424279 0 -0.00050281924389088172 0.0061084699365810029 0 -0.00038032696990343546 0.0061665322271424279 0 -0.00050281924389088172 0.0061084699365810029 0 -0.00042744053504383114 0.0061936744542155867 0 -0.00050281924389088172 0.0061084699365810029 0 -0.00042744053504383114 0.0061936744542155867 0 -0.00048685170916322918 0.0061580879794146835 0 -0.00042744053504383114 0.0061936744542155867 0 -0.00040181520034296485 0.0062541763369080893 0 -0.00044918135999977185 0.006243859320767038 0 -0.00042744053504383114 0.0061936744542155867 0 -0.00048685170916322918 0.0061580879794146835 0 -0.00044918135999977185 0.006243859320767038 0 -0.0003743698933421818 0.0090738943753622524 0 -0.00031930988888276773 0.0099584681959309709 0 -0.0011407040330317774 0.010700617500514997 0 0.00052329951607794271 0.0089756438154652944 0 0.00030542329820825912 0.012657195288494148 0 -0.00042744053504383114 0.0061936744542155867 0 -0.00034408242403089932 0.0062026609412021557 0 -0.00040181520034296485 0.0062541763369080893 0 -0.0003743698933421818 0.0090738943753622524 0 6.8918267979028367e-06 0.0095595812111644706 0 0.00054293140823775444 0.0088294467329865234 0 -0.0003743698933421818 0.0090738943753622524 0 6.8918267979028367e-06 0.0095595812111644706 0 -0.00031930988888276773 0.0099584681959309709 0 -0.00038032696990343546 0.0061665322271424279 0 -0.00042744053504383114 0.0061936744542155867 0 -0.00034408242403089932 0.0062026609412021557 0 -0.00031930988888276773 0.0099584681959309709 0 0.00017124010382184047 0.010158603248766489 0 -0.0011407040330317774 0.010700617500514997 0 6.8918267979028367e-06 0.0095595812111644706 0 0.00017124010382184047 0.010158603248766489 0 0.00050769305291079568 0.0097027056044770646 0 6.8918267979028367e-06 0.0095595812111644706 0 -0.00031930988888276773 0.0099584681959309709 0 0.00017124010382184047 0.010158603248766489 0 0.00017124010382184047 0.010158603248766489 0 0.00050769305291079568 0.0097027056044770646 0 0.0010485739744280811 0.0098784591432085744 0 0.0010485739744280811 0.0098784591432085744 0 0.002515019010137811 0.0098454996555388825 0 0.00061464468212048295 0.010629321426166016 0 0.00017124010382184047 0.010158603248766489 0 0.0010485739744280811 0.0098784591432085744 0 0.00061464468212048295 0.010629321426166016 0 0.00050769305291079568 0.0097027056044770646 0 0.0010104992520618881 0.009362940485375261 0 0.0010485739744280811 0.0098784591432085744 0 0.00050769305291079568 0.0097027056044770646 0 0.0010104992520618881 0.009362940485375261 0 0.00054293140823775444 0.0088294467329865234 0 6.8918267979028367e-06 0.0095595812111644706 0 0.00050769305291079568 0.0097027056044770646 0 0.00054293140823775444 0.0088294467329865234 0 0.0014213524123608855 0.0088946335703766442 0 0.0010104992520618881 0.009362940485375261 0 0.00054293140823775444 0.0088294467329865234 0 0.0010104992520618881 0.009362940485375261 0 0.0015317499487059378 0.009509214479874217 0 0.0010485739744280811 0.0098784591432085744 0 0.0014213524123608855 0.0088946335703766442 0 0.0010104992520618881 0.009362940485375261 0 0.0015317499487059378 0.009509214479874217 0 0.0015317499487059378 0.009509214479874217 0 0.0010485739744280811 0.0098784591432085744 0 0.002515019010137811 0.0098454996555388825 0 0.002515019010137811 0.0098454996555388825 0 0.0030255478568900589 0.0092211428554323498 0 0.0019057701752329696 0.011608309057932248 0 0.002515019010137811 0.0098454996555388825 0 0.0030255478568900589 0.0092211428554323498 0 0.0024724801410404462 0.0090289545569054597 0 0.0030255478568900589 0.0092211428554323498 0 0.0024724801410404462 0.0090289545569054597 0 0.0025363416665971335 0.0084896486728109656 0 0.002515019010137811 0.0098454996555388825 0 0.0024724801410404462 0.0090289545569054597 0 0.0019744625558842511 0.0091719647295619277 0 0.0015317499487059378 0.009509214479874217 0 0.002515019010137811 0.0098454996555388825 0 0.0019744625558842511 0.0091719647295619277 0 0.0024724801410404462 0.0090289545569054597 0 0.0019744625558842511 0.0091719647295619277 0 0.0020269787472045786 0.0085619176469730312 0 0.0014213524123608855 0.0088946335703766442 0 0.0015317499487059378 0.009509214479874217 0 0.0019744625558842511 0.0091719647295619277 0 0.0014213524123608855 0.0088946335703766442 0 0.0020269787472045786 0.0085619176469730312 0 0.0015743828755316709 0.0082747707266569992 0 0.0014213524123608855 0.0088946335703766442 0 0.0019744625558842511 0.0091719647295619277 0 0.0020269787472045786 0.0085619176469730312 0 0.0020269787472045786 0.0085619176469730312 0 0.0025363416665971335 0.0084896486728109656 0 0.0022371103738025606 0.0078081783956936383 0 0.0020269787472045786 0.0085619176469730312 0 0.0022371103738025606 0.0078081783956936383 0 0.0015743828755316709 0.0082747707266569992 0 0.0030255478568900589 0.0092211428554323498 0 0.0025363416665971335 0.0084896486728109656 0 0.0029004785924654128 0.0078390085509367075 0 0.0024724801410404462 0.0090289545569054597 0 0.0020269787472045786 0.0085619176469730312 0 0.0025363416665971335 0.0084896486728109656 0 0.0027259734973258043 0.0070534908997570266 0 0.0029004785924654128 0.0078390085509367075 0 0.0022371103738025606 0.0078081783956936383 0 0.0025363416665971335 0.0084896486728109656 0 0.0029004785924654128 0.0078390085509367075 0 0.0022371103738025606 0.0078081783956936383 0 0.0016438305900159066 0.0072800113883147001 0 0.0022371103738025606 0.0078081783956936383 0 0.0015743828755316709 0.0082747707266569992 0 0.00095359034101640883 0.0062413771855451454 0 0.0006222962021511445 0.0070273898104353093 0 0.0016450008108793179 0.0072800044527669963 0 0.00039019675768480703 0.0074486500824709236 0 0.00054293140823775444 0.0088294467329865234 0 0.0016438305900159066 0.0072800113883147001 0 0.00054293140823775444 0.0088294467329865234 0 0.0015743828755316709 0.0082747707266569992 0 0.0014213524123608855 0.0088946335703766442 0 0.00054293140823775444 0.0088294467329865234 0 0.0015743828755316709 0.0082747707266569992 0 0.0015824063086994919 0.019042881838900134 0 0.0019861697240089243 0.018983345943427238 0 0.0016179596639445866 0.018745024397808452 0 0.0015824063086994919 0.019042881838900134 0 0.0018325587121270665 0.019359389561815803 0 0.0019861697240089243 0.018983345943427238 0 0.001339602560021153 0.01749371331028246 0 0.0015643865277058988 0.018081398835577963 0 0.0017281459704275989 0.019532297933078594 0 0.0012592060552313507 0.019444230139953476 0 0.0013830824564216434 0.019714645813084349 0 0.001551875268782227 0.019169416043486976 0 0.0018358911746858598 0.01955372551551602 0 0.0012592060552313507 0.019444230139953476 0 0.0016980511055271848 0.018529356589570806 0 0.001339602560021153 0.01749371331028246 0 0.0018325587121270665 0.019359389561815803 0 0.0019861697240089243 0.018983345943427238 0 0.0021326560098086232 0.019410248069702409 0 -0.00051488720037208319 0.0060877372657173745 0 -0.00047408294900662227 0.0060228484189922523 0 -0.00054383931262457137 0.0061821037596286156 0 0.001339602560021153 0.01749371331028246 0 -1.1350355877231872e-06 0.01514987334998932 0 0.00032813456677647748 0.013087483102141617 0 -1.1350355877231872e-06 0.01514987334998932 0 -0.00048685170916322918 0.0061580879794146835 0 -0.00044918135999977185 0.006243859320767038 0 -0.00054383931262457137 0.0061821037596286156 0 -0.00048685170916322918 0.0061580879794146835 0 -0.00051488720037208319 0.0060877372657173745 0 -0.00054383931262457137 0.0061821037596286156 0 -0.00050281924389088172 0.0061084699365810029 0 -0.00051488720037208319 0.0060877372657173745 0 -0.00055650769596207142 0.0060456015554358686 0 -0.00050281924389088172 0.0061084699365810029 0 -0.00048685170916322918 0.0061580879794146835 0 -0.00051488720037208319 0.0060877372657173745 0 -0.00051488720037208319 0.0060877372657173745 0 -0.00047408294900662227 0.0060228484189922523 0 -0.00055650769596207142 0.0060456015554358686 0 -0.00047408294900662227 0.0060228484189922523 0 -0.00055650769596207142 0.0060456015554358686 0 -0.00045227254651504284 0.0061775392067944124 0 -0.00058604500427127419 0.0059811981896392957 0 -0.00055650769596207142 0.0060456015554358686 0 -0.00061910835148536528 0.006040639500560531 0 -0.00058604500427127419 0.0059811981896392957 0 -0.00050281924389088172 0.0061084699365810029 0 -0.00055650769596207142 0.0060456015554358686 0 -0.00061910835148536528 0.006040639500560531 0 -0.00045227254651504284 0.0061775392067944124 0 -0.0005873332365038819 0.0063504302166156766 0 -0.00055650769596207142 0.0060456015554358686 0 -0.00061910835148536528 0.006040639500560531 0 -0.00045227254651504284 0.0061775392067944124 0 -0.00071030206918153182 0.0059617838259584718 0 -0.00067009860239797541 0.0058541408420224438 0 -0.00061910835148536528 0.006040639500560531 0 -0.00045227254651504284 0.0061775392067944124 0 -0.00016201504531082719 0.0061898396437813866 0 -0.00022376384769294902 0.0066590813192695941 0 0.0019861697240089243 0.018983345943427238 0 0.0018496808802470942 0.018484682174009337 0 0.0016179596639445866 0.018745024397808452 0 0.00032813456677647748 0.013087483102141617 0 0.00076686545220814521 0.012560238654988409 0 -0.00047408294900662227 0.0060228484189922523 0 -0.00045227254651504284 0.0061775392067944124 0 -0.00016201504531082719 0.0061898396437813866 0 0.0015824063086994919 0.019042881838900134 0 0.0016179596639445866 0.018745024397808452 0 0.0012739980170464488 0.01872526622358511 0 0.0016980511055271848 0.018529356589570806 0 0.001636986299938165 0.018604001300509886 0 0.0016179596639445866 0.018745024397808452 0 0.0014844165097588537 0.018513146065240127 0 0.0012739980170464488 0.01872526622358511 0 0.0018496808802470942 0.018484682174009337 0 0.0016179596639445866 0.018745024397808452 0 0.0014844165097588537 0.018513146065240127 0 0.0018496808802470942 0.018484682174009337 0 0.0014844165097588537 0.018513146065240127 0 0.0015025691853634039 0.01823044567594494 0 0.0014844165097588537 0.018513146065240127 0 0.0015025691853634039 0.01823044567594494 0 0.0012311857605570677 0.018354395420288643 0 0.0015025691853634039 0.01823044567594494 0 0.0016679986023996388 0.017863814133468749 0 0.0012804530715551416 0.017969798804278351 0 0.0018496808802470942 0.018484682174009337 0 0.0015025691853634039 0.01823044567594494 0 0.0016679986023996388 0.017863814133468749 0 0.0012556915536761385 0.012505102202166007 0 0.0012996546881569604 0.012544701037089524 0 -0.00016201504531082719 0.0061898396437813866 0 7.9511050583930536e-05 0.0070906191786772417 0 -0.00022376384769294902 0.0066590813192695941 0 -0.00016201504531082719 0.0061898396437813866 0 7.9511050583930536e-05 0.0070906191786772417 0 0.00018089929093531969 0.0071393398427755557 0 0.00076686545220814521 0.012560238654988409 0 0.0012996546881569604 0.012544701037089524 0 -0.00022376384769294902 0.0066590813192695941 0 -0.00022415207166420458 0.0068862934580513555 0 -0.00010223245970328933 0.0070645571484994818 0 -0.00022376384769294902 0.0066590813192695941 0 -0.00022415207166420458 0.0068862934580513555 0 -0.00035697980920587602 0.0066422532209537291 0 7.9511050583930536e-05 0.0070906191786772417 0 -0.00022376384769294902 0.0066590813192695941 0 -0.00010223245970328933 0.0070645571484994818 0 7.9511050583930536e-05 0.0070906191786772417 0 -0.00010223245970328933 0.0070645571484994818 0 1.9169770857510503e-05 0.0073478401871330101 0 -0.00010223245970328933 0.0070645571484994818 0 -7.4423808274004573e-05 0.0074094726765815957 0 1.9169770857510503e-05 0.0073478401871330101 0 -0.00010223245970328933 0.0070645571484994818 0 -7.4423808274004573e-05 0.0074094726765815957 0 -0.00015708475031000669 0.0071964206659789346 0 -7.4423808274004573e-05 0.0074094726765815957 0 -1.0057823629424811e-05 0.0076471524067427705 0 1.9169770857510503e-05 0.0073478401871330101 0 -0.00015708475031000669 0.0071964206659789346 0 -0.00013890426306362446 0.0074720589005328733 0 -0.00027356862406710189 0.0069945103055802363 0 -0.00022415207166420458 0.0068862934580513555 0 -0.00015708475031000669 0.0071964206659789346 0 -0.00027356862406710189 0.0069945103055802363 0 -0.00022415207166420458 0.0068862934580513555 0 -0.00010223245970328933 0.0070645571484994818 0 -0.00015708475031000669 0.0071964206659789346 0 -7.4423808274004573e-05 0.0074094726765815957 0 -0.00015708475031000669 0.0071964206659789346 0 -0.00013890426306362446 0.0074720589005328733 0 -7.4423808274004573e-05 0.0074094726765815957 0 -0.00013890426306362446 0.0074720589005328733 0 -6.8698892312411798e-05 0.0076336728919966772 0 -7.4423808274004573e-05 0.0074094726765815957 0 -6.8698892312411798e-05 0.0076336728919966772 0 -1.0057823629424811e-05 0.0076471524067427705 0 0.0012996546881569604 0.012544701037089524 0 0.00053051513651544008 0.013234796498591694 0 -1.0057823629424811e-05 0.0076471524067427705 0 5.4477676995286335e-05 0.0074803875948941754 0 -3.1872014935983713e-05 0.0079951322958681879 0 -6.8698892312411798e-05 0.0076336728919966772 0 -1.0057823629424811e-05 0.0076471524067427705 0 -5.3408919390170279e-05 0.0078557349466320363 0 -1.0057823629424811e-05 0.0076471524067427705 0 -3.1872014935983713e-05 0.0079951322958681879 0 -5.3408919390170279e-05 0.0078557349466320363 0 5.4477676995286335e-05 0.0074803875948941754 0 6.1630170962877472e-05 0.0073857958899997992 0 8.6274367135641313e-05 0.0082182306643611806 0 5.4477676995286335e-05 0.0074803875948941754 0 -3.1872014935983713e-05 0.0079951322958681879 0 8.6274367135641313e-05 0.0082182306643611806 0 7.9511050583930536e-05 0.0070906191786772417 0 1.9169770857510503e-05 0.0073478401871330101 0 0.0001158046826384178 0.0072491414689267383 0 5.4477676995286335e-05 0.0074803875948941754 0 1.9169770857510503e-05 0.0073478401871330101 0 0.0001158046826384178 0.0072491414689267383 0 0.0012705632584353208 0.012459658420434701 0 0.0012996546881569604 0.012544701037089524 0 -1.0057823629424811e-05 0.0076471524067427705 0 5.4477676995286335e-05 0.0074803875948941754 0 1.9169770857510503e-05 0.0073478401871330101 0 -0.00071030206918153182 0.0059617838259584718 0 -0.0005873332365038819 0.0063504302166156766 0 -0.0008419999812812654 0.0067463703803855614 0 -0.00071030206918153182 0.0059617838259584718 0 -0.00061910835148536528 0.006040639500560531 0 -0.0005873332365038819 0.0063504302166156766 0 -0.00045227254651504284 0.0061775392067944124 0 -0.00022376384769294902 0.0066590813192695941 0 -0.00035697980920587602 0.0066422532209537291 0 -0.00045227254651504284 0.0061775392067944124 0 -0.0005873332365038819 0.0063504302166156766 0 -0.00035697980920587602 0.0066422532209537291 0 -0.0005873332365038819 0.0063504302166156766 0 -0.00035697980920587602 0.0066422532209537291 0 -0.00039201577955002794 0.0069966578475274674 0 -0.00022415207166420458 0.0068862934580513555 0 -0.00035697980920587602 0.0066422532209537291 0 -0.00027356862406710189 0.0069945103055802363 0 -0.00035697980920587602 0.0066422532209537291 0 -0.00027356862406710189 0.0069945103055802363 0 -0.00039201577955002794 0.0069966578475274674 0 -0.00013890426306362446 0.0074720589005328733 0 -0.00027356862406710189 0.0069945103055802363 0 -0.00039201577955002794 0.0069966578475274674 0 -0.00039201577955002794 0.0069966578475274674 0 -0.0008419999812812654 0.0067463703803855614 0 -0.00026825026352055633 0.0076551082681863593 0 -0.0005873332365038819 0.0063504302166156766 0 -0.00039201577955002794 0.0069966578475274674 0 -0.0008419999812812654 0.0067463703803855614 0 -0.0006240281547633548 0.0037220547160691834 0 -0.00035655030986968901 0.0040102776729235047 0 8.772725633371407e-05 0.0045546003104523225 0 -0.00043216974852081005 0.0057092419751430864 0 -0.00036272186773709299 0.0059248004061014875 0 -0.00013890426306362446 0.0074720589005328733 0 -0.00039201577955002794 0.0069966578475274674 0 -0.00026825026352055633 0.0076551082681863593 0 -0.00035655030986968901 0.0040102776729235047 0 8.772725633371407e-05 0.0045546003104523225 0 4.6259114186334714e-07 0.0061898193880866904 0 -0.00036272186773709299 0.0059248004061014875 0 -0.00029522405933154675 0.0061176223993279454 0 8.772725633371407e-05 0.0045546003104523225 0 4.6259114186334714e-07 0.0061898193880866904 0 4.0048004236671662e-05 0.0071752166344729975 0 -1.0233442655970451e-06 0.0042020315834650048 0 -0.00035655030986968901 0.0040102776729235047 0 4.6259114186334714e-07 0.0061898193880866904 0 -9.5203455778652493e-05 0.0080845821364715614 0 -9.6805724854183545e-05 0.0079250178539154274 0 -9.9203435965582745e-05 0.0087316731883581179 0 -9.5203455778652493e-05 0.0080845821364715614 0 -8.6112656753897324e-05 0.0078101977614619001 0 -9.6805724854183545e-05 0.0079250178539154274 0 -9.5203455778652493e-05 0.0080845821364715614 0 -3.1872014935983713e-05 0.0079951322958681879 0 -9.9203435965582745e-05 0.0087316731883581179 0 -9.5203455778652493e-05 0.0080845821364715614 0 -5.3408919390170279e-05 0.0078557349466320363 0 -8.6112656753897324e-05 0.0078101977614619001 0 -6.8698892312411798e-05 0.0076336728919966772 0 -5.3408919390170279e-05 0.0078557349466320363 0 -8.6112656753897324e-05 0.0078101977614619001 0 -9.5203455778652493e-05 0.0080845821364715614 0 -3.1872014935983713e-05 0.0079951322958681879 0 -5.3408919390170279e-05 0.0078557349466320363 0 -0.00013890426306362446 0.0074720589005328733 0 -8.6112656753897324e-05 0.0078101977614619001 0 -0.00010749550665214554 0.0077064306012770058 0 -0.00013890426306362446 0.0074720589005328733 0 -0.00026825026352055633 0.0076551082681863593 0 -0.00010749550665214554 0.0077064306012770058 0 -0.00013890426306362446 0.0074720589005328733 0 -6.8698892312411798e-05 0.0076336728919966772 0 -8.6112656753897324e-05 0.0078101977614619001 0 -8.6112656753897324e-05 0.0078101977614619001 0 -0.00010749550665214554 0.0077064306012770058 0 -9.6805724854183545e-05 0.0079250178539154274 0 -0.00010749550665214554 0.0077064306012770058 0 4.0048004236671662e-05 0.0071752166344729975 0 -9.6805724854183545e-05 0.0079250178539154274 0 -0.00026825026352055633 0.0076551082681863593 0 -0.00010749550665214554 0.0077064306012770058 0 4.0048004236671662e-05 0.0071752166344729975 0 4.6259114186334714e-07 0.0061898193880866904 0 4.0048004236671662e-05 0.0071752166344729975 0 -2.4362641888566172e-07 0.0081782588895586948 0 4.0048004236671662e-05 0.0071752166344729975 0 -2.4362641888566172e-07 0.0081782588895586948 0 -9.6805724854183545e-05 0.0079250178539154274 0 -2.4362641888566172e-07 0.0081782588895586948 0 -9.6805724854183545e-05 0.0079250178539154274 0 -9.9203435965582745e-05 0.0087316731883581179 0 -2.4362641888566172e-07 0.0081782588895586948 0 -9.9203435965582745e-05 0.0087316731883581179 0 -5.0963054506583935e-07 0.010166160550952827 0 -3.1872014935983713e-05 0.0079951322958681879 0 -9.9203435965582745e-05 0.0087316731883581179 0 8.6274367135641313e-05 0.0082182306643611806 0 -9.9203435965582745e-05 0.0087316731883581179 0 0.00037105727247380659 0.0092954395260761869 0 8.6274367135641313e-05 0.0082182306643611806 0 0.00036015267485265252 0.014398076749346555 0 0.00053051513651544008 0.013234796498591694 0 -9.9203435965582745e-05 0.0087316731883581179 0 -5.0963054506583935e-07 0.010166160550952827 0 0.00037105727247380659 0.0092954395260761869 0 -5.0963054506583935e-07 0.010166160550952827 0 1.8521011051390391e-06 0.012150616966775501 0 0.00037105727247380659 0.0092954395260761869 0 -6.5230509061347094e-07 0.01215502897810888 0 0.00036015267485265252 0.014398076749346555 0 4.99721157749309e-07 0.012155604222013875 0 -4.6400219970238733e-06 0.012818202902047739 0 0.0014249852317969069 0.014262886127848162 0 0.00060519523472067442 0.015351821115389632 0 0.00029988698404468669 0.01500192187007209 0 -7.4305920078453016e-05 0.012955518706173071 0 4.99721157749309e-07 0.012155604222013875 0 -4.9827570499334679e-07 0.013494639790565822 0 -7.4305920078453016e-05 0.012955518706173071 0 -5.9766038694520912e-05 0.012848142834807534 0 7.1227818707377891e-07 0.013261809202083105 0 -7.4305920078453016e-05 0.012955518706173071 0 4.99721157749309e-07 0.012155604222013875 0 -4.6400219970238733e-06 0.012818202902047739 0 0.00062803097592377638 0.015093178696795306 0 0.00060519523472067442 0.015351821115389632 0 -7.4305920078453016e-05 0.012955518706173071 0 -4.6400219970238733e-06 0.012818202902047739 0 -5.9766038694520912e-05 0.012848142834807534 0 0.0027240934827414721 0.016565283813888661 0 0.0022198560861994153 0.018231301292321329 0 0.0016736698034024689 0.017248124280424455 0 0.00060519523472067442 0.015351821115389632 0 0.00061795790516201417 0.017582405551004765 0 -4.6400219970238733e-06 0.012818202902047739 0 -0.00016830562784377539 0.013547335072204613 0 0.0014249852317969069 0.014262886127848162 0 0.00060519523472067442 0.015351821115389632 0 0.00036015267485265252 0.014398076749346555 0 0.00012454353628014097 0.01706554969463614 0 0.00059235787272326015 0.017285969869927257 0 0.00044059345450121214 0.01773455038986969 0 0.00012454353628014097 0.01706554969463614 0 0.00044059345450121214 0.01773455038986969 0 -3.4990220788352243e-05 0.017767847714395747 0 -3.4990220788352243e-05 0.017767847714395747 0 0.00018209756934859682 0.018172803625561243 0 -0.00019288845311379166 0.01846375990404359 0 0.00061795790516201417 0.017582405551004765 0 0.00050247050404183375 0.018585066982686135 0 0.00044059345450121214 0.01773455038986969 0 -3.4990220788352243e-05 0.017767847714395747 0 0.00018209756934859682 0.018172803625561243 0 0.00044059345450121214 0.01773455038986969 0 0.00018209756934859682 0.018172803625561243 0 0.00055607886220549678 0.018198371093751841 0 0.00055607886220549678 0.018198371093751841 0 0.00090749264403302339 0.018224452175702562 0 0.00092147634619233235 0.017823353794863658 0 0.00044059345450121214 0.01773455038986969 0 0.00055607886220549678 0.018198371093751841 0 0.00092147634619233235 0.017823353794863658 0 0.0012142225687756529 0.016854989271064064 0 0.0014094772108372996 0.017476313771671335 0 0.0015025691853634039 0.01823044567594494 0 0.0012804530715551416 0.017969798804278351 0 0.0012311857605570677 0.018354395420288643 0 0.00090749264403302339 0.018224452175702562 0 0.00092147634619233235 0.017823353794863658 0 0.0012311857605570677 0.018354395420288643 0 0.0012804530715551416 0.017969798804278351 0 0.00089226291883297065 0.017848767489128808 0 0.0012311857605570677 0.018354395420288643 0 0.0016679986023996388 0.017863814133468749 0 0.0012804530715551416 0.017969798804278351 0 0.001131609987239245 0.017587080368768868 0 0.0012804530715551416 0.017969798804278351 0 0.001131609987239245 0.017587080368768868 0 0.00089226291883297065 0.017848767489128808 0 0.00059235787272326015 0.017285969869927257 0 0.00044059345450121214 0.01773455038986969 0 0.00092147634619233235 0.017823353794863658 0 0.00055651187581910928 0.01730503609547213 0 0.001131609987239245 0.017587080368768868 0 0.00089226291883297065 0.017848767489128808 0 0.00036015267485265252 0.014398076749346555 0 0.0012142225687756529 0.016854989271064064 0 -0.00047617517288677837 0.017424119891097666 0 -0.00066204378484093515 0.017907548468652695 0 -0.00075871687726196326 0.018179915811338557 0 -0.00046922646002466517 0.017725632055389698 0 -0.00066204378484093515 0.017907548468652695 0 -0.00072531128303028093 0.018112839914614653 0 -0.00046922646002466517 0.017725632055389698 0 -0.00047617517288677837 0.017424119891097666 0 -0.00066204378484093515 0.017907548468652695 0 -0.00017128918302624488 0.018183353644652435 0 -0.00028174666394103543 0.018581559105598004 0 -1.2161657058362429e-06 0.016667074105543009 0 -0.00015283970883155421 0.016444226257900835 0 -8.9797212263176207e-06 0.017907339918310908 0 -0.00047617517288677837 0.017424119891097666 0 -0.00015283970883155421 0.016444226257900835 0 -0.00075871687726196326 0.018179915811338557 0 -1.2161657058362429e-06 0.016667074105543009 0 -0.00015283970883155421 0.016444226257900835 0 2.1479628961881037e-06 0.014839444220071555 0 -0.00015283970883155421 0.016444226257900835 0 -5.475146374091102e-05 0.017107161455334634 0 0.00027173507204715535 0.016321508259416074 0 -0.00047617517288677837 0.017424119891097666 0 -0.00015283970883155421 0.016444226257900835 0 -5.475146374091102e-05 0.017107161455334634 0 -0.00046922646002466517 0.017725632055389698 0 -0.00047617517288677837 0.017424119891097666 0 -5.475146374091102e-05 0.017107161455334634 0 -0.00046922646002466517 0.017725632055389698 0 -5.475146374091102e-05 0.017107161455334634 0 -9.0850442250616309e-05 0.017735574566551792 0 -5.475146374091102e-05 0.017107161455334634 0 0.00060935803925781537 0.017280571395554674 0 -9.0850442250616309e-05 0.017735574566551792 0 0.00060935803925781537 0.017280571395554674 0 0.00027173507204715535 0.016321508259416074 0 0.0016776976054054544 0.01596768462826095 0 -5.475146374091102e-05 0.017107161455334634 0 0.00060935803925781537 0.017280571395554674 0 0.00027173507204715535 0.016321508259416074 0 -0.00015283970883155421 0.016444226257900835 0 2.1479628961881037e-06 0.014839444220071555 0 0.00027173507204715535 0.016321508259416074 0 2.1479628961881037e-06 0.014839444220071555 0 0.00027173507204715535 0.016321508259416074 0 0.0016776976054054544 0.01596768462826095 0 8.3386471331117611e-08 0.014836297202180476 0 0.00029988698404468669 0.01500192187007209 0 4.9619829937766264e-07 0.014835604507478721 0 -4.9827570499334679e-07 0.013494639790565822 0 7.1227818707377891e-07 0.013261809202083105 0 -7.4305920078453016e-05 0.012955518706173071 0 -4.9827570499334679e-07 0.013494639790565822 0 7.1227818707377891e-07 0.013261809202083105 0 0.0027240934827414721 0.016565283813888661 0 0.0016776976054054544 0.01596768462826095 0 0.0016736698034024689 0.017248124280424455 0 0.00060935803925781537 0.017280571395554674 0 0.0016776976054054544 0.01596768462826095 0 0.0016736698034024689 0.017248124280424455 0 0.00060935803925781537 0.017280571395554674 0 0.0016736698034024689 0.017248124280424455 0 0.00099800387789632889 0.018100587343129925 0 0.0022198560861994153 0.018231301292321329 0 0.0016736698034024689 0.017248124280424455 0 0.00099800387789632889 0.018100587343129925 0 0.0022198560861994153 0.018231301292321329 0 0.000848085479679077 0.019326272985887516 0 0.0018205694566801414 0.019719819760742545 0 0.0022198560861994153 0.018231301292321329 0 0.00099800387789632889 0.018100587343129925 0 0.000848085479679077 0.019326272985887516 0 0.00039551470862650315 0.018736854327739447 0 0.00050737542980118999 0.01873910146817476 0 0.00034710171590173362 0.018484619474979969 0 -5.6688733207240233e-05 0.018819783628434332 0 0.000848085479679077 0.019326272985887516 0 0.00034710171590173362 0.018484619474979969 0 0.00099800387789632889 0.018100587343129925 0 0.000848085479679077 0.019326272985887516 0 0.00034710171590173362 0.018484619474979969 0 0.00032431380451071798 0.017974551826009058 0 -0.00013356900486700149 0.018214015984952713 0 0.00034710171590173362 0.018484619474979969 0 0.00099800387789632889 0.018100587343129925 0 0.00032431380451071798 0.017974551826009058 0 0.00060935803925781537 0.017280571395554674 0 0.00099800387789632889 0.018100587343129925 0 0.00032431380451071798 0.017974551826009058 0 0.00060935803925781537 0.017280571395554674 0 0.00032431380451071798 0.017974551826009058 0 -9.0850442250616309e-05 0.017735574566551792 0 -0.00046922646002466517 0.017725632055389698 0 -9.0850442250616309e-05 0.017735574566551792 0 -0.00055335228859071167 0.018109863986738153 0 -9.0850442250616309e-05 0.017735574566551792 0 -0.00013356900486700149 0.018214015984952713 0 -0.00055335228859071167 0.018109863986738153 0 0.00032431380451071798 0.017974551826009058 0 -9.0850442250616309e-05 0.017735574566551792 0 -0.00013356900486700149 0.018214015984952713 0 0.00034710171590173362 0.018484619474979969 0 -0.00013356900486700149 0.018214015984952713 0 -5.6688733207240233e-05 0.018819783628434332 0 -5.6688733207240233e-05 0.018819783628434332 0 -0.00045306444234634622 0.018837993603753978 0 -0.00023157021748353331 0.018973215597963902 0 -0.00023829301073268256 0.018424351787964467 0 -0.00037591661600855277 0.018576550315402753 0 -0.00013356900486700149 0.018214015984952713 0 -5.6688733207240233e-05 0.018819783628434332 0 -0.00045306444234634622 0.018837993603753978 0 -0.00056066983379670819 0.018303059461189809 0 -0.00062227684098130483 0.018197133936571547 0 -0.00064894235031563512 0.018206088488392277 0 -0.00056066983379670819 0.018303059461189809 0 -0.00062227684098130483 0.018197133936571547 0 -0.00055335228859071167 0.018109863986738153 0 -0.00013356900486700149 0.018214015984952713 0 -0.00056066983379670819 0.018303059461189809 0 -0.00055335228859071167 0.018109863986738153 0 -0.00062227684098130483 0.018197133936571547 0 -0.00055335228859071167 0.018109863986738153 0 -0.00069134911876334785 0.018144119561174114 0 -0.00055335228859071167 0.018109863986738153 0 -0.00072531128303028093 0.018112839914614653 0 -0.00069134911876334785 0.018144119561174114 0 -0.00046922646002466517 0.017725632055389698 0 -0.00055335228859071167 0.018109863986738153 0 -0.00072531128303028093 0.018112839914614653 0 -0.00035477602956581947 0.019125093624208746 0 -0.00035543005774179957 0.019351976109433826 0 -0.00054714513522811069 0.019303214876746782 0 -0.00035477602956581947 0.019125093624208746 0 -0.00016724268394460972 0.019284199026592126 0 -0.00035543005774179957 0.019351976109433826 0 -0.00045306444234634622 0.018837993603753978 0 -0.00035477602956581947 0.019125093624208746 0 -0.00059008564096150399 0.019063235040506402 0 -0.00045306444234634622 0.018837993603753978 0 -0.00035477602956581947 0.019125093624208746 0 -0.00023157021748353331 0.018973215597963902 0 -0.00035477602956581947 0.019125093624208746 0 -0.00023157021748353331 0.018973215597963902 0 -8.3175787492637251e-05 0.019064271133311331 0 -5.6688733207240233e-05 0.018819783628434332 0 -0.00023157021748353331 0.018973215597963902 0 -8.3175787492637251e-05 0.019064271133311331 0 -0.00035477602956581947 0.019125093624208746 0 -8.3175787492637251e-05 0.019064271133311331 0 -0.00016724268394460972 0.019284199026592126 0 -8.3175787492637251e-05 0.019064271133311331 0 3.9190922399072619e-05 0.019249743799085246 0 -0.00016724268394460972 0.019284199026592126 0 -8.3175787492637251e-05 0.019064271133311331 0 3.9190922399072619e-05 0.019249743799085246 0 0.0001211608236415557 0.019090207836417225 0 -5.6688733207240233e-05 0.018819783628434332 0 -8.3175787492637251e-05 0.019064271133311331 0 8.8501495081881482e-05 0.018925737123245724 0 -8.3175787492637251e-05 0.019064271133311331 0 8.8501495081881482e-05 0.018925737123245724 0 0.0001211608236415557 0.019090207836417225 0 8.8501495081881482e-05 0.018925737123245724 0 0.00026851226803913174 0.019007880003795389 0 0.0001211608236415557 0.019090207836417225 0 0.00050737542980118999 0.01873910146817476 0 0.00050247050404183375 0.018585066982686135 0 0.00050247050404183375 0.018585066982686135 0 0.00035712360007917406 0.018986858996751361 0 0.00026851226803913174 0.019007880003795389 0 0.0001211608236415557 0.019090207836417225 0 0.00020887208216973255 0.01922253360114819 0 3.9190922399072619e-05 0.019249743799085246 0 0.0001211608236415557 0.019090207836417225 0 0.00020887208216973255 0.01922253360114819 0 3.9190922399072619e-05 0.019249743799085246 0 0.00020887208216973255 0.01922253360114819 0 0.00015286353117045321 0.019408246140597413 0 0.00035712360007917406 0.018986858996751361 0 0.00030771835176695607 0.019134128832253208 0 0.0002048245283293779 0.019050934151087634 0 0.00015286353117045321 0.019408246140597413 0 0.00045453720016601763 0.019272339445090398 0 -2.8480756207245516e-05 0.019421951665728566 0 -0.00020984435011820664 0.019530604801738589 0 3.6388706630602771e-05 0.019765149558434902 0 0.00015286353117045321 0.019408246140597413 0 -2.8480756207245516e-05 0.019421951665728566 0 3.6388706630602771e-05 0.019765149558434902 0 3.9190922399072619e-05 0.019249743799085246 0 -2.8480756207245516e-05 0.019421951665728566 0 -0.00016724268394460972 0.019284199026592126 0 3.9190922399072619e-05 0.019249743799085246 0 0.00015286353117045321 0.019408246140597413 0 -2.8480756207245516e-05 0.019421951665728566 0 -0.00016724268394460972 0.019284199026592126 0 -0.00020984435011820664 0.019530604801738589 0 -0.00035543005774179957 0.019351976109433826 0 -2.8480756207245516e-05 0.019421951665728566 0 -0.00016724268394460972 0.019284199026592126 0 -0.00020984435011820664 0.019530604801738589 0 -0.00035437118351866145 0.019640279710159417 0 -0.00045954111498249255 0.019513482364638499 0 -0.00048825957942299375 0.019799992218022568 0 -0.00020984435011820664 0.019530604801738589 0 -0.00035437118351866145 0.019640279710159417 0 -0.00045954111498249255 0.019513482364638499 0 -0.00020984435011820664 0.019530604801738589 0 -0.00045954111498249255 0.019513482364638499 0 -0.00035543005774179957 0.019351976109433826 0 -0.00045954111498249255 0.019513482364638499 0 -0.00035543005774179957 0.019351976109433826 0 -0.00054714513522811069 0.019303214876746782 0 0.0010487039746817795 0.018953928436618153 0 0.00091328039991624838 0.018518627664916538 0 0.00041801558243226262 0.018705681277315173 0 0.00079962554114724788 0.018802535202725054 0 0.00060654445868368672 0.01870698340726212 0 0.0010487039746817795 0.018953928436618153 0 0.00066675191789636833 0.01887277450306055 0 0.0007704439621831643 0.019160239612270081 0 0.0010487039746817795 0.018953928436618153 0 0.0012739980170464488 0.01872526622358511 0 0.001220789908836877 0.019128082561938924 0 0.0010487039746817795 0.018953928436618153 0 0.0012739980170464488 0.01872526622358511 0 0.00091328039991624838 0.018518627664916538 0 0.0012739980170464488 0.01872526622358511 0 0.0012311857605570677 0.018354395420288643 0 0.00091328039991624838 0.018518627664916538 0 0.0014844165097588537 0.018513146065240127 0 0.0012739980170464488 0.01872526622358511 0 0.0012311857605570677 0.018354395420288643 0 0.00090749264403302339 0.018224452175702562 0 0.0012311857605570677 0.018354395420288643 0 0.00091328039991624838 0.018518627664916538 0 0.00055607886220549678 0.018198371093751841 0 0.00090749264403302339 0.018224452175702562 0 0.00091328039991624838 0.018518627664916538 0 0.00055607886220549678 0.018198371093751841 0 0.00091328039991624838 0.018518627664916538 0 0.00041801558243226262 0.018705681277315173 0 0.00018209756934859682 0.018172803625561243 0 0.00055607886220549678 0.018198371093751841 0 0.00041801558243226262 0.018705681277315173 0 0.00050247050404183375 0.018585066982686135 0 0.00060654445868368672 0.01870698340726212 0 0.00018209756934859682 0.018172803625561243 0 -0.00019288845311379166 0.01846375990404359 0 0.00041801558243226262 0.018705681277315173 0 0.0002048245283293779 0.019050934151087634 0 0.00066675191789636833 0.01887277450306055 0 0.00045453720016601763 0.019272339445090398 0 0.00027502525305785937 0.018729674954437368 0 0.0002048245283293779 0.019050934151087634 0 0.00066675191789636833 0.01887277450306055 0 0.0007704439621831643 0.019160239612270081 0 0.00045453720016601763 0.019272339445090398 0 0.00071135217934376017 0.019428610691906399 0 0.00066675191789636833 0.01887277450306055 0 0.0007704439621831643 0.019160239612270081 0 0.00045453720016601763 0.019272339445090398 0 0.00045453720016601763 0.019272339445090398 0 0.00071135217934376017 0.019428610691906399 0 0.00042857883661027486 0.019751891235389694 0 0.00015286353117045321 0.019408246140597413 0 0.00045453720016601763 0.019272339445090398 0 0.00042857883661027486 0.019751891235389694 0 0.00099678233844749972 0.019279341724287535 0 0.0012592060552313507 0.019444230139953476 0 0.00089279653741364631 0.019739500155302681 0 0.00071135217934376017 0.019428610691906399 0 0.00099678233844749972 0.019279341724287535 0 0.00089279653741364631 0.019739500155302681 0 0.0007704439621831643 0.019160239612270081 0 0.00071135217934376017 0.019428610691906399 0 0.00099678233844749972 0.019279341724287535 0 0.0010487039746817795 0.018953928436618153 0 0.0007704439621831643 0.019160239612270081 0 0.00099678233844749972 0.019279341724287535 0 0.00099678233844749972 0.019279341724287535 0 0.001220789908836877 0.019128082561938924 0 0.0012592060552313507 0.019444230139953476 0 0.001551875268782227 0.019169416043486976 0 0.0012739980170464488 0.01872526622358511 0 0.001220789908836877 0.019128082561938924 0 0.001551875268782227 0.019169416043486976 0 0.001220789908836877 0.019128082561938924 0 0.0012592060552313507 0.019444230139953476 0 0.0010487039746817795 0.018953928436618153 0 0.00099678233844749972 0.019279341724287535 0 0.001220789908836877 0.019128082561938924 0 0.0012592060552313507 0.019444230139953476 0 0.00089279653741364631 0.019739500155302681 0 0.0013830824564216434 0.019714645813084349 0 0.00072623485295111477 0.019317788095572497 0 0.0010124413884029743 0.018779499814142842 0 0.00086097630962935379 0.019820921129089883 0 0.00061758464517608499 0.019723952927886104 0 0.00089318842937691949 0.019723741759396302 0 0.00073841186562184115 0.019926800959047263 0 0.00064505559197965308 0.020022294717199105 0 0.00086097630962935379 0.019820921129089883 0 0.00069570030910037599 0.019874014927645952 0 0.00068019660708190991 0.020060914971807411 0 0.00086097630962935379 0.019820921129089883 0 0.00072810584631219149 0.019921425674439625 0 0.00087545457222121812 0.019894121509960772 0 0.00086097630962935379 0.019820921129089883 0 0.00069570030910037599 0.019874014927645952 0 0.00061758464517608499 0.019723952927886104 0 0.00069570030910037599 0.019874014927645952 0 0.00061758464517608499 0.019723952927886104 0 0.0004488295386906647 0.019976853538971558 0 0.00071135217934376017 0.019428610691906399 0 0.00089279653741364631 0.019739500155302681 0 0.00042857883661027486 0.019751891235389694 0 0.00072623485295111477 0.019317788095572497 0 0.00037678126077518966 0.019561241432716394 0 0.00030688672457931173 0.019743726861049901 0 0.0004488295386906647 0.019976853538971558 0 0.00013143239321553913 0.019952704067787385 0 0.00061758464517608499 0.019723952927886104 0 0.00030688672457931173 0.019743726861049901 0 0.0004488295386906647 0.019976853538971558 0 0.0004488295386906647 0.019976853538971558 0 0.00048602687969706847 0.020285987064951938 0 0.00068019660708190991 0.020060914971807411 0 0.0004488295386906647 0.019976853538971558 0 0.00013143239321553913 0.019952704067787385 0 0.00021232056264012042 0.020190978603197015 0 0.00043904398086894191 0.020222586781274036 0 0.00020760085825965798 0.020176256956549104 0 0.0004488295386906647 0.019976853538971558 0 0.00048602687969706847 0.020285987064951938 0 0.00021232056264012042 0.020190978603197015 0 0.0003050213996160328 0.020338101514091846 0 0.00044798673181299973 0.020319487496425533 0 0.00019863069856974988 0.020224981663174907 0 0.0003050213996160328 0.020338101514091846 0 0.00019863069856974988 0.020224981663174907 0 0.0002388141468649908 0.020360706469403588 0 0.00043904398086894191 0.020222586781274036 0 0.0004409667437208097 0.020222584739115024 0 0.00083730863393897351 0.020124562820569215 0 0.00072810584631219149 0.019921425674439625 0 0.00069626130155164584 0.02016582776298537 0 0.00054789837754778091 0.020161239727020053 0 0.00072810584631219149 0.019921425674439625 0 0.00069626130155164584 0.02016582776298537 0 0.00050153316324891121 0.020144222334423905 0 0.00054789837754778091 0.020161239727020053 0 0.00072810584631219149 0.019921425674439625 0 0.00043904398086894191 0.020222586781274036 0 0.00064505559197965308 0.020022294717199105 0 0.00083730863393897351 0.020124562820569215 0 0.00087987858265125207 0.019973603693663407 0 0.00072810584631219149 0.019921425674439625 0 0.00083730863393897351 0.020124562820569215 0 0.00087987858265125207 0.019973603693663407 0 0.00094049760068211916 0.020013699600993962 0 0.00087987858265125207 0.019973603693663407 0 0.00072810584631219149 0.019921425674439625 0 0.00087545457222121812 0.019894121509960772 0 0.00069570030910037599 0.019874014927645952 0 0.0004488295386906647 0.019976853538971558 0 0.00068019660708190991 0.020060914971807411 0 -0.00030466403594032679 0.019792243955814984 0 -0.00033986181496750483 0.020018977684792098 0 -0.00048825957942299375 0.019799992218022568 0 -0.00033986181496750483 0.020018977684792098 0 -0.00048825957942299375 0.019799992218022568 0 -0.00057262978799951 0.020058402817725272 0 -0.00035437118351866145 0.019640279710159417 0 -0.00030466403594032679 0.019792243955814984 0 -0.00048825957942299375 0.019799992218022568 0 -0.00020984435011820664 0.019530604801738589 0 -0.00035437118351866145 0.019640279710159417 0 -0.00030466403594032679 0.019792243955814984 0 -0.00020984435011820664 0.019530604801738589 0 -0.00030466403594032679 0.019792243955814984 0 3.6388706630602771e-05 0.019765149558434902 0 -0.00012112460255117106 0.019704194801505946 0 5.3928947829104783e-05 0.01967000924260227 0 -0.00030466403594032679 0.019792243955814984 0 -0.00014816256865637673 0.019916942431448263 0 -0.00033986181496750483 0.020018977684792098 0 -0.00030466403594032679 0.019792243955814984 0 -0.00014816256865637673 0.019916942431448263 0 -4.555256855177685e-07 0.019766971514548724 0 -0.00014816256865637673 0.019916942431448263 0 -4.555256855177685e-07 0.019766971514548724 0 0.00013143239321553913 0.019952704067787385 0 0.00037678126077518966 0.019561241432716394 0 5.3928947829104783e-05 0.01967000924260227 0 0.00015286353117045321 0.019408246140597413 0 0.00042857883661027486 0.019751891235389694 0 3.6388706630602771e-05 0.019765149558434902 0 0.00030688672457931173 0.019743726861049901 0 -4.555256855177685e-07 0.019766971514548724 0 0.00013143239321553913 0.019952704067787385 0 0.00020760085825965798 0.020176256956549104 0 -3.5216953187179499e-05 0.02010498453425287 0 0.00013143239321553913 0.019952704067787385 0 0.00021232056264012042 0.020190978603197015 0 -5.9587749273892053e-05 0.020101881571307042 0 0.00019863069856974988 0.020224981663174907 0 -6.6116316088395369e-05 0.020123320929530057 0 5.2649526927618018e-05 0.020364108318419519 0 0.00019863069856974988 0.020224981663174907 0 5.2649526927618018e-05 0.020364108318419519 0 0.0002388141468649908 0.020360706469403588 0 -6.6116316088395369e-05 0.020123320929530057 0 -0.00021408940940327529 0.020281153174681991 0 5.2649526927618018e-05 0.020364108318419519 0 -0.00014816256865637673 0.019916942431448263 0 0.00013143239321553913 0.019952704067787385 0 -5.9587749273892053e-05 0.020101881571307042 0 -0.00014816256865637673 0.019916942431448263 0 -5.9587749273892053e-05 0.020101881571307042 0 -0.00033986181496750483 0.020018977684792098 0 -3.5216953187179499e-05 0.02010498453425287 0 -0.0001734349855486942 0.020060072072594727 0 -6.6116316088395369e-05 0.020123320929530057 0 -0.00021408940940327529 0.020281153174681991 0 -0.00033986181496750483 0.020018977684792098 0 -0.00021408940940327529 0.020281153174681991 0 -0.00046261738141803802 0.020243271885495406 0 -0.00033986181496750483 0.020018977684792098 0 -0.00021408940940327529 0.020281153174681991 0 -0.00046261738141803802 0.020243271885495406 0 -0.00033705904430914952 0.020418140963627162 0 -0.00046261738141803802 0.020243271885495406 0 -0.00033986181496750483 0.020018977684792098 0 -0.00057262978799951 0.020058402817725272 0 -0.00037485637994435659 0.020599198737188091 0 -0.00033705904430914952 0.020418140963627162 0 -0.00057763234301307683 0.020425818496156076 0 -0.00046261738141803802 0.020243271885495406 0 -0.00033705904430914952 0.020418140963627162 0 -0.00057763234301307683 0.020425818496156076 0 -0.00037485637994435659 0.020599198737188091 0 -0.00033705904430914952 0.020418140963627162 0 -7.022238211683567e-05 0.020537381056702837 0 -0.00021408940940327529 0.020281153174681991 0 -0.00033705904430914952 0.020418140963627162 0 -7.022238211683567e-05 0.020537381056702837 0 -0.00036966166582995364 0.020583007255338986 0 -0.00010702386768068596 0.020539323404336549 0 -0.000403540854629986 0.020584359556178013 0 -7.345617395929083e-05 0.020524366997948653 0 -0.00016536339190915213 0.020805100903656077 0 -7.345617395929083e-05 0.020524366997948653 0 9.0172565357883261e-05 0.020587683012748045 0 6.3912008756442559e-05 0.020753901413210863 0 -0.00021408940940327529 0.020281153174681991 0 -7.022238211683567e-05 0.020537381056702837 0 5.2649526927618018e-05 0.020364108318419519 0 -0.00010702386768068596 0.020539323404336549 0 4.2419355476433596e-05 0.020514322531556262 0 -7.022238211683567e-05 0.020537381056702837 0 5.2649526927618018e-05 0.020364108318419519 0 0.00021406969700501403 0.020474978275802982 0 5.2649526927618018e-05 0.020364108318419519 0 0.0002388141468649908 0.020360706469403588 0 0.00021406969700501403 0.020474978275802982 0 9.0172565357883261e-05 0.020587683012748045 0 0.00021406969700501403 0.020474978275802982 0 0.00022244436686596564 0.020558739828824956 0 -7.345617395929083e-05 0.020524366997948653 0 9.0172565357883261e-05 0.020587683012748045 0 0.00021406969700501403 0.020474978275802982 0 9.0172565357883261e-05 0.020587683012748045 0 0.00018838982553999589 0.020684478960636705 0 0.00022244436686596564 0.020558739828824956 0 0.00018838982553999589 0.020684478960636705 0 6.3912008756442559e-05 0.020753901413210863 0 0.00026923127610326231 0.020860052809494569 0 9.0172565357883261e-05 0.020587683012748045 0 0.00018838982553999589 0.020684478960636705 0 6.3912008756442559e-05 0.020753901413210863 0 6.3912008756442559e-05 0.020753901413210863 0 2.9838154750170284e-05 0.021016535423026506 0 0.00026923127610326231 0.020860052809494569 0 2.9838154750170284e-05 0.021016535423026506 0 0.00026923127610326231 0.020860052809494569 0 0.00028822421497701363 0.021221234270598206 0 6.3912008756442559e-05 0.020753901413210863 0 2.9838154750170284e-05 0.021016535423026506 0 -0.00016536339190915213 0.020805100903656077 0 -7.345617395929083e-05 0.020524366997948653 0 6.3912008756442559e-05 0.020753901413210863 0 -0.00016536339190915213 0.020805100903656077 0 -0.000403540854629986 0.020584359556178013 0 -0.00016536339190915213 0.020805100903656077 0 -0.00037396883822687742 0.020875432668130332 0 -0.00016536339190915213 0.020805100903656077 0 -0.00026198617723264259 0.021075993403644577 0 -0.00037396883822687742 0.020875432668130332 0 2.9838154750170284e-05 0.021016535423026506 0 -0.00016536339190915213 0.020805100903656077 0 -0.00026198617723264259 0.021075993403644577 0 -0.00026198617723264259 0.021075993403644577 0 -0.00047290574407033912 0.02104776685260324 0 -0.00037396883822687742 0.020875432668130332 0 -0.00047290574407033912 0.02104776685260324 0 -0.00037396883822687742 0.020875432668130332 0 -0.00056886896935352392 0.020877986007737537 0 -0.000403540854629986 0.020584359556178013 0 -0.00037396883822687742 0.020875432668130332 0 -0.00056886896935352392 0.020877986007737537 0 0.0005542261268017347 0.020442675991364893 0 0.00046130619811342863 0.020586417445250645 0 0.00070163656682693646 0.020606594816265093 0 0.00067972809261296167 0.020318246008317026 0 0.0005542261268017347 0.020442675991364893 0 0.00070163656682693646 0.020606594816265093 0 0.00089218169206283361 0.020371256452374406 0 0.00067972809261296167 0.020318246008317026 0 0.00070163656682693646 0.020606594816265093 0 0.00089218169206283361 0.020371256452374406 0 0.00070163656682693646 0.020606594816265093 0 0.0010542588334618839 0.020552841213195751 0 0.00083730863393897351 0.020124562820569215 0 0.00089218169206283361 0.020371256452374406 0 0.00067972809261296167 0.020318246008317026 0 0.00083730863393897351 0.020124562820569215 0 0.00069626130155164584 0.02016582776298537 0 0.00067972809261296167 0.020318246008317026 0 0.00054789837754778091 0.020161239727020053 0 0.00069626130155164584 0.02016582776298537 0 0.00067972809261296167 0.020318246008317026 0 0.00049165456573175908 0.020142401758313767 0 0.00054789837754778091 0.020161239727020053 0 0.0004745778028042989 0.020292250228785731 0 0.00067972809261296167 0.020318246008317026 0 0.0004745778028042989 0.020292250228785731 0 0.0005542261268017347 0.020442675991364893 0 0.00054789837754778091 0.020161239727020053 0 0.00067972809261296167 0.020318246008317026 0 0.0004745778028042989 0.020292250228785731 0 0.00043904398086894191 0.020222586781274036 0 0.00036571569258471052 0.020322338417427206 0 0.0003050213996160328 0.020338101514091846 0 0.00044798673181299973 0.020319487496425533 0 0.00033406855180188129 0.020445246750320473 0 0.00049165456573175908 0.020142401758313767 0 0.0004745778028042989 0.020292250228785731 0 0.00034228639928553147 0.020340597057365597 0 0.0004745778028042989 0.020292250228785731 0 0.00034228639928553147 0.020340597057365597 0 0.00043702855832555842 0.02042552796580931 0 0.0004745778028042989 0.020292250228785731 0 0.0005542261268017347 0.020442675991364893 0 0.00043702855832555842 0.02042552796580931 0 0.0003050213996160328 0.020338101514091846 0 0.0002388141468649908 0.020360706469403588 0 0.00033406855180188129 0.020445246750320473 0 0.00033406855180188129 0.020445246750320473 0 0.00021406969700501403 0.020474978275802982 0 0.00022244436686596564 0.020558739828824956 0 0.0002388141468649908 0.020360706469403588 0 0.00033406855180188129 0.020445246750320473 0 0.00021406969700501403 0.020474978275802982 0 0.00036571569258471052 0.020322338417427206 0 0.00032649526924066399 0.020373295150684138 0 0.00034228639928553147 0.020340597057365597 0 0.00022244436686596564 0.020558739828824956 0 0.00035391014746511312 0.020520363238733352 0 0.00022244436686596564 0.020558739828824956 0 0.00035391014746511312 0.020520363238733352 0 0.00031519323202792852 0.020673811185515045 0 0.00035391014746511312 0.020520363238733352 0 0.00046130619811342863 0.020586417445250645 0 0.00031519323202792852 0.020673811185515045 0 0.00018838982553999589 0.020684478960636705 0 0.00022244436686596564 0.020558739828824956 0 0.00031519323202792852 0.020673811185515045 0 0.0005542261268017347 0.020442675991364893 0 0.00043702855832555842 0.02042552796580931 0 0.00046130619811342863 0.020586417445250645 0 0.00034228639928553147 0.020340597057365597 0 0.00035391014746511312 0.020520363238733352 0 0.00043702855832555842 0.02042552796580931 0 0.00035391014746511312 0.020520363238733352 0 0.00043702855832555842 0.02042552796580931 0 0.00046130619811342863 0.020586417445250645 0 0.00046130619811342863 0.020586417445250645 0 0.00049139833520277958 0.02078634840778739 0 0.00031519323202792852 0.020673811185515045 0 0.00046130619811342863 0.020586417445250645 0 0.00049139833520277958 0.02078634840778739 0 0.00070163656682693646 0.020606594816265093 0 0.00049139833520277958 0.02078634840778739 0 0.00031519323202792852 0.020673811185515045 0 0.00026923127610326231 0.020860052809494569 0 0.00018838982553999589 0.020684478960636705 0 0.00031519323202792852 0.020673811185515045 0 0.00026923127610326231 0.020860052809494569 0 0.00049139833520277958 0.02078634840778739 0 0.00026923127610326231 0.020860052809494569 0 0.00051791613286870767 0.0210467982494267 0 0.00049139833520277958 0.02078634840778739 0 0.00068224251857138083 0.020896051862654502 0 0.00051791613286870767 0.0210467982494267 0 0.00049139833520277958 0.02078634840778739 0 0.00068224251857138083 0.020896051862654502 0 0.00070163656682693646 0.020606594816265093 0 0.00068224251857138083 0.020896051862654502 0 0.00070163656682693646 0.020606594816265093 0 0.00094800102162287186 0.020871240515559688 0 0.00070163656682693646 0.020606594816265093 0 0.00094800102162287186 0.020871240515559688 0 0.0010542588334618839 0.020552841213195751 0 0.00068224251857138083 0.020896051862654502 0 0.00094800102162287186 0.020871240515559688 0 0.00076322381297302207 0.021171481238340721 0 0.00094800102162287186 0.020871240515559688 0 0.0011540584248103912 0.02096592058908963 0 0.0012697313811059409 0.020749255917319086 0 0.0011540584248103912 0.02096592058908963 0 0.0012697313811059409 0.020749255917319086 0 0.0013362947059603766 0.021061252167754747 0 0.0012697313811059409 0.020749255917319086 0 0.0013071977052298758 0.020478545296275196 0 0.0015256552635184934 0.020607750374150559 0 0.0012697313811059409 0.020749255917319086 0 0.0010542588334618839 0.020552841213195751 0 0.0013071977052298758 0.020478545296275196 0 0.00094800102162287186 0.020871240515559688 0 0.0012697313811059409 0.020749255917319086 0 0.0010542588334618839 0.020552841213195751 0 0.00089218169206283361 0.020371256452374406 0 0.0010542588334618839 0.020552841213195751 0 0.001198292956726693 0.02024739600903025 0 0.0010542588334618839 0.020552841213195751 0 0.0013071977052298758 0.020478545296275196 0 0.001198292956726693 0.02024739600903025 0 0.0013071977052298758 0.020478545296275196 0 0.001198292956726693 0.02024739600903025 0 0.0015315304987437793 0.020340847872082631 0 0.0010915063636502541 0.020144985979012816 0 0.0012946723270709818 0.020188894087702962 0 0.00083730863393897351 0.020124562820569215 0 0.00089218169206283361 0.020371256452374406 0 0.001198292956726693 0.02024739600903025 0 0.00096673170076761144 0.020117083309592592 0 0.0010915063636502541 0.020144985979012816 0 0.0011329144068541578 0.020022943344963212 0 0.0011201863925123323 0.019995266355799634 0 0.0011721237724411299 0.019952287537135995 0 0.0011329144068541578 0.020022943344963212 0 0.0011201863925123323 0.019995266355799634 0 0.0010965112143855671 0.020038641307666475 0 0.00098617816481114248 0.020062257072260694 0 0.0010965112143855671 0.020038641307666475 0 0.0010861496938566648 0.019993200831654963 0 0.0011201863925123323 0.019995266355799634 0 0.0010965112143855671 0.020038641307666475 0 0.0010861496938566648 0.019993200831654963 0 0.0013071977052298758 0.020478545296275196 0 0.0015315304987437793 0.020340847872082631 0 0.0015256552635184934 0.020607750374150559 0 0.0015315304987437793 0.020340847872082631 0 0.0017520573750628994 0.020407698532549055 0 0.0017813190694520955 0.020388888083210304 0 0.0012946723270709818 0.020188894087702962 0 0.0014786524965872084 0.020228087949020142 0 0.0011329144068541578 0.020022943344963212 0 0.0010965112143855671 0.020038641307666475 0 0.001142466475858109 0.020054951534331497 0 0.0015315304987437793 0.020340847872082631 0 0.0015256552635184934 0.020607750374150559 0 0.0017520573750628994 0.020407698532549055 0 0.0015256552635184934 0.020607750374150559 0 0.0017342926525341685 0.020785978133464306 0 0.0017520573750628994 0.020407698532549055 0 0.00091337181537154573 0.020245080153077587 0 0.0010941916081978547 0.020312138330475845 0 0.0012697313811059409 0.020749255917319086 0 0.0015435048943954139 0.02093209477015235 0 0.0013362947059603766 0.021061252167754747 0 0.0012697313811059409 0.020749255917319086 0 0.0015256552635184934 0.020607750374150559 0 0.0015435048943954139 0.02093209477015235 0 0.00091337181537154573 0.020245080153077587 0 0.00033234477714133521 0.01965502875005376 0 0.0015435048943954139 0.02093209477015235 0 0.0017342926525341685 0.020785978133464306 0 0.0016763626353008137 0.021138266399521023 0 0.0015256552635184934 0.020607750374150559 0 0.0015435048943954139 0.02093209477015235 0 0.0017342926525341685 0.020785978133464306 0 0.0017168347007782655 0.020325245841466187 0 0.0017437259522617614 0.020340044943003111 0 0.0017586104117819498 0.020295229350126787 0 0.00177667294188009 0.020321127640375972 0 0.0017437259522617614 0.020340044943003111 0 0.0017586104117819498 0.020295229350126787 0 0.0017168347007782655 0.020325245841466187 0 0.0017345668803438897 0.020320711709439807 0 0.0017437259522617614 0.020340044943003111 0 0.0017345668803438897 0.020320711709439807 0 0.0017437259522617614 0.020340044943003111 0 0.0017184333850063026 0.020236531473567812 0 0.0017437259522617614 0.020340044943003111 0 0.0017184333850063026 0.020236531473567812 0 0.0017813190694520955 0.020388888083210304 0 0.00177667294188009 0.020321127640375972 0 0.0017437259522617614 0.020340044943003111 0 0.0017520573750628994 0.020407698532549055 0 -0.0023273673827847443 0.0088696482272679848 0 -0.002317459783999676 0.0089377557643381955 0 -0.0022254017290640883 0.0088725562430507741 0 -0.002317459783999676 0.0089377557643381955 0 -0.0022254017290640883 0.0088725562430507741 0 -0.0022193073598786623 0.0089492304430889551 0 -0.0021697085573257422 0.0088493374247665402 0 -0.0022254017290640883 0.0088725562430507741 0 -0.0022193073598786623 0.0089492304430889551 0 0.0017168347007782655 0.020325245841466187 0 0.0017345668803438897 0.020320711709439807 0 0.0018947224053217501 0.020366112091274109 0 -0.00025587056944208675 0.014653018526344631 0 -0.00038769308452708736 0.014250877072096527 0 0.0018947224053217501 0.020366112091274109 0 0.0019781877352782339 0.020031407631979935 0 0.0017184333850063026 0.020236531473567812 0 0.0017345668803438897 0.020320711709439807 0 0.0018947224053217501 0.020366112091274109 0 0.0017184333850063026 0.020236531473567812 0 -0.002317459783999676 0.0089377557643381955 0 -0.0023233854662788322 0.0090352156952725939 0 -0.0022193073598786623 0.0089492304430889551 0 0.0025136063837541698 0.0199506950392755 0 0.0018947224053217501 0.020366112091274109 0 0.0019781877352782339 0.020031407631979935 0 0.0025136063837541698 0.0199506950392755 0 0.0019781877352782339 0.020031407631979935 0 0.0020586178797779827 0.019714173300478904 0 -0.00059260200811123598 0.013491734409539451 0 -0.00038769308452708736 0.014250877072096527 0 0.0019781877352782339 0.020031407631979935 0 0.0017651534687365114 0.01982568502908896 0 0.0020586178797779827 0.019714173300478904 0 0.0019781877352782339 0.020031407631979935 0 0.0017184333850063026 0.020236531473567812 0 0.0017651534687365114 0.01982568502908896 0 0.0017184333850063026 0.020236531473567812 0 0.0017651534687365114 0.01982568502908896 0 0.0015630247362888746 0.019926160226153733 0 0.0017651534687365114 0.01982568502908896 0 0.0018311790267558008 0.01942375186254006 0 0.0014437885826035287 0.019588378656031833 0 0.0018311790267558008 0.01942375186254006 0 0.0014437885826035287 0.019588378656031833 0 0.0016079370465178705 0.019192505970451773 0 0.0017651534687365114 0.01982568502908896 0 0.0018311790267558008 0.01942375186254006 0 0.0020586178797779827 0.019714173300478904 0 0.0018311790267558008 0.01942375186254006 0 0.0023358429651697287 0.019344690985199614 0 0.0020586178797779827 0.019714173300478904 0 0.0025136063837541698 0.0199506950392755 0 0.0023358429651697287 0.019344690985199614 0 0.0020586178797779827 0.019714173300478904 0 0.0017437259522617614 0.020340044943003111 0 0.0017520573750628994 0.020407698532549055 0 0.0017813190694520955 0.020388888083210304 0 0.001142466475858109 0.020054951534331497 0 0.0013188380073980289 0.020034721908908548 0 0.001232671494554025 0.019999389775040732 0 0.001142466475858109 0.020054951534331497 0 0.001232671494554025 0.019999389775040732 0 0.0011739512624587562 0.02001192002182103 0 0.0011329144068541578 0.020022943344963212 0 0.001142466475858109 0.020054951534331497 0 0.0011739512624587562 0.02001192002182103 0 0.0017184333850063026 0.020236531473567812 0 0.001142466475858109 0.020054951534331497 0 0.0013188380073980289 0.020034721908908548 0 0.001595646323538157 0.020253056831654504 0 0.0014786524965872084 0.020228087949020142 0 0.0017184333850063026 0.020236531473567812 0 0.0015630247362888746 0.019926160226153733 0 0.0013188380073980289 0.020034721908908548 0 0.0015630247362888746 0.019926160226153733 0 0.0013188380073980289 0.020034721908908548 0 0.0014437885826035287 0.019588378656031833 0 0.0013188380073980289 0.020034721908908548 0 0.0012686504530825574 0.019973816722060816 0 0.001232671494554025 0.019999389775040732 0 0.00071429713792515071 0.019051611248445798 0 0.00073734311745170505 0.018752338006785271 0 0.0017651534687365114 0.01982568502908896 0 0.0015630247362888746 0.019926160226153733 0 0.0014437885826035287 0.019588378656031833 0 0.0012686504530825574 0.019973816722060816 0 0.0012032085802170113 0.01998234056204477 0 0.0012366929388202099 0.019938775997145487 0 0.0011329144068541578 0.020022943344963212 0 0.0012032085802170113 0.01998234056204477 0 0.0011721237724411299 0.019952287537135995 0 0.0012686504530825574 0.019973816722060816 0 0.0012032085802170113 0.01998234056204477 0 0.001232671494554025 0.019999389775040732 0 0.0012032085802170113 0.01998234056204477 0 0.001232671494554025 0.019999389775040732 0 0.0011739512624587562 0.02001192002182103 0 0.0011329144068541578 0.020022943344963212 0 0.0012032085802170113 0.01998234056204477 0 0.0011739512624587562 0.02001192002182103 0 0.0012096994045965107 0.019915513294177983 0 0.0012366929388202099 0.019938775997145487 0 0.0012386129506556215 0.01988288603131555 0 0.0011721237724411299 0.019952287537135995 0 0.0012096994045965107 0.019915513294177983 0 0.0012366929388202099 0.019938775997145487 0 0.0012032085802170113 0.01998234056204477 0 0.0011721237724411299 0.019952287537135995 0 0.0012366929388202099 0.019938775997145487 0 0.0011721237724411299 0.019952287537135995 0 0.0011799184026886637 0.019910528550787635 0 0.0012096994045965107 0.019915513294177983 0 0.0012366929388202099 0.019938775997145487 0 0.0012826396778918595 0.019927999757260173 0 0.0012386129506556215 0.01988288603131555 0 0.0012686504530825574 0.019973816722060816 0 0.0012366929388202099 0.019938775997145487 0 0.0012826396778918595 0.019927999757260173 0 0.00073734311745170505 0.018752338006785271 0 0.00084394491219874147 0.017739505215992178 0 0.00084394491219874147 0.017739505215992178 0 0.00044997226975141839 0.016601348683470775 0 -0.00097245171623510447 0.013999520783121168 0 0.001041552144406147 0.013431935624400666 0 -0.00031066560635213068 0.012646125443914826 0 0.00018495981136810828 0.015247573405191546 0 -0.00097245171623510447 0.013999520783121168 0 0.001041552144406147 0.013431935624400666 0 -0.00097245171623510447 0.013999520783121168 0 -0.0011741958803354526 0.012836053216564391 0 -0.00031066560635213068 0.012646125443914826 0 -0.00097245171623510447 0.013999520783121168 0 -0.0021260583726367853 0.012755124881858372 0 -0.0011741958803354526 0.012836053216564391 0 0.00044997226975141839 0.016601348683470775 0 0.00012595602684914396 0.015334416201684893 0 0.0012386129506556215 0.01988288603131555 0 0.0011999343996057907 0.019881515491566248 0 0.0011916474106534387 0.019826368792435118 0 0.0011795091400545916 0.01985690141811277 0 0.0011999343996057907 0.019881515491566248 0 0.0011684955146475183 0.019887311555907485 0 0.0011795091400545916 0.01985690141811277 0 0.0011999343996057907 0.019881515491566248 0 0.0011916474106534387 0.019826368792435118 0 0.0011799184026886637 0.019910528550787635 0 0.0011999343996057907 0.019881515491566248 0 0.0011684955146475183 0.019887311555907485 0 0.0011799184026886637 0.019910528550787635 0 0.0012096994045965107 0.019915513294177983 0 0.0011999343996057907 0.019881515491566248 0 0.0012096994045965107 0.019915513294177983 0 0.0012386129506556215 0.01988288603131555 0 0.0011999343996057907 0.019881515491566248 0 0.0018311790267558008 0.01942375186254006 0 0.0023358429651697287 0.019344690985199614 0 0.0020698324223676384 0.0188886747822644 0 0.002651083985536421 0.01880440567296051 0 0.0023358429651697287 0.019344690985199614 0 0.0020698324223676384 0.0188886747822644 0 0.0018311790267558008 0.01942375186254006 0 0.0015047946645241922 0.01908154457274383 0 0.0020698324223676384 0.0188886747822644 0 0.0011219959797636294 0.01808290518590034 0 0.00084394491219874147 0.017739505215992178 0 0.00084394491219874147 0.017739505215992178 0 0.00079881332438725772 0.01464044798700681 0 0.0015047946645241922 0.01908154457274383 0 0.0020698324223676384 0.0188886747822644 0 0.0018024234331134638 0.018417173973011548 0 0.0020698324223676384 0.0188886747822644 0 0.0018024234331134638 0.018417173973011548 0 0.0023131245968283629 0.01841476844895942 0 0.002651083985536421 0.01880440567296051 0 0.0020698324223676384 0.0188886747822644 0 0.0023131245968283629 0.01841476844895942 0 0.0018024234331134638 0.018417173973011548 0 0.0023131245968283629 0.01841476844895942 0 0.0021037326386518802 0.017766694024000607 0 0.0029302167043463697 0.018197381807751552 0 0.0023131245968283629 0.01841476844895942 0 0.0021037326386518802 0.017766694024000607 0 0.00079881332438725772 0.01464044798700681 0 0.0011502769280338707 0.0095982085561419385 0 0.001041552144406147 0.013431935624400666 0 0.00058530409025081629 0.01194381568397916 0 -0.00031066560635213068 0.012646125443914826 0 0.001041552144406147 0.013431935624400666 0 0.00058530409025081629 0.01194381568397916 0 0.0019022851185452967 0.011610886052479598 0 0.00058530409025081629 0.01194381568397916 0 0.00034768401435924617 0.01152581745562165 0 -0.00015485343321051031 0.011728434570326192 0 0.002515019010137811 0.0098454996555388825 0 0.00036640044632178255 0.010971260442431352 0 0.00061464468212048295 0.010629321426166016 0 0.002515019010137811 0.0098454996555388825 0 0.00032836320703218824 0.01100633114865778 0 0.0012136198608493976 0.011258084383417225 0 0.0018289185718435197 0.011569392210770987 0 0.00097866535917554964 0.012462085149638804 0 0.0006322255024081725 0.011424960904574224 0 0.00032836320703218824 0.01100633114865778 0 0.0012136198608493976 0.011258084383417225 0 0.00058530409025081629 0.01194381568397916 0 0.00034768401435924617 0.01152581745562165 0 0.0006322255024081725 0.011424960904574224 0 0.00058530409025081629 0.01194381568397916 0 0.0006322255024081725 0.011424960904574224 0 0.0012136198608493976 0.011258084383417225 0 0.00034768401435924617 0.01152581745562165 0 0.0006322255024081725 0.011424960904574224 0 0.00032836320703218824 0.01100633114865778 0 0.00058530409025081629 0.01194381568397916 0 0.0012136198608493976 0.011258084383417225 0 0.0019022851185452967 0.011610886052479598 0 0.0012349112307971544 0.0096883589419429362 0 0.0011502769280338707 0.0095982085561419385 0 0.002515019010137811 0.0098454996555388825 0 0.0012136198608493976 0.011258084383417225 0 0.0019057701752329696 0.011608309057932248 0 0.0018930813782061376 0.0063956119965325308 0 0.0011502769280338707 0.0095982085561419385 0 0.00017268921030226441 0.0034244240351092902 0 3.9415909898997173e-05 0.0027286510165965001 0 -0.00068023718167600203 0.0042418393306154923 0 0.00017268921030226441 0.0034244240351092902 0 8.2907743775101131e-05 0.0040985251516626386 0 -0.00068023718167600203 0.0042418393306154923 0 -0.001841086167638033 0.012151544549785377 0 -0.0011741958803354526 0.012836053216564391 0 -0.00082004344604049079 0.012043962132867722 0 -0.00019816190038269158 0.01414629746795606 0 -4.855139727875921e-05 0.014068913151721952 0 -5.8140477385364504e-05 0.014320932540021626 0 0.00016479937239829648 0.014526523426140683 0 0.00018082304025220244 0.015256179209210676 0 -0.0005506631406674168 0.015234435872887784 0 -0.0002170982473159753 0.01453036274356951 0 0.00011558071187335242 0.014887991284336117 0 0.00016479937239829648 0.014526523426140683 0 0.00012595602684914396 0.015334416201684893 0 0.0012005882384019471 0.019814600298681109 0 0.0011833634199438301 0.019795784599446864 0 0.0011652818311224493 0.019835357951795168 0 0.00012595602684914396 0.015334416201684893 0 0.00018082304025220244 0.015256179209210676 0 4.1128623560920059e-05 0.01568769870554745 0 0.00012595602684914396 0.015334416201684893 0 0.0011795091400545916 0.01985690141811277 0 0.0012005882384019471 0.019814600298681109 0 0.0011652818311224493 0.019835357951795168 0 -0.001841086167638033 0.012151544549785377 0 -0.0021260583726367853 0.012755124881858372 0 -0.0011741958803354526 0.012836053216564391 0 -0.0011741958803354526 0.012836053216564391 0 -0.00031066560635213068 0.012646125443914826 0 -0.00082004344604049079 0.012043962132867722 0 0.00032836320703218824 0.01100633114865778 0 -0.001841086167638033 0.012151544549785377 0 -0.00082004344604049079 0.012043962132867722 0 0.00058530409025081629 0.01194381568397916 0 -0.00031066560635213068 0.012646125443914826 0 -0.00015485343321051031 0.011728434570326192 0 -0.00031066560635213068 0.012646125443914826 0 -0.00082004344604049079 0.012043962132867722 0 -0.00015485343321051031 0.011728434570326192 0 0.00036640044632178255 0.010971260442431352 0 -0.0017259132458175093 0.012076338380930135 0 -0.00061915640071359928 0.011030323083414837 0 0.00021463356828964041 0.01238014744809727 0 0.00030542329820825912 0.012657195288494148 0 0.00097866535917554964 0.012462085149638804 0 0.00016479937239829648 0.014526523426140683 0 0.00061464468212048295 0.010629321426166016 0 -0.00061915640071359928 0.011030323083414837 0 -0.0010861103713761791 0.010713802638135012 0 0.00017124010382184047 0.010158603248766489 0 0.00061464468212048295 0.010629321426166016 0 -0.0011407040330317774 0.010700617500514997 0 0.00034768401435924617 0.01152581745562165 0 0.00032836320703218824 0.01100633114865778 0 -0.00015485343321051031 0.011728434570326192 0 0.00032836320703218824 0.01100633114865778 0 -0.00082004344604049079 0.012043962132867722 0 -0.00015485343321051031 0.011728434570326192 0 0.00036640044632178255 0.010971260442431352 0 0.00061464468212048295 0.010629321426166016 0 -0.00061915640071359928 0.011030323083414837 0 -0.00061915640071359928 0.011030323083414837 0 -0.0010861103713761791 0.010713802638135012 0 -0.0011856020270823919 0.010924976287742257 0 0.00010955474809948247 0.013064440472115709 0 0.00019528959146876757 0.013114560470569924 0 0.00030542329820825912 0.012657195288494148 0 7.9209966050774674e-05 0.013589438858369008 0 0.00019528959146876757 0.013114560470569924 0 7.9209966050774674e-05 0.013589438858369008 0 -0.00051907950446876915 0.013262847938762139 0 -0.00041863978236755334 0.013050865986427768 0 0.00048635821900398161 0.013224508065613521 0 0.00030542329820825912 0.012657195288494148 0 0.00019528959146876757 0.013114560470569924 0 0.00016479937239829648 0.014526523426140683 0 0.00019528959146876757 0.013114560470569924 0 -0.00019816190038269158 0.01414629746795606 0 -0.00034527026913026165 0.014456028214897011 0 -5.8140477385364504e-05 0.014320932540021626 0 -0.0017259132458175093 0.012076338380930135 0 -0.00061915640071359928 0.011030323083414837 0 -0.0011845742268063709 0.010924650783928885 0 -0.00034527026913026165 0.014456028214897011 0 -5.8140477385364504e-05 0.014320932540021626 0 -0.00010071954721104913 0.014503466924299047 0 0.00018082304025220244 0.015256179209210676 0 0.00033677169496439802 0.015447557348400089 0 -5.8140477385364504e-05 0.014320932540021626 0 -0.00010071954721104913 0.014503466924299047 0 0.0003402242143319506 0.014487547801084216 0 -0.00019262175029463846 0.014574188224364978 0 0.00060160637774069319 0.014544843949698027 0 0.00066167562463193929 0.01460953230202456 0 0.00038428125387599292 0.015815907184252041 0 0.00029089533163305408 0.015382873094384183 0 0.00045335230094912832 0.01581325441320559 0 -0.00019262175029463846 0.014574188224364978 0 0.00066167562463193929 0.01460953230202456 0 0.00085058581595824276 0.014775396464949448 0 -4.855139727875921e-05 0.014068913151721952 0 -5.8140477385364504e-05 0.014320932540021626 0 0.0003402242143319506 0.014487547801084216 0 7.9209966050774674e-05 0.013589438858369008 0 -1.1350355877231872e-06 0.01514987334998932 0 7.9209966050774674e-05 0.013589438858369008 0 0.00033677169496439802 0.015447557348400089 0 0.00033677169496439802 0.015447557348400089 0 0.00033580930432746694 0.015444462049597211 0 0.0011766418133732155 0.019852576286383442 0 0.0010982898470150808 0.019829148765584292 0 0.0010762201553407025 0.019541993261690819 0 -2.0897531284924092e-06 0.016621071334015934 0 0.00036284023639894465 0.015903993550054434 0 8.2022859587308039e-05 0.015491185146660728 0 0.00038428125387599292 0.015815907184252041 0 0.00029089533163305408 0.015382873094384183 0 0.0011376640642854049 0.019861388936306037 0 0.0010982898470150808 0.019829148765584292 0 0.0010996978837755306 0.01986789074515179 0 0.0011376640642854049 0.019861388936306037 0 0.0011766418133732155 0.019852576286383442 0 0.0010982898470150808 0.019829148765584292 0 -2.2307201138221447e-06 0.016635897569268209 0 -2.0897531284924092e-06 0.016621071334015934 0 0.0011833634199438301 0.019795784599446864 0 0.0011218692714630835 0.019830452857559178 0 0.0011652818311224493 0.019835357951795168 0 0.00018082304025220244 0.015256179209210676 0 -2.0897531284924092e-06 0.016621071334015934 0 0.0014123027563391552 0.01866512959878339 0 0.00095971100167064683 0.017578123505712202 0 0.0010982898470150808 0.019829148765584292 0 0.0010420923065651662 0.01974253384781792 0 0.0010402685441345712 0.019819365689882722 0 0.0010701360846580112 0.019852882007691759 0 0.0010982898470150808 0.019829148765584292 0 0.0010402685441345712 0.019819365689882722 0 0.0010701360846580112 0.019852882007691759 0 0.0010402685441345712 0.019819365689882722 0 0.0010410507632449921 0.019859231407329023 0 0.0010701360846580112 0.019852882007691759 0 0.0010982898470150808 0.019829148765584292 0 0.0010996978837755306 0.01986789074515179 0 0.001161189631270785 0.016619252517541431 0 0.00017592196239020504 0.016431108273835378 0 0.00078474281338965853 0.01610898143735387 0 0.0010982898470150808 0.019829148765584292 0 0.0010762201553407025 0.019541993261690819 0 0.00089446940768084574 0.019546678318154379 0 0.00060151380056889365 0.014545043627723412 0 0.00066167562463193929 0.01460953230202456 0 0.00076192360174672197 0.014538665476514957 0 0.00033677169496439802 0.015447557348400089 0 0.00036284023639894465 0.015903993550054434 0 0.00036284023639894465 0.015903993550054434 0 -1.1350355877231872e-06 0.01514987334998932 0 0.00066167562463193929 0.01460953230202456 0 0.00076192360174672197 0.014538665476514957 0 0.00085058581595824276 0.014775396464949448 0 6.5014791492254073e-05 0.016136791944560743 0 0.00017592196239020504 0.016431108273835378 0 0.00078474281338965853 0.01610898143735387 0 0.00036284023639894465 0.015903993550054434 0 0.00095971100167064683 0.017578123505712202 0 0.00095971100167064683 0.017578123505712202 0 0.0010124413884029743 0.018779499814142842 0 0.001339602560021153 0.01749371331028246 0 0.00095971100167064683 0.017578123505712202 0 0.0010420923065651662 0.01974253384781792 0 0.00097137274447038559 0.019780419070101134 0 0.0010402685441345712 0.019819365689882722 0 0.0010420923065651662 0.01974253384781792 0 0.00097137274447038559 0.019780419070101134 0 0.00089318842937691949 0.019723741759396302 0 0.0017281459704275989 0.019532297933078594 0 0.0018436506220179682 0.019688390136691512 0 0.0013830824564216434 0.019714645813084349 0 0.00097137274447038559 0.019780419070101134 0 0.00089318842937691949 0.019723741759396302 0 0.00091609663930849745 0.019791527675571893 0 0.00086097630962935379 0.019820921129089883 0 0.00089318842937691949 0.019723741759396302 0 0.00091609663930849745 0.019791527675571893 0 0.00086097630962935379 0.019820921129089883 0 0.00091609663930849745 0.019791527675571893 0 0.00093200360620166074 0.019837735925244415 0 0.00097137274447038559 0.019780419070101134 0 0.00091609663930849745 0.019791527675571893 0 0.00093200360620166074 0.019837735925244415 0 0.00093200360620166074 0.019837735925244415 0 0.0009935447982742005 0.01985978091036629 0 0.00095486494446302324 0.019920624937831716 0 0.00086097630962935379 0.019820921129089883 0 0.00093200360620166074 0.019837735925244415 0 0.00087545457222121812 0.019894121509960772 0 0.00097137274447038559 0.019780419070101134 0 0.0010402685441345712 0.019819365689882722 0 0.0009935447982742005 0.01985978091036629 0 0.00097137274447038559 0.019780419070101134 0 0.00093200360620166074 0.019837735925244415 0 0.0009935447982742005 0.01985978091036629 0 0.0010402685441345712 0.019819365689882722 0 0.0009935447982742005 0.01985978091036629 0 0.0010410507632449921 0.019859231407329023 0 0.0009935447982742005 0.01985978091036629 0 0.0010410507632449921 0.019859231407329023 0 0.0010268133038020171 0.019909390951225285 0 0.0009935447982742005 0.01985978091036629 0 0.0010268133038020171 0.019909390951225285 0 0.00095486494446302324 0.019920624937831716 0 0.0010268133038020171 0.019909390951225285 0 0.00095486494446302324 0.019920624937831716 0 0.00099468995248352867 0.019976125404870981 0 0.00093200360620166074 0.019837735925244415 0 0.00087545457222121812 0.019894121509960772 0 0.00095486494446302324 0.019920624937831716 0 0.00087987858265125207 0.019973603693663407 0 0.00095486494446302324 0.019920624937831716 0 0.00094049760068211916 0.020013699600993962 0 0.00087987858265125207 0.019973603693663407 0 0.00087545457222121812 0.019894121509960772 0 0.00095486494446302324 0.019920624937831716 0 0.00083730863393897351 0.020124562820569215 0 0.00098617816481114248 0.020062257072260694 0 0.00094049760068211916 0.020013699600993962 0 0.00098617816481114248 0.020062257072260694 0 0.00094049760068211916 0.020013699600993962 0 0.00099468995248352867 0.019976125404870981 0 0.00095486494446302324 0.019920624937831716 0 0.00094049760068211916 0.020013699600993962 0 0.00099468995248352867 0.019976125404870981 0 0.00098617816481114248 0.020062257072260694 0 0.00099468995248352867 0.019976125404870981 0 0.0010581361179323144 0.019955715127987252 0 0.00098617816481114248 0.020062257072260694 0 0.0010581361179323144 0.019955715127987252 0 0.0010861496938566648 0.019993200831654963 0 0.0010268133038020171 0.019909390951225285 0 0.00099468995248352867 0.019976125404870981 0 0.0010581361179323144 0.019955715127987252 0 0.0010581361179323144 0.019955715127987252 0 0.0011006250200430122 0.019931282233235568 0 0.0010861496938566648 0.019993200831654963 0 0.0011006250200430122 0.019931282233235568 0 0.0010861496938566648 0.019993200831654963 0 0.0011256374666316273 0.019954767246324123 0 0.0011201863925123323 0.019995266355799634 0 0.0010861496938566648 0.019993200831654963 0 0.0011256374666316273 0.019954767246324123 0 0.0011201863925123323 0.019995266355799634 0 0.0011721237724411299 0.019952287537135995 0 0.0011256374666316273 0.019954767246324123 0 0.0011721237724411299 0.019952287537135995 0 0.0011256374666316273 0.019954767246324123 0 0.0011435903602676864 0.019914764035335014 0 0.0011721237724411299 0.019952287537135995 0 0.0011799184026886637 0.019910528550787635 0 0.0011435903602676864 0.019914764035335014 0 0.0011006250200430122 0.019931282233235568 0 0.0011256374666316273 0.019954767246324123 0 0.0011435903602676864 0.019914764035335014 0 0.0011435903602676864 0.019914764035335014 0 0.0011432781216996475 0.019877044199337314 0 0.0011178132763796354 0.019889771384671694 0 0.0011006250200430122 0.019931282233235568 0 0.0011435903602676864 0.019914764035335014 0 0.0011178132763796354 0.019889771384671694 0 0.0011684955146475183 0.019887311555907485 0 0.0011435903602676864 0.019914764035335014 0 0.0011432781216996475 0.019877044199337314 0 0.0011799184026886637 0.019910528550787635 0 0.0011684955146475183 0.019887311555907485 0 0.0011435903602676864 0.019914764035335014 0 0.0011795091400545916 0.01985690141811277 0 0.0011684955146475183 0.019887311555907485 0 0.0011432781216996475 0.019877044199337314 0 0.0011795091400545916 0.01985690141811277 0 0.0011652818311224493 0.019835357951795168 0 0.0011432781216996475 0.019877044199337314 0 0.0011218692714630835 0.019830452857559178 0 0.0011652818311224493 0.019835357951795168 0 0.0011432781216996475 0.019877044199337314 0 0.0011376640642854049 0.019861388936306037 0 0.0011432781216996475 0.019877044199337314 0 0.0011178132763796354 0.019889771384671694 0 0.0011376640642854049 0.019861388936306037 0 0.0011420529444086003 0.019858455977873959 0 0.0011432781216996475 0.019877044199337314 0 -2.0897531284924092e-06 0.016621071334015934 0 0.00012129699304496874 0.016954896624496781 0 0.0011376640642854049 0.019861388936306037 0 0.0011178132763796354 0.019889771384671694 0 0.0010996978837755306 0.01986789074515179 0 0.0011178132763796354 0.019889771384671694 0 0.0010996978837755306 0.01986789074515179 0 0.0010758877661932399 0.019892146192529339 0 0.0010701360846580112 0.019852882007691759 0 0.0010996978837755306 0.01986789074515179 0 0.0010758877661932399 0.019892146192529339 0 0.0010701360846580112 0.019852882007691759 0 0.0010410507632449921 0.019859231407329023 0 0.0010758877661932399 0.019892146192529339 0 0.0010410507632449921 0.019859231407329023 0 0.0010268133038020171 0.019909390951225285 0 0.0010758877661932399 0.019892146192529339 0 0.0010268133038020171 0.019909390951225285 0 0.0010581361179323144 0.019955715127987252 0 0.0010758877661932399 0.019892146192529339 0 0.0010581361179323144 0.019955715127987252 0 0.0011006250200430122 0.019931282233235568 0 0.0010758877661932399 0.019892146192529339 0 0.0011006250200430122 0.019931282233235568 0 0.0011178132763796354 0.019889771384671694 0 0.0010758877661932399 0.019892146192529339 0 2.9948492001052778e-05 0.034974989761612035 0 1.2387078502989738e-07 0.03500011778466481 0 7.4611875481002482e-09 0.034999913874335015 0 2.9948492001052778e-05 0.034974989761612035 0 2.652673824373502e-05 0.034910524854490116 0 1.8740713875440397e-05 0.034965205779787928 0 -9.1755057628191666e-05 0.034448153149407315 0 -7.9516195149441327e-05 0.034652070796379511 0 2.9948492001052778e-05 0.034974989761612035 0 7.4430748687561522e-05 0.034967215581809541 0 2.652673824373502e-05 0.034910524854490116 0 0.00020967967450158156 0.03467502158317394 0 -3.3156672930570451e-05 0.034354424512043916 0 2.652673824373502e-05 0.034910524854490116 0 0.00020967967450158156 0.03467502158317394 0 -3.3156672930570451e-05 0.034354424512043916 0 0.00041334347428998466 0.034161064982405946 0 2.9948492001052778e-05 0.034974989761612035 0 7.4430748687561522e-05 0.034967215581809541 0 5.214633637211858e-05 0.034927524239003971 0 7.4430748687561522e-05 0.034967215581809541 0 0.00017761195960877584 0.034872244348717246 0 5.214633637211858e-05 0.034927524239003971 0 7.8681478477086427e-06 0.033710743108109925 0 0.00038486766288861688 0.033651845737008371 0 0.00041334347428998466 0.034161064982405946 0 -9.1755057628191666e-05 0.034448153149407315 0 -0.00013336199189764581 0.033762946954605168 0 -3.3156672930570451e-05 0.034354424512043916 0 7.8681478477086427e-06 0.033710743108109925 0 0.00041334347428998466 0.034161064982405946 0 0.00017761195960877584 0.034872244348717246 0 0.00012188735174609083 0.034764218062980821 0 0.00026359913603048928 0.034618841088680172 0 -0.00013336199189764581 0.033762946954605168 0 -0.0001510471359592061 0.031486456474954641 0 7.8681478477086427e-06 0.033710743108109925 0 0.00025243151725234757 0.033382027647921045 0 9.1976113702669609e-05 0.033065538561359971 0 7.8681478477086427e-06 0.033710743108109925 0 0.00025243151725234757 0.033382027647921045 0 0.00038486766288861688 0.033651845737008371 0 0.00017761195960877584 0.034872244348717246 0 0.00012188735174609083 0.034764218062980821 0 5.214633637211858e-05 0.034927524239003971 0 5.214633637211858e-05 0.034927524239003971 0 1.2387078502989738e-07 0.03500011778466481 0 2.385680245022676e-05 0.034743754316123178 0 0.00012188735174609083 0.034764218062980821 0 5.214633637211858e-05 0.034927524239003971 0 2.385680245022676e-05 0.034743754316123178 0 2.9948492001052778e-05 0.034974989761612035 0 5.214633637211858e-05 0.034927524239003971 0 1.2387078502989738e-07 0.03500011778466481 0 1.2387078502989738e-07 0.03500011778466481 0 2.385680245022676e-05 0.034743754316123178 0 -0.00019605205298650884 0.034264882126256266 0 1.2387078502989738e-07 0.03500011778466481 0 -1.4298847717273872e-06 0.034996405652114516 0 -0.00019605205298650884 0.034264882126256266 0 2.385680245022676e-05 0.034743754316123178 0 -0.00019605205298650884 0.034264882126256266 0 0.00012274623478787311 0.034599825402970352 0 -1.4298847717273872e-06 0.034996405652114516 0 -0.00019605205298650884 0.034264882126256266 0 2.5723318700455752e-06 0.030860914571955774 0 -0.00019605205298650884 0.034264882126256266 0 0.00060682348965204215 0.033548189199459531 0 0.00029826851331970068 0.034186972107234863 0 -0.00019605205298650884 0.034264882126256266 0 2.5723318700455752e-06 0.030860914571955774 0 0.00060682348965204215 0.033548189199459531 0 1.0473204683343981e-06 0.030851188223516124 0 0.00034546453261975578 0.029509437564083758 0 -0.00013601029558651866 0.029655824560424444 0 1.4147872499118427e-07 0.030854743066049062 0 1.0835322585096382e-05 0.031402734874219011 0 0.00060682348965204215 0.033548189199459531 0 0.00029826851331970068 0.034186972107234863 0 0.00058799420087230153 0.034691901613414906 0 1.0835322585096382e-05 0.031402734874219011 0 -0.0001510471359592061 0.031486456474954641 0 0.00034546453261975578 0.029509437564083758 0 0.00035993936847139791 0.029024200321491049 0 0.0001361966380152004 0.02930594036630137 0 0.00035993936847139791 0.029024200321491049 0 0.00012715799551315884 0.029019485832940849 0 0.0001361966380152004 0.02930594036630137 0 -0.00019605205298650884 0.034264882126256266 0 0.00029826851331970068 0.034186972107234863 0 0.00012274623478787311 0.034599825402970352 0 0.00029826851331970068 0.034186972107234863 0 0.00012274623478787311 0.034599825402970352 0 0.00058799420087230153 0.034691901613414906 0 -3.8386163191772427e-05 0.031740367326945934 0 -0.0001510471359592061 0.031486456474954641 0 0.00012188735174609083 0.034764218062980821 0 0.00012274623478787311 0.034599825402970352 0 0.00026359913603048928 0.034618841088680172 0 0.00012188735174609083 0.034764218062980821 0 2.385680245022676e-05 0.034743754316123178 0 0.00012274623478787311 0.034599825402970352 0 9.1976113702669609e-05 0.033065538561359971 0 0.00031723990752161485 0.033160458841055486 0 0.00039219405120896492 0.033064651561881514 0 -0.0001510471359592061 0.031486456474954641 0 7.7826339333970506e-05 0.030144842640538426 0 0.00025243151725234757 0.033382027647921045 0 9.1976113702669609e-05 0.033065538561359971 0 0.00031723990752161485 0.033160458841055486 0 0.00056613696890541517 0.03313702351132803 0 0.0004126604706724849 0.03307961509859135 0 0.00066890359668735967 0.033107673886321062 0 7.7826339333970506e-05 0.030144842640538426 0 0.00061520834453708713 0.02949890657376146 0 0.00044828479974419575 0.033321957443358335 0 0.00056613696890541517 0.03313702351132803 0 0.0004126604706724849 0.03307961509859135 0 0.00025243151725234757 0.033382027647921045 0 0.00031723990752161485 0.033160458841055486 0 0.00044828479974419575 0.033321957443358335 0 0.00031723990752161485 0.033160458841055486 0 0.00044828479974419575 0.033321957443358335 0 0.0004126604706724849 0.03307961509859135 0 4.45242942387117e-05 0.030216393630532714 0 7.7826339333970506e-05 0.030144842640538426 0 0.00056613696890541517 0.03313702351132803 0 0.00066890359668735967 0.033107673886321062 0 0.00063904212633205055 0.033184475522265243 0 0.0011572518403548619 0.024893796920251225 0 0.001497273965447738 0.025576622324647181 0 0.00061925409766885376 0.025479430295255092 0 7.7826339333970506e-05 0.030144842640538426 0 0.00061904175623821915 0.028372243719525618 0 0.0020242226215175475 0.024900045946185459 0 0.0011572518403548619 0.024893796920251225 0 0.001497273965447738 0.025576622324647181 0 0.00012715799551315884 0.029019485832940849 0 -0.00013778844671753982 0.029421653729055142 0 0.0001361966380152004 0.02930594036630137 0 0.00034546453261975578 0.029509437564083758 0 0.0001361966380152004 0.02930594036630137 0 -0.00013601029558651866 0.029655824560424444 0 -0.00013778844671753982 0.029421653729055142 0 0.0001361966380152004 0.02930594036630137 0 -0.00013601029558651866 0.029655824560424444 0 0.001497273965447738 0.025576622324647181 0 0.0010006133764342787 0.026316656823785162 0 0.00061925409766885376 0.025479430295255092 0 0.00061904175623821915 0.028372243719525618 0 0.00034430780388847203 0.027951292159139052 0 -0.00013778844671753982 0.029421653729055142 0 -0.00013601029558651866 0.029655824560424444 0 -1.5157150959110991e-05 0.029328812938156815 0 -1.5157150959110991e-05 0.029328812938156815 0 -1.0554543668427043e-06 0.029253476383984213 0 1.0635379222937275e-06 0.027653892592714256 0 -0.00013601029558651866 0.029655824560424444 0 -1.5157150959110991e-05 0.029328812938156815 0 -1.0554543668427043e-06 0.029253476383984213 0 1.0473204683343981e-06 0.030851188223516124 0 -0.00013601029558651866 0.029655824560424444 0 -1.0554543668427043e-06 0.029253476383984213 0 -0.00017511464734253101 0.026109268632809376 0 1.6815005873555478e-06 0.027648846419164742 0 -4.1662284868879261e-05 0.025935007376095092 0 -0.00017511464734253101 0.026109268632809376 0 1.6815005873555478e-06 0.027648846419164742 0 -1.4505411349404313e-06 0.025821880191533732 0 0.0010006133764342787 0.026316656823785162 0 1.6815005873555478e-06 0.027648846419164742 0 -4.1662284868879261e-05 0.025935007376095092 0 0.00034430780388847203 0.027951292159139052 0 6.7815954462665733e-07 0.027652871372812523 0 0.0010006133764342787 0.026316656823785162 0 -4.1662284868879261e-05 0.025935007376095092 0 0.00061925409766885376 0.025479430295255092 0 -0.00017511464734253101 0.026109268632809376 0 -4.1662284868879261e-05 0.025935007376095092 0 -0.00035884071239803935 0.025588327970833748 0 -4.1662284868879261e-05 0.025935007376095092 0 -3.4436302949460494e-05 0.025361000952832457 0 0.00061925409766885376 0.025479430295255092 0 -4.1662284868879261e-05 0.025935007376095092 0 -3.4436302949460494e-05 0.025361000952832457 0 -0.00039497645808204832 0.02550189677692109 0 0.0011572518403548619 0.024893796920251225 0 0.00061925409766885376 0.025479430295255092 0 0.00030942830869849601 0.024939139485064623 0 -3.4436302949460494e-05 0.025361000952832457 0 0.00061925409766885376 0.025479430295255092 0 0.00030942830869849601 0.024939139485064623 0 0.00066890359668735967 0.033107673886321062 0 0.00071009121747503976 0.033109962801213283 0 0.0006870132872743214 0.033133419232715851 0 0.00061520834453708713 0.02949890657376146 0 0.00060565962056513783 0.029046529711447961 0 0.00071009121747503976 0.033109962801213283 0 0.00069984508178879117 0.033119949748948753 0 0.0006870132872743214 0.033133419232715851 0 0.00071009121747503976 0.033109962801213283 0 0.00069984508178879117 0.033119949748948753 0 0.00065804970218379154 0.033085111834410014 0 0.00060565962056513783 0.029046529711447961 0 0.00073105724985304506 0.028602269478888446 0 0.00071009121747503976 0.033109962801213283 0 0.00065804970218379154 0.033085111834410014 0 0.00063255379524731776 0.033087371020784087 0 0.00069984508178879117 0.033119949748948753 0 0.00065804970218379154 0.033085111834410014 0 0.00071507560383473169 0.033157793986987545 0 -3.4436302949460494e-05 0.025361000952832457 0 0.00030942830869849601 0.024939139485064623 0 -0.00035971666343010235 0.025019335123790148 0 0.00065804970218379154 0.033085111834410014 0 0.00064567144625648988 0.03269991068102316 0 0.00091127842189593861 0.032690912340066845 0 0.00075156012639581316 0.03307976858563038 0 0.00078219680500438496 0.033074359767693434 0 0.00064567144625648988 0.03269991068102316 0 0.00080150506989827639 0.032505865730643721 0 0.00074967302114026973 0.03230138898557125 0 0.00045962997865183169 0.031409641069241025 0 0.00045152547313534198 0.03189544152012333 0 0.00064567144625648988 0.03269991068102316 0 0.00080150506989827639 0.032505865730643721 0 0.00091127842189593861 0.032690912340066845 0 0.00076473901256794035 0.031990193387485183 0 0.00074967302114026973 0.03230138898557125 0 0.00077466372596023169 0.032303590854176702 0 0.00080150506989827639 0.032505865730643721 0 0.00090841426619292401 0.032423749682504943 0 0.00083446201460783155 0.032382587832247407 0 0.00080150506989827639 0.032505865730643721 0 0.00074967302114026973 0.03230138898557125 0 0.00083446201460783155 0.032382587832247407 0 0.00090841426619292401 0.032423749682504943 0 0.00091127842189593861 0.032690912340066845 0 0.0011029310236097937 0.03234438629158206 0 0.00078219680500438496 0.033074359767693434 0 0.00058038533570889405 0.033477901090662558 0 0.00080150506989827639 0.032505865730643721 0 0.00090841426619292401 0.032423749682504943 0 0.00091127842189593861 0.032690912340066845 0 0.00071507560383473169 0.033157793986987545 0 0.0006870132872743214 0.033133419232715851 0 0.00063904212633205055 0.033184475522265243 0 0.00069984508178879117 0.033119949748948753 0 0.00071507560383473169 0.033157793986987545 0 0.0006870132872743214 0.033133419232715851 0 0.00066890359668735967 0.033107673886321062 0 0.0006870132872743214 0.033133419232715851 0 0.00063904212633205055 0.033184475522265243 0 0.00059407298552454008 0.033331112770805651 0 0.00061754374600161326 0.033429418165405934 0 0.00044828479974419575 0.033321957443358335 0 0.00056613696890541517 0.03313702351132803 0 0.00080368820847931551 0.033680305986164748 0 0.00044828479974419575 0.033321957443358335 0 0.00080368820847931551 0.033680305986164748 0 0.00038486766288861688 0.033651845737008371 0 0.00025243151725234757 0.033382027647921045 0 0.00044828479974419575 0.033321957443358335 0 0.00038486766288861688 0.033651845737008371 0 0.00080368820847931551 0.033680305986164748 0 0.00038486766288861688 0.033651845737008371 0 0.00041334347428998466 0.034161064982405946 0 0.00071507560383473169 0.033157793986987545 0 0.00063904212633205055 0.033184475522265243 0 0.00066389136249044706 0.033246591455161893 0 0.00080368820847931551 0.033680305986164748 0 0.00097533424997599933 0.034201318971148587 0 0.00041334347428998466 0.034161064982405946 0 0.00061754374600161326 0.033429418165405934 0 0.00058038533570889405 0.033477901090662558 0 0.00058038533570889405 0.033477901090662558 0 0.00026229989188687752 0.034418189778775428 0 0.00097533424997599933 0.034201318971148587 0 0.00041334347428998466 0.034161064982405946 0 0.00053982367993966808 0.034737168373358433 0 0.00020967967450158156 0.03467502158317394 0 0.00041334347428998466 0.034161064982405946 0 0.00053982367993966808 0.034737168373358433 0 0.0002167889414345997 0.03468137754723493 0 0.00022197021840766578 0.034677913695715726 0 0.00021187916186717157 0.034676701445984101 0 0.00096416203537128215 0.032078754026790342 0 0.00089218371156694768 0.032202190255072385 0 0.00077521907348557272 0.032079076843016363 0 0.0011029310236097937 0.03234438629158206 0 0.00096416203537128215 0.032078754026790342 0 0.00089218371156694768 0.032202190255072385 0 0.00058038533570889405 0.033477901090662558 0 0.00045221834914443954 0.03321135313149725 0 0.00077521907348557272 0.032079076843016363 0 0.00080171184749442369 0.032240260859991904 0 0.00077466372596023169 0.032303590854176702 0 0.00089218371156694768 0.032202190255072385 0 0.00077521907348557272 0.032079076843016363 0 0.00080171184749442369 0.032240260859991904 0 0.00010085768539462693 0.030088444727101465 0 0.00022255940581145434 0.028997380296076049 0 -0.0016765428357847728 0.027090044028658868 0 -0.0010865627871270655 0.025387098522385014 0 -0.0008261422201459325 0.026132363451051899 0 0.00080171184749442369 0.032240260859991904 0 0.00074967302114026973 0.03230138898557125 0 0.00087123111815324509 0.032307868449068966 0 0.00089218371156694768 0.032202190255072385 0 0.00080171184749442369 0.032240260859991904 0 0.00087123111815324509 0.032307868449068966 0 0.00080171184749442369 0.032240260859991904 0 0.00074967302114026973 0.03230138898557125 0 0.00077466372596023169 0.032303590854176702 0 0.00074967302114026973 0.03230138898557125 0 0.00083446201460783155 0.032382587832247407 0 0.00087123111815324509 0.032307868449068966 0 0.00090841426619292401 0.032423749682504943 0 0.00083446201460783155 0.032382587832247407 0 0.00087123111815324509 0.032307868449068966 0 0.0011029310236097937 0.03234438629158206 0 0.00089218371156694768 0.032202190255072385 0 0.00087123111815324509 0.032307868449068966 0 0.00090841426619292401 0.032423749682504943 0 0.0011029310236097937 0.03234438629158206 0 0.00087123111815324509 0.032307868449068966 0 0.00025843598431074652 0.025951832103647956 0 0.00083533783422635316 0.025360772442602285 0 0.0013178643155271124 0.025016810052564269 0 0.00013944191284873049 0.026042623928439937 0 0.00090366893982449757 0.025951234988738404 0 0.0012023187370563454 0.025163506912945069 0 -0.00065611585197256224 0.024273450662596414 0 -0.00015321485333536565 0.022594639983462013 0 0.00025843598431074652 0.025951832103647956 0 0.00010737651347033833 0.025464652836397806 0 -0.00037000608155750633 0.025907983235484346 0 0.00025843598431074652 0.025951832103647956 0 0.00083533783422635316 0.025360772442602285 0 0.00010737651347033833 0.025464652836397806 0 0.00013944191284873049 0.026042623928439937 0 0.00090366893982449757 0.025951234988738404 0 0.00060351091065622179 0.026522189600811395 0 0.00083533783422635316 0.025360772442602285 0 0.00032629972572000005 0.025084705504780369 0 0.0006448355794121789 0.024839807053284264 0 0.00083533783422635316 0.025360772442602285 0 0.0010175122704073265 0.024893917537512838 0 0.0006448355794121789 0.024839807053284264 0 0.00083533783422635316 0.025360772442602285 0 0.00032629972572000005 0.025084705504780369 0 0.00010737651347033833 0.025464652836397806 0 0.00032629972572000005 0.025084705504780369 0 0.00010737651347033833 0.025464652836397806 0 -7.9167972075488716e-05 0.025067883933650101 0 -7.9167972075488716e-05 0.025067883933650101 0 -0.00047540664893207344 0.025077826765326928 0 -0.00036263632374585191 0.02543203657947124 0 -0.00047540664893207344 0.025077826765326928 0 -0.00036263632374585191 0.02543203657947124 0 -0.00065236171529770449 0.025607045233089595 0 0.00010737651347033833 0.025464652836397806 0 -7.9167972075488716e-05 0.025067883933650101 0 -0.00036263632374585191 0.02543203657947124 0 -0.00047540664893207344 0.025077826765326928 0 -0.0010865627871270655 0.025387098522385014 0 -0.00065236171529770449 0.025607045233089595 0 -0.0010865627871270655 0.025387098522385014 0 -0.00065236171529770449 0.025607045233089595 0 -0.0008261422201459325 0.026132363451051899 0 -0.00065236171529770449 0.025607045233089595 0 -0.00037000608155750633 0.025907983235484346 0 -0.0008261422201459325 0.026132363451051899 0 0.00010737651347033833 0.025464652836397806 0 -0.00036263632374585191 0.02543203657947124 0 -0.00037000608155750633 0.025907983235484346 0 -0.00036263632374585191 0.02543203657947124 0 -0.00065236171529770449 0.025607045233089595 0 -0.00037000608155750633 0.025907983235484346 0 0.00025843598431074652 0.025951832103647956 0 -0.00037000608155750633 0.025907983235484346 0 -0.00090527384296025656 0.026905618063879068 0 -0.00090527384296025656 0.026905618063879068 0 0.0001362202929914883 0.026994561120026319 0 -0.00051849636741396722 0.027528817163527671 0 0.00013944191284873049 0.026042623928439937 0 -0.00090527384296025656 0.026905618063879068 0 0.0001362202929914883 0.026994561120026319 0 -0.00065611585197256224 0.024273450662596414 0 -0.0009784107319555427 0.024914407964104848 0 -0.00037000608155750633 0.025907983235484346 0 -0.0008261422201459325 0.026132363451051899 0 -0.00090527384296025656 0.026905618063879068 0 -0.0016765428357847728 0.027090044028658868 0 -0.0008261422201459325 0.026132363451051899 0 -0.00090527384296025656 0.026905618063879068 0 0.0001362202929914883 0.026994561120026319 0 0.00060351091065622179 0.026522189600811395 0 0.0012197264437134694 0.026964437352144131 0 0.00013944191284873049 0.026042623928439937 0 0.0001362202929914883 0.026994561120026319 0 0.00060351091065622179 0.026522189600811395 0 -0.0012124157243717597 0.019951149764565228 0 -0.0011878435189576215 0.01995613965187976 0 -0.0011817475733717083 0.019919300861047193 0 0.00090366893982449757 0.025951234988738404 0 0.00060351091065622179 0.026522189600811395 0 0.0012197264437134694 0.026964437352144131 0 -0.00073774307378156063 0.020580047279258752 0 -0.00086620981506957818 0.020319391239368927 0 -0.0011878435189576215 0.01995613965187976 0 -0.0011817475733717083 0.019919300861047193 0 -0.001138056772116412 0.019976506582971211 0 -0.0010983291632973306 0.019947065817401004 0 -0.0011321172951890281 0.0199314342186192 0 -0.001138056772116412 0.019976506582971211 0 -0.0010983291632973306 0.019947065817401004 0 -0.001138056772116412 0.019976506582971211 0 -0.0010991089423975924 0.019988836386546652 0 -0.0011321172951890281 0.0199314342186192 0 -0.001099451893323755 0.019878076025535894 0 -0.0011661526001989287 0.019854827283031153 0 -0.0010983291632973306 0.019947065817401004 0 -0.001064595303946679 0.019903589006063205 0 -0.0011321172951890281 0.0199314342186192 0 -0.001064595303946679 0.019903589006063205 0 -0.0011321172951890281 0.0199314342186192 0 -0.001099451893323755 0.019878076025535894 0 -0.001064595303946679 0.019903589006063205 0 -0.001099451893323755 0.019878076025535894 0 -0.0010572198548068879 0.019857699160744837 0 -7.2824626343673263e-05 0.023470631984978996 0 -8.6382380276993042e-05 0.022188870397733866 0 -0.00073774307378156063 0.020580047279258752 0 -0.00013877921357787737 0.021849597070155224 0 -0.0011817475733717083 0.019919300861047193 0 -0.0011963113912896173 0.019889353035375822 0 -0.0011927059778047942 0.019886823592722525 0 -0.0012124157243717597 0.019951149764565228 0 -0.0011817475733717083 0.019919300861047193 0 -0.0011963113912896173 0.019889353035375822 0 0.00090366893982449757 0.025951234988738404 0 0.0012197264437134694 0.026964437352144131 0 0.0013561727093232671 0.025037160346240376 0 0.00090366893982449757 0.025951234988738404 0 0.0012023187370563454 0.025163506912945069 0 0.0013561727093232671 0.025037160346240376 0 -0.00015312519325507234 0.022697254528344649 0 -0.00015321485333536565 0.022594639983462013 0 0.00083533783422635316 0.025360772442602285 0 0.001302695805857666 0.02503586158114858 0 0.0010175122704073265 0.024893917537512838 0 0.0010175122704073265 0.024893917537512838 0 0.0011655512489728936 0.024682187380258853 0 0.0012836754673379996 0.024833269041977222 0 0.001302695805857666 0.02503586158114858 0 0.0010175122704073265 0.024893917537512838 0 0.0012836754673379996 0.024833269041977222 0 0.0010175122704073265 0.024893917537512838 0 0.0011655512489728936 0.024682187380258853 0 0.00087642483934562783 0.024524145201085968 0 0.0011655512489728936 0.024682187380258853 0 0.0014766561528096064 0.024580203602296836 0 0.0011476666375049998 0.024480788747207483 0 0.0011655512489728936 0.024682187380258853 0 0.0011476666375049998 0.024480788747207483 0 0.00087642483934562783 0.024524145201085968 0 0.0011655512489728936 0.024682187380258853 0 0.0014766561528096064 0.024580203602296836 0 0.0012836754673379996 0.024833269041977222 0 -3.3720416582969966e-05 0.022032247575072553 0 -8.6382380276993042e-05 0.022188870397733866 0 0.0014766561528096064 0.024580203602296836 0 0.0012836754673379996 0.024833269041977222 0 0.0014546434642493894 0.024911034479641839 0 0.00037121325989504284 0.021946283077232009 0 0.00039277867193092164 0.021635072884097023 0 0.00027886818917877029 0.021728321396170942 0 -8.6382380276993042e-05 0.022188870397733866 0 -0.00013877921357787737 0.021849597070155224 0 0.001302695805857666 0.02503586158114858 0 0.0012836754673379996 0.024833269041977222 0 0.0014546434642493894 0.024911034479641839 0 -0.00015321485333536565 0.022594639983462013 0 -8.6382380276993042e-05 0.022188870397733866 0 -3.3720416582969966e-05 0.022032247575072553 0 -0.00013877921357787737 0.021849597070155224 0 -0.00013877921357787737 0.021849597070155224 0 -0.00015412103014476769 0.021052981156207129 0 0.00032537716576103859 0.019592536971626186 0 0.0002286031508313853 0.019884991973423329 0 -1.9637204114576476e-05 0.019873188574261728 0 0.00036240588873441895 0.019681110725204839 0 0.00032537716576103859 0.019592536971626186 0 0.0002286031508313853 0.019884991973423329 0 0.0014766561528096064 0.024580203602296836 0 0.0010298545898165688 0.024121558640346808 0 0.0011476666375049998 0.024480788747207483 0 0.0010298545898165688 0.024121558640346808 0 0.0011476666375049998 0.024480788747207483 0 0.00087642483934562783 0.024524145201085968 0 -0.0011661526001989287 0.019854827283031153 0 -0.0010816518617991692 0.01980314488375496 0 -0.0010727000799079169 0.01979047179723728 0 -0.0011661526001989287 0.019854827283031153 0 -0.0010918642865098906 0.019842529213380831 0 -0.0010816518617991692 0.01980314488375496 0 -0.00013877921357787737 0.021849597070155224 0 -0.00048770089719140633 0.02074619854586876 0 -0.00044908608944123812 0.021283878841332933 0 -0.00026212502881925264 0.021126444178295501 0 -0.00017745074275044012 0.021109038819312205 0 -0.0010918642865098906 0.019842529213380831 0 -0.0010572198548068879 0.019857699160744837 0 -0.00104801891983774 0.019815724233217487 0 -0.001099451893323755 0.019878076025535894 0 -0.0010918642865098906 0.019842529213380831 0 -0.0010572198548068879 0.019857699160744837 0 -0.001099451893323755 0.019878076025535894 0 -0.0011661526001989287 0.019854827283031153 0 -0.0010918642865098906 0.019842529213380831 0 -0.0010918642865098906 0.019842529213380831 0 -0.0010816518617991692 0.01980314488375496 0 -0.00104801891983774 0.019815724233217487 0 -0.00048719143534121028 0.020738826426655987 0 -0.00048770089719140633 0.02074619854586876 0 -0.0010816518617991692 0.01980314488375496 0 -0.0010716680371461317 0.019787762928739957 0 -0.00104801891983774 0.019815724233217487 0 -1.9637204114576476e-05 0.019873188574261728 0 -4.971780526993181e-05 0.02032651097096114 0 -0.00037520159175972507 0.020172976380064298 0 -1.9637204114576476e-05 0.019873188574261728 0 0.00012341754616800426 0.020106782855266698 0 -4.971780526993181e-05 0.02032651097096114 0 -0.00026212502881925264 0.021126444178295501 0 -0.00017745074275044012 0.021109038819312205 0 -7.509781326507043e-05 0.020969406983102741 0 -0.00015412103014476769 0.021052981156207129 0 -0.00042319085977706225 0.020599674457018331 0 0.0002286031508313853 0.019884991973423329 0 -1.9637204114576476e-05 0.019873188574261728 0 0.00012341754616800426 0.020106782855266698 0 0.00012341754616800426 0.020106782855266698 0 0.00033382202288633725 0.020296632463368363 0 -4.971780526993181e-05 0.02032651097096114 0 -4.971780526993181e-05 0.02032651097096114 0 -0.0002583820483802193 0.020399104520087957 0 -0.00037520159175972507 0.020172976380064298 0 -3.3720416582969966e-05 0.022032247575072553 0 0.00012430932040031212 0.021539304100722103 0 0.0002286031508313853 0.019884991973423329 0 0.00012341754616800426 0.020106782855266698 0 0.00033382202288633725 0.020296632463368363 0 0.0014766561528096064 0.024580203602296836 0 0.0010298545898165688 0.024121558640346808 0 0.00083024061729730788 0.023236104299571278 0 0.00036240588873441895 0.019681110725204839 0 0.0002286031508313853 0.019884991973423329 0 0.00033382202288633725 0.020296632463368363 0 -3.3720416582969966e-05 0.022032247575072553 0 0.00031758823581188954 0.022597593569377808 0 0.00027581252495294841 0.022135479980508882 0 0.00027140615147910858 0.022244829139252496 0 0.0003175252005028078 0.022229426996232517 0 0.00083024061729730788 0.023236104299571278 0 0.0004293883258911744 0.023479166873455363 0 0.00064049301030502973 0.023750921108946221 0 0.00083024061729730788 0.023236104299571278 0 0.00018346745962119306 0.023213700578575202 0 0.0002061461193594314 0.022916173104045458 0 0.00018346745962119306 0.023213700578575202 0 0.0004293883258911744 0.023479166873455363 0 8.5129391293193652e-05 0.023643028940966516 0 0.00083024061729730788 0.023236104299571278 0 0.00018346745962119306 0.023213700578575202 0 0.0004293883258911744 0.023479166873455363 0 0.0004293883258911744 0.023479166873455363 0 0.00030109814157535899 0.023808990295071546 0 0.00064049301030502973 0.023750921108946221 0 0.0004293883258911744 0.023479166873455363 0 8.5129391293193652e-05 0.023643028940966516 0 0.00030109814157535899 0.023808990295071546 0 8.5129391293193652e-05 0.023643028940966516 0 0.00030109814157535899 0.023808990295071546 0 -4.6251311660633812e-05 0.023983393847337761 0 0.0010298545898165688 0.024121558640346808 0 0.00083024061729730788 0.023236104299571278 0 0.00064049301030502973 0.023750921108946221 0 0.00030109814157535899 0.023808990295071546 0 0.00064049301030502973 0.023750921108946221 0 0.00062586183554622511 0.024124559354136106 0 0.0010298545898165688 0.024121558640346808 0 0.00064049301030502973 0.023750921108946221 0 0.00062586183554622511 0.024124559354136106 0 0.0010298545898165688 0.024121558640346808 0 0.00062586183554622511 0.024124559354136106 0 0.00087642483934562783 0.024524145201085968 0 0.00062586183554622511 0.024124559354136106 0 0.00087642483934562783 0.024524145201085968 0 0.00055653399735331084 0.024499578613199121 0 0.00030109814157535899 0.023808990295071546 0 0.00062586183554622511 0.024124559354136106 0 0.00017072473389891183 0.024268710998920678 0 0.00030109814157535899 0.023808990295071546 0 0.00017072473389891183 0.024268710998920678 0 -4.6251311660633812e-05 0.023983393847337761 0 0.00062586183554622511 0.024124559354136106 0 0.00017072473389891183 0.024268710998920678 0 0.00055653399735331084 0.024499578613199121 0 0.00017072473389891183 0.024268710998920678 0 0.0002556935226557322 0.024683694521388279 0 0.00055653399735331084 0.024499578613199121 0 0.0002556935226557322 0.024683694521388279 0 0.0006448355794121789 0.024839807053284264 0 0.00055653399735331084 0.024499578613199121 0 0.00017072473389891183 0.024268710998920678 0 0.0002556935226557322 0.024683694521388279 0 -0.0001601358064308704 0.024674027196950433 0 -7.9167972075488716e-05 0.025067883933650101 0 0.0002556935226557322 0.024683694521388279 0 -0.0001601358064308704 0.024674027196950433 0 0.00032629972572000005 0.025084705504780369 0 -7.9167972075488716e-05 0.025067883933650101 0 0.0002556935226557322 0.024683694521388279 0 0.00032629972572000005 0.025084705504780369 0 0.0002556935226557322 0.024683694521388279 0 0.0006448355794121789 0.024839807053284264 0 0.0010175122704073265 0.024893917537512838 0 0.0006448355794121789 0.024839807053284264 0 0.00087642483934562783 0.024524145201085968 0 0.0006448355794121789 0.024839807053284264 0 0.00087642483934562783 0.024524145201085968 0 0.00055653399735331084 0.024499578613199121 0 0.00076473901256794035 0.031990193387485183 0 0.00077466372596023169 0.032303590854176702 0 0.00091049291613074781 0.031989190599583189 0 0.00022255940581145434 0.028997380296076049 0 0.00049966475321606312 0.028153241408836974 0 -0.0010865627871270655 0.025387098522385014 0 -0.0003330003344890465 0.02451882764359822 0 -0.00043189538322901407 0.023784611203474387 0 -0.00047540664893207344 0.025077826765326928 0 -0.0010865627871270655 0.025387098522385014 0 -0.0003330003344890465 0.02451882764359822 0 -0.00047540664893207344 0.025077826765326928 0 -0.0001601358064308704 0.024674027196950433 0 -0.0003330003344890465 0.02451882764359822 0 -7.9167972075488716e-05 0.025067883933650101 0 -0.00047540664893207344 0.025077826765326928 0 -0.0001601358064308704 0.024674027196950433 0 0.00017072473389891183 0.024268710998920678 0 -0.0003330003344890465 0.02451882764359822 0 -4.6251311660633812e-05 0.023983393847337761 0 -0.0003330003344890465 0.02451882764359822 0 -0.00043189538322901407 0.023784611203474387 0 -4.6251311660633812e-05 0.023983393847337761 0 0.00017072473389891183 0.024268710998920678 0 -0.0001601358064308704 0.024674027196950433 0 -0.0003330003344890465 0.02451882764359822 0 0.00045962997865183169 0.031409641069241025 0 0.00073105724985304506 0.028602269478888446 0 0.00076473901256794035 0.031990193387485183 0 0.00091049291613074781 0.031989190599583189 0 0.00083949713672284531 0.031583112776151362 0 0.00049966475321606312 0.028153241408836974 0 0.0008355802691455362 0.027715992615848114 0 0.00018346745962119306 0.023213700578575202 0 -0.00043189538322901407 0.023784611203474387 0 0.0002061461193594314 0.022916173104045458 0 0.00018346745962119306 0.023213700578575202 0 8.5129391293193652e-05 0.023643028940966516 0 -0.00043189538322901407 0.023784611203474387 0 8.5129391293193652e-05 0.023643028940966516 0 -0.00043189538322901407 0.023784611203474387 0 -4.6251311660633812e-05 0.023983393847337761 0 0.00091049291613074781 0.031989190599583189 0 0.00083949713672284531 0.031583112776151362 0 0.0010500903004375876 0.031579572685366313 0 0.00065804970218379154 0.033085111834410014 0 0.00064567144625648988 0.03269991068102316 0 0.00063255379524731776 0.033087371020784087 0 -0.00043189538322901407 0.023784611203474387 0 0.0002061461193594314 0.022916173104045458 0 0.00017641418375004942 0.022514246848273457 0 0.00073105724985304506 0.028602269478888446 0 0.0008355802691455362 0.027715992615848114 0 -0.00072814718233879213 0.027329912672885901 0 -9.3181112085933879e-05 0.027328257565030819 0 -0.00041190300124995227 0.026946985574904089 0 0.0003175252005028078 0.022229426996232517 0 0.00033487967747199225 0.022372199657637648 0 0.000299532110372017 0.022297206545048416 0 0.00031758823581188954 0.022597593569377808 0 0.00033190154807110912 0.022569775692847592 0 0.00083024061729730788 0.023236104299571278 0 0.00028543727153942228 0.022530625326160684 0 0.00033487967747199225 0.022372199657637648 0 0.00083024061729730788 0.023236104299571278 0 0.0002061461193594314 0.022916173104045458 0 0.00028543727153942228 0.022530625326160684 0 0.0002061461193594314 0.022916173104045458 0 0.00028543727153942228 0.022530625326160684 0 0.00017641418375004942 0.022514246848273457 0 0.00083332989915232514 0.027707045286728821 0 0.0008355802691455362 0.027715992615848114 0 0.00028543727153942228 0.022530625326160684 0 0.00025109260941330981 0.022434079927603649 0 0.00033487967747199225 0.022372199657637648 0 0.00025109260941330981 0.022434079927603649 0 0.00033487967747199225 0.022372199657637648 0 0.00047759419746882766 0.022362956149879893 0 0.0008355802691455362 0.027715992615848114 0 0.00090391619735592386 0.025358392114504205 0 -9.3181112085933879e-05 0.027328257565030819 0 -0.00041190300124995227 0.026946985574904089 0 0.00029288333098058568 0.026153604557420627 0 0.00034174461065040004 0.022332464679085114 0 0.00033487967747199225 0.022372199657637648 0 0.00047759419746882766 0.022362956149879893 0 0.00034174461065040004 0.022332464679085114 0 0.00033487967747199225 0.022372199657637648 0 0.000299532110372017 0.022297206545048416 0 -0.00054599158694800182 0.026467060848700485 0 -0.00041190300124995227 0.026946985574904089 0 0.00029288333098058568 0.026153604557420627 0 -3.4436302949460494e-05 0.025361000952832457 0 -0.00035971666343010235 0.025019335123790148 0 -0.00039497645808204832 0.02550189677692109 0 0.00073105724985304506 0.028602269478888446 0 0.00059228651537860365 0.027088790518961355 0 -0.00072814718233879213 0.027329912672885901 0 -0.00054599158694800182 0.026467060848700485 0 -0.00041190300124995227 0.026946985574904089 0 -4.1662284868879261e-05 0.025935007376095092 0 -0.00039497645808204832 0.02550189677692109 0 -0.00035884071239803935 0.025588327970833748 0 -0.00054599158694800182 0.026467060848700485 0 -0.00035884071239803935 0.025588327970833748 0 0.00029288333098058568 0.026153604557420627 0 0.00059228651537860365 0.027088790518961355 0 0.00054444171027180036 0.026653259351972131 0 0.00090391619735592386 0.025358392114504205 0 0.00084779528871046649 0.024851171641538477 0 0.00029288333098058568 0.026153604557420627 0 1.2824880991688889e-05 0.025117551100265523 0 0.00017370427227697137 0.023900761768970519 0 -0.00035884071239803935 0.025588327970833748 0 0.00029288333098058568 0.026153604557420627 0 1.2824880991688889e-05 0.025117551100265523 0 -0.00035884071239803935 0.025588327970833748 0 -2.4909968998244113e-05 0.024849593560722031 0 1.2824880991688889e-05 0.025117551100265523 0 -2.4909968998244113e-05 0.024849593560722031 0 -1.4505411349404313e-06 0.025821880191533732 0 1.4345749728354801e-06 0.023989828272540592 0 -2.4909968998244113e-05 0.024849593560722031 0 1.2824880991688889e-05 0.025117551100265523 0 0.00017370427227697137 0.023900761768970519 0 -2.4909968998244113e-05 0.024849593560722031 0 0.00017370427227697137 0.023900761768970519 0 1.4345749728354801e-06 0.023989828272540592 0 -0.00017511464734253101 0.026109268632809376 0 -0.00035884071239803935 0.025588327970833748 0 -1.4505411349404313e-06 0.025821880191533732 0 -0.00035884071239803935 0.025588327970833748 0 -2.4909968998244113e-05 0.024849593560722031 0 -1.4505411349404313e-06 0.025821880191533732 0 -0.00011559729187651846 0.021935229819999832 0 -8.8701804954392472e-07 0.022159382098107156 0 1.8092164849397109e-05 0.022600913797097527 0 -0.00011559729187651846 0.021935229819999832 0 -8.8701804954392472e-07 0.022159382098107156 0 -0.00026993534444650784 0.021416137444272901 0 -8.8701804954392472e-07 0.022159382098107156 0 1.4345749728354801e-06 0.023989828272540592 0 1.8092164849397109e-05 0.022600913797097527 0 0.00017370427227697137 0.023900761768970519 0 1.4345749728354801e-06 0.023989828272540592 0 1.8092164849397109e-05 0.022600913797097527 0 0.00013020359527810539 0.02204681270647189 0 0.00015241074163210641 0.021755661158861066 0 0.00047759419746882766 0.022362956149879893 0 0.00017370427227697137 0.023900761768970519 0 1.8092164849397109e-05 0.022600913797097527 0 0.00047759419746882766 0.022362956149879893 0 1.8092164849397109e-05 0.022600913797097527 0 0.00021953163862109684 0.022311306747224501 0 1.8092164849397109e-05 0.022600913797097527 0 -0.00021944837769287764 0.021434455096685269 0 0.00035334537412101512 0.020922475482060842 0 -0.00011559729187651846 0.021935229819999832 0 1.8092164849397109e-05 0.022600913797097527 0 -0.00021944837769287764 0.021434455096685269 0 -0.00011559729187651846 0.021935229819999832 0 -0.00021944837769287764 0.021434455096685269 0 -0.00026993534444650784 0.021416137444272901 0 -0.00021944837769287764 0.021434455096685269 0 -0.00032075278273316051 0.02096379290689155 0 0.00035334537412101512 0.020922475482060842 0 -0.00032075278273316051 0.02096379290689155 0 0.00035334537412101512 0.020922475482060842 0 -0.00021013479117242977 0.020658306710371464 0 0.00034174461065040004 0.022332464679085114 0 0.00047759419746882766 0.022362956149879893 0 0.00021953163862109684 0.022311306747224501 0 0.00034174461065040004 0.022332464679085114 0 0.00021953163862109684 0.022311306747224501 0 0.000299532110372017 0.022297206545048416 0 0.00012430932040031212 0.021539304100722103 0 0.00015241074163210641 0.021755661158861066 0 0.00027140615147910858 0.022244829139252496 0 0.00021953163862109684 0.022311306747224501 0 0.000299532110372017 0.022297206545048416 0 0.00033382202288633725 0.020296632463368363 0 0.00035334537412101512 0.020922475482060842 0 -4.971780526993181e-05 0.02032651097096114 0 0.00027140615147910858 0.022244829139252496 0 0.0003175252005028078 0.022229426996232517 0 0.000299532110372017 0.022297206545048416 0 0.00035334537412101512 0.020922475482060842 0 -0.00021013479117242977 0.020658306710371464 0 -4.971780526993181e-05 0.02032651097096114 0 -0.00021013479117242977 0.020658306710371464 0 -4.971780526993181e-05 0.02032651097096114 0 -0.0002583820483802193 0.020399104520087957 0 -0.00049992016099057715 0.020451458967767736 0 -0.00042319085977706225 0.020599674457018331 0 -0.00052829973264255771 0.020299569580405807 0 -0.00042319085977706225 0.020599674457018331 0 -0.00040128600081594393 0.020498511473363165 0 -0.00059378191777444557 0.020650465688179871 0 -0.00037520159175972507 0.020172976380064298 0 -0.0002583820483802193 0.020399104520087957 0 -0.00040128600081594393 0.020498511473363165 0 -0.00037520159175972507 0.020172976380064298 0 -0.00095956921247123414 0.019685147855935961 0 -0.0010060600245527828 0.01963893520571857 0 -0.0011663054876595619 0.019861304371777477 0 -0.00021013479117242977 0.020658306710371464 0 -0.0002583820483802193 0.020399104520087957 0 -0.00040128600081594393 0.020498511473363165 0 -0.00040128600081594393 0.020498511473363165 0 -0.00050068221129656815 0.020643501863414893 0 -0.00046125165926724798 0.020739572884868194 0 -0.00040128600081594393 0.020498511473363165 0 -0.00050068221129656815 0.020643501863414893 0 -0.00059378191777444557 0.020650465688179871 0 -0.00053123623409852792 0.020683260739854919 0 -0.00050068221129656815 0.020643501863414893 0 -0.00059378191777444557 0.020650465688179871 0 -0.00053123623409852792 0.020683260739854919 0 -0.00050068221129656815 0.020643501863414893 0 -0.00046125165926724798 0.020739572884868194 0 -0.00021013479117242977 0.020658306710371464 0 -0.00040128600081594393 0.020498511473363165 0 -0.00046125165926724798 0.020739572884868194 0 -0.00061898892863827208 0.020170750051366038 0 -0.00062864297139167435 0.020324468075586927 0 -0.00095956921247123414 0.019685147855935961 0 -0.00075818028594459364 0.01963756355725051 0 -0.0010119003900803556 0.019825440991975415 0 -0.00075818028594459364 0.01963756355725051 0 -0.00085001998204558529 0.019727987909625794 0 -0.00094460259883146597 0.019709973101131872 0 -0.0010060600245527828 0.01963893520571857 0 -0.00091980743971202875 0.019618543566447579 0 -0.00087508812393888573 0.019556797636273313 0 -0.00095956921247123414 0.019685147855935961 0 -0.0010060600245527828 0.01963893520571857 0 -0.00091980743971202875 0.019618543566447579 0 -0.00095956921247123414 0.019685147855935961 0 -0.00091980743971202875 0.019618543566447579 0 -0.00075818028594459364 0.01963756355725051 0 -0.00091980743971202875 0.019618543566447579 0 -0.00087508812393888573 0.019556797636273313 0 -0.00075818028594459364 0.01963756355725051 0 -0.0010060600245527828 0.01963893520571857 0 -0.00087508812393888573 0.019556797636273313 0 -0.00084272306889026933 0.019390497322151694 0 -0.00059378191777444557 0.020650465688179871 0 -0.00055474099567547151 0.020698095034196128 0 -0.00049048392621764327 0.020639632168065938 0 -0.00052829973264255771 0.020299569580405807 0 -0.00058613388642646052 0.020134761066169876 0 -0.00053123623409852792 0.020683260739854919 0 -0.00059378191777444557 0.020650465688179871 0 -0.00055474099567547151 0.020698095034196128 0 -0.00055474099567547151 0.020698095034196128 0 -0.00056111839462060387 0.020694218151651893 0 -0.00049048392621764327 0.020639632168065938 0 -0.00032075278273316051 0.02096379290689155 0 -0.00021013479117242977 0.020658306710371464 0 -0.00046125165926724798 0.020739572884868194 0 -0.00053123623409852792 0.020683260739854919 0 -0.00055474099567547151 0.020698095034196128 0 -0.00046125165926724798 0.020739572884868194 0 -0.00055474099567547151 0.020698095034196128 0 -0.00046125165926724798 0.020739572884868194 0 -0.00047116824521682536 0.020872722205332737 0 -0.00055474099567547151 0.020698095034196128 0 -0.00056111839462060387 0.020694218151651893 0 -0.00047116824521682536 0.020872722205332737 0 -0.00021944837769287764 0.021434455096685269 0 -0.00032075278273316051 0.02096379290689155 0 -0.00047116824521682536 0.020872722205332737 0 -0.00032075278273316051 0.02096379290689155 0 -0.00046125165926724798 0.020739572884868194 0 -0.00047116824521682536 0.020872722205332737 0 -0.00044045907664760019 0.020960740407351228 0 -0.00055903295519268959 0.020477959772333194 0 -0.00026993534444650784 0.021416137444272901 0 -0.00021944837769287764 0.021434455096685269 0 -0.00047116824521682536 0.020872722205332737 0 -0.00044045907664760019 0.020960740407351228 0 -0.00021944837769287764 0.021434455096685269 0 -0.00044045907664760019 0.020960740407351228 0 -0.00026993534444650784 0.021416137444272901 0 -0.00056111839462060387 0.020694218151651893 0 -0.00047116824521682536 0.020872722205332737 0 -0.00044045907664760019 0.020960740407351228 0 -0.00056111839462060387 0.020694218151651893 0 -0.00049048392621764327 0.020639632168065938 0 -0.00055903295519268959 0.020477959772333194 0 -0.00055903295519268959 0.020477959772333194 0 -0.00055659023738272527 0.019881105271657078 0 -0.00026993534444650784 0.021416137444272901 0 -0.00056111839462060387 0.020694218151651893 0 -0.00044045907664760019 0.020960740407351228 0 -0.00055903295519268959 0.020477959772333194 0 -0.00049048392621764327 0.020639632168065938 0 -0.00055037295916231081 0.020006458384987519 0 -0.00055903295519268959 0.020477959772333194 0 -0.00055037295916231081 0.020006458384987519 0 -0.00055903295519268959 0.020477959772333194 0 -0.00055659023738272527 0.019881105271657078 0 -2.0928167694459338e-07 0.02032869175581668 0 5.6909217600719184e-06 0.019817856786137331 0 -0.00026993534444650784 0.021416137444272901 0 -0.00033359370597828004 0.019303406193529032 0 -0.00033940104452412134 0.019693297246711056 0 -8.8701804954392472e-07 0.022159382098107156 0 -2.0928167694459338e-07 0.02032869175581668 0 -0.00026993534444650784 0.021416137444272901 0 -1.2161657058362429e-06 0.016667074105543009 0 3.4471920095303699e-07 0.018498115104640358 0 -8.9797212263176207e-06 0.017907339918310908 0 -0.00055659023738272527 0.019881105271657078 0 -0.00075871687726196326 0.018179915811338557 0 -0.00060470798341494985 0.018957522598064023 0 5.6909217600719184e-06 0.019817856786137331 0 3.4471920095303699e-07 0.018498115104640358 0 -8.9797212263176207e-06 0.017907339918310908 0 -0.00033359370597828004 0.019303406193529032 0 -0.00028174666394103543 0.018581559105598004 0 -2.0928167694459338e-07 0.02032869175581668 0 5.6909217600719184e-06 0.019817856786137331 0 3.4471920095303699e-07 0.018498115104640358 0 -0.00058613388642646052 0.020134761066169876 0 -0.00057627538409342645 0.020012263445902727 0 -0.00049048392621764327 0.020639632168065938 0 -0.00055037295916231081 0.020006458384987519 0 -0.00057184370710758228 0.019198822605085389 0 -0.00067606822398066165 0.018926676162171127 0 -0.00069192657231025858 0.018914296038382433 0 -0.00055659023738272527 0.019881105271657078 0 -0.00060470798341494985 0.018957522598064023 0 -0.00057184370710758228 0.019198822605085389 0 -0.00060470798341494985 0.018957522598064023 0 -0.00057184370710758228 0.019198822605085389 0 -0.00067150021002106792 0.019273936672701334 0 -0.00084272306889026933 0.019390497322151694 0 -0.00057184370710758228 0.019198822605085389 0 -0.00067150021002106792 0.019273936672701334 0 -0.00060470798341494985 0.018957522598064023 0 -0.00074229819978592431 0.018264092885551603 0 -0.00060310074990703498 0.018070826777222281 0 -0.00060470798341494985 0.018957522598064023 0 -0.00067150021002106792 0.019273936672701334 0 -0.00063666769845374628 0.019540143669464653 0 -0.00055037295916231081 0.020006458384987519 0 -0.00055659023738272527 0.019881105271657078 0 -0.00057184370710758228 0.019198822605085389 0 -0.00075871687726196326 0.018179915811338557 0 -0.00060470798341494985 0.018957522598064023 0 -0.00075537618459625591 0.0182953469914547 0 -0.00060470798341494985 0.018957522598064023 0 -0.00074229819978592431 0.018264092885551603 0 -0.00075537618459625591 0.0182953469914547 0 -0.00066204378484093515 0.017907548468652695 0 -0.00075871687726196326 0.018179915811338557 0 -0.00075537618459625591 0.0182953469914547 0 -0.00066204378484093515 0.017907548468652695 0 -0.00075537618459625591 0.0182953469914547 0 -0.00072531128303028093 0.018112839914614653 0 -0.00074229819978592431 0.018264092885551603 0 -0.00075537618459625591 0.0182953469914547 0 -0.00072531128303028093 0.018112839914614653 0 -0.00074229819978592431 0.018264092885551603 0 -0.00072531128303028093 0.018112839914614653 0 -0.00069134911876334785 0.018144119561174114 0 -0.00074229819978592431 0.018264092885551603 0 -0.00069134911876334785 0.018144119561174114 0 -0.00060310074990703498 0.018070826777222281 0 -0.00069134911876334785 0.018144119561174114 0 -0.00060310074990703498 0.018070826777222281 0 -0.00064894235031563512 0.018206088488392277 0 -0.00087508812393888573 0.019556797636273313 0 -0.00084272306889026933 0.019390497322151694 0 -0.00063666769845374628 0.019540143669464653 0 -0.00087508812393888573 0.019556797636273313 0 -0.00063666769845374628 0.019540143669464653 0 -0.00075818028594459364 0.01963756355725051 0 -0.00084272306889026933 0.019390497322151694 0 -0.00067150021002106792 0.019273936672701334 0 -0.00063666769845374628 0.019540143669464653 0 -0.00069192657231025858 0.018914296038382433 0 -0.00074723996528321243 0.019020066780131569 0 -0.00060310074990703498 0.018070826777222281 0 -0.00064894235031563512 0.018206088488392277 0 -0.00072707485189033808 0.018265729405907795 0 -0.00063666769845374628 0.019540143669464653 0 -0.00075818028594459364 0.01963756355725051 0 -0.00076622895199343556 0.019726936398839854 0 -0.00075818028594459364 0.01963756355725051 0 -0.00076622895199343556 0.019726936398839854 0 -0.00085001998204558529 0.019727987909625794 0 -0.00062227684098130483 0.018197133936571547 0 -0.00069134911876334785 0.018144119561174114 0 -0.00064894235031563512 0.018206088488392277 0 -0.00056066983379670819 0.018303059461189809 0 -0.00064894235031563512 0.018206088488392277 0 -0.0006478829689145776 0.018324617046107425 0 -0.00037591661600855277 0.018576550315402753 0 -0.00056335878040960881 0.018831808409536011 0 -0.00064894235031563512 0.018206088488392277 0 -0.0006478829689145776 0.018324617046107425 0 -0.00072707485189033808 0.018265729405907795 0 -0.00059008564096150399 0.019063235040506402 0 -0.00076729675788001547 0.019268279285462035 0 -0.00054714513522811069 0.019303214876746782 0 -0.00035477602956581947 0.019125093624208746 0 -0.00059008564096150399 0.019063235040506402 0 -0.00054714513522811069 0.019303214876746782 0 -0.00082206293528596156 0.019238636944556312 0 -0.00074723996528321243 0.019020066780131569 0 -0.00056335878040960881 0.018831808409536011 0 -0.00082206293528596156 0.019238636944556312 0 -0.0006478829689145776 0.018324617046107425 0 -0.00074799197109864349 0.018418918787208444 0 -0.00072707485189033808 0.018265729405907795 0 -0.00082128402053736492 0.019860865386763484 0 -0.00076622895199343556 0.019726936398839854 0 -0.0008595954235105348 0.019784758778129231 0 -0.00076622895199343556 0.019726936398839854 0 -0.00085001998204558529 0.019727987909625794 0 -0.0008595954235105348 0.019784758778129231 0 -0.00085001998204558529 0.019727987909625794 0 -0.00094460259883146597 0.019709973101131872 0 -0.00092102455315040352 0.019769537388171953 0 -0.00085001998204558529 0.019727987909625794 0 -0.00092102455315040352 0.019769537388171953 0 -0.0008595954235105348 0.019784758778129231 0 -0.00048770089719140633 0.02074619854586876 0 -0.00062864297139167435 0.020324468075586927 0 -0.0010716680371461317 0.019787762928739957 0 -0.00094460259883146597 0.019709973101131872 0 -0.00098701552549927294 0.019782952481418353 0 -0.00095956921247123414 0.019685147855935961 0 -0.0010119003900803556 0.019825440991975415 0 -0.0011723652999287421 0.01986794900385544 0 -0.0012692164426244185 0.020001415260625835 0 -0.0010119003900803556 0.019825440991975415 0 -0.0011723652999287421 0.01986794900385544 0 -0.00094460259883146597 0.019709973101131872 0 -0.00092102455315040352 0.019769537388171953 0 -0.00098701552549927294 0.019782952481418353 0 -0.00048770089719140633 0.02074619854586876 0 -0.00042319085977706225 0.020599674457018331 0 -0.00098701552549927294 0.019782952481418353 0 -0.00104801891983774 0.019815724233217487 0 -0.0010014772860179708 0.01986007023011397 0 -0.0010716680371461317 0.019787762928739957 0 -0.00098701552549927294 0.019782952481418353 0 -0.00104801891983774 0.019815724233217487 0 -0.00098701552549927294 0.019782952481418353 0 -0.0010014772860179708 0.01986007023011397 0 -0.00092001993363636082 0.019839956424950043 0 -0.0010572198548068879 0.019857699160744837 0 -0.00104801891983774 0.019815724233217487 0 -0.0010014772860179708 0.01986007023011397 0 -0.00082128402053736492 0.019860865386763484 0 -0.0008595954235105348 0.019784758778129231 0 -0.00092001993363636082 0.019839956424950043 0 -0.00092102455315040352 0.019769537388171953 0 -0.0008595954235105348 0.019784758778129231 0 -0.00092001993363636082 0.019839956424950043 0 -0.00092102455315040352 0.019769537388171953 0 -0.00098701552549927294 0.019782952481418353 0 -0.00092001993363636082 0.019839956424950043 0 -0.00075321612442560927 0.019320788717433261 0 -0.00093543754890375113 0.019513618071317428 0 -0.00077092613020577608 0.01947851161280717 0 -0.00082206293528596156 0.019238636944556312 0 -0.00099198631584488327 0.019584658696487844 0 -0.0010014772860179708 0.01986007023011397 0 -0.00092001993363636082 0.019839956424950043 0 -0.00096321652708237821 0.019944223355316509 0 -0.00082128402053736492 0.019860865386763484 0 -0.00092001993363636082 0.019839956424950043 0 -0.00096321652708237821 0.019944223355316509 0 -0.0010983291632973306 0.019947065817401004 0 -0.001064595303946679 0.019903589006063205 0 -0.00096321652708237821 0.019944223355316509 0 -0.001064595303946679 0.019903589006063205 0 -0.0010014772860179708 0.01986007023011397 0 -0.00096321652708237821 0.019944223355316509 0 -0.001064595303946679 0.019903589006063205 0 -0.0010572198548068879 0.019857699160744837 0 -0.0010014772860179708 0.01986007023011397 0 -0.00093543754890375113 0.019513618071317428 0 -0.00097136628028963838 0.019677185121456175 0 -0.0011113343895574328 0.019741625926844558 0 -0.0010983291632973306 0.019947065817401004 0 -0.00096321652708237821 0.019944223355316509 0 -0.0010991089423975924 0.019988836386546652 0 -0.00099198631584488327 0.019584658696487844 0 -0.0011013723615623239 0.019765153961744795 0 -0.00093543754890375113 0.019513618071317428 0 -0.00097136628028963838 0.019677185121456175 0 -0.00080248161715954652 0.019652292217150265 0 -0.00093543754890375113 0.019513618071317428 0 -0.00080248161715954652 0.019652292217150265 0 -0.00077092613020577608 0.01947851161280717 0 -0.00080248161715954652 0.019652292217150265 0 -0.0006447808108566678 0.019662284977487909 0 -0.00077092613020577608 0.01947851161280717 0 -0.0006447808108566678 0.019662284977487909 0 -0.00061905279331085053 0.019462978785781411 0 -0.00077092613020577608 0.01947851161280717 0 -0.00045954111498249255 0.019513482364638499 0 -0.0006447808108566678 0.019662284977487909 0 -0.00061905279331085053 0.019462978785781411 0 -0.00045954111498249255 0.019513482364638499 0 -0.0006447808108566678 0.019662284977487909 0 -0.00048825957942299375 0.019799992218022568 0 -0.00076729675788001547 0.019268279285462035 0 -0.00054714513522811069 0.019303214876746782 0 -0.00061905279331085053 0.019462978785781411 0 -0.00045954111498249255 0.019513482364638499 0 -0.00054714513522811069 0.019303214876746782 0 -0.00061905279331085053 0.019462978785781411 0 -0.00076729675788001547 0.019268279285462035 0 -0.00061905279331085053 0.019462978785781411 0 -0.00077092613020577608 0.01947851161280717 0 -0.00082206293528596156 0.019238636944556312 0 -0.0008209989898274872 0.019291923214484193 0 -0.00073290589306403435 0.019899079171793923 0 -0.00048825957942299375 0.019799992218022568 0 -0.00057262978799951 0.020058402817725272 0 -0.0006447808108566678 0.019662284977487909 0 -0.00073290589306403435 0.019899079171793923 0 -0.00048825957942299375 0.019799992218022568 0 -0.00080248161715954652 0.019652292217150265 0 -0.0006447808108566678 0.019662284977487909 0 -0.00073290589306403435 0.019899079171793923 0 -0.00097136628028963838 0.019677185121456175 0 -0.00080248161715954652 0.019652292217150265 0 -0.00090470952727694223 0.019787607281197807 0 -0.00080248161715954652 0.019652292217150265 0 -0.00073290589306403435 0.019899079171793923 0 -0.00090470952727694223 0.019787607281197807 0 -0.00097136628028963838 0.019677185121456175 0 -0.0010179046697172966 0.019789335627392747 0 -0.0011113343895574328 0.019741625926844558 0 -0.0010179046697172966 0.019789335627392747 0 -0.0011061032462065805 0.019875175857542098 0 -0.0011113343895574328 0.019741625926844558 0 -0.00097136628028963838 0.019677185121456175 0 -0.00090470952727694223 0.019787607281197807 0 -0.0010179046697172966 0.019789335627392747 0 -0.00090470952727694223 0.019787607281197807 0 -0.0010179046697172966 0.019789335627392747 0 -0.0010122460193940461 0.019895779640505568 0 -0.00090470952727694223 0.019787607281197807 0 -0.0010122460193940461 0.019895779640505568 0 -0.00091068170506048579 0.019951342050478986 0 -0.0010179046697172966 0.019789335627392747 0 -0.0010122460193940461 0.019895779640505568 0 -0.0011061032462065805 0.019875175857542098 0 -0.0010122460193940461 0.019895779640505568 0 -0.00091068170506048579 0.019951342050478986 0 -0.0010226071152024359 0.020057475688377523 0 -0.0010122460193940461 0.019895779640505568 0 -0.0010226071152024359 0.020057475688377523 0 -0.0011242687789599025 0.0199626309634152 0 -0.0010122460193940461 0.019895779640505568 0 -0.0011242687789599025 0.0199626309634152 0 -0.0011061032462065805 0.019875175857542098 0 -0.00073290589306403435 0.019899079171793923 0 -0.00090470952727694223 0.019787607281197807 0 -0.00091068170506048579 0.019951342050478986 0 -0.00073290589306403435 0.019899079171793923 0 -0.00091068170506048579 0.019951342050478986 0 -0.00086970632698490479 0.020103499329712657 0 -0.00091068170506048579 0.019951342050478986 0 -0.00086970632698490479 0.020103499329712657 0 -0.0010226071152024359 0.020057475688377523 0 -0.00086970632698490479 0.020103499329712657 0 -0.00081143771551120403 0.020249888950105131 0 -0.00072321211870496165 0.02012443524677927 0 -0.0008819022535123197 0.020400795183995627 0 -0.00084273276231592881 0.020832142661605307 0 -0.0010226071152024359 0.020057475688377523 0 -0.00098203471933901989 0.020367366356707696 0 -0.0011552225251640757 0.020163726634134238 0 -0.00086970632698490479 0.020103499329712657 0 -0.0010226071152024359 0.020057475688377523 0 -0.0010300323328451004 0.020283013987240476 0 -0.00086970632698490479 0.020103499329712657 0 -0.0010300323328451004 0.020283013987240476 0 -0.00081143771551120403 0.020249888950105131 0 -0.0010300323328451004 0.020283013987240476 0 -0.00081143771551120403 0.020249888950105131 0 -0.00084668227305392601 0.020391734400403459 0 -0.00081143771551120403 0.020249888950105131 0 -0.00066737116215010545 0.020265569140329329 0 -0.00072321211870496165 0.02012443524677927 0 -0.00081143771551120403 0.020249888950105131 0 -0.00066737116215010545 0.020265569140329329 0 -0.00084668227305392601 0.020391734400403459 0 -0.00073290589306403435 0.019899079171793923 0 -0.00086970632698490479 0.020103499329712657 0 -0.00072321211870496165 0.02012443524677927 0 -0.00073290589306403435 0.019899079171793923 0 -0.00072321211870496165 0.02012443524677927 0 -0.00057262978799951 0.020058402817725272 0 -0.00066737116215010545 0.020265569140329329 0 -0.00072321211870496165 0.02012443524677927 0 -0.00057262978799951 0.020058402817725272 0 -0.00046261738141803802 0.020243271885495406 0 -0.00066737116215010545 0.020265569140329329 0 -0.00057262978799951 0.020058402817725272 0 -0.00046261738141803802 0.020243271885495406 0 -0.00066737116215010545 0.020265569140329329 0 -0.00057763234301307683 0.020425818496156076 0 -0.00066737116215010545 0.020265569140329329 0 -0.00057763234301307683 0.020425818496156076 0 -0.00078330816867917493 0.020516050794150482 0 -0.00066737116215010545 0.020265569140329329 0 -0.00078330816867917493 0.020516050794150482 0 -0.00099698733858063072 0.020460732557969048 0 -0.00034065661508494722 0.021236435260409123 0 -0.00040831724734713187 0.021618917496958802 0 -0.00078330816867917493 0.020516050794150482 0 -0.00090215740701320081 0.020639677737144327 0 -0.00099698733858063072 0.020460732557969048 0 -0.00078330816867917493 0.020516050794150482 0 -0.00090215740701320081 0.020639677737144327 0 -0.00077676361438564748 0.020815077398035068 0 -0.00057763234301307683 0.020425818496156076 0 -0.00078330816867917493 0.020516050794150482 0 -0.00077676361438564748 0.020815077398035068 0 -0.00057763234301307683 0.020425818496156076 0 -0.00080680525684661197 0.020714523396312159 0 -0.00073904250209001049 0.020648403199642881 0 -0.00080680525684661197 0.020714523396312159 0 -0.00073904250209001049 0.020648403199642881 0 -0.00065733393352218833 0.020750639717878799 0 -0.00090215740701320081 0.020639677737144327 0 -0.00077676361438564748 0.020815077398035068 0 -0.0009361025071502676 0.020778785591773985 0 -0.00071106380583272288 0.020623377697677896 0 -0.00081700274337886752 0.020798828669399846 0 -0.00037485637994435659 0.020599198737188091 0 -0.00057763234301307683 0.020425818496156076 0 -0.00073904250209001049 0.020648403199642881 0 -0.000403540854629986 0.020584359556178013 0 -0.00073904250209001049 0.020648403199642881 0 -0.00065733393352218833 0.020750639717878799 0 -0.00036966166582995364 0.020583007255338986 0 -0.00053609688419062329 0.020609703972556088 0 -0.000403540854629986 0.020584359556178013 0 -0.00056886896935352392 0.020877986007737537 0 -0.00065733393352218833 0.020750639717878799 0 -0.00056886896935352392 0.020877986007737537 0 -0.00065733393352218833 0.020750639717878799 0 -0.00078649427755924566 0.020942652815393148 0 -0.00081700274337886752 0.020798828669399846 0 -0.00099474741884834884 0.021093084960911786 0 -0.00080680525684661197 0.020714523396312159 0 -0.00078649427755924566 0.020942652815393148 0 -0.0010330448307220772 0.021067459349007809 0 -0.00080680525684661197 0.020714523396312159 0 -0.00065733393352218833 0.020750639717878799 0 -0.00078649427755924566 0.020942652815393148 0 -0.00077676361438564748 0.020815077398035068 0 -0.0010056403945223199 0.020918238933407062 0 -0.0009361025071502676 0.020778785591773985 0 -0.00078649427755924566 0.020942652815393148 0 -0.00067633413882844994 0.021113514620509675 0 -0.0010330448307220772 0.021067459349007809 0 -0.00056886896935352392 0.020877986007737537 0 -0.00078649427755924566 0.020942652815393148 0 -0.00067633413882844994 0.021113514620509675 0 -0.00047290574407033912 0.02104776685260324 0 -0.00056886896935352392 0.020877986007737537 0 -0.00067633413882844994 0.021113514620509675 0 -0.001248132761432602 0.02120022452779979 0 -0.0011402739193088045 0.021041141477744024 0 -0.0013083622218800052 0.021037849611203311 0 -0.001248132761432602 0.02120022452779979 0 -0.0013083622218800052 0.021037849611203311 0 -0.0013779726278162745 0.021146539735398966 0 -0.0013083622218800052 0.021037849611203311 0 -0.0013779726278162745 0.021146539735398966 0 -0.0013901441231852999 0.021064131108815682 0 -0.001248132761432602 0.02120022452779979 0 -0.0013779726278162745 0.021146539735398966 0 -0.0014198541246271262 0.021286786868723272 0 -0.001248132761432602 0.02120022452779979 0 -0.0010146589852749498 0.021181312699969906 0 -0.0011402739193088045 0.021041141477744024 0 -0.0011402739193088045 0.021041141477744024 0 -0.0011150393136245213 0.020906447321775129 0 -0.0012006582829173953 0.02094547348559863 0 -0.00077676361438564748 0.020815077398035068 0 -0.0010146589852749498 0.021181312699969906 0 -0.0010056403945223199 0.020918238933407062 0 -0.0011402739193088045 0.021041141477744024 0 -0.0010056403945223199 0.020918238933407062 0 -0.0011150393136245213 0.020906447321775129 0 -0.0010146589852749498 0.021181312699969906 0 -0.0011402739193088045 0.021041141477744024 0 -0.0010056403945223199 0.020918238933407062 0 -0.0010056403945223199 0.020918238933407062 0 -0.0009361025071502676 0.020778785591773985 0 -0.0010590989453116934 0.02079408695737751 0 -0.0010056403945223199 0.020918238933407062 0 -0.0011150393136245213 0.020906447321775129 0 -0.0010590989453116934 0.02079408695737751 0 -0.0011150393136245213 0.020906447321775129 0 -0.0011692560499173557 0.020830344583955714 0 -0.0010590989453116934 0.02079408695737751 0 -0.0011692560499173557 0.020830344583955714 0 -0.0012462727324012066 0.020882011642465743 0 -0.0012397856054002239 0.020802894485273438 0 -0.0012462727324012066 0.020882011642465743 0 -0.0013139812322312634 0.020918863436264201 0 -0.0012397856054002239 0.020802894485273438 0 -0.0012462727324012066 0.020882011642465743 0 -0.0012006582829173953 0.02094547348559863 0 -0.0012934651694029675 0.020944176291101312 0 -0.0011692560499173557 0.020830344583955714 0 -0.0012462727324012066 0.020882011642465743 0 -0.0012006582829173953 0.02094547348559863 0 -0.0011150393136245213 0.020906447321775129 0 -0.0011692560499173557 0.020830344583955714 0 -0.0012006582829173953 0.02094547348559863 0 -0.0011402739193088045 0.021041141477744024 0 -0.0012006582829173953 0.02094547348559863 0 -0.0013083622218800052 0.021037849611203311 0 -0.0013083622218800052 0.021037849611203311 0 -0.0013119481308040916 0.020950443932804087 0 -0.0014040393749822433 0.020993687258701078 0 -0.0013083622218800052 0.021037849611203311 0 -0.0012934651694029675 0.020944176291101312 0 -0.0013132196975864912 0.02091966400612905 0 -0.0012694871465901314 0.023162295515199278 0 -0.0012696824508612173 0.023387440659936601 0 -0.0012006582829173953 0.02094547348559863 0 -0.0013083622218800052 0.021037849611203311 0 -0.0012934651694029675 0.020944176291101312 0 -0.0012696824508612173 0.023387440659936601 0 -0.0010414544126879093 0.024983909341775495 0 -0.0012462727324012066 0.020882011642465743 0 -0.0012934651694029675 0.020944176291101312 0 -0.0013139812322312634 0.020918863436264201 0 -0.0012759861158915958 0.023374942235770867 0 -0.0012696824508612173 0.023387440659936601 0 -0.0012696824508612173 0.023387440659936601 0 -0.00071196769616543008 0.023027360815503207 0 -0.0014424775004550955 0.024084079384042108 0 -0.0014457031743574269 0.024784239967750477 0 -0.0010936057509861024 0.024540901033905313 0 -0.0011521425042399919 0.020697194395803368 0 -0.0013161133597172181 0.020684690032895112 0 -0.00099698733858063072 0.020460732557969048 0 -0.0013139812322312634 0.020918863436264201 0 -0.0012397856054002239 0.020802894485273438 0 -0.0013161133597172181 0.020684690032895112 0 -0.00071196769616543008 0.023027360815503207 0 -0.0010414544126879093 0.024983909341775495 0 -0.0012397856054002239 0.020802894485273438 0 -0.0011521425042399919 0.020697194395803368 0 -0.0013161133597172181 0.020684690032895112 0 -0.0011692560499173557 0.020830344583955714 0 -0.0012397856054002239 0.020802894485273438 0 -0.0011521425042399919 0.020697194395803368 0 -0.0009361025071502676 0.020778785591773985 0 -0.0010590989453116934 0.02079408695737751 0 -0.001009313812087685 0.020674104712030281 0 -0.0011692560499173557 0.020830344583955714 0 -0.0011521425042399919 0.020697194395803368 0 -0.0010590989453116934 0.02079408695737751 0 -0.0011521425042399919 0.020697194395803368 0 -0.0010590989453116934 0.02079408695737751 0 -0.001009313812087685 0.020674104712030281 0 -0.0011521425042399919 0.020697194395803368 0 -0.001009313812087685 0.020674104712030281 0 -0.00099698733858063072 0.020460732557969048 0 -0.00090215740701320081 0.020639677737144327 0 -0.001009313812087685 0.020674104712030281 0 -0.00099698733858063072 0.020460732557969048 0 -0.00090215740701320081 0.020639677737144327 0 -0.0009361025071502676 0.020778785591773985 0 -0.001009313812087685 0.020674104712030281 0 -0.00098203471933901989 0.020367366356707696 0 -0.00097098230865332535 0.020709960157238354 0 -0.0011006828104542362 0.020512690884597309 0 -0.00084273276231592881 0.020832142661605307 0 -0.00071196769616543008 0.023027360815503207 0 -0.00071196769616543008 0.023027360815503207 0 -0.00040831724734713187 0.021618917496958802 0 -0.0010300323328451004 0.020283013987240476 0 -0.0010324432776954201 0.020526029194466892 0 -0.00084668227305392601 0.020391734400403459 0 -0.00048394428575646074 0.026604008031308975 0 -0.00071648260583862498 0.025903081719765332 0 -0.0011006828104542362 0.020512690884597309 0 -0.0012558896204130244 0.020513445332770264 0 -0.0011832625580049795 0.020356475983057593 0 -0.0011006828104542362 0.020512690884597309 0 -0.0012558896204130244 0.020513445332770264 0 -0.0010832717879239414 0.020668288088702295 0 0.00069264250335340956 0.032117420418966411 0 0.00026582696432256449 0.032235096046556867 0 0.00030701296448981213 0.031594284665234111 0 0.00069264250335340956 0.032117420418966411 0 0.00051337873834095629 0.03257618087604934 0 0.00026582696432256449 0.032235096046556867 0 0.00069264250335340956 0.032117420418966411 0 0.00051337873834095629 0.03257618087604934 0 0.00076248410015714713 0.032640308088853022 0 0.00051337873834095629 0.03257618087604934 0 0.00027769074502566229 0.032848227536443418 0 0.00026582696432256449 0.032235096046556867 0 0.00076248410015714713 0.032640308088853022 0 0.00055256486305127277 0.032858502225889721 0 0.00088433915549093408 0.032934504830409508 0 0.00051337873834095629 0.03257618087604934 0 0.00076248410015714713 0.032640308088853022 0 0.00055256486305127277 0.032858502225889721 0 0.00051337873834095629 0.03257618087604934 0 0.00055256486305127277 0.032858502225889721 0 0.00027769074502566229 0.032848227536443418 0 0.00069264250335340956 0.032117420418966411 0 0.00076248410015714713 0.032640308088853022 0 0.0010576293339375565 0.032610268236819007 0 -0.0012558896204130244 0.020513445332770264 0 -0.0011135561988350493 0.020725657967004613 0 -0.0010832717879239414 0.020668288088702295 0 -0.0011167389220994185 0.020728674447614354 0 -0.0010832717879239414 0.020668288088702295 0 -0.0010734922013803019 0.020785599202757021 0 -0.00097098230865332535 0.020709960157238354 0 -0.0011006828104542362 0.020512690884597309 0 -0.0010832717879239414 0.020668288088702295 0 -0.00097098230865332535 0.020709960157238354 0 -0.0010832717879239414 0.020668288088702295 0 -0.0010734922013803019 0.020785599202757021 0 -0.00071648260583862498 0.025903081719765332 0 -0.00066023499350783372 0.025742027519129667 0 0.00076248410015714713 0.032640308088853022 0 0.0010576293339375565 0.032610268236819007 0 0.00088433915549093408 0.032934504830409508 0 -0.00071648260583862498 0.025903081719765332 0 -0.00088931758365652571 0.026431060030320159 0 -0.0010414544126879093 0.024983909341775495 0 -0.00088931758365652571 0.026431060030320159 0 -0.00028458583904112034 0.024732501172110045 0 0.00012873431727852171 0.025274775508973456 0 -0.0010077997542160151 0.026061220446728955 0 -0.00071648260583862498 0.025903081719765332 0 -0.0010414544126879093 0.024983909341775495 0 -0.0013119481308040916 0.020950443932804087 0 -0.0014001212763313691 0.020841505616354786 0 -0.0014111074815803741 0.020930619732746861 0 -0.0014001212763313691 0.020841505616354786 0 -0.0014111074815803741 0.020930619732746861 0 -0.0014999888827236928 0.02091008505142973 0 -0.0013119481308040916 0.020950443932804087 0 -0.0014111074815803741 0.020930619732746861 0 -0.0014040393749822433 0.020993687258701078 0 -0.0014855646389592696 0.021005677449069234 0 -0.0014999888827236928 0.02091008505142973 0 -0.0016497481375674933 0.021109666158820921 0 -0.0013083622218800052 0.021037849611203311 0 -0.0014040393749822433 0.020993687258701078 0 -0.0013901441231852999 0.021064131108815682 0 -0.0014111074815803741 0.020930619732746861 0 -0.0014040393749822433 0.020993687258701078 0 -0.0014855646389592696 0.021005677449069234 0 -0.0014040393749822433 0.020993687258701078 0 -0.0013901441231852999 0.021064131108815682 0 -0.0014687821564565347 0.021081256794008033 0 -0.0014040393749822433 0.020993687258701078 0 -0.0014855646389592696 0.021005677449069234 0 -0.0014687821564565347 0.021081256794008033 0 -0.0014111074815803741 0.020930619732746861 0 -0.0014855646389592696 0.021005677449069234 0 -0.0014999888827236928 0.02091008505142973 0 -0.00088931758365652571 0.026431060030320159 0 -0.00081920434444337825 0.027071881753751293 0 -0.00088931758365652571 0.026431060030320159 0 -0.0013514121514196619 0.027760714486483967 0 0.00055256486305127277 0.032858502225889721 0 0.00088433915549093408 0.032934504830409508 0 0.00031804698137626611 0.033259724296742559 0 0.0004831787654626251 0.033130674482801742 0 0.00031804698137626611 0.033259724296742559 0 0.0003115658086354233 0.033368776440601634 0 0.00055256486305127277 0.032858502225889721 0 0.00031804698137626611 0.033259724296742559 0 0.00027769074502566229 0.032848227536443418 0 0.0003115658086354233 0.033368776440601634 0 0.00011790046329089261 0.033391839740821362 0 8.4211523318266566e-05 0.033365606683024962 0 0.0003115658086354233 0.033368776440601634 0 0.00011790046329089261 0.033391839740821362 0 0.00018955382559328831 0.033356087010193151 0 0.00031804698137626611 0.033259724296742559 0 0.0003115658086354233 0.033368776440601634 0 0.00018955382559328831 0.033356087010193151 0 -0.0016497481375674933 0.021109666158820921 0 -0.0015199170821863822 0.021206120302523213 0 -0.0017068710439858187 0.02135574966809092 0 -0.0015199170821863822 0.021206120302523213 0 -0.0013779726278162745 0.021146539735398966 0 -0.0014198541246271262 0.021286786868723272 0 -0.0015199170821863822 0.021206120302523213 0 -0.0013779726278162745 0.021146539735398966 0 -0.0014687821564565347 0.021081256794008033 0 -0.0013779726278162745 0.021146539735398966 0 -0.0013901441231852999 0.021064131108815682 0 -0.0014687821564565347 0.021081256794008033 0 -0.0014855646389592696 0.021005677449069234 0 -0.0016497481375674933 0.021109666158820921 0 -0.0014687821564565347 0.021081256794008033 0 -0.0016497481375674933 0.021109666158820921 0 -0.0015199170821863822 0.021206120302523213 0 -0.0014687821564565347 0.021081256794008033 0 0.00014405460042969418 0.033490949758844119 0 6.9355322353556787e-05 0.033393164441728525 0 -4.2145737170503314e-05 0.033412287391096279 0 0.00014405460042969418 0.033490949758844119 0 0.00018130462558936007 0.033390033189201015 0 6.9355322353556787e-05 0.033393164441728525 0 0.00018130462558936007 0.033390033189201015 0 6.9355322353556787e-05 0.033393164441728525 0 0.00010008177584679354 0.03334836767280517 0 6.9355322353556787e-05 0.033393164441728525 0 0.00011790046329089261 0.033391839740821362 0 0.00010008177584679354 0.03334836767280517 0 0.00011790046329089261 0.033391839740821362 0 0.00018955382559328831 0.033356087010193151 0 -4.2145737170503314e-05 0.033412287391096279 0 6.9355322353556787e-05 0.033393164441728525 0 0.00011790046329089261 0.033391839740821362 0 -4.2145737170503314e-05 0.033412287391096279 0 -4.2145737170503314e-05 0.033412287391096279 0 0.00010237233143543727 0.033063190495972686 0 -0.00058934351679720603 0.032570169960604342 0 0.00018955382559328831 0.033356087010193151 0 -4.2145737170503314e-05 0.033412287391096279 0 0.00010237233143543727 0.033063190495972686 0 0.00031804698137626611 0.033259724296742559 0 0.00018955382559328831 0.033356087010193151 0 0.00010237233143543727 0.033063190495972686 0 0.00031804698137626611 0.033259724296742559 0 0.00010237233143543727 0.033063190495972686 0 0.00027769074502566229 0.032848227536443418 0 -0.00017065936068125389 0.033218843894717631 0 -0.00022305255735966925 0.033073894058907961 0 -4.2145737170503314e-05 0.033412287391096279 0 5.6840854415728225e-06 0.033956685845065449 0 0.00019071418373477534 0.033716894498310522 0 0.00014405460042969418 0.033490949758844119 0 -4.2145737170503314e-05 0.033412287391096279 0 0.00019071418373477534 0.033716894498310522 0 5.6840854415728225e-06 0.033956685845065449 0 0.00017314213270352063 0.033919181567239477 0 0.00019071418373477534 0.033716894498310522 0 -0.00058934351679720603 0.032570169960604342 0 1.7171591948882583e-05 0.032500871466999232 0 -0.00031201686142067424 0.031798163586760762 0 5.6840854415728225e-06 0.033956685845065449 0 0.00016388915576387878 0.034166168348155924 0 0.00017314213270352063 0.033919181567239477 0 -0.00012837870464849646 0.031384123944078225 0 -0.00015462303034553384 0.030538085898892696 0 0.00027769074502566229 0.032848227536443418 0 1.7171591948882583e-05 0.032500871466999232 0 0.00052729687965162966 0.031867971057530281 0 0.00010237233143543727 0.033063190495972686 0 0.00027769074502566229 0.032848227536443418 0 1.7171591948882583e-05 0.032500871466999232 0 0.00010237233143543727 0.033063190495972686 0 -0.00058934351679720603 0.032570169960604342 0 1.7171591948882583e-05 0.032500871466999232 0 0.00052729687965162966 0.031867971057530281 0 5.8594135888810589e-05 0.031284557679943252 0 -0.00031201686142067424 0.031798163586760762 0 1.7171591948882583e-05 0.032500871466999232 0 0.00052729687965162966 0.031867971057530281 0 -0.00031201686142067424 0.031798163586760762 0 -0.00015462303034553384 0.030538085898892696 0 -0.00023891271754436462 0.027510477864867423 0 0.00052729687965162966 0.031867971057530281 0 5.8594135888810589e-05 0.031284557679943252 0 0.0006883847992594671 0.030731037692725553 0 5.8594135888810589e-05 0.031284557679943252 0 -0.00031201686142067424 0.031798163586760762 0 -0.00051392886136808588 0.031197735931515667 0 -0.00058934351679720603 0.032570169960604342 0 -0.00031201686142067424 0.031798163586760762 0 -0.0011205872176291755 0.031412895879267648 0 -0.00022305255735966925 0.033073894058907961 0 -0.00030786040713942181 0.032704001517582369 0 5.6840854415728225e-06 0.033956685845065449 0 0.00015639609410156362 0.034323164570980141 0 0.00016388915576387878 0.034166168348155924 0 -0.00031201686142067424 0.031798163586760762 0 -0.0011205872176291755 0.031412895879267648 0 -0.00051392886136808588 0.031197735931515667 0 -0.0011205872176291755 0.031412895879267648 0 -0.00051392886136808588 0.031197735931515667 0 -0.00086260043227586564 0.030703784752630896 0 -0.00051392886136808588 0.031197735931515667 0 -0.00026121951234398926 0.030659117303794232 0 -0.00086260043227586564 0.030703784752630896 0 -0.00026121951234398926 0.030659117303794232 0 -0.00086260043227586564 0.030703784752630896 0 -0.00078879905002371365 0.030111888730624002 0 -0.00086260043227586564 0.030703784752630896 0 -0.00078879905002371365 0.030111888730624002 0 -0.0016575946337850922 0.030115215939218207 0 -0.00026121951234398926 0.030659117303794232 0 -0.00078879905002371365 0.030111888730624002 0 -8.7860566494998293e-05 0.029585622178609543 0 -0.00078879905002371365 0.030111888730624002 0 -0.0010163706415571357 0.029362294456533922 0 -0.0016575946337850922 0.030115215939218207 0 -0.00078879905002371365 0.030111888730624002 0 -0.0010163706415571357 0.029362294456533922 0 -8.7860566494998293e-05 0.029585622178609543 0 0.00011567985672602415 0.028675924864820224 0 -0.00023891271754436462 0.027510477864867423 0 2.0271554276399328e-05 0.029512266054534442 0 0.00092514443008379749 0.030695320575062995 0 0.0010687258330416866 0.02885705275424998 0 -0.00026121951234398926 0.030659117303794232 0 -8.7860566494998293e-05 0.029585622178609543 0 0.0006883847992594671 0.030731037692725553 0 5.8594135888810589e-05 0.031284557679943252 0 -0.00026121951234398926 0.030659117303794232 0 0.0006883847992594671 0.030731037692725553 0 5.8594135888810589e-05 0.031284557679943252 0 -0.00051392886136808588 0.031197735931515667 0 -0.00026121951234398926 0.030659117303794232 0 -0.00048394428575646074 0.026604008031308975 0 -0.00023891271754436462 0.027510477864867423 0 -0.0012558896204130244 0.020513445332770264 0 -0.001373881792185941 0.02031663186659027 0 -0.0011832625580049795 0.020356475983057593 0 -0.001373881792185941 0.02031663186659027 0 -0.0011832625580049795 0.020356475983057593 0 -0.0011552225251640757 0.020163726634134238 0 -0.00098203471933901989 0.020367366356707696 0 -0.0011006828104542362 0.020512690884597309 0 -0.0011832625580049795 0.020356475983057593 0 -0.00098203471933901989 0.020367366356707696 0 -0.0011832625580049795 0.020356475983057593 0 -0.0011552225251640757 0.020163726634134238 0 -0.001373881792185941 0.02031663186659027 0 -0.0012352490169782709 0.020081038959646219 0 -0.0012990561166797306 0.020022100153475032 0 -0.001373881792185941 0.02031663186659027 0 -0.0011552225251640757 0.020163726634134238 0 -0.0012352490169782709 0.020081038959646219 0 -0.00023891271754436462 0.027510477864867423 0 -0.00011347054529211686 0.024770661395454058 0 -0.0012990561166797306 0.020022100153475032 0 -0.0012454673961371063 0.019991318769270669 0 -0.00121256417971047 0.01997528331243667 0 -0.0012352490169782709 0.020081038959646219 0 -0.0012990561166797306 0.020022100153475032 0 -0.0012454673961371063 0.019991318769270669 0 -0.0011552225251640757 0.020163726634134238 0 -0.0012352490169782709 0.020081038959646219 0 -0.0011242687789599025 0.0199626309634152 0 -0.0010226071152024359 0.020057475688377523 0 -0.0011552225251640757 0.020163726634134238 0 -0.0011242687789599025 0.0199626309634152 0 -0.0012454673961371063 0.019991318769270669 0 -0.0011242687789599025 0.0199626309634152 0 -0.0011061032462065805 0.019875175857542098 0 -0.0012352490169782709 0.020081038959646219 0 -0.0012454673961371063 0.019991318769270669 0 -0.0011242687789599025 0.0199626309634152 0 -0.0012454673961371063 0.019991318769270669 0 -0.0011061032462065805 0.019875175857542098 0 -0.0011113343895574328 0.019741625926844558 0 -0.0011602031201444307 0.019841127519980427 0 -0.0011013723615623239 0.019765153961744795 0 -0.0012454673961371063 0.019991318769270669 0 -0.001138056772116412 0.019976506582971211 0 -0.0010991089423975924 0.019988836386546652 0 -0.0011878435189576215 0.01995613965187976 0 -0.001138056772116412 0.019976506582971211 0 -0.00121256417971047 0.01997528331243667 0 -0.0012124157243717597 0.019951149764565228 0 -0.0012990561166797306 0.020022100153475032 0 -0.00121256417971047 0.01997528331243667 0 -0.0012454673961371063 0.019991318769270669 0 -0.001138056772116412 0.019976506582971211 0 -0.00121256417971047 0.01997528331243667 0 -7.2824626343673263e-05 0.023470631984978996 0 -0.00011347054529211686 0.024770661395454058 0 -0.0012124157243717597 0.019951149764565228 0 -0.0011878435189576215 0.01995613965187976 0 -0.00121256417971047 0.01997528331243667 0 0.0012197264437134694 0.026964437352144131 0 0.0010687258330416866 0.02885705275424998 0 0.00025353358192439904 0.027872823261451792 0 0.0001362202929914883 0.026994561120026319 0 0.0012197264437134694 0.026964437352144131 0 0.00025353358192439904 0.027872823261451792 0 0.0001362202929914883 0.026994561120026319 0 0.00025353358192439904 0.027872823261451792 0 -0.00051849636741396722 0.027528817163527671 0 0.00025353358192439904 0.027872823261451792 0 -0.00051849636741396722 0.027528817163527671 0 -0.00092549168907507745 0.028331950792997412 0 -0.00090527384296025656 0.026905618063879068 0 -0.00051849636741396722 0.027528817163527671 0 -0.0012482947572092452 0.027717827839830362 0 -0.00051849636741396722 0.027528817163527671 0 -0.00092549168907507745 0.028331950792997412 0 -0.0012482947572092452 0.027717827839830362 0 0.00025353358192439904 0.027872823261451792 0 -0.00092549168907507745 0.028331950792997412 0 0.00010671776601089697 0.028645232857527791 0 -0.0010163706415571357 0.029362294456533922 0 -8.7860566494998293e-05 0.029585622178609543 0 -0.00092549168907507745 0.028331950792997412 0 2.0271554276399328e-05 0.029512266054534442 0 -0.00092549168907507745 0.028331950792997412 0 0.00010671776601089697 0.028645232857527791 0 0.00011567985672602415 0.028675924864820224 0 -0.00012536295542134345 0.028556987547785278 0 2.0271554276399328e-05 0.029512266054534442 0 0.0010687258330416866 0.02885705275424998 0 0.00010671776601089697 0.028645232857527791 0 0.0010687258330416866 0.02885705275424998 0 0.00025353358192439904 0.027872823261451792 0 0.00010671776601089697 0.028645232857527791 0 0.00020138790632800624 0.034672957239406499 0 0.00021261401369313153 0.034673848018863973 0 0.0002053473291073275 0.034672579252917057 0 -0.0010163706415571357 0.029362294456533922 0 -0.00092549168907507745 0.028331950792997412 0 -0.002199540378262027 0.028716573605815646 0 0.00010085768539462693 0.030088444727101465 0 1.9679131358155167e-05 0.03225828002787156 0 -0.0016765428357847728 0.027090044028658868 0 -0.002199540378262027 0.028716573605815646 0 -0.0012482947572092452 0.027717827839830362 0 -0.00092549168907507745 0.028331950792997412 0 -0.002199540378262027 0.028716573605815646 0 -0.0012482947572092452 0.027717827839830362 0 -0.0016765428357847728 0.027090044028658868 0 -0.00090527384296025656 0.026905618063879068 0 -0.0012482947572092452 0.027717827839830362 0 0.00045221834914443954 0.03321135313149725 0 1.9679131358155167e-05 0.03225828002787156 0 0.00096416203537128215 0.032078754026790342 0 0.00077521907348557272 0.032079076843016363 0 0.00085746434025467974 0.031813358834441273 0 0.00021187916186717157 0.034676701445984101 0 0.00020138790632800624 0.034672957239406499 0 0.00021261401369313153 0.034673848018863973 0 0.00022197021840766578 0.034677913695715726 0 0.00021187916186717157 0.034676701445984101 0 0.00021261401369313153 0.034673848018863973 0 0.00022197021840766578 0.034677913695715726 0 0.00021261401369313153 0.034673848018863973 0 0.0002234682189745278 0.034668917105920842 0 0.00022197021840766578 0.034677913695715726 0 0.0002234682189745278 0.034668917105920842 0 0.00022952803460192075 0.034657044377635296 0 0.00026229989188687752 0.034418189778775428 0 0.00015968157869538735 0.034718347704838171 0 0.00022642073035728812 0.034671465951520625 0 0.00024706082468981997 0.034674112127018035 0 0.00022952803460192075 0.034657044377635296 0 0.0002234682189745278 0.034668917105920842 0 0.00022642073035728812 0.034671465951520625 0 0.00022952803460192075 0.034657044377635296 0 0.00021261401369313153 0.034673848018863973 0 0.00022642073035728812 0.034671465951520625 0 0.0002053473291073275 0.034672579252917057 0 0.00021261401369313153 0.034673848018863973 0 0.0002234682189745278 0.034668917105920842 0 0.00022642073035728812 0.034671465951520625 0 0.0002053473291073275 0.034672579252917057 0 0.00022806808721446118 0.034661716814498519 0 0.00016855660405239438 0.034660333344226732 0 0.00022642073035728812 0.034671465951520625 0 0.0002053473291073275 0.034672579252917057 0 0.00022806808721446118 0.034661716814498519 0 0.00022642073035728812 0.034671465951520625 0 0.00022806808721446118 0.034661716814498519 0 0.00024706082468981997 0.034674112127018035 0 0.00022806808721446118 0.034661716814498519 0 0.00024706082468981997 0.034674112127018035 0 0.00028993226190200769 0.034657305620040081 0 0.00022806808721446118 0.034661716814498519 0 0.00021449506869682358 0.034604172626351903 0 0.00016855660405239438 0.034660333344226732 0 0.00022806808721446118 0.034661716814498519 0 0.00021449506869682358 0.034604172626351903 0 0.00028993226190200769 0.034657305620040081 0 0.00015055730801759093 0.034282739566196666 0 0.00017974222424341961 0.034320703802737391 0 0.00017264408409814352 0.03435682368698801 0 0.00015055730801759093 0.034282739566196666 0 0.00017781280609190867 0.034309454490945586 0 0.00017974222424341961 0.034320703802737391 0 0.00017103837803338241 0.034224840711181294 0 0.00015055730801759093 0.034282739566196666 0 0.00018783656696879758 0.034277808101321881 0 0.00020138790632800624 0.034672957239406499 0 0.0002053473291073275 0.034672579252917057 0 0.00016855660405239438 0.034660333344226732 0 1.9679131358155167e-05 0.03225828002787156 0 -0.00011831885309053246 0.034032700488555029 0 1.9679131358155167e-05 0.03225828002787156 0 -0.00031729084379848358 0.032258333988217251 0 -0.0010163706415571357 0.029362294456533922 0 -0.002199540378262027 0.028716573605815646 0 -0.0016575946337850922 0.030115215939218207 0 -0.0011205872176291755 0.031412895879267648 0 -0.00086260043227586564 0.030703784752630896 0 -0.0016575946337850922 0.030115215939218207 0 -0.00030786040713942181 0.032704001517582369 0 -0.00031729084379848358 0.032258333988217251 0 0.00015055730801759093 0.034282739566196666 0 0.00018783656696879758 0.034277808101321881 0 0.00017781280609190867 0.034309454490945586 0 0.00015639609410156362 0.034323164570980141 0 0.00018783656696879758 0.034277808101321881 0 0.00017781280609190867 0.034309454490945586 0 0.00015639609410156362 0.034323164570980141 0 0.00017781280609190867 0.034309454490945586 0 0.0001853572396341543 0.03429712674746218 0 0.00015639609410156362 0.034323164570980141 0 0.0001853572396341543 0.03429712674746218 0 0.00016388915576387878 0.034166168348155924 0 0.0001853572396341543 0.03429712674746218 0 0.00016388915576387878 0.034166168348155924 0 0.00015778886508024099 0.034415556846983109 0 0.00017781280609190867 0.034309454490945586 0 0.0001853572396341543 0.03429712674746218 0 0.00017974222424341961 0.034320703802737391 0 0.00015055730801759093 0.034282739566196666 0 0.00017264408409814352 0.03435682368698801 0 0.00016485798094581625 0.034444444754637468 0 -0.00011831885309053246 0.034032700488555029 0 -7.5975156196405978e-05 0.034259917489835437 0 0.0001853572396341543 0.03429712674746218 0 0.00017264408409814352 0.03435682368698801 0 0.00015778886508024099 0.034415556846983109 0 0.0001853572396341543 0.03429712674746218 0 0.00017974222424341961 0.034320703802737391 0 0.00017264408409814352 0.03435682368698801 0 0.00017264408409814352 0.03435682368698801 0 0.00015778886508024099 0.034415556846983109 0 0.00016485798094581625 0.034444444754637468 0 0.00058099338101877027 0.033924177310748239 0 0.00039856151059206903 0.033910811985537158 0 0.00050326090351475808 0.03375707775064242 0 0.00032363043064010283 0.033840278809765638 0 0.00039856151059206903 0.033910811985537158 0 0.00050326090351475808 0.03375707775064242 0 0.00058099338101877027 0.033924177310748239 0 0.00050326090351475808 0.03375707775064242 0 0.00067353303074266897 0.033762630503153215 0 0.00022110758792327146 0.03422001264210478 0 0.00035069952606166867 0.034204003578707509 0 0.00016388915576387878 0.034166168348155924 0 0.00058099338101877027 0.033924177310748239 0 0.00039856151059206903 0.033910811985537158 0 0.00016388915576387878 0.034166168348155924 0 0.00032363043064010283 0.033840278809765638 0 0.00017314213270352063 0.033919181567239477 0 0.00016388915576387878 0.034166168348155924 0 0.00032363043064010283 0.033840278809765638 0 0.00039856151059206903 0.033910811985537158 0 0.00032363043064010283 0.033840278809765638 0 0.00017314213270352063 0.033919181567239477 0 0.00019071418373477534 0.033716894498310522 0 0.00032363043064010283 0.033840278809765638 0 0.00019071418373477534 0.033716894498310522 0 0.00031775090792463239 0.033578867217487658 0 0.00032363043064010283 0.033840278809765638 0 0.00031775090792463239 0.033578867217487658 0 0.00050326090351475808 0.03375707775064242 0 0.00014405460042969418 0.033490949758844119 0 0.00019071418373477534 0.033716894498310522 0 0.00031775090792463239 0.033578867217487658 0 0.00050326090351475808 0.03375707775064242 0 0.00047890234414385335 0.033545083329084943 0 0.00062642859304233578 0.033614654531607668 0 0.00031775090792463239 0.033578867217487658 0 0.00050326090351475808 0.03375707775064242 0 0.00047890234414385335 0.033545083329084943 0 0.00047890234414385335 0.033545083329084943 0 0.00036685286138329339 0.033408402834105587 0 0.00058316978782181324 0.033394727257767515 0 0.00047890234414385335 0.033545083329084943 0 0.00062642859304233578 0.033614654531607668 0 0.00058316978782181324 0.033394727257767515 0 0.00018130462558936007 0.033390033189201015 0 0.00031775090792463239 0.033578867217487658 0 0.00036685286138329339 0.033408402834105587 0 0.00031775090792463239 0.033578867217487658 0 0.00047890234414385335 0.033545083329084943 0 0.00036685286138329339 0.033408402834105587 0 0.00014405460042969418 0.033490949758844119 0 0.00018130462558936007 0.033390033189201015 0 0.00031775090792463239 0.033578867217487658 0 0.00076515896608754042 0.033495597746101662 0 0.00097200999570545106 0.033567301618158144 0 0.00088956042818130396 0.033309983607606689 0 0.00076515896608754042 0.033495597746101662 0 0.00077818720763919973 0.033664737198637745 0 0.00097200999570545106 0.033567301618158144 0 0.00076515896608754042 0.033495597746101662 0 0.00062642859304233578 0.033614654531607668 0 0.00058316978782181324 0.033394727257767515 0 0.00076515896608754042 0.033495597746101662 0 0.00062642859304233578 0.033614654531607668 0 0.00077818720763919973 0.033664737198637745 0 0.00067353303074266897 0.033762630503153215 0 0.00077818720763919973 0.033664737198637745 0 0.00087263320602181033 0.033805204300847984 0 0.00062642859304233578 0.033614654531607668 0 0.00067353303074266897 0.033762630503153215 0 0.00077818720763919973 0.033664737198637745 0 0.00050326090351475808 0.03375707775064242 0 0.00062642859304233578 0.033614654531607668 0 0.00067353303074266897 0.033762630503153215 0 0.00077818720763919973 0.033664737198637745 0 0.00087263320602181033 0.033805204300847984 0 0.00097200999570545106 0.033567301618158144 0 0.00028856768565117911 0.034409210728847152 0 0.00025904870424644036 0.034519320726829623 0 0.00039849972255222874 0.034451953415335065 0 0.00035069952606166867 0.034204003578707509 0 0.00056386237564317319 0.034195241971617836 0 0.00058099338101877027 0.033924177310748239 0 0.00067353303074266897 0.033762630503153215 0 0.00087263320602181033 0.033805204300847984 0 0.00028856768565117911 0.034409210728847152 0 0.00016485798094581625 0.034444444754637468 0 0.00025904870424644036 0.034519320726829623 0 0.00015778886508024099 0.034415556846983109 0 0.00028856768565117911 0.034409210728847152 0 0.00016485798094581625 0.034444444754637468 0 0.00021449506869682358 0.034604172626351903 0 0.00016855660405239438 0.034660333344226732 0 0.00016485798094581625 0.034444444754637468 0 0.00021449506869682358 0.034604172626351903 0 0.00016485798094581625 0.034444444754637468 0 0.00025904870424644036 0.034519320726829623 0 0.00021449506869682358 0.034604172626351903 0 0.00025904870424644036 0.034519320726829623 0 0.00028993226190200769 0.034657305620040081 0 0.00025904870424644036 0.034519320726829623 0 0.00028993226190200769 0.034657305620040081 0 0.00039849972255222874 0.034451953415335065 0 0.00028993226190200769 0.034657305620040081 0 0.00019180176068433189 0.034890847206773136 0 0.00021236238343756383 0.034747624722099503 0 0.00028512385284911948 0.034737698746773481 0 0.00029396114137634035 0.03474448705254813 0 0.00028993226190200769 0.034657305620040081 0 0.00047483419361930867 0.03455338336420781 0 0.00039849972255222874 0.034451953415335065 0 0.00019180176068433189 0.034890847206773136 0 4.8773404794903023e-05 0.035002559716222258 0 2.3321535517737094e-05 0.034955621890646403 0 0.00019180176068433189 0.034890847206773136 0 2.3321535517737094e-05 0.034955621890646403 0 0.00021236238343756383 0.034747624722099503 0 0.00051339924099377539 0.034417436117903044 0 0.00057919777331274245 0.034391823054383243 0 0.00063721749797760049 0.034463034832407903 0 0.00029396114137634035 0.03474448705254813 0 0.00027507270499321903 0.034771752475697026 0 0.00047483419361930867 0.03455338336420781 0 0.00051339924099377539 0.034417436117903044 0 0.00063721749797760049 0.034463034832407903 0 0.00051339924099377539 0.034417436117903044 0 0.00057919777331274245 0.034391823054383243 0 0.0005208702552471395 0.034353246452640172 0 0.00028856768565117911 0.034409210728847152 0 0.00039849972255222874 0.034451953415335065 0 0.00051943245937486465 0.034346260730071528 0 0.00047483419361930867 0.03455338336420781 0 0.00051339924099377539 0.034417436117903044 0 0.00039849972255222874 0.034451953415335065 0 0.00051339924099377539 0.034417436117903044 0 0.00039849972255222874 0.034451953415335065 0 0.00051943245937486465 0.034346260730071528 0 0.00056386237564317319 0.034195241971617836 0 0.00061105835418762339 0.034290975920864802 0 0.00087263320602181033 0.033805204300847984 0 0.0011771984304844278 0.033720534922672553 0 0.00097200999570545106 0.033567301618158144 0 0.00060754038663885282 0.034302759909882602 0 0.00061105835418762339 0.034290975920864802 0 0.00057919777331274245 0.034391823054383243 0 0.0005208702552471395 0.034353246452640172 0 0.00064066971240557633 0.03436577036013428 0 0.00061105835418762339 0.034290975920864802 0 0.00057065310426382572 0.034212610022589983 0 1.1437260968960716e-05 0.03498266087662457 0 7.5579012561980884e-06 0.034994895868286441 0 4.2693268827033345e-06 0.034989031823743764 0 7.5579012561980884e-06 0.034994895868286441 0 2.0399444509778333e-06 0.034996460757077616 0 4.2693268827033345e-06 0.034989031823743764 0 0.0012009358833027428 0.033454955606293843 0 0.00097200999570545106 0.033567301618158144 0 0.0010758529047478688 0.033315387801428988 0 0.0011771984304844278 0.033720534922672553 0 0.0012009358833027428 0.033454955606293843 0 0.00097200999570545106 0.033567301618158144 0 5.1873776022158993e-07 0.03499924260675543 0 5.4621683091114931e-10 0.034999996891751914 0 3.445948272209184e-07 0.034999572083296106 0 5.1873776022158993e-07 0.03499924260675543 0 8.1989298589297034e-07 0.034998395640779924 0 5.0188717434281697e-07 0.034999086603317013 0 5.1873776022158993e-07 0.03499924260675543 0 5.4621683091114931e-10 0.034999996891751914 0 8.1989298589297034e-07 0.034998395640779924 0 0.00015152607698625195 0.034860141134045515 0 0.00016207189369059187 0.034834872527606767 0 2.0399444509778333e-06 0.034996460757077616 0 -3.1020582226769426e-06 0.034988513863891992 0 4.2693268827033345e-06 0.034989031823743764 0 8.1989298589297034e-07 0.034998395640779924 0 2.0399444509778333e-06 0.034996460757077616 0 5.0188717434281697e-07 0.034999086603317013 0 1.1437260968960716e-05 0.03498266087662457 0 4.2693268827033345e-06 0.034989031823743764 0 -4.0110872442760907e-06 0.034987156655411321 0 0.00061105835418762339 0.034290975920864802 0 0.00016633707951906214 0.034824058177552207 0 0.0005208702552471395 0.034353246452640172 0 0.00064066971240557633 0.03436577036013428 0 0.00073519886345402416 0.034298765230407639 0 -3.1020582226769426e-06 0.034988513863891992 0 4.2693268827033345e-06 0.034989031823743764 0 -4.0110872442760907e-06 0.034987156655411321 0 0.00057919777331274245 0.034391823054383243 0 0.00064066971240557633 0.03436577036013428 0 0.00064671162842523092 0.034401481518203915 0 0.00064066971240557633 0.03436577036013428 0 0.00071107048464406171 0.034378095076285087 0 0.00064671162842523092 0.034401481518203915 0 0.00064066971240557633 0.03436577036013428 0 0.00071107048464406171 0.034378095076285087 0 0.00073519886345402416 0.034298765230407639 0 0.00016633707951906214 0.034824058177552207 0 8.2789086786560587e-05 0.034889319062578042 0 4.2334752838539784e-07 0.034999304059410846 0 3.445948272209184e-07 0.034999572083296106 0 2.487833794478177e-07 0.034999782642181405 0 0.00071107048464406171 0.034378095076285087 0 0.00073519886345402416 0.034298765230407639 0 0.00079161532754330093 0.034383764873652307 0 5.4621683091114931e-10 0.034999996891751914 0 3.445948272209184e-07 0.034999572083296106 0 8.509337865743228e-10 0.034999999282098328 0 5.0188717434281697e-07 0.034999086603317013 0 4.2334752838539784e-07 0.034999304059410846 0 3.445948272209184e-07 0.034999572083296106 0 5.1873776022158993e-07 0.03499924260675543 0 5.0188717434281697e-07 0.034999086603317013 0 3.445948272209184e-07 0.034999572083296106 0 0.00016207189369059187 0.034834872527606767 0 0.00016633707951906214 0.034824058177552207 0 3.445948272209184e-07 0.034999572083296106 0 2.487833794478177e-07 0.034999782642181405 0 8.509337865743228e-10 0.034999999282098328 0 8.2789086786560587e-05 0.034889319062578042 0 1.8218231344644519e-07 0.034999433698232059 0 2.6782215517044916e-08 0.03499992309132003 0 -5.1782412993293218e-11 0.034999999705353307 0 8.5813956653444025e-11 0.03500000001788308 0 1.1660626126302668e-05 0.035017765456863033 0 2.1358113153609205e-08 0.034999898091566055 0 4.8773404794903023e-05 0.035002559716222258 0 8.2789086786560587e-05 0.034889319062578042 0 4.093654559264597e-07 0.034999615692153034 0 2.1358113153609205e-08 0.034999898091566055 0 4.8773404794903023e-05 0.035002559716222258 0 2.3321535517737094e-05 0.034955621890646403 0 8.2789086786560587e-05 0.034889319062578042 0 0.00027507270499321903 0.034771752475697026 0 0.00071107048464406171 0.034378095076285087 0 0.00079161532754330093 0.034383764873652307 0 0.00063721749797760049 0.034463034832407903 0 0.00057919777331274245 0.034391823054383243 0 0.00064671162842523092 0.034401481518203915 0 0.00063721749797760049 0.034463034832407903 0 0.00071107048464406171 0.034378095076285087 0 0.00064671162842523092 0.034401481518203915 0 0.00063721749797760049 0.034463034832407903 0 2.1358113153609205e-08 0.034999898091566055 0 2.3321535517737094e-05 0.034955621890646403 0 7.4611875481002482e-09 0.034999913874335015 0 2.3321535517737094e-05 0.034955621890646403 0 2.2643847451654759e-05 0.034998721476640932 0 7.4611875481002482e-09 0.034999913874335015 0 6.5707858325385403e-05 0.034878978841509957 0 0.00010093458761339809 0.034825914209466048 0 2.3321535517737094e-05 0.034955621890646403 0 0.00021236238343756383 0.034747624722099503 0 0.00016317142704866042 0.034674641322879722 0 0.00024706082468981997 0.034674112127018035 0 0.00028993226190200769 0.034657305620040081 0 0.00021236238343756383 0.034747624722099503 0 0.00024706082468981997 0.034674112127018035 0 0.00021236238343756383 0.034747624722099503 0 0.00016317142704866042 0.034674641322879722 0 0.00010093458761339809 0.034825914209466048 0 0.00015968157869538735 0.034718347704838171 0 0.00024706082468981997 0.034674112127018035 0 0.00016317142704866042 0.034674641322879722 0 0.00022952803460192075 0.034657044377635296 0 2.2643847451654759e-05 0.034998721476640932 0 2.4689147210654884e-05 0.034994557065547431 0 0.00015037099560249624 0.035044238800790127 0 0.00020967967450158156 0.03467502158317394 0 0.00015037099560249624 0.035044238800790127 0 2.652673824373502e-05 0.034910524854490116 0 0.00020967967450158156 0.03467502158317394 0 0.00053982367993966808 0.034737168373358433 0 0.00015037099560249624 0.035044238800790127 0 2.4689147210654884e-05 0.034994557065547431 0 0.00015037099560249624 0.035044238800790127 0 2.652673824373502e-05 0.034910524854490116 0 2.4689147210654884e-05 0.034994557065547431 0 2.652673824373502e-05 0.034910524854490116 0 1.8740713875440397e-05 0.034965205779787928 0 2.2643847451654759e-05 0.034998721476640932 0 2.4689147210654884e-05 0.034994557065547431 0 7.4611875481002482e-09 0.034999913874335015 0 2.9948492001052778e-05 0.034974989761612035 0 1.8740713875440397e-05 0.034965205779787928 0 7.4611875481002482e-09 0.034999913874335015 0 2.4689147210654884e-05 0.034994557065547431 0 1.8740713875440397e-05 0.034965205779787928 0 7.4611875481002482e-09 0.034999913874335015 0 -7.5425664649948655e-06 0.034991914655369938 0 -4.7631034448553597e-06 0.034996774015060884 0 -5.8566544116929069e-06 0.034999445218701922 0 6.0074660209919254e-05 0.034855251564189726 0 7.344776688370063e-05 0.034783154055668362 0 -4.0629107065822159e-06 0.034994850450688487 0 -2.4351028523279643e-06 0.034997040141370339 0 -2.1123451332220376e-06 0.034993133676423843 0 -2.4351028523279643e-06 0.034997040141370339 0 1.4055725209666625e-07 0.034996708309535135 0 -2.1123451332220376e-06 0.034993133676423843 0 -4.0629107065822159e-06 0.034994850450688487 0 -7.5425664649948655e-06 0.034991914655369938 0 -4.7631034448553597e-06 0.034996774015060884 0 -4.0629107065822159e-06 0.034994850450688487 0 -7.5425664649948655e-06 0.034991914655369938 0 -2.1123451332220376e-06 0.034993133676423843 0 -4.7631034448553597e-06 0.034996774015060884 0 -3.6786376207188382e-06 0.034999036393569438 0 -5.8566544116929069e-06 0.034999445218701922 0 -4.7631034448553597e-06 0.034996774015060884 0 -2.4351028523279643e-06 0.034997040141370339 0 -3.6786376207188382e-06 0.034999036393569438 0 -4.0629107065822159e-06 0.034994850450688487 0 -4.7631034448553597e-06 0.034996774015060884 0 -2.4351028523279643e-06 0.034997040141370339 0 -2.4351028523279643e-06 0.034997040141370339 0 -2.1003082909768507e-06 0.034998950282227999 0 -3.6786376207188382e-06 0.034999036393569438 0 -2.4351028523279643e-06 0.034997040141370339 0 -2.1003082909768507e-06 0.034998950282227999 0 -9.8845390439536662e-07 0.034998057968040813 0 -2.1003082909768507e-06 0.034998950282227999 0 -9.8845390439536662e-07 0.034998057968040813 0 -5.8756404831622344e-08 0.03499936683630351 0 -2.4351028523279643e-06 0.034997040141370339 0 -9.8845390439536662e-07 0.034998057968040813 0 1.4055725209666625e-07 0.034996708309535135 0 -9.8845390439536662e-07 0.034998057968040813 0 -5.8756404831622344e-08 0.03499936683630351 0 1.4055725209666625e-07 0.034996708309535135 0 3.2878366223329402e-10 0.034999999877818058 0 1.4055725209666625e-07 0.034996708309535135 0 2.6823554387152162e-09 0.034999975819712495 0 3.2878366223329402e-10 0.034999999877818058 0 -5.8756404831622344e-08 0.03499936683630351 0 1.4055725209666625e-07 0.034996708309535135 0 1.4055725209666625e-07 0.034996708309535135 0 2.6823554387152162e-09 0.034999975819712495 0 -1.4866305597178616e-07 0.034992302121781553 0 1.4055725209666625e-07 0.034996708309535135 0 -1.4866305597178616e-07 0.034992302121781553 0 -2.1123451332220376e-06 0.034993133676423843 0 -1.4866305597178616e-07 0.034992302121781553 0 -2.9182096698348214e-06 0.034985964226950807 0 3.1643560665755542e-07 0.034983332639236912 0 -2.9182096698348214e-06 0.034985964226950807 0 -6.1966332351862402e-06 0.034992937192878222 0 -7.9700105933335545e-06 0.034967120605185205 0 -1.4866305597178616e-07 0.034992302121781553 0 -2.1123451332220376e-06 0.034993133676423843 0 -2.9182096698348214e-06 0.034985964226950807 0 -7.5425664649948655e-06 0.034991914655369938 0 -2.1123451332220376e-06 0.034993133676423843 0 -2.9182096698348214e-06 0.034985964226950807 0 -7.5425664649948655e-06 0.034991914655369938 0 -2.9182096698348214e-06 0.034985964226950807 0 -6.1966332351862402e-06 0.034992937192878222 0 -7.6204987023423947e-07 0.03494691872056286 0 -1.6430990121318949e-05 0.03491539106029435 0 -7.9700105933335545e-06 0.034967120605185205 0 0.00010522557214205552 0.034880039176762655 0 8.3660758987371184e-05 0.034920273561662996 0 -7.6204987023423947e-07 0.03494691872056286 0 -3.1631284623174734e-06 0.03492446181974862 0 3.9329461233537978e-06 0.034925332984187402 0 -3.1631284623174734e-06 0.03492446181974862 0 3.9329461233537978e-06 0.034925332984187402 0 -8.0923652806652148e-07 0.034911592097109333 0 -3.1631284623174734e-06 0.03492446181974862 0 -1.6430990121318949e-05 0.03491539106029435 0 -8.0923652806652148e-07 0.034911592097109333 0 -7.6204987023423947e-07 0.03494691872056286 0 -3.1631284623174734e-06 0.03492446181974862 0 -1.6430990121318949e-05 0.03491539106029435 0 -7.6204987023423947e-07 0.03494691872056286 0 3.9329461233537978e-06 0.034925332984187402 0 1.1161086900613154e-05 0.03493330166733298 0 3.9329461233537978e-06 0.034925332984187402 0 1.3475572205931746e-05 0.034912002734127784 0 6.3734342950909419e-06 0.034912609725734241 0 3.9329461233537978e-06 0.034925332984187402 0 6.3734342950909419e-06 0.034912609725734241 0 -8.0923652806652148e-07 0.034911592097109333 0 1.3475572205931746e-05 0.034912002734127784 0 2.1386530355358346e-05 0.034912354362034076 0 1.1161086900613154e-05 0.03493330166733298 0 3.9329461233537978e-06 0.034925332984187402 0 1.3475572205931746e-05 0.034912002734127784 0 1.1161086900613154e-05 0.03493330166733298 0 1.3475572205931746e-05 0.034912002734127784 0 7.6935620564962113e-06 0.034902143310588767 0 1.5655640864815011e-05 0.034898709235406229 0 7.6935620564962113e-06 0.034902143310588767 0 -8.0923652806652148e-07 0.034911592097109333 0 -1.0644618453050321e-06 0.034897926086841641 0 1.3475572205931746e-05 0.034912002734127784 0 6.3734342950909419e-06 0.034912609725734241 0 7.6935620564962113e-06 0.034902143310588767 0 6.3734342950909419e-06 0.034912609725734241 0 7.6935620564962113e-06 0.034902143310588767 0 -8.0923652806652148e-07 0.034911592097109333 0 7.6935620564962113e-06 0.034902143310588767 0 -1.0644618453050321e-06 0.034897926086841641 0 8.5421312574711266e-06 0.03489034421542031 0 1.5655640864815011e-05 0.034898709235406229 0 8.5421312574711266e-06 0.03489034421542031 0 1.9670247944184525e-05 0.03488754673263661 0 7.6935620564962113e-06 0.034902143310588767 0 1.5655640864815011e-05 0.034898709235406229 0 8.5421312574711266e-06 0.03489034421542031 0 -6.1966332351862402e-06 0.034992937192878222 0 5.4501707845258862e-06 0.034959640160604634 0 -9.185194296695416e-06 0.034966426062410766 0 -7.5425664649948655e-06 0.034991914655369938 0 -6.1966332351862402e-06 0.034992937192878222 0 -9.185194296695416e-06 0.034966426062410766 0 0.00010522557214205552 0.034880039176762655 0 0.00018496741761748312 0.034701277580708838 0 -1.6430990121318949e-05 0.03491539106029435 0 -1.0644618453050321e-06 0.034897926086841641 0 -9.1083134705060781e-06 0.034886153020611099 0 -1.6430990121318949e-05 0.03491539106029435 0 -8.0923652806652148e-07 0.034911592097109333 0 -1.0644618453050321e-06 0.034897926086841641 0 -9.1083134705060781e-06 0.034886153020611099 0 7.14499077460917e-06 0.034877768201570979 0 -3.4416810622921875e-06 0.034864944936382848 0 0.00018496741761748312 0.034701277580708838 0 0.00038307670357193681 0.034106451838693347 0 5.4501707845258862e-06 0.034959640160604634 0 -7.0731755030043293e-06 0.034928441713951951 0 -9.185194296695416e-06 0.034966426062410766 0 -1.0644618453050321e-06 0.034897926086841641 0 -9.1083134705060781e-06 0.034886153020611099 0 1.5017197025047495e-06 0.034887831325768864 0 -9.1083134705060781e-06 0.034886153020611099 0 1.5017197025047495e-06 0.034887831325768864 0 7.14499077460917e-06 0.034877768201570979 0 8.5421312574711266e-06 0.03489034421542031 0 7.14499077460917e-06 0.034877768201570979 0 1.9670247944184525e-05 0.03488754673263661 0 -1.0644618453050321e-06 0.034897926086841641 0 1.5017197025047495e-06 0.034887831325768864 0 8.5421312574711266e-06 0.03489034421542031 0 1.5017197025047495e-06 0.034887831325768864 0 8.5421312574711266e-06 0.03489034421542031 0 7.14499077460917e-06 0.034877768201570979 0 0.00044976556857760934 0.033991478587271244 0 0.00041791646807861949 0.03373143504284791 0 0.0011642071232836457 0.032647486852822205 0 0.00097980590699842432 0.032787524833899268 0 0.00087872305524876377 0.032637731732585412 0 7.14499077460917e-06 0.034877768201570979 0 -1.3420261375633922e-06 0.034863524850624293 0 2.2901373771787006e-05 0.034866452667062703 0 5.4501707845258862e-06 0.034959640160604634 0 -7.0731755030043293e-06 0.034928441713951951 0 1.4368695183502095e-05 0.034911636510933132 0 0.00012196482644426442 0.034496560470065482 0 0.00038307670357193681 0.034106451838693347 0 0.00012196482644426442 0.034496560470065482 0 0.00018463575831396872 0.034304492612858645 0 7.14499077460917e-06 0.034877768201570979 0 -3.4416810622921875e-06 0.034864944936382848 0 -1.3420261375633922e-06 0.034863524850624293 0 0.00038307670357193681 0.034106451838693347 0 0.00044976556857760934 0.033991478587271244 0 0.00077684250859235153 0.033520901812494341 0 0.0006803236396619491 0.034153545199408553 0 -3.2478223607871026e-05 0.034142215310596712 0 0.00038307670357193681 0.034106451838693347 0 0.00041401957112891771 0.034022127948857915 0 0.00041401957112891771 0.034022127948857915 0 0.00044976556857760934 0.033991478587271244 0 0.00033374228667306852 0.033976670686843867 0 -8.8238586671174333e-05 0.034300515205807236 0 0.00029512974624954218 0.034379361584573845 0 0.00041401957112891771 0.034022127948857915 0 0.00018463575831396872 0.034304492612858645 0 -8.8238586671174333e-05 0.034300515205807236 0 -9.9272489653096384e-05 0.034372956467176197 0 0.00029512974624954218 0.034379361584573845 0 1.5198994260731859e-06 0.034998770054360397 0 1.0332056751449094e-06 0.034999578397985905 0 1.3767697760251403e-06 0.034999219773818632 0 0.00018463575831396872 0.034304492612858645 0 6.289243719306824e-05 0.034686485340031083 0 4.5831142342617722e-07 0.034998215120302816 0 1.2631382644853016e-07 0.034999057558136405 0 1.8348322145578571e-07 0.03499895706529578 0 4.2487285908094889e-07 0.034998543745763229 0 4.5831142342617722e-07 0.034998215120302816 0 1.8348322145578571e-07 0.03499895706529578 0 0.00012196482644426442 0.034496560470065482 0 7.344776688370063e-05 0.034783154055668362 0 0.00012196482644426442 0.034496560470065482 0 -8.7996147251053374e-06 0.034690111851418501 0 -5.577871631754291e-06 0.03500194793611517 0 -3.0140321104972652e-06 0.035000707602266923 0 -5.8566544116929069e-06 0.034999445218701922 0 4.2487285908094889e-07 0.034998543745763229 0 1.8348322145578571e-07 0.03499895706529578 0 8.7936005069858505e-08 0.034999222062286783 0 1.8348322145578571e-07 0.03499895706529578 0 8.7936005069858505e-08 0.034999222062286783 0 1.2595344856951794e-08 0.034999668329934445 0 -2.1003082909768507e-06 0.034998950282227999 0 -3.0140321104972652e-06 0.035000707602266923 0 -3.6786376207188382e-06 0.034999036393569438 0 -3.0140321104972652e-06 0.035000707602266923 0 -3.6786376207188382e-06 0.034999036393569438 0 -5.8566544116929069e-06 0.034999445218701922 0 3.2878366223329402e-10 0.034999999877818058 0 1.2595344856951794e-08 0.034999668329934445 0 -1.4037009808405369e-10 0.034999997798952506 0 3.2878366223329402e-10 0.034999999877818058 0 -5.8756404831622344e-08 0.03499936683630351 0 1.2595344856951794e-08 0.034999668329934445 0 -5.8756404831622344e-08 0.03499936683630351 0 8.7936005069858505e-08 0.034999222062286783 0 1.2595344856951794e-08 0.034999668329934445 0 -3.9578254941908262e-05 0.034742847271344642 0 -8.7996147251053374e-06 0.034690111851418501 0 -2.1003082909768507e-06 0.034998950282227999 0 -5.8756404831622344e-08 0.03499936683630351 0 -3.0140321104972652e-06 0.035000707602266923 0 6.289243719306824e-05 0.034686485340031083 0 9.0063600816265676e-08 0.034999081898363003 0 1.2631382644853016e-07 0.034999057558136405 0 1.2595344856951794e-08 0.034999668329934445 0 -1.4037009808405369e-10 0.034999997798952506 0 1.2631382644853016e-07 0.034999057558136405 0 1.8348322145578571e-07 0.03499895706529578 0 1.2595344856951794e-08 0.034999668329934445 0 1.0332056751449094e-06 0.034999578397985905 0 6.8570741420421809e-10 0.035000000047247321 0 8.1484693876726714e-07 0.034999599741162714 0 6.8570741420421809e-10 0.035000000047247321 0 8.1484693876726714e-07 0.034999599741162714 0 8.0594430961823524e-10 0.034999999193068648 0 1.5198994260731859e-06 0.034998770054360397 0 1.3767697760251403e-06 0.034999219773818632 0 1.940081456323885e-06 0.034998788627848477 0 1.0332056751449094e-06 0.034999578397985905 0 8.1484693876726714e-07 0.034999599741162714 0 1.3767697760251403e-06 0.034999219773818632 0 8.1484693876726714e-07 0.034999599741162714 0 1.3767697760251403e-06 0.034999219773818632 0 1.4934027568048626e-06 0.034999298934979849 0 1.3767697760251403e-06 0.034999219773818632 0 1.4934027568048626e-06 0.034999298934979849 0 1.940081456323885e-06 0.034998788627848477 0 8.1484693876726714e-07 0.034999599741162714 0 1.4934027568048626e-06 0.034999298934979849 0 8.6524801685113036e-07 0.034999598908672672 0 1.4934027568048626e-06 0.034999298934979849 0 2.117597729461998e-06 0.034999210024726626 0 1.940081456323885e-06 0.034998788627848477 0 1.4934027568048626e-06 0.034999298934979849 0 2.117597729461998e-06 0.034999210024726626 0 8.6524801685113036e-07 0.034999598908672672 0 8.0594430961823524e-10 0.034999999193068648 0 8.6524801685113036e-07 0.034999598908672672 0 5.2956321146056636e-10 0.034999999000402397 0 8.1484693876726714e-07 0.034999599741162714 0 8.0594430961823524e-10 0.034999999193068648 0 8.6524801685113036e-07 0.034999598908672672 0 8.6524801685113036e-07 0.034999598908672672 0 5.2956321146056636e-10 0.034999999000402397 0 9.871909787480916e-07 0.034998861741307147 0 2.117597729461998e-06 0.034999210024726626 0 9.871909787480916e-07 0.034998861741307147 0 3.8766060048443356e-06 0.034998724429718624 0 2.117597729461998e-06 0.034999210024726626 0 8.6524801685113036e-07 0.034999598908672672 0 9.871909787480916e-07 0.034998861741307147 0 8.1989298589297034e-07 0.034998395640779924 0 2.0399444509778333e-06 0.034996460757077616 0 9.871909787480916e-07 0.034998861741307147 0 2.0399444509778333e-06 0.034996460757077616 0 9.871909787480916e-07 0.034998861741307147 0 3.8766060048443356e-06 0.034998724429718624 0 5.4621683091114931e-10 0.034999996891751914 0 5.2956321146056636e-10 0.034999999000402397 0 9.871909787480916e-07 0.034998861741307147 0 5.4621683091114931e-10 0.034999996891751914 0 8.1989298589297034e-07 0.034998395640779924 0 9.871909787480916e-07 0.034998861741307147 0 0.00097200999570545106 0.033567301618158144 0 0.0010758529047478688 0.033315387801428988 0 0.00088956042818130396 0.033309983607606689 0 0.0010758529047478688 0.033315387801428988 0 0.00099470084295603359 0.033122525140941113 0 0.00088956042818130396 0.033309983607606689 0 0.00057065310426382572 0.034212610022589983 0 0.00051602783619494864 0.034111149091791061 0 0.0012009358833027428 0.033454955606293843 0 0.0010758529047478688 0.033315387801428988 0 0.0012197989536345774 0.033187458020193149 0 7.5579012561980884e-06 0.034994895868286441 0 2.0399444509778333e-06 0.034996460757077616 0 3.8766060048443356e-06 0.034998724429718624 0 0.0010758529047478688 0.033315387801428988 0 0.0012197989536345774 0.033187458020193149 0 0.00099470084295603359 0.033122525140941113 0 0.0012197989536345774 0.033187458020193149 0 0.00099470084295603359 0.033122525140941113 0 0.0011190361386566542 0.033016124270741173 0 0.00099470084295603359 0.033122525140941113 0 0.0010049180989089674 0.032952209954521 0 0.0011190361386566542 0.033016124270741173 0 0.0010049180989089674 0.032952209954521 0 0.0011190361386566542 0.033016124270741173 0 0.0011368546025996506 0.032906591846909986 0 0.0012197989536345774 0.033187458020193149 0 0.0011190361386566542 0.033016124270741173 0 0.0012313604091800684 0.032931667722332414 0 2.117597729461998e-06 0.034999210024726626 0 3.8766060048443356e-06 0.034998724429718624 0 1.940081456323885e-06 0.034998788627848477 0 0.00051602783619494864 0.034111149091791061 0 0.00041099750174148589 0.034066921262600511 0 0.0011190361386566542 0.033016124270741173 0 0.0011368546025996506 0.032906591846909986 0 0.0012313604091800684 0.032931667722332414 0 0.0011699955294482195 0.032677569668257925 0 0.0011512116648353826 0.032677153823644826 0 0.0011368546025996506 0.032906591846909986 0 0.00041401957112891771 0.034022127948857915 0 0.00059765918450975844 0.033410526653557482 0 0.0012463921755015252 0.032710561063125698 0 0.0011368546025996506 0.032906591846909986 0 0.0012313604091800684 0.032931667722332414 0 0.0011671822229838047 0.032709607372107062 0 0.0012463921755015252 0.032710561063125698 0 0.0011368546025996506 0.032906591846909986 0 0.00018463575831396872 0.034304492612858645 0 0.00041099750174148589 0.034066921262600511 0 0.00044976556857760934 0.033991478587271244 0 0.00092852090607433975 0.03335451182746748 0 0.0011512116648353826 0.032677153823644826 0 0.0011368546025996506 0.032906591846909986 0 0.00097371930427708612 0.032810346990280327 0 0.0010049180989089674 0.032952209954521 0 0.0011368546025996506 0.032906591846909986 0 0.00097371930427708612 0.032810346990280327 0 0.00092852090607433975 0.03335451182746748 0 0.00097104470136648085 0.033241478826815524 0 0.00097980590699842432 0.032787524833899268 0 0.00076291908455121784 0.032769388120143114 0 0.00087872305524876377 0.032637731732585412 0 0.00097980590699842432 0.032787524833899268 0 0.00076291908455121784 0.032769388120143114 0 0.00079053526170760533 0.032936996817656501 0 0.00076291908455121784 0.032769388120143114 0 0.00079053526170760533 0.032936996817656501 0 0.00057612425337013511 0.032861515789171888 0 0.00076291908455121784 0.032769388120143114 0 0.00057612425337013511 0.032861515789171888 0 0.00058500503106282851 0.032623139349445135 0 0.00079053526170760533 0.032936996817656501 0 0.00058189991598184829 0.033118135206332118 0 0.00057612425337013511 0.032861515789171888 0 0.0010049180989089674 0.032952209954521 0 0.00097371930427708612 0.032810346990280327 0 0.00079053526170760533 0.032936996817656501 0 0.00099470084295603359 0.033122525140941113 0 0.0010049180989089674 0.032952209954521 0 0.00079053526170760533 0.032936996817656501 0 0.00099470084295603359 0.033122525140941113 0 0.00079053526170760533 0.032936996817656501 0 0.00080048128589585064 0.033140265688134871 0 0.00099470084295603359 0.033122525140941113 0 0.00080048128589585064 0.033140265688134871 0 0.00088956042818130396 0.033309983607606689 0 0.00079053526170760533 0.032936996817656501 0 0.00080048128589585064 0.033140265688134871 0 0.00058189991598184829 0.033118135206332118 0 0.00080048128589585064 0.033140265688134871 0 0.00058189991598184829 0.033118135206332118 0 0.00071506894794639555 0.033277292195880603 0 0.00076515896608754042 0.033495597746101662 0 0.00071506894794639555 0.033277292195880603 0 0.00058316978782181324 0.033394727257767515 0 0.00058189991598184829 0.033118135206332118 0 0.00071506894794639555 0.033277292195880603 0 0.00058316978782181324 0.033394727257767515 0 0.00076515896608754042 0.033495597746101662 0 0.00071506894794639555 0.033277292195880603 0 0.00088956042818130396 0.033309983607606689 0 0.00080048128589585064 0.033140265688134871 0 0.00071506894794639555 0.033277292195880603 0 0.00088956042818130396 0.033309983607606689 0 0.00023941078054687354 0.033302282291768688 0 0.00042978875623973296 0.033273727236904631 0 0.00033754119103542447 0.033145577489549945 0 0.00036685286138329339 0.033408402834105587 0 0.00023941078054687354 0.033302282291768688 0 0.00042978875623973296 0.033273727236904631 0 0.00018130462558936007 0.033390033189201015 0 0.00036685286138329339 0.033408402834105587 0 0.00023941078054687354 0.033302282291768688 0 0.00036685286138329339 0.033408402834105587 0 0.00058316978782181324 0.033394727257767515 0 0.00042978875623973296 0.033273727236904631 0 0.00058189991598184829 0.033118135206332118 0 0.00058316978782181324 0.033394727257767515 0 0.00042978875623973296 0.033273727236904631 0 0.00058189991598184829 0.033118135206332118 0 0.00033754119103542447 0.033145577489549945 0 0.00037364352112208418 0.032954964279293349 0 0.00058189991598184829 0.033118135206332118 0 0.00042978875623973296 0.033273727236904631 0 0.00033754119103542447 0.033145577489549945 0 0.00033754119103542447 0.033145577489549945 0 0.00022877081073074322 0.033051681928269246 0 0.0001437576516641723 0.033239549363651817 0 0.00023941078054687354 0.033302282291768688 0 0.00033754119103542447 0.033145577489549945 0 0.0001437576516641723 0.033239549363651817 0 0.00033754119103542447 0.033145577489549945 0 0.00022877081073074322 0.033051681928269246 0 0.00037364352112208418 0.032954964279293349 0 0.00022877081073074322 0.033051681928269246 0 0.00037364352112208418 0.032954964279293349 0 0.00014940349258299264 0.032930077137034601 0 0.00037364352112208418 0.032954964279293349 0 0.00018669935357832013 0.032770764613698732 0 0.00014940349258299264 0.032930077137034601 0 0.00058189991598184829 0.033118135206332118 0 0.00037364352112208418 0.032954964279293349 0 0.00057612425337013511 0.032861515789171888 0 0.00057612425337013511 0.032861515789171888 0 0.00040256479952734445 0.032761947923909386 0 0.00058500503106282851 0.032623139349445135 0 0.00037364352112208418 0.032954964279293349 0 0.00057612425337013511 0.032861515789171888 0 0.00040256479952734445 0.032761947923909386 0 0.00037364352112208418 0.032954964279293349 0 0.00040256479952734445 0.032761947923909386 0 0.00018669935357832013 0.032770764613698732 0 0.00040256479952734445 0.032761947923909386 0 0.00028231516743775615 0.03260096458132053 0 0.00018669935357832013 0.032770764613698732 0 4.0548779998032226e-05 0.034875167223677582 0 4.1220339254586509e-05 0.034878122415941681 0 3.8283502678408033e-05 0.034875543604301208 0 4.1220339254586509e-05 0.034878122415941681 0 3.9302222341223697e-05 0.034878000336088504 0 4.1868616016974389e-05 0.034881532675641709 0 4.1220339254586509e-05 0.034878122415941681 0 3.9302222341223697e-05 0.034878000336088504 0 3.8283502678408033e-05 0.034875543604301208 0 4.1220339254586509e-05 0.034878122415941681 0 3.7247892810964303e-05 0.034878982467164962 0 4.0210573087091254e-05 0.03488318140396178 0 4.1220339254586509e-05 0.034878122415941681 0 3.8787522343346311e-05 0.034871656731514121 0 3.7247892810964303e-05 0.034878982467164962 0 4.1220339254586509e-05 0.034878122415941681 0 4.1868616016974389e-05 0.034881532675641709 0 4.0210573087091254e-05 0.03488318140396178 0 4.0548779998032226e-05 0.034875167223677582 0 4.1220339254586509e-05 0.034878122415941681 0 3.8787522343346311e-05 0.034871656731514121 0 0.00013492923074939856 0.033025137875077187 0 0.00029638245036179152 0.033458842309132909 0 0.00040256479952734445 0.032761947923909386 0 0.00028231516743775615 0.03260096458132053 0 0.00058500503106282851 0.032623139349445135 0 0.00029638245036179152 0.033458842309132909 0 0.00041791646807861949 0.03373143504284791 0 3.8787522343346311e-05 0.034871656731514121 0 2.8038086985951962e-05 0.034877467537144359 0 3.7247892810964303e-05 0.034878982467164962 0 0.00076291908455121784 0.032769388120143114 0 0.00058500503106282851 0.032623139349445135 0 0.00087872305524876377 0.032637731732585412 0 3.8787522343346311e-05 0.034871656731514121 0 2.2901373771787006e-05 0.034866452667062703 0 2.8038086985951962e-05 0.034877467537144359 0 7.14499077460917e-06 0.034877768201570979 0 2.2901373771787006e-05 0.034866452667062703 0 2.8038086985951962e-05 0.034877467537144359 0 7.14499077460917e-06 0.034877768201570979 0 2.8038086985951962e-05 0.034877467537144359 0 1.9670247944184525e-05 0.03488754673263661 0 2.8038086985951962e-05 0.034877467537144359 0 1.9670247944184525e-05 0.03488754673263661 0 3.2649951704505193e-05 0.034886636844520189 0 2.8038086985951962e-05 0.034877467537144359 0 3.7247892810964303e-05 0.034878982467164962 0 3.2649951704505193e-05 0.034886636844520189 0 3.7247892810964303e-05 0.034878982467164962 0 3.2649951704505193e-05 0.034886636844520189 0 4.0210573087091254e-05 0.03488318140396178 0 3.2649951704505193e-05 0.034886636844520189 0 3.7816023063104647e-05 0.034889072181064448 0 4.0210573087091254e-05 0.03488318140396178 0 3.2649951704505193e-05 0.034886636844520189 0 3.2703258717030975e-05 0.034894114459079605 0 2.4319043029148504e-05 0.034899117188548351 0 3.2649951704505193e-05 0.034886636844520189 0 3.2703258717030975e-05 0.034894114459079605 0 3.7816023063104647e-05 0.034889072181064448 0 3.2703258717030975e-05 0.034894114459079605 0 3.7816023063104647e-05 0.034889072181064448 0 3.7742877518479151e-05 0.034895139905601877 0 1.9670247944184525e-05 0.03488754673263661 0 3.2649951704505193e-05 0.034886636844520189 0 2.4319043029148504e-05 0.034899117188548351 0 1.5655640864815011e-05 0.034898709235406229 0 1.9670247944184525e-05 0.03488754673263661 0 2.4319043029148504e-05 0.034899117188548351 0 3.2703258717030975e-05 0.034894114459079605 0 2.4319043029148504e-05 0.034899117188548351 0 2.951979758766866e-05 0.034904869945498421 0 1.3475572205931746e-05 0.034912002734127784 0 1.5655640864815011e-05 0.034898709235406229 0 2.4319043029148504e-05 0.034899117188548351 0 2.1386530355358346e-05 0.034912354362034076 0 2.3603342169802533e-05 0.034921283162825154 0 1.1161086900613154e-05 0.03493330166733298 0 1.3475572205931746e-05 0.034912002734127784 0 2.4319043029148504e-05 0.034899117188548351 0 2.1386530355358346e-05 0.034912354362034076 0 2.4319043029148504e-05 0.034899117188548351 0 2.1386530355358346e-05 0.034912354362034076 0 2.951979758766866e-05 0.034904869945498421 0 2.1386530355358346e-05 0.034912354362034076 0 2.951979758766866e-05 0.034904869945498421 0 2.3603342169802533e-05 0.034921283162825154 0 3.7742877518479151e-05 0.034895139905601877 0 2.951979758766866e-05 0.034904869945498421 0 3.6395675395805885e-05 0.034907832283581942 0 3.2703258717030975e-05 0.034894114459079605 0 3.7742877518479151e-05 0.034895139905601877 0 2.951979758766866e-05 0.034904869945498421 0 2.951979758766866e-05 0.034904869945498421 0 3.6395675395805885e-05 0.034907832283581942 0 2.3603342169802533e-05 0.034921283162825154 0 3.7742877518479151e-05 0.034895139905601877 0 3.6395675395805885e-05 0.034907832283581942 0 4.2708795065419803e-05 0.034891709344286467 0 4.9287258146704782e-05 0.034881729492754199 0 4.1168922633604861e-05 0.034880328510709546 0 4.397882884207814e-05 0.0348860158623314 0 3.6395675395805885e-05 0.034907832283581942 0 4.2708795065419803e-05 0.034891709344286467 0 4.9287258146704782e-05 0.034881729492754199 0 4.2708795065419803e-05 0.034891709344286467 0 4.9287258146704782e-05 0.034881729492754199 0 4.397882884207814e-05 0.0348860158623314 0 3.7742877518479151e-05 0.034895139905601877 0 4.2708795065419803e-05 0.034891709344286467 0 4.397882884207814e-05 0.0348860158623314 0 4.9287258146704782e-05 0.034881729492754199 0 4.1168922633604861e-05 0.034880328510709546 0 3.437995752892713e-05 0.03487209143093533 0 4.9287258146704782e-05 0.034881729492754199 0 3.437995752892713e-05 0.03487209143093533 0 4.7745101123882811e-05 0.034862357121153265 0 4.1168922633604861e-05 0.034880328510709546 0 4.1868616016974389e-05 0.034881532675641709 0 4.397882884207814e-05 0.0348860158623314 0 4.1168922633604861e-05 0.034880328510709546 0 3.9302222341223697e-05 0.034878000336088504 0 4.1868616016974389e-05 0.034881532675641709 0 4.1868616016974389e-05 0.034881532675641709 0 4.0210573087091254e-05 0.03488318140396178 0 4.397882884207814e-05 0.0348860158623314 0 3.7816023063104647e-05 0.034889072181064448 0 4.0210573087091254e-05 0.03488318140396178 0 4.397882884207814e-05 0.0348860158623314 0 3.7816023063104647e-05 0.034889072181064448 0 3.7742877518479151e-05 0.034895139905601877 0 4.397882884207814e-05 0.0348860158623314 0 3.2160984593304826e-05 0.034872011178289967 0 3.4134384351605727e-05 0.034873591654053938 0 3.484861133604822e-05 0.034874553023402921 0 3.2160984593304826e-05 0.034872011178289967 0 3.4134384351605727e-05 0.034873591654053938 0 3.1731146685192982e-05 0.034871814933620862 0 4.1168922633604861e-05 0.034880328510709546 0 3.9302222341223697e-05 0.034878000336088504 0 3.484861133604822e-05 0.034874553023402921 0 3.9302222341223697e-05 0.034878000336088504 0 3.4134384351605727e-05 0.034873591654053938 0 3.484861133604822e-05 0.034874553023402921 0 3.484861133604822e-05 0.034874553023402921 0 3.437995752892713e-05 0.03487209143093533 0 3.2531529072122258e-05 0.034871345755006188 0 -6.0595791073374377e-06 0.034704526355477883 0 -6.4431526292129377e-05 0.034615959540060089 0 4.1168922633604861e-05 0.034880328510709546 0 3.484861133604822e-05 0.034874553023402921 0 3.437995752892713e-05 0.03487209143093533 0 3.2160984593304826e-05 0.034872011178289967 0 3.484861133604822e-05 0.034874553023402921 0 3.2531529072122258e-05 0.034871345755006188 0 -6.4431526292129377e-05 0.034615959540060089 0 -0.00020189600596165217 0.034436483416987233 0 3.2160984593304826e-05 0.034872011178289967 0 3.2531529072122258e-05 0.034871345755006188 0 2.9988245869025113e-05 0.034870232369963533 0 -3.9098344507919389e-05 0.03481337799741855 0 -0.00013591553285388641 0.034779162337146223 0 -6.4720188723014108e-05 0.034760219543056817 0 -0.00011861121378569585 0.034573070962965531 0 -0.00022842571938259753 0.03448159902800349 0 -9.4315215370691558e-05 0.034405933286414316 0 -0.00011861121378569585 0.034573070962965531 0 -9.4315215370691558e-05 0.034405933286414316 0 -1.793600701431331e-05 0.034626524345827338 0 -0.00011861121378569585 0.034573070962965531 0 -0.00022842571938259753 0.03448159902800349 0 -0.00015321737567671912 0.034702291031291882 0 -0.00020189600596165217 0.034436483416987233 0 -0.00019657891796488009 0.034480406945698018 0 -0.00047622375890290461 0.034465145133737718 0 -9.4315215370691558e-05 0.034405933286414316 0 -0.00032089665373326699 0.034178794372473432 0 -0.00020189600596165217 0.034436483416987233 0 -0.00019009453576978856 0.034434009444456577 0 -0.00032089665373326699 0.034178794372473432 0 -0.00037249126045270803 0.03384471686599979 0 0.00017124063942807298 0.034224153831388666 0 -0.00047622375890290461 0.034465145133737718 0 -0.00032089665373326699 0.034178794372473432 0 -0.00051991874896680195 0.03372869750601392 0 -0.00020189600596165217 0.034436483416987233 0 -0.00035821840208326311 0.033527668055144948 0 -0.00032089665373326699 0.034178794372473432 0 -0.00037249126045270803 0.03384471686599979 0 -0.00051991874896680195 0.03372869750601392 0 -0.00037249126045270803 0.03384471686599979 0 -0.00031782342681719352 0.033687135783282751 0 -0.00026062965777912909 0.033694039763539865 0 3.2160984593304826e-05 0.034872011178289967 0 2.9988245869025113e-05 0.034870232369963533 0 3.0993910444113708e-05 0.034871169043342025 0 2.9988245869025113e-05 0.034870232369963533 0 3.0993910444113708e-05 0.034871169043342025 0 3.0115273344691119e-05 0.034870659920446287 0 3.0993910444113708e-05 0.034871169043342025 0 3.1731146685192982e-05 0.034871814933620862 0 3.0115273344691119e-05 0.034870659920446287 0 3.2160984593304826e-05 0.034872011178289967 0 3.0993910444113708e-05 0.034871169043342025 0 3.1731146685192982e-05 0.034871814933620862 0 -0.00035821840208326311 0.033527668055144948 0 -0.00074778403238838476 0.030500845675553744 0 3.1731146685192982e-05 0.034871814933620862 0 3.0115273344691119e-05 0.034870659920446287 0 3.1804021086655136e-05 0.034871424854993241 0 3.0115273344691119e-05 0.034870659920446287 0 3.1804021086655136e-05 0.034871424854993241 0 2.9410669418074146e-05 0.034868497592534103 0 -0.00051991874896680195 0.03372869750601392 0 -0.00041226602668326942 0.033547896252154139 0 -0.0005218154267551332 0.033401326177481594 0 -0.00031782342681719352 0.033687135783282751 0 -0.00033619807102169683 0.033618102060941103 0 -0.00026925304646498074 0.033619148766645492 0 -0.00037249126045270803 0.03384471686599979 0 -0.00031782342681719352 0.033687135783282751 0 -0.00038853361087711581 0.033684730398719158 0 -0.00031782342681719352 0.033687135783282751 0 -0.00038853361087711581 0.033684730398719158 0 -0.00033619807102169683 0.033618102060941103 0 -0.00051991874896680195 0.03372869750601392 0 -0.00038853361087711581 0.033684730398719158 0 -0.00041226602668326942 0.033547896252154139 0 -0.00037249126045270803 0.03384471686599979 0 -0.00051991874896680195 0.03372869750601392 0 -0.00038853361087711581 0.033684730398719158 0 -0.00033619807102169683 0.033618102060941103 0 -0.00027251181375939837 0.033534125632663607 0 -0.00026925304646498074 0.033619148766645492 0 -0.00041226602668326942 0.033547896252154139 0 -0.00033619807102169683 0.033618102060941103 0 -0.00027251181375939837 0.033534125632663607 0 -0.00038853361087711581 0.033684730398719158 0 -0.00041226602668326942 0.033547896252154139 0 -0.00033619807102169683 0.033618102060941103 0 -0.00083636147460149448 0.029253475608098007 0 -0.000505794883332235 0.029764949952778005 0 -0.00041226602668326942 0.033547896252154139 0 -0.00036851090167345119 0.033414024535929787 0 -0.00027251181375939837 0.033534125632663607 0 -0.00041226602668326942 0.033547896252154139 0 -0.00036851090167345119 0.033414024535929787 0 -0.0005218154267551332 0.033401326177481594 0 -0.00083636147460149448 0.029253475608098007 0 -0.001141449820193667 0.026980849751109211 0 -0.00083636147460149448 0.029253475608098007 0 -0.00074778403238838476 0.030500845675553744 0 -0.00073534304590033937 0.028584397954135841 0 0.00014631949996531826 0.028597330707082879 0 0.00022524302909107064 0.029547576770960201 0 -0.00074778403238838476 0.030500845675553744 0 -0.00011380810431441302 0.03219286176645153 0 -0.00038786385638160231 0.032555431256162115 0 -4.2877122720162648e-05 0.032574332224665145 0 -0.00030970970696401573 0.032714304900263273 0 3.1804021086655136e-05 0.034871424854993241 0 2.9410669418074146e-05 0.034868497592534103 0 3.4690187241467219e-05 0.034873367140160851 0 -0.00074778403238838476 0.030500845675553744 0 -0.001141449820193667 0.026980849751109211 0 3.4134384351605727e-05 0.034873591654053938 0 3.1804021086655136e-05 0.034871424854993241 0 3.4690187241467219e-05 0.034873367140160851 0 3.4134384351605727e-05 0.034873591654053938 0 3.1731146685192982e-05 0.034871814933620862 0 3.1804021086655136e-05 0.034871424854993241 0 3.9302222341223697e-05 0.034878000336088504 0 3.4134384351605727e-05 0.034873591654053938 0 3.8283502678408033e-05 0.034875543604301208 0 3.4134384351605727e-05 0.034873591654053938 0 3.4690187241467219e-05 0.034873367140160851 0 3.8283502678408033e-05 0.034875543604301208 0 0.00013492923074939856 0.033025137875077187 0 -0.00011380810431441302 0.03219286176645153 0 0.00028231516743775615 0.03260096458132053 0 -4.2877122720162648e-05 0.032574332224665145 0 0.00018669935357832013 0.032770764613698732 0 4.0548779998032226e-05 0.034875167223677582 0 3.4690187241467219e-05 0.034873367140160851 0 3.8283502678408033e-05 0.034875543604301208 0 -4.2877122720162648e-05 0.032574332224665145 0 0.00018669935357832013 0.032770764613698732 0 -8.4854184635030451e-06 0.032820404158690246 0 0.00018669935357832013 0.032770764613698732 0 -8.4854184635030451e-06 0.032820404158690246 0 0.00014940349258299264 0.032930077137034601 0 -4.2877122720162648e-05 0.032574332224665145 0 -0.00013933480003456626 0.032753264682174744 0 -0.00030970970696401573 0.032714304900263273 0 -4.2877122720162648e-05 0.032574332224665145 0 -0.00013933480003456626 0.032753264682174744 0 -8.4854184635030451e-06 0.032820404158690246 0 -0.00013933480003456626 0.032753264682174744 0 -8.4854184635030451e-06 0.032820404158690246 0 -0.00019700667352757025 0.032903902921345839 0 -0.00019700667352757025 0.032903902921345839 0 2.2477525914251115e-05 0.032975411981304603 0 -2.974343447805987e-05 0.033066746843306329 0 -8.4854184635030451e-06 0.032820404158690246 0 -0.00019700667352757025 0.032903902921345839 0 2.2477525914251115e-05 0.032975411981304603 0 -0.00076297776119012208 0.028450195099193703 0 -0.00063705806603433829 0.028056697774539025 0 -0.0019024634825007133 0.022782606056737598 0 -0.0023395933792997922 0.022323651880439593 0 -0.0019351099087524034 0.022235261613143226 0 -0.00088247656441794314 0.027585649518455355 0 -0.00063705806603433829 0.028056697774539025 0 -8.4854184635030451e-06 0.032820404158690246 0 0.00014940349258299264 0.032930077137034601 0 2.2477525914251115e-05 0.032975411981304603 0 2.2477525914251115e-05 0.032975411981304603 0 0.00011171381285343883 0.033086675152156006 0 -3.3813372170575523e-05 0.033073637773071041 0 0.00014940349258299264 0.032930077137034601 0 2.2477525914251115e-05 0.032975411981304603 0 0.00011171381285343883 0.033086675152156006 0 0.00022877081073074322 0.033051681928269246 0 0.00014940349258299264 0.032930077137034601 0 0.00011171381285343883 0.033086675152156006 0 0.00022877081073074322 0.033051681928269246 0 0.0001437576516641723 0.033239549363651817 0 0.00011171381285343883 0.033086675152156006 0 0.0001437576516641723 0.033239549363651817 0 8.4884458222855529e-05 0.033208720674817491 0 9.9487889894992959e-05 0.033291681089630952 0 0.0001437576516641723 0.033239549363651817 0 0.00011171381285343883 0.033086675152156006 0 -3.3813372170575523e-05 0.033073637773071041 0 9.6800117064570096e-05 0.029215901109624434 0 -0.00063705806603433829 0.028056697774539025 0 -0.0023395933792997922 0.022323651880439593 0 -0.0019351099087524034 0.022235261613143226 0 -0.0019419858479151405 0.021623424720140529 0 -0.00063705806603433829 0.028056697774539025 0 -0.00075931547488959921 0.027545982318682938 0 8.4884458222855529e-05 0.033208720674817491 0 9.9487889894992959e-05 0.033291681089630952 0 8.4211523318266566e-05 0.033365606683024962 0 9.9487889894992959e-05 0.033291681089630952 0 8.4211523318266566e-05 0.033365606683024962 0 0.00010008177584679354 0.03334836767280517 0 0.00011790046329089261 0.033391839740821362 0 8.4211523318266566e-05 0.033365606683024962 0 0.00010008177584679354 0.03334836767280517 0 0.00018130462558936007 0.033390033189201015 0 0.00023941078054687354 0.033302282291768688 0 0.00010008177584679354 0.03334836767280517 0 0.00023941078054687354 0.033302282291768688 0 0.0001437576516641723 0.033239549363651817 0 0.00010008177584679354 0.03334836767280517 0 0.0001437576516641723 0.033239549363651817 0 9.9487889894992959e-05 0.033291681089630952 0 0.00010008177584679354 0.03334836767280517 0 -0.0015513121581219637 0.021466224686515809 0 -0.0014198541246271262 0.021286786868723272 0 -0.0012257730836887713 0.0214736689656315 0 -0.0015513121581219637 0.021466224686515809 0 -0.0014198541246271262 0.021286786868723272 0 -0.0015554543384594351 0.021341520444798347 0 -0.0015199170821863822 0.021206120302523213 0 -0.0014198541246271262 0.021286786868723272 0 -0.0015554543384594351 0.021341520444798347 0 -0.0016409370814802018 0.021966155774774131 0 -0.0015621614983947997 0.022782088214330788 0 -0.0015199170821863822 0.021206120302523213 0 -0.0015554543384594351 0.021341520444798347 0 -0.0017068710439858187 0.02135574966809092 0 -0.00081920434444337825 0.027071881753751293 0 -0.00075931547488959921 0.027545982318682938 0 -0.0015513121581219637 0.021466224686515809 0 -0.0015554543384594351 0.021341520444798347 0 -0.0017068710439858187 0.02135574966809092 0 -0.0016497481375674933 0.021109666158820921 0 -0.0019419858479151405 0.021623424720140529 0 -0.0017068710439858187 0.02135574966809092 0 -0.0015513121581219637 0.021466224686515809 0 -0.0017068710439858187 0.02135574966809092 0 -0.0016371111692719681 0.021625947244157267 0 -0.0019419858479151405 0.021623424720140529 0 -0.0017068710439858187 0.02135574966809092 0 -0.0015544270384541816 0.022235048066822402 0 -0.0019351099087524034 0.022235261613143226 0 -0.0019419858479151405 0.021623424720140529 0 -0.0015544270384541816 0.022235048066822402 0 -0.0015513121581219637 0.021466224686515809 0 -0.0014436846497119396 0.021643777407518206 0 -0.0012257730836887713 0.0214736689656315 0 -0.0015513121581219637 0.021466224686515809 0 -0.0016371111692719681 0.021625947244157267 0 -0.0014436846497119396 0.021643777407518206 0 -0.0014436846497119396 0.021643777407518206 0 -0.00149584134751647 0.021826692337664072 0 -0.0013094583532987732 0.021880332625916623 0 -0.0016371111692719681 0.021625947244157267 0 -0.0014436846497119396 0.021643777407518206 0 -0.00149584134751647 0.021826692337664072 0 -0.0016371111692719681 0.021625947244157267 0 -0.00149584134751647 0.021826692337664072 0 -0.0016055612246686864 0.021965782807606957 0 -0.0015621614983947997 0.022782088214330788 0 -0.001141449820193667 0.026980849751109211 0 -0.0019024634825007133 0.022782606056737598 0 -0.0015544270384541816 0.022235048066822402 0 -0.0014280725429323068 0.023268503443744423 0 -0.0019024634825007133 0.022782606056737598 0 -0.0019351099087524034 0.022235261613143226 0 -0.0015544270384541816 0.022235048066822402 0 -0.00019700667352757025 0.032903902921345839 0 -0.0003720385850059001 0.032729930426594576 0 -0.00030970970696401573 0.032714304900263273 0 -0.00088247656441794314 0.027585649518455355 0 -0.001141449820193667 0.026980849751109211 0 -0.00013933480003456626 0.032753264682174744 0 -0.00019700667352757025 0.032903902921345839 0 -0.00030970970696401573 0.032714304900263273 0 -0.00038786385638160231 0.032555431256162115 0 -0.00037378487782834316 0.032730562239036635 0 -0.00030970970696401573 0.032714304900263273 0 -0.001141449820193667 0.026980849751109211 0 -0.0011535107360148191 0.027037765135794155 0 -0.0015801207423583013 0.022249159727489455 0 -0.0017734483234010375 0.022056275546947546 0 -0.0014154071186252314 0.021942459549012246 0 -0.00149584134751647 0.021826692337664072 0 -0.0016055612246686864 0.021965782807606957 0 -0.0013094583532987732 0.021880332625916623 0 -0.001141449820193667 0.026980849751109211 0 -0.00085614709738149244 0.024356667337885239 0 -0.0013094583532987732 0.021880332625916623 0 -0.00099596768947649342 0.021784801834341561 0 -0.0012257730836887713 0.0214736689656315 0 -0.0014436846497119396 0.021643777407518206 0 -0.0013094583532987732 0.021880332625916623 0 -0.0012257730836887713 0.0214736689656315 0 -0.0014154071186252314 0.021942459549012246 0 -0.0010486559362559208 0.021819687332898016 0 -0.0011756291388564273 0.022248051934878072 0 -0.0010486559362559208 0.021819687332898016 0 -0.00088396310496796507 0.022028564308461788 0 -0.0011756291388564273 0.022248051934878072 0 -0.00085614709738149244 0.024356667337885239 0 -0.0007140441014243167 0.023190086445855646 0 -0.00099596768947649342 0.021784801834341561 0 -0.0012257730836887713 0.0214736689656315 0 -0.00088043638356170471 0.021550687524939108 0 -0.0012257730836887713 0.0214736689656315 0 -0.00099647498853075748 0.021358464895141063 0 -0.00088043638356170471 0.021550687524939108 0 -0.0010330448307220772 0.021067459349007809 0 -0.0012257730836887713 0.0214736689656315 0 -0.00099647498853075748 0.021358464895141063 0 -0.00099474741884834884 0.021093084960911786 0 -0.0011001139836439829 0.021270655346811353 0 -0.001248132761432602 0.02120022452779979 0 -0.0010146589852749498 0.021181312699969906 0 -0.0012257730836887713 0.0214736689656315 0 -0.001248132761432602 0.02120022452779979 0 -0.0014198541246271262 0.021286786868723272 0 -0.0012257730836887713 0.0214736689656315 0 -0.00067633413882844994 0.021113514620509675 0 -0.00078087598329334008 0.021325985792514979 0 -0.0004923878875356184 0.02129121172664053 0 -0.00078087598329334008 0.021325985792514979 0 -0.00064468218765274723 0.021473525174854718 0 -0.0004923878875356184 0.02129121172664053 0 -0.00047290574407033912 0.02104776685260324 0 -0.00067633413882844994 0.021113514620509675 0 -0.0004923878875356184 0.02129121172664053 0 -0.0010330448307220772 0.021067459349007809 0 -0.00099647498853075748 0.021358464895141063 0 -0.00078087598329334008 0.021325985792514979 0 -0.00067633413882844994 0.021113514620509675 0 -0.0010330448307220772 0.021067459349007809 0 -0.00078087598329334008 0.021325985792514979 0 -0.00078087598329334008 0.021325985792514979 0 -0.00088043638356170471 0.021550687524939108 0 -0.00064468218765274723 0.021473525174854718 0 -0.00099647498853075748 0.021358464895141063 0 -0.00078087598329334008 0.021325985792514979 0 -0.00088043638356170471 0.021550687524939108 0 -0.00064468218765274723 0.021473525174854718 0 -0.00047266104173129901 0.021529079439701396 0 -0.0004923878875356184 0.02129121172664053 0 -0.00088043638356170471 0.021550687524939108 0 -0.00064468218765274723 0.021473525174854718 0 -0.00066567725110023809 0.021686518244541875 0 -0.00064468218765274723 0.021473525174854718 0 -0.00066567725110023809 0.021686518244541875 0 -0.00047266104173129901 0.021529079439701396 0 -0.00066567725110023809 0.021686518244541875 0 -0.00064098924063335147 0.021929489409219814 0 -0.00040544722416037534 0.021798570334085516 0 -0.00066567725110023809 0.021686518244541875 0 -0.00077370294271732806 0.021896898238748717 0 -0.00064098924063335147 0.021929489409219814 0 -0.0007140441014243167 0.023190086445855646 0 -0.00060497465059348185 0.022840383553935931 0 -0.00099596768947649342 0.021784801834341561 0 -0.00088043638356170471 0.021550687524939108 0 -0.00066567725110023809 0.021686518244541875 0 -0.0010486559362559208 0.021819687332898016 0 -0.00066567725110023809 0.021686518244541875 0 -0.00077370294271732806 0.021896898238748717 0 -0.0010486559362559208 0.021819687332898016 0 -0.00077370294271732806 0.021896898238748717 0 -0.00088396310496796507 0.022028564308461788 0 -0.00077370294271732806 0.021896898238748717 0 -0.00088396310496796507 0.022028564308461788 0 -0.00074629805348815591 0.022059221760900881 0 -0.00088396310496796507 0.022028564308461788 0 -0.00074629805348815591 0.022059221760900881 0 -0.00075377922876223614 0.022249144792637097 0 -0.00064098924063335147 0.021929489409219814 0 -0.00068545912643113262 0.0222058574985168 0 -0.00040544722416037534 0.021798570334085516 0 -0.00038840757369366252 0.024604829647477296 0 -8.4661776757324431e-05 0.023126345792482531 0 -0.00064098924063335147 0.021929489409219814 0 -0.00074629805348815591 0.022059221760900881 0 -0.00068545912643113262 0.0222058574985168 0 -0.00038840757369366252 0.024604829647477296 0 2.3026017448942206e-05 0.022349137768503207 0 -0.00077370294271732806 0.021896898238748717 0 -0.00064098924063335147 0.021929489409219814 0 -0.00074629805348815591 0.022059221760900881 0 -0.00072995079061389243 0.025695618618644028 0 -0.00040679925713114462 0.026665545835710371 0 -0.00014690861075006913 0.033529036350528577 0 -0.00014927310133545945 0.033528625845964111 0 -0.00016750068707811628 0.033513644499007088 0 -0.00090663258359728811 0.021961740449860073 0 -0.00096738160361024459 0.022003078734810888 0 -0.00059555829667568298 0.021997703378258113 0 -0.00074629805348815591 0.022059221760900881 0 -0.00068545912643113262 0.0222058574985168 0 -0.00075377922876223614 0.022249144792637097 0 -0.00038840757369366252 0.024604829647477296 0 -0.00072995079061389243 0.025695618618644028 0 -0.00014690861075006913 0.033529036350528577 0 -0.00014927310133545945 0.033528625845964111 0 -0.00014288868788744674 0.033527477527582117 0 -0.00014927310133545945 0.033528625845964111 0 -0.00014812235025847415 0.033543604661460197 0 -0.00015397013003442097 0.033520940384794466 0 -0.00014927310133545945 0.033528625845964111 0 -0.00015397013003442097 0.033520940384794466 0 -0.00016750068707811628 0.033513644499007088 0 -0.00014812235025847415 0.033543604661460197 0 -0.00015867875040437711 0.03356681876055493 0 -0.00015009865461757129 0.033560485785800641 0 -0.00014927310133545945 0.033528625845964111 0 -0.00014812235025847415 0.033543604661460197 0 -0.0001470164478583536 0.03353568521522915 0 -0.00014812235025847415 0.033543604661460197 0 -0.0001470164478583536 0.03353568521522915 0 -0.00015125585008000675 0.033543315149823429 0 -0.00014812235025847415 0.033543604661460197 0 -0.00015125585008000675 0.033543315149823429 0 -0.00015867875040437711 0.03356681876055493 0 -0.00015125585008000675 0.033543315149823429 0 -0.0001636619460690142 0.03354370493511042 0 -0.00015867875040437711 0.03356681876055493 0 -0.00072995079061389243 0.025695618618644028 0 -0.0007186811018983617 0.027573707178874182 0 -0.00013569292510710431 0.033522515102395317 0 -0.00014288868788744674 0.033527477527582117 0 -0.00018034358023771494 0.033511363920114168 0 -0.00015125585008000675 0.033543315149823429 0 -0.00014288868788744674 0.033527477527582117 0 -0.0001636619460690142 0.03354370493511042 0 -0.00088396310496796507 0.022028564308461788 0 -0.00075377922876223614 0.022249144792637097 0 -0.0011756291388564273 0.022248051934878072 0 -0.00014927310133545945 0.033528625845964111 0 -0.0001470164478583536 0.03353568521522915 0 -0.00014288868788744674 0.033527477527582117 0 -0.0001470164478583536 0.03353568521522915 0 -0.00015125585008000675 0.033543315149823429 0 -0.00014288868788744674 0.033527477527582117 0 -0.00072995079061389243 0.025695618618644028 0 -0.00081893816864861478 0.025837774548722509 0 -0.00014288868788744674 0.033527477527582117 0 -0.00018034358023771494 0.033511363920114168 0 -0.0001636619460690142 0.03354370493511042 0 -0.00018034358023771494 0.033511363920114168 0 -0.00020032235271711329 0.033584271306899317 0 -0.0001636619460690142 0.03354370493511042 0 -0.00083636147460149448 0.029253475608098007 0 -0.0007186811018983617 0.027573707178874182 0 -0.0003113381695671312 0.033489536293208083 0 -0.00018034358023771494 0.033511363920114168 0 -0.00027251181375939837 0.033534125632663607 0 -0.00018034358023771494 0.033511363920114168 0 -0.00027251181375939837 0.033534125632663607 0 -0.00020032235271711329 0.033584271306899317 0 -0.0015801207423583013 0.022249159727489455 0 -0.0014154071186252314 0.021942459549012246 0 -0.0011756291388564273 0.022248051934878072 0 -0.00020032235271711329 0.033584271306899317 0 -0.0001697986071180228 0.03360546298249123 0 -0.00026062965777912909 0.033694039763539865 0 -0.00027251181375939837 0.033534125632663607 0 -0.00020032235271711329 0.033584271306899317 0 -0.00026925304646498074 0.033619148766645492 0 -0.00020032235271711329 0.033584271306899317 0 -0.00026925304646498074 0.033619148766645492 0 -0.00026062965777912909 0.033694039763539865 0 -0.00031782342681719352 0.033687135783282751 0 -0.00026925304646498074 0.033619148766645492 0 -0.00026062965777912909 0.033694039763539865 0 -0.00020032235271711329 0.033584271306899317 0 -0.0001636619460690142 0.03354370493511042 0 -0.00015867875040437711 0.03356681876055493 0 -0.00020032235271711329 0.033584271306899317 0 -0.00015867875040437711 0.03356681876055493 0 -0.0001697986071180228 0.03360546298249123 0 -4.8807112936859797e-05 0.033649835063301492 0 0.00016570440910797612 0.033493872876112211 0 -0.00015867875040437711 0.03356681876055493 0 -0.0001697986071180228 0.03360546298249123 0 -0.00015009865461757129 0.033560485785800641 0 -0.0001697986071180228 0.03360546298249123 0 -0.00019217974661556013 0.03364927643154253 0 -0.00014697284066917548 0.033555135743623038 0 -0.0001697986071180228 0.03360546298249123 0 -0.00019217974661556013 0.03364927643154253 0 -0.00026062965777912909 0.033694039763539865 0 -0.0002094765204233773 0.033666420801312963 0 -4.8807112936859797e-05 0.033649835063301492 0 -9.4315215370691558e-05 0.034405933286414316 0 -0.00032089665373326699 0.034178794372473432 0 0.00017124063942807298 0.034224153831388666 0 -0.00037249126045270803 0.03384471686599979 0 -0.00019217974661556013 0.03364927643154253 0 -0.00026062965777912909 0.033694039763539865 0 -9.4315215370691558e-05 0.034405933286414316 0 0.00017218139944417919 0.03453311717421758 0 -1.793600701431331e-05 0.034626524345827338 0 -9.4315215370691558e-05 0.034405933286414316 0 0.00017124063942807298 0.034224153831388666 0 0.00017218139944417919 0.03453311717421758 0 0.00017124063942807298 0.034224153831388666 0 0.00017218139944417919 0.03453311717421758 0 0.00040157169622084761 0.034383315530226083 0 0.00017218139944417919 0.03453311717421758 0 0.00040157169622084761 0.034383315530226083 0 0.0003369637235141084 0.034609899977838199 0 0.00016570440910797612 0.033493872876112211 0 0.00030334322038071864 0.033045530504591143 0 0.00040157169622084761 0.034383315530226083 0 0.00054010747865463878 0.034622546722278963 0 0.00060974081429089426 0.034475500198647854 0 -0.00014697284066917548 0.033555135743623038 0 -0.00015397013003442097 0.033520940384794466 0 -0.00015768787872962931 0.033493676689665533 0 -0.00014812235025847415 0.033543604661460197 0 -0.00015397013003442097 0.033520940384794466 0 -0.00015009865461757129 0.033560485785800641 0 -0.00014697284066917548 0.033555135743623038 0 -0.00015397013003442097 0.033520940384794466 0 -0.00015009865461757129 0.033560485785800641 0 -0.0001697986071180228 0.03360546298249123 0 -0.00014697284066917548 0.033555135743623038 0 -0.00015009865461757129 0.033560485785800641 0 0.00043555619431067554 0.034729537082236035 0 0.00030505776094647929 0.034800745613834512 0 0.0003369637235141084 0.034609899977838199 0 0.00043555619431067554 0.034729537082236035 0 0.00030505776094647929 0.034800745613834512 0 0.0004291314407838509 0.034865583230532127 0 0.00043555619431067554 0.034729537082236035 0 0.00054319568764092728 0.034780404780989621 0 0.00054010747865463878 0.034622546722278963 0 0.00043555619431067554 0.034729537082236035 0 0.00054319568764092728 0.034780404780989621 0 0.0004291314407838509 0.034865583230532127 0 0.00054319568764092728 0.034780404780989621 0 0.00054010747865463878 0.034622546722278963 0 0.00064944913568969252 0.034729626875763732 0 0.00040157169622084761 0.034383315530226083 0 0.00054010747865463878 0.034622546722278963 0 0.0003369637235141084 0.034609899977838199 0 0.00043555619431067554 0.034729537082236035 0 0.00054010747865463878 0.034622546722278963 0 0.0003369637235141084 0.034609899977838199 0 0.00017218139944417919 0.03453311717421758 0 7.1265836557870505e-05 0.034700079727140939 0 0.00018865640576183924 0.034722059110678084 0 0.00017218139944417919 0.03453311717421758 0 0.0003369637235141084 0.034609899977838199 0 0.00018865640576183924 0.034722059110678084 0 0.00017218139944417919 0.03453311717421758 0 -1.793600701431331e-05 0.034626524345827338 0 7.1265836557870505e-05 0.034700079727140939 0 -1.793600701431331e-05 0.034626524345827338 0 7.1265836557870505e-05 0.034700079727140939 0 -3.948614941327704e-05 0.034774630967461188 0 7.1265836557870505e-05 0.034700079727140939 0 -3.948614941327704e-05 0.034774630967461188 0 6.9502706276804212e-05 0.034819370406043625 0 7.1265836557870505e-05 0.034700079727140939 0 6.9502706276804212e-05 0.034819370406043625 0 0.00018865640576183924 0.034722059110678084 0 6.9502706276804212e-05 0.034819370406043625 0 0.00016860595810520377 0.03487038211151567 0 6.3898628457428828e-05 0.034931138815629384 0 -3.948614941327704e-05 0.034774630967461188 0 6.9502706276804212e-05 0.034819370406043625 0 -2.4360216704821382e-05 0.034911686272289105 0 0.00030505776094647929 0.034800745613834512 0 0.0003369637235141084 0.034609899977838199 0 0.00018865640576183924 0.034722059110678084 0 6.9502706276804212e-05 0.034819370406043625 0 0.00018865640576183924 0.034722059110678084 0 0.00016860595810520377 0.03487038211151567 0 0.00030505776094647929 0.034800745613834512 0 0.00018865640576183924 0.034722059110678084 0 0.00016860595810520377 0.03487038211151567 0 0.00030505776094647929 0.034800745613834512 0 0.00016860595810520377 0.03487038211151567 0 0.00027452190471017137 0.034947620433668697 0 0.00016860595810520377 0.03487038211151567 0 0.00027452190471017137 0.034947620433668697 0 0.00011385033107519539 0.035008810320136453 0 0.00016860595810520377 0.03487038211151567 0 0.00011385033107519539 0.035008810320136453 0 6.3898628457428828e-05 0.034931138815629384 0 0.00027452190471017137 0.034947620433668697 0 0.00011385033107519539 0.035008810320136453 0 0.00014678536426294259 0.035136121635964739 0 -2.4360216704821382e-05 0.034911686272289105 0 2.6242214784655594e-06 0.035044021541757578 0 -7.1426359593249237e-05 0.035096755964351911 0 -2.4360216704821382e-05 0.034911686272289105 0 6.3898628457428828e-05 0.034931138815629384 0 2.6242214784655594e-06 0.035044021541757578 0 6.9502706276804212e-05 0.034819370406043625 0 -2.4360216704821382e-05 0.034911686272289105 0 6.3898628457428828e-05 0.034931138815629384 0 0.00011385033107519539 0.035008810320136453 0 6.3898628457428828e-05 0.034931138815629384 0 2.6242214784655594e-06 0.035044021541757578 0 -5.8348086693873567e-05 0.034912701891662484 0 -4.1495471910327501e-05 0.034922568391511248 0 2.6242214784655594e-06 0.035044021541757578 0 -1.4790466481540717e-06 0.03516484340924423 0 -7.1426359593249237e-05 0.035096755964351911 0 -1.4790466481540717e-06 0.03516484340924423 0 4.0396738342632149e-06 0.035116565010685892 0 -7.1426359593249237e-05 0.035096755964351911 0 0.00011385033107519539 0.035008810320136453 0 2.6242214784655594e-06 0.035044021541757578 0 -1.4790466481540717e-06 0.03516484340924423 0 -0.00013773017132181136 0.035276049948534109 0 -0.00047198487645133056 0.035312058161187015 0 -0.00025626835412992838 0.035072532639577464 0 0.00011385033107519539 0.035008810320136453 0 -1.4790466481540717e-06 0.03516484340924423 0 0.00014678536426294259 0.035136121635964739 0 -0.00041180734322013681 0.032676854928522202 0 -0.00039860386124397195 0.032590245122465417 0 -1.4790466481540717e-06 0.03516484340924423 0 -0.00013773017132181136 0.035276049948534109 0 -0.00011642504873670879 0.035140142942746769 0 0.00027452190471017137 0.034947620433668697 0 0.00014678536426294259 0.035136121635964739 0 0.00043863837640627733 0.035029017976638294 0 -0.00039860386124397195 0.032590245122465417 0 -0.00063619510061818933 0.032407039451034424 0 -0.00039860386124397195 0.032590245122465417 0 -0.00041367351526786059 0.032336455460801099 0 -0.0003415705857676955 0.031279296081042282 0 -0.0007292978780275792 0.031214675677634404 0 -0.00079290598105090251 0.031388896659888636 0 0.00027452190471017137 0.034947620433668697 0 0.00043863837640627733 0.035029017976638294 0 0.0004291314407838509 0.034865583230532127 0 0.00030505776094647929 0.034800745613834512 0 0.00027452190471017137 0.034947620433668697 0 0.0004291314407838509 0.034865583230532127 0 0.00043863837640627733 0.035029017976638294 0 0.00056036535544670739 0.03491399636118122 0 0.00069354259018237282 0.034928512542224184 0 -0.00041367351526786059 0.032336455460801099 0 -0.00057747345351317873 0.031561549120365948 0 0.00054319568764092728 0.034780404780989621 0 0.00056036535544670739 0.03491399636118122 0 0.00063345093424422476 0.034821342705952725 0 0.00054319568764092728 0.034780404780989621 0 0.0004291314407838509 0.034865583230532127 0 0.00056036535544670739 0.03491399636118122 0 0.00043863837640627733 0.035029017976638294 0 0.0004291314407838509 0.034865583230532127 0 0.00056036535544670739 0.03491399636118122 0 -0.00079290598105090251 0.031388896659888636 0 -0.0011184660994576026 0.031150077802132164 0 -0.0012458311095215151 0.031498721777265717 0 -0.0007292978780275792 0.031214675677634404 0 -0.00079290598105090251 0.031388896659888636 0 -0.0011184660994576026 0.031150077802132164 0 -0.00063619510061818933 0.032407039451034424 0 -0.0011125326532404139 0.031835912974423036 0 -0.00047198487645133056 0.035312058161187015 0 -0.00053796447011789322 0.035015934533638764 0 -0.00082480055436941137 0.035323476645354845 0 -0.00053796447011789322 0.035015934533638764 0 -0.00082480055436941137 0.035323476645354845 0 -0.0009049115825049541 0.035068407147450464 0 -0.00047198487645133056 0.035312058161187015 0 -0.00053796447011789322 0.035015934533638764 0 -0.00025626835412992838 0.035072532639577464 0 -0.00053796447011789322 0.035015934533638764 0 -0.00017299872984688128 0.034795634992250364 0 -0.00025626835412992838 0.035072532639577464 0 -0.00053796447011789322 0.035015934533638764 0 -0.00046295172737418169 0.034678459352383006 0 -0.00017299872984688128 0.034795634992250364 0 -0.00053796447011789322 0.035015934533638764 0 -0.00074784905693354629 0.03481198150741667 0 -0.00046295172737418169 0.034678459352383006 0 -0.00053796447011789322 0.035015934533638764 0 -0.00074784905693354629 0.03481198150741667 0 -0.0009049115825049541 0.035068407147450464 0 -0.00074784905693354629 0.03481198150741667 0 -0.00046295172737418169 0.034678459352383006 0 -0.00071100356166927379 0.034514969132184652 0 -0.00046295172737418169 0.034678459352383006 0 -0.00019901008087291102 0.034579783431798024 0 -0.00045640926083567615 0.034390271590269639 0 -0.00046295172737418169 0.034678459352383006 0 -0.00071100356166927379 0.034514969132184652 0 -0.00045640926083567615 0.034390271590269639 0 -0.00071100356166927379 0.034514969132184652 0 -0.00069644271802233931 0.034294008179032116 0 -0.00045640926083567615 0.034390271590269639 0 -1.2023161945771475e-05 0.034508633270626053 0 -0.00019901008087291102 0.034579783431798024 0 -0.00019531379020812145 0.034298256788624464 0 -0.00019901008087291102 0.034579783431798024 0 -0.00019531379020812145 0.034298256788624464 0 -0.00045640926083567615 0.034390271590269639 0 -0.00046295172737418169 0.034678459352383006 0 -0.00019901008087291102 0.034579783431798024 0 -0.00017299872984688128 0.034795634992250364 0 -1.2023161945771475e-05 0.034508633270626053 0 -0.00019901008087291102 0.034579783431798024 0 -1.0690420478837817e-06 0.034768938919251119 0 -0.00019901008087291102 0.034579783431798024 0 -0.00017299872984688128 0.034795634992250364 0 -1.0690420478837817e-06 0.034768938919251119 0 -9.2573746772421241e-05 0.034865709967125715 0 -5.8348086693873567e-05 0.034912701891662484 0 -0.00017299872984688128 0.034795634992250364 0 -3.7071984078584915e-05 0.034859335760902825 0 -1.0690420478837817e-06 0.034768938919251119 0 -0.00017299872984688128 0.034795634992250364 0 -0.00025626835412992838 0.035072532639577464 0 4.0396738342632149e-06 0.035116565010685892 0 -0.00025626835412992838 0.035072532639577464 0 -0.00011642504873670879 0.035140142942746769 0 4.0396738342632149e-06 0.035116565010685892 0 -0.00013773017132181136 0.035276049948534109 0 -0.00025626835412992838 0.035072532639577464 0 -0.00011642504873670879 0.035140142942746769 0 -1.4790466481540717e-06 0.03516484340924423 0 -0.00011642504873670879 0.035140142942746769 0 4.0396738342632149e-06 0.035116565010685892 0 2.8909949955314864e-05 0.034854748262918782 0 8.7967507410224223e-05 0.034823613820612324 0 1.3708203123314845e-05 0.034852087138254224 0 -3.7071984078584915e-05 0.034859335760902825 0 2.8909949955314864e-05 0.034854748262918782 0 -1.0690420478837817e-06 0.034768938919251119 0 -2.9044930865332128e-05 0.034793142571152257 0 2.7687731077711608e-05 0.034837028373364637 0 1.3708203123314845e-05 0.034852087138254224 0 3.3592211318017412e-05 0.034730419002455166 0 3.035716786617527e-05 0.034783771225668364 0 3.3592211318017412e-05 0.034730419002455166 0 3.8304497972719983e-05 0.034570209801562876 0 8.7967507410224223e-05 0.034823613820612324 0 -1.0690420478837817e-06 0.034768938919251119 0 0.00016456569782207986 0.034615304092613292 0 2.8909949955314864e-05 0.034854748262918782 0 8.7967507410224223e-05 0.034823613820612324 0 -1.0690420478837817e-06 0.034768938919251119 0 -1.2023161945771475e-05 0.034508633270626053 0 -1.0690420478837817e-06 0.034768938919251119 0 0.00016456569782207986 0.034615304092613292 0 -7.0910461537547828e-05 0.034626290778781009 0 4.8007122975569347e-05 0.034489861376693451 0 6.6467165292125608e-05 0.034711895478523443 0 -2.9044930865332128e-05 0.034793142571152257 0 -7.0910461537547828e-05 0.034626290778781009 0 6.6467165292125608e-05 0.034711895478523443 0 -7.0910461537547828e-05 0.034626290778781009 0 4.8007122975569347e-05 0.034489861376693451 0 -1.2253277865628748e-05 0.034369594670443031 0 3.8304497972719983e-05 0.034570209801562876 0 3.5858286700941845e-05 0.0343390530358288 0 -7.0910461537547828e-05 0.034626290778781009 0 -1.2253277865628748e-05 0.034369594670443031 0 -5.5330331394480089e-05 0.034346420381921969 0 0.00016456569782207986 0.034615304092613292 0 9.4237290413619679e-05 0.034446779220871776 0 0.00019765241891258524 0.034314362076351204 0 -1.2023161945771475e-05 0.034508633270626053 0 0.00016456569782207986 0.034615304092613292 0 9.4237290413619679e-05 0.034446779220871776 0 -1.2023161945771475e-05 0.034508633270626053 0 9.4237290413619679e-05 0.034446779220871776 0 2.3714195001581367e-05 0.034341739557744416 0 0.00017085944070447957 0.034678060490545191 0 0.00016406133807049208 0.034730933732157375 0 0.00013683224022226846 0.034496010079297958 0 0.00017227406416442598 0.034743039543418494 0 0.0003515396486532837 0.034516668955078003 0 0.00013683224022226846 0.034496010079297958 0 0.00028539013952387575 0.03441185232315732 0 0.00022365290341246682 0.034348887071635734 0 0.00013683224022226846 0.034496010079297958 0 4.8007122975569347e-05 0.034489861376693451 0 0.00011696638264719406 0.034376560356130834 0 0.00013683224022226846 0.034496010079297958 0 4.8007122975569347e-05 0.034489861376693451 0 6.6467165292125608e-05 0.034711895478523443 0 6.6467165292125608e-05 0.034711895478523443 0 0.00017227406416442598 0.034743039543418494 0 0.0001141141942891342 0.034790415233763659 0 0.00013683224022226846 0.034496010079297958 0 6.6467165292125608e-05 0.034711895478523443 0 0.00017227406416442598 0.034743039543418494 0 6.6467165292125608e-05 0.034711895478523443 0 0.0001141141942891342 0.034790415233763659 0 6.0252429146566982e-05 0.034808936625126297 0 -2.9044930865332128e-05 0.034793142571152257 0 6.6467165292125608e-05 0.034711895478523443 0 6.0252429146566982e-05 0.034808936625126297 0 -2.9044930865332128e-05 0.034793142571152257 0 6.0252429146566982e-05 0.034808936625126297 0 2.7687731077711608e-05 0.034837028373364637 0 0.0001141141942891342 0.034790415233763659 0 6.0252429146566982e-05 0.034808936625126297 0 8.5378214742761965e-05 0.034817493328789542 0 6.0252429146566982e-05 0.034808936625126297 0 4.9489707900920933e-05 0.034828703915340729 0 8.5378214742761965e-05 0.034817493328789542 0 4.9489707900920933e-05 0.034828703915340729 0 3.9172919128430176e-05 0.034827678675479826 0 6.5731778933900248e-05 0.034828640023806624 0 4.9489707900920933e-05 0.034828703915340729 0 6.5731778933900248e-05 0.034828640023806624 0 8.5378214742761965e-05 0.034817493328789542 0 4.9489707900920933e-05 0.034828703915340729 0 3.9172919128430176e-05 0.034827678675479826 0 1.6852498007779963e-05 0.034827467945680521 0 3.9172919128430176e-05 0.034827678675479826 0 1.6852498007779963e-05 0.034827467945680521 0 4.5747611418766031e-06 0.034815026070481023 0 1.6852498007779963e-05 0.034827467945680521 0 2.7687731077711608e-05 0.034837028373364637 0 6.8383342070331371e-06 0.034832187845209819 0 1.6852498007779963e-05 0.034827467945680521 0 6.8383342070331371e-06 0.034832187845209819 0 -1.8222216313795587e-05 0.034804940293799831 0 4.9489707900920933e-05 0.034828703915340729 0 1.6852498007779963e-05 0.034827467945680521 0 2.7687731077711608e-05 0.034837028373364637 0 6.0252429146566982e-05 0.034808936625126297 0 4.9489707900920933e-05 0.034828703915340729 0 2.7687731077711608e-05 0.034837028373364637 0 2.7687731077711608e-05 0.034837028373364637 0 1.3708203123314845e-05 0.034852087138254224 0 6.8383342070331371e-06 0.034832187845209819 0 2.8909949955314864e-05 0.034854748262918782 0 1.3708203123314845e-05 0.034852087138254224 0 2.6326622607558535e-05 0.034859462403237777 0 -3.7071984078584915e-05 0.034859335760902825 0 2.8909949955314864e-05 0.034854748262918782 0 2.6326622607558535e-05 0.034859462403237777 0 1.3708203123314845e-05 0.034852087138254224 0 2.6326622607558535e-05 0.034859462403237777 0 1.8660714135676369e-05 0.034818589903177301 0 -2.4360216704821382e-05 0.034911686272289105 0 -7.1426359593249237e-05 0.035096755964351911 0 -0.00016380032615419615 0.034836675647613544 0 -4.1495471910327501e-05 0.034922568391511248 0 -5.407294180175222e-05 0.03487731453304975 0 1.3708203123314845e-05 0.034852087138254224 0 6.8383342070331371e-06 0.034832187845209819 0 1.8660714135676369e-05 0.034818589903177301 0 6.8383342070331371e-06 0.034832187845209819 0 1.8660714135676369e-05 0.034818589903177301 0 -1.8222216313795587e-05 0.034804940293799831 0 -5.407294180175222e-05 0.03487731453304975 0 -6.0583830234116095e-05 0.034852359625703808 0 -0.00016380032615419615 0.034836675647613544 0 -0.0001261004970418773 0.034754441051834166 0 -6.4720188723014108e-05 0.034760219543056817 0 1.8660714135676369e-05 0.034818589903177301 0 -6.4720188723014108e-05 0.034760219543056817 0 -1.8222216313795587e-05 0.034804940293799831 0 -3.948614941327704e-05 0.034774630967461188 0 -2.4360216704821382e-05 0.034911686272289105 0 -0.00016380032615419615 0.034836675647613544 0 -3.948614941327704e-05 0.034774630967461188 0 -0.00016380032615419615 0.034836675647613544 0 -0.0001261004970418773 0.034754441051834166 0 -3.948614941327704e-05 0.034774630967461188 0 -8.9605800433512216e-05 0.034710854924457281 0 -0.0001261004970418773 0.034754441051834166 0 -1.793600701431331e-05 0.034626524345827338 0 -3.948614941327704e-05 0.034774630967461188 0 -8.9605800433512216e-05 0.034710854924457281 0 -8.9605800433512216e-05 0.034710854924457281 0 -0.0001261004970418773 0.034754441051834166 0 -0.00015321737567671912 0.034702291031291882 0 -0.00011861121378569585 0.034573070962965531 0 -8.9605800433512216e-05 0.034710854924457281 0 -0.00015321737567671912 0.034702291031291882 0 -0.00011861121378569585 0.034573070962965531 0 -1.793600701431331e-05 0.034626524345827338 0 -8.9605800433512216e-05 0.034710854924457281 0 -0.0001261004970418773 0.034754441051834166 0 -0.00015321737567671912 0.034702291031291882 0 -6.4720188723014108e-05 0.034760219543056817 0 -0.00013591553285388641 0.034779162337146223 0 -0.00015321737567671912 0.034702291031291882 0 -6.4720188723014108e-05 0.034760219543056817 0 1.5470576580624804e-05 0.034838453200405774 0 -3.9098344507919389e-05 0.03481337799741855 0 -1.7569193994705063e-05 0.034799677844378735 0 -6.4720188723014108e-05 0.034760219543056817 0 -1.7569193994705063e-05 0.034799677844378735 0 -1.8222216313795587e-05 0.034804940293799831 0 -3.9098344507919389e-05 0.03481337799741855 0 -6.4720188723014108e-05 0.034760219543056817 0 -1.7569193994705063e-05 0.034799677844378735 0 1.5470576580624804e-05 0.034838453200405774 0 -1.7569193994705063e-05 0.034799677844378735 0 1.1912317041816861e-05 0.034821075379258694 0 1.5470576580624804e-05 0.034838453200405774 0 1.1912317041816861e-05 0.034821075379258694 0 3.1559820064880247e-05 0.03483694344778155 0 1.1912317041816861e-05 0.034821075379258694 0 4.5747611418766031e-06 0.034815026070481023 0 3.3841726153722673e-05 0.034827629446558921 0 -1.7569193994705063e-05 0.034799677844378735 0 1.1912317041816861e-05 0.034821075379258694 0 4.5747611418766031e-06 0.034815026070481023 0 3.9172919128430176e-05 0.034827678675479826 0 4.5747611418766031e-06 0.034815026070481023 0 3.3841726153722673e-05 0.034827629446558921 0 1.6852498007779963e-05 0.034827467945680521 0 4.5747611418766031e-06 0.034815026070481023 0 -1.8222216313795587e-05 0.034804940293799831 0 -1.7569193994705063e-05 0.034799677844378735 0 4.5747611418766031e-06 0.034815026070481023 0 -1.8222216313795587e-05 0.034804940293799831 0 5.3720387041978566e-05 0.034837301041909297 0 6.6648640211394752e-05 0.034841148844331794 0 6.3539411529961952e-05 0.034840868902668395 0 5.3720387041978566e-05 0.034837301041909297 0 3.3841726153722673e-05 0.034827629446558921 0 3.1559820064880247e-05 0.03483694344778155 0 5.3720387041978566e-05 0.034837301041909297 0 3.3841726153722673e-05 0.034827629446558921 0 6.2047115783481297e-05 0.034833929243769955 0 1.1912317041816861e-05 0.034821075379258694 0 3.3841726153722673e-05 0.034827629446558921 0 3.1559820064880247e-05 0.03483694344778155 0 1.5470576580624804e-05 0.034838453200405774 0 3.1559820064880247e-05 0.03483694344778155 0 4.7745101123882811e-05 0.034862357121153265 0 5.3720387041978566e-05 0.034837301041909297 0 3.1559820064880247e-05 0.03483694344778155 0 4.7745101123882811e-05 0.034862357121153265 0 -6.0595791073374377e-06 0.034704526355477883 0 1.3464119248792392e-05 0.034730863263539344 0 5.3720387041978566e-05 0.034837301041909297 0 4.7745101123882811e-05 0.034862357121153265 0 6.6648640211394752e-05 0.034841148844331794 0 4.2175028631997599e-05 0.034892391139690608 0 4.0880596131524937e-05 0.034893875741714965 0 4.9287258146704782e-05 0.034881729492754199 0 4.7745101123882811e-05 0.034862357121153265 0 6.6648640211394752e-05 0.034841148844331794 0 3.6395675395805885e-05 0.034907832283581942 0 3.4368937991704335e-05 0.0349375645202636 0 2.3603342169802533e-05 0.034921283162825154 0 3.6395675395805885e-05 0.034907832283581942 0 4.9287258146704782e-05 0.034881729492754199 0 3.4368937991704335e-05 0.0349375645202636 0 3.4368937991704335e-05 0.0349375645202636 0 1.413425548549125e-05 0.034942623807250751 0 2.3603342169802533e-05 0.034921283162825154 0 1.413425548549125e-05 0.034942623807250751 0 2.3603342169802533e-05 0.034921283162825154 0 1.1161086900613154e-05 0.03493330166733298 0 4.0880596131524937e-05 0.034893875741714965 0 3.3635648365738478e-05 0.034900263421525135 0 3.4368937991704335e-05 0.0349375645202636 0 1.413425548549125e-05 0.034942623807250751 0 6.320248587366768e-06 0.034952173930517146 0 6.6648640211394752e-05 0.034841148844331794 0 6.3539411529961952e-05 0.034840868902668395 0 4.8162310532870682e-05 0.034848289043320886 0 6.3539411529961952e-05 0.034840868902668395 0 4.8162310532870682e-05 0.034848289043320886 0 6.6622383668603263e-05 0.034852417316423454 0 4.8162310532870682e-05 0.034848289043320886 0 4.9111147514128514e-05 0.034882813560265409 0 6.6622383668603263e-05 0.034852417316423454 0 4.9111147514128514e-05 0.034882813560265409 0 6.6622383668603263e-05 0.034852417316423454 0 7.1066728883887749e-05 0.034857751378610795 0 6.6622383668603263e-05 0.034852417316423454 0 7.9160298844563415e-05 0.034834749956165492 0 6.2047115783481297e-05 0.034833929243769955 0 6.3539411529961952e-05 0.034840868902668395 0 6.6622383668603263e-05 0.034852417316423454 0 6.2047115783481297e-05 0.034833929243769955 0 5.3720387041978566e-05 0.034837301041909297 0 6.3539411529961952e-05 0.034840868902668395 0 6.2047115783481297e-05 0.034833929243769955 0 3.9172919128430176e-05 0.034827678675479826 0 3.3841726153722673e-05 0.034827629446558921 0 6.2047115783481297e-05 0.034833929243769955 0 3.9172919128430176e-05 0.034827678675479826 0 6.2047115783481297e-05 0.034833929243769955 0 6.5731778933900248e-05 0.034828640023806624 0 7.9160298844563415e-05 0.034834749956165492 0 6.2047115783481297e-05 0.034833929243769955 0 6.5731778933900248e-05 0.034828640023806624 0 7.9160298844563415e-05 0.034834749956165492 0 6.5731778933900248e-05 0.034828640023806624 0 8.5378214742761965e-05 0.034817493328789542 0 0.0001141141942891342 0.034790415233763659 0 8.5378214742761965e-05 0.034817493328789542 0 0.00010544836600600039 0.034813458141969601 0 7.9160298844563415e-05 0.034834749956165492 0 8.5378214742761965e-05 0.034817493328789542 0 0.00010544836600600039 0.034813458141969601 0 7.9160298844563415e-05 0.034834749956165492 0 0.00010544836600600039 0.034813458141969601 0 7.1066728883887749e-05 0.034857751378610795 0 0.00010544836600600039 0.034813458141969601 0 9.1460230716561628e-05 0.034841891404546708 0 7.1066728883887749e-05 0.034857751378610795 0 0.00017227406416442598 0.034743039543418494 0 0.0001141141942891342 0.034790415233763659 0 0.00010544836600600039 0.034813458141969601 0 0.00017227406416442598 0.034743039543418494 0 0.00010544836600600039 0.034813458141969601 0 9.1460230716561628e-05 0.034841891404546708 0 0.00017227406416442598 0.034743039543418494 0 9.1460230716561628e-05 0.034841891404546708 0 0.00012878308333127498 0.034879472094205784 0 9.1460230716561628e-05 0.034841891404546708 0 0.00012878308333127498 0.034879472094205784 0 6.9619416416423044e-05 0.034905784338067375 0 0.00016406133807049208 0.034730933732157375 0 7.3894172281128024e-05 0.034847000245262258 0 0.00017230289374388821 0.034727352916194262 0 0.00016406133807049208 0.034730933732157375 0 3.9574062456481594e-05 0.034937705083239651 0 6.9619416416423044e-05 0.034905784338067375 0 4.9330561360711059e-05 0.034898879353489065 0 3.64550205741155e-05 0.034908109432982781 0 7.3894172281128024e-05 0.034847000245262258 0 9.1460230716561628e-05 0.034841891404546708 0 6.9619416416423044e-05 0.034905784338067375 0 4.9330561360711059e-05 0.034898879353489065 0 4.9330561360711059e-05 0.034898879353489065 0 7.1066728883887749e-05 0.034857751378610795 0 4.1405129351900604e-05 0.034899124641481066 0 9.1460230716561628e-05 0.034841891404546708 0 4.9330561360711059e-05 0.034898879353489065 0 7.1066728883887749e-05 0.034857751378610795 0 6.6622383668603263e-05 0.034852417316423454 0 7.9160298844563415e-05 0.034834749956165492 0 7.1066728883887749e-05 0.034857751378610795 0 4.9111147514128514e-05 0.034882813560265409 0 7.1066728883887749e-05 0.034857751378610795 0 4.1405129351900604e-05 0.034899124641481066 0 4.9111147514128514e-05 0.034882813560265409 0 4.1405129351900604e-05 0.034899124641481066 0 1.3901226140061315e-05 0.034926821065902489 0 2.4518839635448694e-05 0.034929049494777716 0 8.7263846134282073e-06 0.034961640053859343 0 1.3901226140061315e-05 0.034926821065902489 0 4.1405129351900604e-05 0.034899124641481066 0 2.4518839635448694e-05 0.034929049494777716 0 1.3901226140061315e-05 0.034926821065902489 0 2.4518839635448694e-05 0.034929049494777716 0 1.0084972711570328e-05 0.034963701344332944 0 8.7263846134282073e-06 0.034961640053859343 0 4.9330561360711059e-05 0.034898879353489065 0 4.1405129351900604e-05 0.034899124641481066 0 2.4518839635448694e-05 0.034929049494777716 0 3.9574062456481594e-05 0.034937705083239651 0 4.9330561360711059e-05 0.034898879353489065 0 2.316195924928035e-05 0.034943879447909998 0 4.9330561360711059e-05 0.034898879353489065 0 2.4518839635448694e-05 0.034929049494777716 0 2.316195924928035e-05 0.034943879447909998 0 2.4518839635448694e-05 0.034929049494777716 0 2.316195924928035e-05 0.034943879447909998 0 1.0084972711570328e-05 0.034963701344332944 0 2.316195924928035e-05 0.034943879447909998 0 1.086566563000494e-05 0.034969837172603824 0 1.0084972711570328e-05 0.034963701344332944 0 2.316195924928035e-05 0.034943879447909998 0 1.7104858529019616e-05 0.034966834997346416 0 1.086566563000494e-05 0.034969837172603824 0 3.9574062456481594e-05 0.034937705083239651 0 2.316195924928035e-05 0.034943879447909998 0 1.7104858529019616e-05 0.034966834997346416 0 3.64550205741155e-05 0.034908109432982781 0 1.5782025896411655e-05 0.034939643902330245 0 5.4677959233145362e-10 0.034999976291562283 0 2.0529458385545532e-06 0.034993274105788216 0 3.145547580683249e-06 0.034985143758528396 0 2.0529458385545532e-06 0.034993274105788216 0 1.086566563000494e-05 0.034969837172603824 0 3.145547580683249e-06 0.034985143758528396 0 1.7104858529019616e-05 0.034966834997346416 0 2.0529458385545532e-06 0.034993274105788216 0 1.086566563000494e-05 0.034969837172603824 0 1.5782025896411655e-05 0.034939643902330245 0 6.993098234365195e-06 0.034950201575019699 0 1.8569849566124018e-05 0.034987954343940454 0 2.0529458385545532e-06 0.034993274105788216 0 9.8225491635717728e-06 0.034993938861857705 0 1.086566563000494e-05 0.034969837172603824 0 1.0084972711570328e-05 0.034963701344332944 0 3.145547580683249e-06 0.034985143758528396 0 1.0084972711570328e-05 0.034963701344332944 0 3.145547580683249e-06 0.034985143758528396 0 1.885158521300733e-09 0.034999958734730274 0 5.4677959233145362e-10 0.034999976291562283 0 3.145547580683249e-06 0.034985143758528396 0 1.885158521300733e-09 0.034999958734730274 0 1.0084972711570328e-05 0.034963701344332944 0 1.885158521300733e-09 0.034999958734730274 0 8.7263846134282073e-06 0.034961640053859343 0 1.885158521300733e-09 0.034999958734730274 0 8.7263846134282073e-06 0.034961640053859343 0 6.1402326994365953e-09 0.034999955321894517 0 8.7263846134282073e-06 0.034961640053859343 0 6.1402326994365953e-09 0.034999955321894517 0 6.6079225509874385e-06 0.034970187106803288 0 6.1402326994365953e-09 0.034999955321894517 0 6.6079225509874385e-06 0.034970187106803288 0 3.8546879250940941e-09 0.034999965620337248 0 6.6079225509874385e-06 0.034970187106803288 0 3.8546879250940941e-09 0.034999965620337248 0 5.5168546282451489e-06 0.034969263335062548 0 8.7263846134282073e-06 0.034961640053859343 0 6.6079225509874385e-06 0.034970187106803288 0 1.3901226140061315e-05 0.034926821065902489 0 1.3901226140061315e-05 0.034926821065902489 0 3.724091815833013e-06 0.034960969870520227 0 5.5168546282451489e-06 0.034969263335062548 0 6.320248587366768e-06 0.034952173930517146 0 1.3901226140061315e-05 0.034926821065902489 0 3.724091815833013e-06 0.034960969870520227 0 4.8162310532870682e-05 0.034848289043320886 0 4.9111147514128514e-05 0.034882813560265409 0 1.3901226140061315e-05 0.034926821065902489 0 3.3635648365738478e-05 0.034900263421525135 0 2.748110398360704e-05 0.034907057430919319 0 6.6079225509874385e-06 0.034970187106803288 0 1.3901226140061315e-05 0.034926821065902489 0 5.5168546282451489e-06 0.034969263335062548 0 3.724091815833013e-06 0.034960969870520227 0 -7.9700105933335545e-06 0.034967120605185205 0 5.5168546282451489e-06 0.034969263335062548 0 1.413425548549125e-05 0.034942623807250751 0 6.320248587366768e-06 0.034952173930517146 0 3.724091815833013e-06 0.034960969870520227 0 -7.6204987023423947e-07 0.03494691872056286 0 3.724091815833013e-06 0.034960969870520227 0 1.1161086900613154e-05 0.03493330166733298 0 1.413425548549125e-05 0.034942623807250751 0 3.724091815833013e-06 0.034960969870520227 0 1.1161086900613154e-05 0.03493330166733298 0 -7.6204987023423947e-07 0.03494691872056286 0 3.724091815833013e-06 0.034960969870520227 0 -7.9700105933335545e-06 0.034967120605185205 0 -2.9182096698348214e-06 0.034985964226950807 0 -7.9700105933335545e-06 0.034967120605185205 0 3.1643560665755542e-07 0.034983332639236912 0 -7.9700105933335545e-06 0.034967120605185205 0 3.1643560665755542e-07 0.034983332639236912 0 5.5168546282451489e-06 0.034969263335062548 0 2.6823554387152162e-09 0.034999975819712495 0 3.1643560665755542e-07 0.034983332639236912 0 3.8546879250940941e-09 0.034999965620337248 0 2.6823554387152162e-09 0.034999975819712495 0 -1.4866305597178616e-07 0.034992302121781553 0 3.1643560665755542e-07 0.034983332639236912 0 3.1643560665755542e-07 0.034983332639236912 0 3.8546879250940941e-09 0.034999965620337248 0 5.5168546282451489e-06 0.034969263335062548 0 -0.0032459592518675586 0.022130749425883486 0 -0.0033754801310205244 0.0221274863246032 0 -0.0032465239563930072 0.022233143206377148 0 -0.0033754801310205244 0.0221274863246032 0 -0.0032465239563930072 0.022233143206377148 0 -0.0034491201458247164 0.022236011566694313 0 -0.0032465239563930072 0.022233143206377148 0 -0.0034491201458247164 0.022236011566694313 0 -0.0033112300504922212 0.02242992315331422 0 -0.0032465239563930072 0.022233143206377148 0 -0.003139279095219682 0.022169716695665156 0 -0.0031072761933644893 0.022319955422742035 0 -0.003139279095219682 0.022169716695665156 0 -0.0031072761933644893 0.022319955422742035 0 -0.0030154285980949855 0.022192609374164351 0 -0.003139279095219682 0.022169716695665156 0 -0.0030468465267367655 0.022073700539594572 0 -0.0030154285980949855 0.022192609374164351 0 -0.0031769905611049747 0.022100723348379633 0 -0.003139279095219682 0.022169716695665156 0 -0.0030468465267367655 0.022073700539594572 0 -0.0032459592518675586 0.022130749425883486 0 -0.0031769905611049747 0.022100723348379633 0 -0.003139279095219682 0.022169716695665156 0 -0.0032459592518675586 0.022130749425883486 0 -0.0032465239563930072 0.022233143206377148 0 -0.003139279095219682 0.022169716695665156 0 -0.0030468465267367655 0.022073700539594572 0 -0.0032756791238189148 0.022028799583837803 0 -0.0029058458485149573 0.022032596491192005 0 -0.003097974836628878 0.013251847874267484 0 -0.0043929439430272195 0.01363302516130434 0 -0.0018060271328844348 0.013740808142941027 0 -0.0033502459438457147 0.018859879328327025 0 -0.0027813252464018437 0.016212420707199793 0 -0.0031769905611049747 0.022100723348379633 0 -0.0030468465267367655 0.022073700539594572 0 -0.0032756791238189148 0.022028799583837803 0 -0.003097974836628878 0.013251847874267484 0 -0.0023481681657430719 0.012943729289010926 0 -0.0028691535408918896 0.01261652308706312 0 -0.003097974836628878 0.013251847874267484 0 -0.0035612917067207894 0.012483020795979568 0 -0.0028691535408918896 0.01261652308706312 0 -0.003097974836628878 0.013251847874267484 0 -0.0038018642186747262 0.013289207695503513 0 -0.0043929439430272195 0.01363302516130434 0 -0.003097974836628878 0.013251847874267484 0 -0.0038018642186747262 0.013289207695503513 0 -0.0035612917067207894 0.012483020795979568 0 -0.0038018642186747262 0.013289207695503513 0 -0.0040247804190070551 0.012839723614663198 0 -0.0035612917067207894 0.012483020795979568 0 -0.0038018642186747262 0.013289207695503513 0 -0.0040247804190070551 0.012839723614663198 0 -0.0041683817971087528 0.013268426211699349 0 -0.0044422456197217627 0.013260125224270114 0 -0.0043929439430272195 0.01363302516130434 0 -0.0061339990218452723 0.013593879423589517 0 -0.0040247804190070551 0.012839723614663198 0 -0.0044422456197217627 0.013260125224270114 0 -0.0041683817971087528 0.013268426211699349 0 -0.0038018642186747262 0.013289207695503513 0 -0.0041683817971087528 0.013268426211699349 0 -0.0043929439430272195 0.01363302516130434 0 -0.0044422456197217627 0.013260125224270114 0 -0.0041683817971087528 0.013268426211699349 0 -0.0043929439430272195 0.01363302516130434 0 -0.0032459592518675586 0.022130749425883486 0 -0.0033754801310205244 0.0221274863246032 0 -0.0032756791238189148 0.022028799583837803 0 -0.0032459592518675586 0.022130749425883486 0 -0.0031769905611049747 0.022100723348379633 0 -0.0032756791238189148 0.022028799583837803 0 -0.0033502459438457147 0.018859879328327025 0 -0.0017748804611692995 0.022331007519495148 0 -0.0033754801310205244 0.0221274863246032 0 -0.0032756791238189148 0.022028799583837803 0 -0.0036733012091811575 0.021997489731063465 0 -0.0017748804611692995 0.022331007519495148 0 -0.0010241749795002924 0.018654732293281292 0 -0.0044422456197217627 0.013260125224270114 0 -0.0061339990218452723 0.013593879423589517 0 -0.0050837660511228741 0.012538408209679004 0 0.0011402687405919136 0.021961380558471008 0 0.00096964922215088791 0.021777468776666645 0 0.00080571065645818063 0.021964209447217473 0 -0.0017748804611692995 0.022331007519495148 0 -0.00012842827932541711 0.02511127652040954 0 -0.0017748804611692995 0.022331007519495148 0 -0.0027851311674980932 0.025814012123345387 0 -0.0036733012091811575 0.021997489731063465 0 -0.0036484987646986135 0.022391590625471317 0 -0.0039340722001677412 0.022217362261590438 0 -0.0036733012091811575 0.021997489731063465 0 -0.0034491201458247164 0.022236011566694313 0 -0.0036484987646986135 0.022391590625471317 0 -0.0033754801310205244 0.0221274863246032 0 -0.0036733012091811575 0.021997489731063465 0 -0.0034491201458247164 0.022236011566694313 0 -0.0034491201458247164 0.022236011566694313 0 -0.0036484987646986135 0.022391590625471317 0 -0.0033112300504922212 0.02242992315331422 0 -0.0036484987646986135 0.022391590625471317 0 -0.0034665791507472368 0.02262003582119753 0 -0.0033112300504922212 0.02242992315331422 0 -0.0036484987646986135 0.022391590625471317 0 -0.0036610708532553711 0.022711795957809495 0 -0.0039037395291356301 0.022524448368141853 0 -0.0036484987646986135 0.022391590625471317 0 -0.0039340722001677412 0.022217362261590438 0 -0.0039037395291356301 0.022524448368141853 0 -0.0036610708532553711 0.022711795957809495 0 -0.0039037395291356301 0.022524448368141853 0 -0.0040478633096802559 0.022881224029286447 0 -0.0036610708532553711 0.022711795957809495 0 -0.0034665791507472368 0.02262003582119753 0 -0.0034434666134150454 0.022791204941259302 0 -0.0036484987646986135 0.022391590625471317 0 -0.0036610708532553711 0.022711795957809495 0 -0.0034665791507472368 0.02262003582119753 0 -0.0034665791507472368 0.02262003582119753 0 -0.0032383596085427324 0.022708314591312419 0 -0.0034434666134150454 0.022791204941259302 0 -0.0034665791507472368 0.02262003582119753 0 -0.0032383596085427324 0.022708314591312419 0 -0.0033112300504922212 0.02242992315331422 0 -0.0032465239563930072 0.022233143206377148 0 -0.0033112300504922212 0.02242992315331422 0 -0.0031072761933644893 0.022319955422742035 0 -0.0033112300504922212 0.02242992315331422 0 -0.0031072761933644893 0.022319955422742035 0 -0.0030596664527457042 0.022515331151000725 0 -0.0032383596085427324 0.022708314591312419 0 -0.0033112300504922212 0.02242992315331422 0 -0.0030596664527457042 0.022515331151000725 0 -0.0032383596085427324 0.022708314591312419 0 -0.0030596664527457042 0.022515331151000725 0 -0.0030167999878868831 0.022700374579621017 0 -0.0030596664527457042 0.022515331151000725 0 -0.0028002105877338928 0.022558414684607377 0 -0.0030167999878868831 0.022700374579621017 0 -0.0027140956324231726 0.021501214223738029 0 -0.0020757140053567166 0.021565274598442485 0 -0.0023266940931339626 0.022097508870232319 0 -0.0027140956324231726 0.021501214223738029 0 -0.0020757140053567166 0.021565274598442485 0 -0.0025488694315194561 0.020765030856594202 0 -0.0028002105877338928 0.022558414684607377 0 -0.0029297198633283961 0.022337396745147738 0 -0.0027213748958490173 0.022253692969543028 0 -0.0026668542271403592 0.021377902154972615 0 -0.0021397370310570437 0.018767959901587215 0 -0.0030596664527457042 0.022515331151000725 0 -0.0028002105877338928 0.022558414684607377 0 -0.0029297198633283961 0.022337396745147738 0 -0.0031072761933644893 0.022319955422742035 0 -0.0030596664527457042 0.022515331151000725 0 -0.0029297198633283961 0.022337396745147738 0 -0.0018268562838964081 0.013564260062865149 0 -0.0017418529319807999 0.013428085223406007 0 -0.0014676160638349813 0.021793810177896528 0 -0.0020757140053567166 0.021565274598442485 0 -0.0018590796502086604 0.020873581640996109 0 -0.0014676160638349813 0.021793810177896528 0 -0.0020757140053567166 0.021565274598442485 0 -0.0018943776941101173 0.022084208824816706 0 -0.0020757140053567166 0.021565274598442485 0 -0.0018590796502086604 0.020873581640996109 0 -0.0026899781985413088 0.020548053182301223 0 -0.0017024365325705557 0.020284673482328854 0 -0.0021397370310570437 0.018767959901587215 0 -0.0022196280148525935 0.0053528121438501785 0 -0.0018024145538115155 0.0060958807498365571 0 -0.0022228354029865819 0.0059754624046659344 0 -0.0018024145538115155 0.0060958807498365571 0 -0.0022228354029865819 0.0059754624046659344 0 -0.0021048629596945967 0.0064043202605676818 0 -0.0024151226182799546 0.006269320695678423 0 -0.0022228354029865819 0.0059754624046659344 0 -0.0021048629596945967 0.0064043202605676818 0 -0.0018024145538115155 0.0060958807498365571 0 -0.0021048629596945967 0.0064043202605676818 0 -0.0018237447109132599 0.0065806231548740128 0 -0.002393141759570382 0.0065617504989277722 0 -0.0021048629596945967 0.0064043202605676818 0 -0.0020892845798282603 0.0068256140028949567 0 -0.0021048629596945967 0.0064043202605676818 0 -0.0018237447109132599 0.0065806231548740128 0 -0.0020892845798282603 0.0068256140028949567 0 -0.0017418529319807999 0.013428085223406007 0 -0.0015750729970178839 0.013286593415765971 0 -0.0018590796502086604 0.020873581640996109 0 -0.002351216136586909 0.019871295492342466 0 -0.0026899781985413088 0.020548053182301223 0 -0.0018024145538115155 0.0060958807498365571 0 -0.0018237447109132599 0.0065806231548740128 0 -0.0014141770020521134 0.006850723124260231 0 -0.0010648749082985626 0.0069056384392575509 0 -0.0015658382522276287 0.0072240703376038537 0 -0.0018591207865436288 0.0068762260455318578 0 -0.0015750729970178839 0.013286593415765971 0 -0.0019772030946935788 0.010897702101622666 0 -0.0018237447109132599 0.0065806231548740128 0 -0.0014141770020521134 0.006850723124260231 0 -0.0020892845798282603 0.0068256140028949567 0 -0.0010648749082985626 0.0069056384392575509 0 -0.00070507940155489313 0.0076094914142245552 0 -0.0012502954704350193 0.0074105439694061564 0 -0.0010648749082985626 0.0069056384392575509 0 -0.0015658382522276287 0.0072240703376038537 0 -0.0012502954704350193 0.0074105439694061564 0 -0.0015658382522276287 0.0072240703376038537 0 -0.0018959109195010369 0.0072950034939356099 0 -0.0018591207865436288 0.0068762260455318578 0 -0.0022736035359840322 0.0070803722156595958 0 -0.0018959109195010369 0.0072950034939356099 0 -0.0018591207865436288 0.0068762260455318578 0 -0.0029297198633283961 0.022337396745147738 0 -0.0028817904013049762 0.022173488318766248 0 -0.0027213748958490173 0.022253692969543028 0 -0.0028817904013049762 0.022173488318766248 0 -0.0030154285980949855 0.022192609374164351 0 -0.00291212744959368 0.022033898461579028 0 -0.0030468465267367655 0.022073700539594572 0 -0.0030154285980949855 0.022192609374164351 0 -0.0029058458485149573 0.022032596491192005 0 -0.003365456468226656 0.017509102116375835 0 -0.0027813252464018437 0.016212420707199793 0 -0.0029297198633283961 0.022337396745147738 0 -0.0028817904013049762 0.022173488318766248 0 -0.0030154285980949855 0.022192609374164351 0 -0.0031072761933644893 0.022319955422742035 0 -0.0029297198633283961 0.022337396745147738 0 -0.0030154285980949855 0.022192609374164351 0 -0.0021397370310570437 0.018767959901587215 0 -0.0019478597009764142 0.01446714585497336 0 -0.0028817904013049762 0.022173488318766248 0 -0.0027213748958490173 0.022253692969543028 0 -0.0028463942999207466 0.022034591042528921 0 -0.002351216136586909 0.019871295492342466 0 -0.0026899781985413088 0.020548053182301223 0 -0.0025395701265688965 0.019867780028504915 0 -0.0021397370310570437 0.018767959901587215 0 -0.0023623676007164507 0.015844489809717113 0 -0.0028501011476986882 0.015532046042584733 0 -0.0030573918430252841 0.016452135611515217 0 -0.0022947020685710438 0.016464196967313573 0 -0.0015750729970178839 0.013286593415765971 0 -0.0016746028030977149 0.011531717827517904 0 -0.0013743922604385842 0.013679838050346029 0 -0.00080502234324424863 0.013632858984289221 0 -0.00095506026508667275 0.013379963772203967 0 -0.002103054602666602 0.013361045621542547 0 -0.0018120663601444271 0.013365757888378894 0 -0.0014714096612103171 0.014583025526596101 0 -0.0018120663601444271 0.013365757888378894 0 -0.0013743922604385842 0.013679838050346029 0 -0.0014714096612103171 0.014583025526596101 0 -0.0018120663601444271 0.013365757888378894 0 -0.0013743922604385842 0.013679838050346029 0 -0.00095506026508667275 0.013379963772203967 0 -0.0019478597009764142 0.01446714585497336 0 -0.0023623676007164507 0.015844489809717113 0 -0.0015750729970178839 0.013286593415765971 0 -0.0019478597009764142 0.01446714585497336 0 -0.0013743922604385842 0.013679838050346029 0 -0.00080502234324424863 0.013632858984289221 0 -0.0014714096612103171 0.014583025526596101 0 -0.0015502050503967786 0.013384151106544897 0 -0.0018060271328844348 0.013740808142941027 0 -0.0023481681657430719 0.012943729289010926 0 -0.002546431731110342 0.015035568067373004 0 -0.0023623676007164507 0.015844489809717113 0 -0.0023623676007164507 0.015844489809717113 0 -0.0027813252464018437 0.016212420707199793 0 -0.0028817904013049762 0.022173488318766248 0 -0.0028463942999207466 0.022034591042528921 0 -0.00291212744959368 0.022033898461579028 0 -0.0024440870410970222 0.018555876821108246 0 -0.0043283406133997667 0.01537753045865576 0 -0.00026557400808902882 0.015441957981325303 0 -0.002546431731110342 0.015035568067373004 0 -0.0027813252464018437 0.016212420707199793 0 -0.003097974836628878 0.013251847874267484 0 -0.0018060271328844348 0.013740808142941027 0 -0.0023481681657430719 0.012943729289010926 0 -0.0023481681657430719 0.012943729289010926 0 -0.0024645298609022141 0.011775629223144866 0 -0.0028691535408918896 0.01261652308706312 0 -0.0021684353470891589 0.012322310984458809 0 -0.0028097109544224586 0.011233663700654846 0 -0.002177673082058264 0.011248735641328894 0 -0.0015502050503967786 0.013384151106544897 0 -0.0023481681657430719 0.012943729289010926 0 -0.0024645298609022141 0.011775629223144866 0 -0.002546431731110342 0.015035568067373004 0 -0.003210551757496594 0.012800289349698447 0 -0.0028097109544224586 0.011233663700654846 0 -0.002177673082058264 0.011248735641328894 0 -0.002473445882413917 0.010702725228307985 0 -0.0021684353470891589 0.012322310984458809 0 -0.002177673082058264 0.011248735641328894 0 -0.0015060826075322072 0.011376444828710206 0 -0.002546431731110342 0.015035568067373004 0 -0.0016746028030977149 0.011531717827517904 0 -0.0016746028030977149 0.011531717827517904 0 -0.0013759616177649152 0.010052206903129249 0 -0.002177673082058264 0.011248735641328894 0 -0.0015060826075322072 0.011376444828710206 0 -0.0018776387157142462 0.010650029684183798 0 -0.0016746028030977149 0.011531717827517904 0 -0.0017255360125917329 0.011401184257820112 0 -0.0018776387157142462 0.010650029684183798 0 -0.0014697797800218445 0.010029916961794864 0 -0.00087103207026433492 0.010490385728187427 0 -0.001498157058393801 0.011386465354321187 0 -0.0018776387157142462 0.010650029684183798 0 -0.00087103207026433492 0.010490385728187427 0 -0.0014697797800218445 0.010029916961794864 0 -0.00087103207026433492 0.010490385728187427 0 -0.0012352566779940861 0.0092957497405129711 0 -0.0018776387157142462 0.010650029684183798 0 -0.0014697797800218445 0.010029916961794864 0 -0.0018936047690039939 0.0096772142596138599 0 -0.0018776387157142462 0.010650029684183798 0 -0.0025295721338586142 0.0099908077424035961 0 -0.0018936047690039939 0.0096772142596138599 0 -0.0025295721338586142 0.0099908077424035961 0 -0.0028252194691690074 0.010533330606677615 0 -0.002473445882413917 0.010702725228307985 0 -0.0025295721338586142 0.0099908077424035961 0 -0.0028252194691690074 0.010533330606677615 0 -0.0034794143097981217 0.010185453902485002 0 -0.0028097109544224586 0.011233663700654846 0 -0.0028252194691690074 0.010533330606677615 0 -0.002473445882413917 0.010702725228307985 0 -0.002177673082058264 0.011248735641328894 0 -0.0018776387157142462 0.010650029684183798 0 -0.002473445882413917 0.010702725228307985 0 -0.0018776387157142462 0.010650029684183798 0 -0.0025295721338586142 0.0099908077424035961 0 -0.002473445882413917 0.010702725228307985 0 -0.0024008601855837145 0.0077212633492095822 0 -0.0017652565865470251 0.0076342446303890961 0 -0.002113596757509442 0.008011883017917382 0 -0.0022745934282776686 0.0074222333189481425 0 -0.0018959109195010369 0.0072950034939356099 0 -0.0017652565865470251 0.0076342446303890961 0 -0.0015658382522276287 0.0072240703376038537 0 -0.0018959109195010369 0.0072950034939356099 0 -0.0017652565865470251 0.0076342446303890961 0 -0.0017652565865470251 0.0076342446303890961 0 -0.0013174742991775956 0.0078004543249136932 0 -0.0017091937059848491 0.0081430080541395455 0 -0.00070507940155489313 0.0076094914142245552 0 -0.0013174742991775956 0.0078004543249136932 0 -0.0010620454861501498 0.0081126466358646919 0 -0.00070507940155489313 0.0076094914142245552 0 -0.0013174742991775956 0.0078004543249136932 0 -0.0012502954704350193 0.0074105439694061564 0 -0.0017652565865470251 0.0076342446303890961 0 -0.0013174742991775956 0.0078004543249136932 0 -0.0012502954704350193 0.0074105439694061564 0 -0.0015658382522276287 0.0072240703376038537 0 -0.0017652565865470251 0.0076342446303890961 0 -0.0012502954704350193 0.0074105439694061564 0 -0.0010620454861501498 0.0081126466358646919 0 -0.0017091937059848491 0.0081430080541395455 0 -0.0014176933276016939 0.0086142691884416294 0 -0.0013174742991775956 0.0078004543249136932 0 -0.0010620454861501498 0.0081126466358646919 0 -0.0017091937059848491 0.0081430080541395455 0 -0.0013759616177649152 0.010052206903129249 0 -0.0016073376924284565 0.0093711356636703505 0 -0.0022718833176217693 0.0083561726525040181 0 -0.0017091937059848491 0.0081430080541395455 0 -0.002113596757509442 0.008011883017917382 0 -0.0022718833176217693 0.0083561726525040181 0 -0.0017091937059848491 0.0081430080541395455 0 -0.0014176933276016939 0.0086142691884416294 0 -0.0017652565865470251 0.0076342446303890961 0 -0.0017091937059848491 0.0081430080541395455 0 -0.002113596757509442 0.008011883017917382 0 -0.0022595012514077901 0.0087109659233565936 0 -0.0020466363357338076 0.0086615629981332733 0 -0.0021812603530298267 0.0088145014099038407 0 -0.0023356710221954405 0.0088291232808134935 0 -0.0016073376924284565 0.0093711356636703505 0 -0.0023507480699989374 0.0084620402165494768 0 -0.0022595012514077901 0.0087109659233565936 0 -0.0020466363357338076 0.0086615629981332733 0 -0.0021789228364447288 0.0088879280346029505 0 -0.0021817244869287984 0.0088636172386276895 0 -0.0021812603530298267 0.0088145014099038407 0 -0.00087103207026433492 0.010490385728187427 0 -0.00023829673051452768 0.0095846593669564432 0 -0.0012352566779940861 0.0092957497405129711 0 -0.0021789228364447288 0.0088879280346029505 0 -0.0021817244869287984 0.0088636172386276895 0 -0.0022115235238406644 0.0089481615244342578 0 -0.0016073376924284565 0.0093711356636703505 0 -0.0016296196939953611 0.0093169005017096195 0 -0.0016073376924284565 0.0093711356636703505 0 -0.001767052079879595 0.009278112544025734 0 -0.0021697085573257422 0.0088493374247665402 0 -0.0022254017290640883 0.0088725562430507741 0 -0.0021817244869287984 0.0088636172386276895 0 -0.0022254017290640883 0.0088725562430507741 0 -0.0021817244869287984 0.0088636172386276895 0 -0.0021812603530298267 0.0088145014099038407 0 -0.0023273673827847443 0.0088696482272679848 0 -0.0022254017290640883 0.0088725562430507741 0 -0.0022979921477351761 0.0088216089510286567 0 -0.0022254017290640883 0.0088725562430507741 0 -0.0021812603530298267 0.0088145014099038407 0 -0.0022979921477351761 0.0088216089510286567 0 -0.0022595012514077901 0.0087109659233565936 0 -0.0021812603530298267 0.0088145014099038407 0 -0.0022979921477351761 0.0088216089510286567 0 -0.0025295721338586142 0.0099908077424035961 0 -0.0024782289785059059 0.0090150101542401592 0 -0.0034794143097981217 0.010185453902485002 0 -0.0023222399967949268 0.0090238832466908222 0 -0.0023124494668732994 0.0094098639908312982 0 -0.0018936047690039939 0.0096772142596138599 0 -0.0023222399967949268 0.0090238832466908222 0 -0.0024782289785059059 0.0090150101542401592 0 -0.0023124494668732994 0.0094098639908312982 0 -0.0025295721338586142 0.0099908077424035961 0 -0.0024782289785059059 0.0090150101542401592 0 -0.0023124494668732994 0.0094098639908312982 0 -0.0025295721338586142 0.0099908077424035961 0 -0.0023124494668732994 0.0094098639908312982 0 -0.0018936047690039939 0.0096772142596138599 0 -0.0014697797800218445 0.010029916961794864 0 -0.0018936047690039939 0.0096772142596138599 0 -0.0012352566779940861 0.0092957497405129711 0 -0.0023222399967949268 0.0090238832466908222 0 -0.0018936047690039939 0.0096772142596138599 0 -0.0012352566779940861 0.0092957497405129711 0 -0.0018989827604027141 0.0092284122641617602 0 -0.001767052079879595 0.009278112544025734 0 -0.0021697085573257422 0.0088493374247665402 0 -0.0021817244869287984 0.0088636172386276895 0 -0.0022115235238406644 0.0089481615244342578 0 -0.0021697085573257422 0.0088493374247665402 0 -0.0023222399967949268 0.0090238832466908222 0 -0.0022115235238406644 0.0089481615244342578 0 -0.0021697085573257422 0.0088493374247665402 0 -0.0023222399967949268 0.0090238832466908222 0 -0.0024782289785059059 0.0090150101542401592 0 -0.00025587056944208675 0.014653018526344631 0 -0.00026615319511334539 0.015219573143936621 0 0.0017168347007782655 0.020325245841466187 0 0.0017464137583479795 0.020239527674903612 0 0.0017586104117819498 0.020295229350126787 0 0.0017464137583479795 0.020239527674903612 0 0.0017586104117819498 0.020295229350126787 0 0.001794746818558184 0.020258370012315337 0 0.00177667294188009 0.020321127640375972 0 0.0017586104117819498 0.020295229350126787 0 0.001794746818558184 0.020258370012315337 0 0.0015435048943954139 0.02093209477015235 0 0.0016763626353008137 0.021138266399521023 0 0.0014841277263826233 0.021224564213404351 0 0.0015435048943954139 0.02093209477015235 0 0.0014841277263826233 0.021224564213404351 0 0.0013362947059603766 0.021061252167754747 0 0.0014841277263826233 0.021224564213404351 0 0.0016066717464893953 0.021476081770560308 0 0.0013199764898650997 0.021366620963364755 0 0.0014841277263826233 0.021224564213404351 0 0.0013199764898650997 0.021366620963364755 0 0.0013362947059603766 0.021061252167754747 0 -0.00026615319511334539 0.015219573143936621 0 -0.00065033351219905249 0.016633106494156107 0 0.0016763626353008137 0.021138266399521023 0 0.0014841277263826233 0.021224564213404351 0 0.0016066717464893953 0.021476081770560308 0 0.0017464137583479795 0.020239527674903612 0 0.001794746818558184 0.020258370012315337 0 0.0018081152615508943 0.02014971800249574 0 -0.0024782289785059059 0.0090150101542401592 0 -0.0038932269658758915 0.010384962398146113 0 -0.0034794143097981217 0.010185453902485002 0 0.00033234477714133521 0.01965502875005376 0 -0.00065033351219905249 0.016633106494156107 0 -0.0028097109544224586 0.011233663700654846 0 -0.0028252194691690074 0.010533330606677615 0 -0.0034794143097981217 0.010185453902485002 0 -0.0024645298609022141 0.011775629223144866 0 -0.0034175734165418554 0.011278023730303255 0 -0.0034794143097981217 0.010185453902485002 0 -0.003210551757496594 0.012800289349698447 0 -0.003502805893413567 0.011979278237812729 0 -0.00065033351219905249 0.016633106494156107 0 -0.0012300260196251569 0.014566631540735835 0 -0.0034175734165418554 0.011278023730303255 0 -0.0038932269658758915 0.010384962398146113 0 -0.0042221116270260818 0.011812778185514194 0 -0.0034175734165418554 0.011278023730303255 0 -0.0038932269658758915 0.010384962398146113 0 -0.0034794143097981217 0.010185453902485002 0 0.0016066717464893953 0.021476081770560308 0 0.0013723314248625966 0.021719052276825343 0 0.0013199764898650997 0.021366620963364755 0 -0.00065033351219905249 0.016633106494156107 0 -0.0010241749795002924 0.018654732293281292 0 -0.0040725570297856784 0.011554363631880919 0 -0.0042646035427399967 0.012402987858255998 0 -0.0050837660511228741 0.012538408209679004 0 -0.0044422456197217627 0.013260125224270114 0 -0.0042646035427399967 0.012402987858255998 0 -0.0050837660511228741 0.012538408209679004 0 -0.0040247804190070551 0.012839723614663198 0 -0.0044422456197217627 0.013260125224270114 0 -0.0042221116270260818 0.011812778185514194 0 -0.0014676945749164214 0.014192480854003903 0 -0.0012300260196251569 0.014566631540735835 0 -0.0040247804190070551 0.012839723614663198 0 -0.0042221116270260818 0.011812778185514194 0 -0.0035612917067207894 0.012483020795979568 0 -0.0024645298609022141 0.011775629223144866 0 -0.0035612917067207894 0.012483020795979568 0 -0.0028691535408918896 0.01261652308706312 0 -0.0024645298609022141 0.011775629223144866 0 -0.0034175734165418554 0.011278023730303255 0 -0.0035612917067207894 0.012483020795979568 0 -0.0034175734165418554 0.011278023730303255 0 -0.0042221116270260818 0.011812778185514194 0 -0.0035612917067207894 0.012483020795979568 0 0.0011402687405919136 0.021961380558471008 0 0.00096964922215088791 0.021777468776666645 0 0.0013723314248625966 0.021719052276825343 0 0.00096964922215088791 0.021777468776666645 0 0.0013723314248625966 0.021719052276825343 0 0.0010509799053760784 0.021526849772636868 0 0.0013723314248625966 0.021719052276825343 0 0.0010509799053760784 0.021526849772636868 0 0.0013199764898650997 0.021366620963364755 0 0.0010509799053760784 0.021526849772636868 0 0.0010732816774270697 0.021190429028989089 0 0.00090235957805597574 0.021347305929449081 0 0.0010509799053760784 0.021526849772636868 0 0.0013199764898650997 0.021366620963364755 0 0.0010732816774270697 0.021190429028989089 0 0.0013199764898650997 0.021366620963364755 0 0.0013362947059603766 0.021061252167754747 0 0.0010732816774270697 0.021190429028989089 0 0.0011540584248103912 0.02096592058908963 0 0.0013362947059603766 0.021061252167754747 0 0.0010732816774270697 0.021190429028989089 0 0.00094800102162287186 0.020871240515559688 0 0.0011540584248103912 0.02096592058908963 0 0.0010732816774270697 0.021190429028989089 0 0.00094800102162287186 0.020871240515559688 0 0.0010732816774270697 0.021190429028989089 0 0.00076322381297302207 0.021171481238340721 0 0.00076322381297302207 0.021171481238340721 0 0.00090235957805597574 0.021347305929449081 0 0.00072260880909331071 0.021501321083535977 0 0.0010732816774270697 0.021190429028989089 0 0.00076322381297302207 0.021171481238340721 0 0.00090235957805597574 0.021347305929449081 0 0.00076322381297302207 0.021171481238340721 0 0.00049908887528213298 0.021312456966361814 0 0.00072260880909331071 0.021501321083535977 0 0.00076322381297302207 0.021171481238340721 0 0.00051791613286870767 0.0210467982494267 0 0.00049908887528213298 0.021312456966361814 0 0.00068224251857138083 0.020896051862654502 0 0.00076322381297302207 0.021171481238340721 0 0.00051791613286870767 0.0210467982494267 0 0.00042598853491987443 0.021303107382612266 0 0.00032229273704483441 0.021422193690475166 0 0.00051791613286870767 0.0210467982494267 0 0.00022419648511272613 0.021221887545090589 0 0.00049908887528213298 0.021312456966361814 0 0.00026923127610326231 0.020860052809494569 0 0.00051791613286870767 0.0210467982494267 0 0.00028822421497701363 0.021221234270598206 0 0.00022419648511272613 0.021221887545090589 0 0.00031919062798873102 0.021609960938918413 0 -6.6493423152366366e-05 0.021407980740764332 0 0.00022419648511272613 0.021221887545090589 0 0.00049908887528213298 0.021312456966361814 0 0.00031919062798873102 0.021609960938918413 0 0.00049908887528213298 0.021312456966361814 0 0.00031919062798873102 0.021609960938918413 0 0.00072260880909331071 0.021501321083535977 0 0.00031919062798873102 0.021609960938918413 0 0.00065965342792462982 0.021769715268841357 0 0.00046904557902843443 0.021972479398298793 0 0.00096964922215088791 0.021777468776666645 0 0.00065965342792462982 0.021769715268841357 0 0.00072260880909331071 0.021501321083535977 0 0.0010509799053760784 0.021526849772636868 0 0.00090235957805597574 0.021347305929449081 0 0.00072260880909331071 0.021501321083535977 0 0.00096964922215088791 0.021777468776666645 0 0.0010509799053760784 0.021526849772636868 0 0.00072260880909331071 0.021501321083535977 0 0.00031919062798873102 0.021609960938918413 0 0.00065965342792462982 0.021769715268841357 0 0.00072260880909331071 0.021501321083535977 0 -0.00047266104173129901 0.021529079439701396 0 -0.00016321294446894905 0.021406274811392373 0 -0.00040544722416037534 0.021798570334085516 0 -0.00047266104173129901 0.021529079439701396 0 -0.0004923878875356184 0.02129121172664053 0 -0.00016321294446894905 0.021406274811392373 0 -0.00026198617723264259 0.021075993403644577 0 -0.00047290574407033912 0.02104776685260324 0 -0.0004923878875356184 0.02129121172664053 0 2.9838154750170284e-05 0.021016535423026506 0 -0.00026198617723264259 0.021075993403644577 0 -0.00016321294446894905 0.021406274811392373 0 -0.00026198617723264259 0.021075993403644577 0 -0.0004923878875356184 0.02129121172664053 0 -0.00016321294446894905 0.021406274811392373 0 2.9838154750170284e-05 0.021016535423026506 0 0.00028822421497701363 0.021221234270598206 0 6.6260472959753236e-05 0.021382090046416287 0 2.9838154750170284e-05 0.021016535423026506 0 -0.00018337070012609246 0.021271977916636105 0 6.6260472959753236e-05 0.021382090046416287 0 -0.00018337070012609246 0.021271977916636105 0 6.6260472959753236e-05 0.021382090046416287 0 -0.00017400010943199938 0.021558347773151465 0 0.00011557674643858997 0.021379814712003894 0 5.9880061417054455e-05 0.021633831398029664 0 0.00032229273704483441 0.021422193690475166 0 0.00016053638542779094 0.021709637620048301 0 0.00031919062798873102 0.021609960938918413 0 -6.6493423152366366e-05 0.021407980740764332 0 -0.00010164606001519161 0.021734883668932527 0 0.00031919062798873102 0.021609960938918413 0 -0.00010164606001519161 0.021734883668932527 0 0.00012369623558373448 0.021981754043468638 0 -0.00010164606001519161 0.021734883668932527 0 -0.00036179008452315482 0.021598727365911546 0 -0.0004065585773113366 0.021822360966963602 0 -0.00010164606001519161 0.021734883668932527 0 -0.0004065585773113366 0.021822360966963602 0 -0.00023146553615906846 0.021990679945575069 0 -6.6493423152366366e-05 0.021407980740764332 0 -0.00010164606001519161 0.021734883668932527 0 -0.00036179008452315482 0.021598727365911546 0 0.00016053638542779094 0.021709637620048301 0 3.2459583366755607e-05 0.022201103540618907 0 5.9880061417054455e-05 0.021633831398029664 0 2.3026017448942206e-05 0.022349137768503207 0 -0.00018337070012609246 0.021271977916636105 0 -0.00017400010943199938 0.021558347773151465 0 -0.00042263257713968233 0.021564835759600373 0 3.2459583366755607e-05 0.022201103540618907 0 -8.4661776757324431e-05 0.023126345792482531 0 -0.00036179008452315482 0.021598727365911546 0 -0.0004065585773113366 0.021822360966963602 0 -0.00066249169127512414 0.021796932140996244 0 -0.0004065585773113366 0.021822360966963602 0 -0.00066249169127512414 0.021796932140996244 0 -0.00059555829667568298 0.021997703378258113 0 -0.00017400010943199938 0.021558347773151465 0 -0.00044166729643935909 0.021747849267351207 0 -0.00042263257713968233 0.021564835759600373 0 -0.00067083643094653731 0.021900580333365241 0 -0.00044166729643935909 0.021747849267351207 0 -0.00042263257713968233 0.021564835759600373 0 -0.00066567725110023809 0.021686518244541875 0 -0.00047266104173129901 0.021529079439701396 0 -0.00040544722416037534 0.021798570334085516 0 -0.00015397013003442097 0.033520940384794466 0 -0.00016750068707811628 0.033513644499007088 0 -0.00018093197901953236 0.033486736225677244 0 -0.00090663258359728811 0.021961740449860073 0 -0.00066249169127512414 0.021796932140996244 0 -0.00059555829667568298 0.021997703378258113 0 -0.00016750068707811628 0.033513644499007088 0 -0.0001951024639508948 0.033480472976640967 0 -0.00019721100083703569 0.033488202056443067 0 -0.0004065585773113366 0.021822360966963602 0 -0.00059555829667568298 0.021997703378258113 0 -0.00023146553615906846 0.021990679945575069 0 -0.00040679925713114462 0.026665545835710371 0 -0.00021251354391030376 0.027007907501223598 0 -0.00016750068707811628 0.033513644499007088 0 -0.0001951024639508948 0.033480472976640967 0 -0.00018093197901953236 0.033486736225677244 0 -0.0001951024639508948 0.033480472976640967 0 -0.00019721100083703569 0.033488202056443067 0 -0.00022202061740259876 0.033458475089226121 0 -0.00010164606001519161 0.021734883668932527 0 -0.00023146553615906846 0.021990679945575069 0 0.00012369623558373448 0.021981754043468638 0 -0.00021251354391030376 0.027007907501223598 0 -5.2509147280200326e-05 0.026929720281879083 0 -0.0001951024639508948 0.033480472976640967 0 -0.00022202061740259876 0.033458475089226121 0 -0.00022363211221329232 0.033450008537413936 0 -0.00020692535405674288 0.033460969113486769 0 -0.00022363211221329232 0.033450008537413936 0 -0.00022864663679369784 0.03343699221313548 0 -0.0001951024639508948 0.033480472976640967 0 -0.00020692535405674288 0.033460969113486769 0 -0.00022363211221329232 0.033450008537413936 0 -0.00022864663679369784 0.03343699221313548 0 -0.00023038889657345468 0.033426435998765727 0 -0.00021464065799231284 0.033428824846896639 0 -0.00020692535405674288 0.033460969113486769 0 -0.00022864663679369784 0.03343699221313548 0 -0.00021464065799231284 0.033428824846896639 0 -0.00020692535405674288 0.033460969113486769 0 -0.00019352164337775227 0.033459041806021529 0 -0.00021464065799231284 0.033428824846896639 0 -0.00019352164337775227 0.033459041806021529 0 -0.0001855747639029758 0.033451082366058711 0 -0.00021464065799231284 0.033428824846896639 0 -0.0001951024639508948 0.033480472976640967 0 -0.00020692535405674288 0.033460969113486769 0 -0.00018093197901953236 0.033486736225677244 0 -0.00020692535405674288 0.033460969113486769 0 -0.00018093197901953236 0.033486736225677244 0 -0.00019352164337775227 0.033459041806021529 0 -0.00018093197901953236 0.033486736225677244 0 -0.00019352164337775227 0.033459041806021529 0 -0.00018289422551799603 0.033471789953697033 0 -0.00018093197901953236 0.033486736225677244 0 -0.00018289422551799603 0.033471789953697033 0 -0.00017284521496367826 0.033482580420960098 0 -0.00019352164337775227 0.033459041806021529 0 -0.0001855747639029758 0.033451082366058711 0 -0.00018289422551799603 0.033471789953697033 0 -0.0001855747639029758 0.033451082366058711 0 -0.00018289422551799603 0.033471789953697033 0 -0.00017284521496367826 0.033482580420960098 0 -0.0001855747639029758 0.033451082366058711 0 -0.00017284521496367826 0.033482580420960098 0 -0.00015768787872962931 0.033493676689665533 0 0.00010726700875134057 0.031966527058029284 0 0.00030334322038071864 0.033045530504591143 0 -0.00015397013003442097 0.033520940384794466 0 -0.00018093197901953236 0.033486736225677244 0 -0.00017284521496367826 0.033482580420960098 0 -0.00015397013003442097 0.033520940384794466 0 -0.00017284521496367826 0.033482580420960098 0 -0.00015768787872962931 0.033493676689665533 0 -0.00023591840763273581 0.033416135811576313 0 -0.00022427801616802827 0.033402226867976746 0 -0.0002355084575335542 0.033420584909719435 0 -0.00023591840763273581 0.033416135811576313 0 -0.00022427801616802827 0.033402226867976746 0 -0.0002316257714180613 0.033392477309288814 0 -0.00020870150026618687 0.033365440272027765 0 -0.00022427801616802827 0.033402226867976746 0 -0.0002316257714180613 0.033392477309288814 0 0.00096964922215088791 0.021777468776666645 0 0.00065965342792462982 0.021769715268841357 0 0.00080571065645818063 0.021964209447217473 0 -0.00023591840763273581 0.033416135811576313 0 -0.0002316257714180613 0.033392477309288814 0 -0.00023627819434294373 0.033426762885427307 0 -0.00012842827932541711 0.02511127652040954 0 5.0987087647640507e-05 0.026396681855355209 0 0.00065965342792462982 0.021769715268841357 0 0.00080571065645818063 0.021964209447217473 0 0.00046904557902843443 0.021972479398298793 0 0.00031919062798873102 0.021609960938918413 0 0.00012369623558373448 0.021981754043468638 0 0.00046904557902843443 0.021972479398298793 0 -5.2509147280200326e-05 0.026929720281879083 0 5.0987087647640507e-05 0.026396681855355209 0 -0.00022202061740259876 0.033458475089226121 0 -0.00023627819434294373 0.033426762885427307 0 -0.00022363211221329232 0.033450008537413936 0 -0.00023627819434294373 0.033426762885427307 0 -0.00022363211221329232 0.033450008537413936 0 -0.00023531025184183284 0.033430326434947213 0 -0.00023591840763273581 0.033416135811576313 0 -0.00023627819434294373 0.033426762885427307 0 -0.00023531025184183284 0.033430326434947213 0 -0.00022363211221329232 0.033450008537413936 0 -0.00023531025184183284 0.033430326434947213 0 -0.00022864663679369784 0.03343699221313548 0 -0.00022864663679369784 0.03343699221313548 0 -0.00023868785651558389 0.033424034726043113 0 -0.00023038889657345468 0.033426435998765727 0 -0.00023531025184183284 0.033430326434947213 0 -0.00022864663679369784 0.03343699221313548 0 -0.00023868785651558389 0.033424034726043113 0 -0.0028510423644258452 0.02768821244930679 0 -0.0028412736262611584 0.027101607533960417 0 -0.004724585312659655 0.022878529317342595 0 -0.0042989295608741431 0.022485994016735612 0 -0.0043955729693772663 0.023067355266528821 0 -0.00023591840763273581 0.033416135811576313 0 -0.00023531025184183284 0.033430326434947213 0 -0.0002355084575335542 0.033420584909719435 0 -0.00023531025184183284 0.033430326434947213 0 -0.00023868785651558389 0.033424034726043113 0 -0.0002355084575335542 0.033420584909719435 0 -0.0039340722001677412 0.022217362261590438 0 -0.0042989295608741431 0.022485994016735612 0 -0.0039037395291356301 0.022524448368141853 0 -0.0027851311674980932 0.025814012123345387 0 -0.0028412736262611584 0.027101607533960417 0 -0.0042989295608741431 0.022485994016735612 0 -0.0040478633096802559 0.022881224029286447 0 -0.0043955729693772663 0.023067355266528821 0 -0.0042989295608741431 0.022485994016735612 0 -0.0039037395291356301 0.022524448368141853 0 -0.0040478633096802559 0.022881224029286447 0 -0.0040478633096802559 0.022881224029286447 0 -0.0041726231648971856 0.023253056759534627 0 -0.0038673801786475934 0.023415097057015548 0 -0.0040478633096802559 0.022881224029286447 0 -0.0041726231648971856 0.023253056759534627 0 -0.0043955729693772663 0.023067355266528821 0 -0.0037713500652164769 0.022936422336209641 0 -0.0039274741586531169 0.023220996028317131 0 -0.0037530675028074655 0.023048755480106639 0 -0.0038673801786475934 0.023415097057015548 0 -0.004206713030399151 0.023603681284684441 0 -0.0041924687008411312 0.024185753318515756 0 -0.003921362351006207 0.02323162477813244 0 -0.0041873544118061108 0.023659527616617132 0 -0.0041726231648971856 0.023253056759534627 0 -0.0038673801786475934 0.023415097057015548 0 -0.004206713030399151 0.023603681284684441 0 -0.0041726231648971856 0.023253056759534627 0 -0.004206713030399151 0.023603681284684441 0 -0.0044033669972142198 0.023397100469377659 0 -0.0047052412957061225 0.023811779744363579 0 -0.0043904414484934699 0.023798629254165558 0 -0.0044033669972142198 0.023397100469377659 0 -0.004206713030399151 0.023603681284684441 0 -0.0043904414484934699 0.023798629254165558 0 -0.0044033669972142198 0.023397100469377659 0 -0.004724585312659655 0.022878529317342595 0 -0.0043955729693772663 0.023067355266528821 0 -0.0047070422006663401 0.023418863861876853 0 -0.0044033669972142198 0.023397100469377659 0 -0.0043955729693772663 0.023067355266528821 0 -0.0047070422006663401 0.023418863861876853 0 -0.0041726231648971856 0.023253056759534627 0 -0.0044033669972142198 0.023397100469377659 0 -0.0043955729693772663 0.023067355266528821 0 -0.00023868785651558389 0.033424034726043113 0 -0.00023038889657345468 0.033426435998765727 0 -0.00023451720352053276 0.033415094455628083 0 -0.0029329436597627769 0.027965334471719873 0 -0.0039172570176038181 0.027224091690068709 0 -0.0028510423644258452 0.02768821244930679 0 -0.0029329436597627769 0.027965334471719873 0 -0.004724585312659655 0.022878529317342595 0 -0.0051368595144928681 0.023302798937577425 0 -0.0047070422006663401 0.023418863861876853 0 -0.00023038889657345468 0.033426435998765727 0 -0.00023451720352053276 0.033415094455628083 0 -0.00021464065799231284 0.033428824846896639 0 -0.0050872023632700537 0.023333939551424925 0 -0.0049294210212834115 0.023550212670342349 0 -0.005447918268307028 0.023716967005427636 0 -0.0040415366564617947 0.026378489932295097 0 -0.0030643962223300507 0.028368314410997665 0 -0.0029329436597627769 0.027965334471719873 0 -0.0030643962223300507 0.028368314410997665 0 -0.0050980353295996851 0.023585847180707598 0 -0.0054340126275098993 0.023855504554476242 0 -0.005814919494266828 0.02380453884498793 0 -0.0050980353295996851 0.023585847180707598 0 -0.0050780954300938333 0.023951549026182031 0 -0.0054340126275098993 0.023855504554476242 0 -0.0047052412957061225 0.023811779744363579 0 -0.0044033669972142198 0.023397100469377659 0 -0.0050980353295996851 0.023585847180707598 0 -0.0044033669972142198 0.023397100469377659 0 -0.0047070422006663401 0.023418863861876853 0 -0.0049294210212834115 0.023550212670342349 0 -0.0050872023632700537 0.023333939551424925 0 -0.0047070422006663401 0.023418863861876853 0 -0.0049294210212834115 0.023550212670342349 0 -0.0040916508051544263 0.025797216922313123 0 -0.0040415366564617947 0.026378489932295097 0 -0.0047052412957061225 0.023811779744363579 0 -0.0050980353295996851 0.023585847180707598 0 -0.0050780954300938333 0.023951549026182031 0 -0.0047052412957061225 0.023811779744363579 0 -0.0050780954300938333 0.023951549026182031 0 -0.004809499936038168 0.024108112522081972 0 -0.0050780954300938333 0.023951549026182031 0 -0.0050019077876741185 0.024253637547532046 0 -0.004809499936038168 0.024108112522081972 0 -0.0050780954300938333 0.023951549026182031 0 -0.0050019077876741185 0.024253637547532046 0 -0.0053786338980841312 0.024215584115109604 0 -0.0050019077876741185 0.024253637547532046 0 -0.004809499936038168 0.024108112522081972 0 -0.0048054751118673878 0.024407589445318251 0 -0.0050505145277299976 0.024615289471942445 0 -0.0050746528889837033 0.024607965094987749 0 -0.0050762516878871027 0.024639114756614948 0 -0.0048229289495231942 0.026070381139003309 0 -0.0030643962223300507 0.028368314410997665 0 -0.0054340126275098993 0.023855504554476242 0 -0.0053786338980841312 0.024215584115109604 0 -0.005814919494266828 0.02380453884498793 0 -0.0050780954300938333 0.023951549026182031 0 -0.0054340126275098993 0.023855504554476242 0 -0.0053786338980841312 0.024215584115109604 0 -0.0051857273801390611 0.02474170536196468 0 -0.0050086153211269038 0.024656804550793606 0 -0.0053046253758005889 0.024654118190677834 0 -0.0050505145277299976 0.024615289471942445 0 -0.0050086153211269038 0.024656804550793606 0 -0.0050762516878871027 0.024639114756614948 0 -0.0049486776645808256 0.026942316489017841 0 -0.0045891559353509696 0.027392327660458488 0 -0.0051857273801390611 0.02474170536196468 0 -0.0050086153211269038 0.024656804550793606 0 -0.0050391145600639474 0.024774688959717545 0 -0.004809499936038168 0.024108112522081972 0 -0.0048054751118673878 0.024407589445318251 0 -0.0045640916156424972 0.024409855054743829 0 -0.0050019077876741185 0.024253637547532046 0 -0.0048054751118673878 0.024407589445318251 0 -0.0049182569173298035 0.024646992193594366 0 -0.0050505145277299976 0.024615289471942445 0 -0.0050086153211269038 0.024656804550793606 0 -0.0049182569173298035 0.024646992193594366 0 -0.0050019077876741185 0.024253637547532046 0 -0.0053786338980841312 0.024215584115109604 0 -0.0049182569173298035 0.024646992193594366 0 -0.0048229289495231942 0.026070381139003309 0 -0.0051068285569353129 0.025608792239788396 0 -0.0050086153211269038 0.024656804550793606 0 -0.0049202717524482603 0.024758719088381207 0 -0.0050391145600639474 0.024774688959717545 0 -0.0050086153211269038 0.024656804550793606 0 -0.0049182569173298035 0.024646992193594366 0 -0.0049202717524482603 0.024758719088381207 0 -0.0049182569173298035 0.024646992193594366 0 -0.0047654541168877422 0.02463316654264644 0 -0.0049202717524482603 0.024758719088381207 0 -0.0048054751118673878 0.024407589445318251 0 -0.0049182569173298035 0.024646992193594366 0 -0.0047654541168877422 0.02463316654264644 0 -0.0041873544118061108 0.023659527616617132 0 -0.0045573807505336133 0.024102612706905065 0 -0.0047654541168877422 0.02463316654264644 0 -0.0045640916156424972 0.024409855054743829 0 -0.0045921730353939939 0.024896151681296899 0 -0.0045640916156424972 0.024409855054743829 0 -0.0041924687008411312 0.024185753318515756 0 -0.0045921730353939939 0.024896151681296899 0 -0.0039274741586531169 0.023220996028317131 0 -0.0038814800331946741 0.02348301761236278 0 -0.0040836878736932687 0.023526060579051 0 -0.0048054751118673878 0.024407589445318251 0 -0.0047654541168877422 0.02463316654264644 0 -0.0045640916156424972 0.024409855054743829 0 -0.003802222527506692 0.02334655028194859 0 -0.0039274741586531169 0.023220996028317131 0 -0.0037181195851429144 0.02324241656560019 0 -0.003802222527506692 0.02334655028194859 0 -0.0039274741586531169 0.023220996028317131 0 -0.0038814800331946741 0.02348301761236278 0 -0.003802222527506692 0.02334655028194859 0 -0.0038814800331946741 0.02348301761236278 0 -0.0036821416373603237 0.023440324945170628 0 -0.0039274741586531169 0.023220996028317131 0 -0.0037181195851429144 0.02324241656560019 0 -0.0037530675028074655 0.023048755480106639 0 -0.004206713030399151 0.023603681284684441 0 -0.0043904414484934699 0.023798629254165558 0 -0.0041924687008411312 0.024185753318515756 0 -0.0043904414484934699 0.023798629254165558 0 -0.0041924687008411312 0.024185753318515756 0 -0.0045066229992687511 0.024080482456669917 0 -0.0047052412957061225 0.023811779744363579 0 -0.004809499936038168 0.024108112522081972 0 -0.0045066229992687511 0.024080482456669917 0 -0.0047052412957061225 0.023811779744363579 0 -0.0043904414484934699 0.023798629254165558 0 -0.0045066229992687511 0.024080482456669917 0 -0.004809499936038168 0.024108112522081972 0 -0.0045640916156424972 0.024409855054743829 0 -0.0045066229992687511 0.024080482456669917 0 -0.0045640916156424972 0.024409855054743829 0 -0.0041924687008411312 0.024185753318515756 0 -0.0045066229992687511 0.024080482456669917 0 0.00064944913568969252 0.034729626875763732 0 0.00071883223206823787 0.034638717512345527 0 0.00073267630841124167 0.034769005533086435 0 0.00054319568764092728 0.034780404780989621 0 0.00063345093424422476 0.034821342705952725 0 0.00064944913568969252 0.034729626875763732 0 0.00063345093424422476 0.034821342705952725 0 0.00064944913568969252 0.034729626875763732 0 0.00073267630841124167 0.034769005533086435 0 0.00054010747865463878 0.034622546722278963 0 0.00064944913568969252 0.034729626875763732 0 0.00071883223206823787 0.034638717512345527 0 0.00054010747865463878 0.034622546722278963 0 0.00060974081429089426 0.034475500198647854 0 0.00071883223206823787 0.034638717512345527 0 0.00080437716838291818 0.034555214438451227 0 0.00060974081429089426 0.034475500198647854 0 0.00071883223206823787 0.034638717512345527 0 0.00071883223206823787 0.034638717512345527 0 0.00081214281874513968 0.034634612545285721 0 0.0008282031203115923 0.034684557621276459 0 0.00080437716838291818 0.034555214438451227 0 0.00081214281874513968 0.034634612545285721 0 0.00086046152141064608 0.034662725926284256 0 0.00080437716838291818 0.034555214438451227 0 0.00071883223206823787 0.034638717512345527 0 0.00081214281874513968 0.034634612545285721 0 0.00071883223206823787 0.034638717512345527 0 0.0008282031203115923 0.034684557621276459 0 0.00073267630841124167 0.034769005533086435 0 0.0008282031203115923 0.034684557621276459 0 0.00073267630841124167 0.034769005533086435 0 0.00088181643432354761 0.034839161445937385 0 -0.0007490204511524086 0.032335552400423545 0 -0.0013215820033554272 0.030884630620738596 0 0.00084828992095893488 0.034675790813680961 0 0.00084906331790269088 0.034668616294001135 0 0.00084505256227481319 0.034677075704334183 0 0.0008282031203115923 0.034684557621276459 0 0.00084828992095893488 0.034675790813680961 0 0.00084505256227481319 0.034677075704334183 0 0.00084828992095893488 0.034675790813680961 0 0.00086046152141064608 0.034662725926284256 0 0.00084906331790269088 0.034668616294001135 0 0.0008282031203115923 0.034684557621276459 0 0.00084828992095893488 0.034675790813680961 0 0.00086046152141064608 0.034662725926284256 0 0.00010726700875134057 0.031966527058029284 0 -0.0009172339864218994 0.0305017996627318 0 -8.6713566596472683e-05 0.030756455945584956 0 -0.0010643793218883383 0.029833349012064379 0 -0.0015972080121061003 0.030328010534695797 0 0.00010726700875134057 0.031966527058029284 0 -0.0006029632893135347 0.031137718407952403 0 0.00081214281874513968 0.034634612545285721 0 0.0008282031203115923 0.034684557621276459 0 0.00086046152141064608 0.034662725926284256 0 -0.0029329436597627769 0.027965334471719873 0 -0.0009172339864218994 0.0305017996627318 0 -0.0010643793218883383 0.029833349012064379 0 -0.0015972080121061003 0.030328010534695797 0 -0.0019908999551421975 0.029584480226376206 0 -0.0031002658680389246 0.029901305928724389 0 -0.0015972080121061003 0.030328010534695797 0 -0.0019908999551421975 0.029584480226376206 0 -0.0006029632893135347 0.031137718407952403 0 -0.0030643962223300507 0.028368314410997665 0 -0.0010643793218883383 0.029833349012064379 0 -0.0019908999551421975 0.029584480226376206 0 -0.0020829829359648271 0.028874676170119833 0 -0.0031002658680389246 0.029901305928724389 0 -0.0019908999551421975 0.029584480226376206 0 -0.0020829829359648271 0.028874676170119833 0 -0.0030643962223300507 0.028368314410997665 0 -0.0026822691822802787 0.029029266394504382 0 -0.0050746528889837033 0.024607965094987749 0 -0.0050762516878871027 0.024639114756614948 0 -0.0050979215881086521 0.024640066359822566 0 -0.0021933317622623897 0.02889199501533057 0 -0.0031310317283264767 0.02984259574640347 0 -0.0028569015414229783 0.029315881917380559 0 -0.0045891559353509696 0.027392327660458488 0 -0.0026822691822802787 0.029029266394504382 0 -0.0053046253758005889 0.024654118190677834 0 -0.0053906520463771913 0.024684083039663688 0 -0.0053642011743033286 0.024710370546672362 0 -0.0051857273801390611 0.02474170536196468 0 -0.0053046253758005889 0.024654118190677834 0 -0.0053472895700089817 0.024746508698705039 0 -0.0053046253758005889 0.024654118190677834 0 -0.0053472895700089817 0.024746508698705039 0 -0.0053642011743033286 0.024710370546672362 0 -0.0053472895700089817 0.024746508698705039 0 -0.0053642011743033286 0.024710370546672362 0 -0.0053491659444621659 0.024741483437698875 0 -0.0053642011743033286 0.024710370546672362 0 -0.0053955848059077703 0.024691540391667093 0 -0.0053491659444621659 0.024741483437698875 0 -0.0024497671078471308 0.029926159757783226 0 -0.00251251473708834 0.029991080391970001 0 -0.0024253853660512414 0.03000350861012286 0 -0.0025045490338391962 0.029136424646267128 0 -0.0031122707274417408 0.029101200801361065 0 -0.0053906520463771913 0.024684083039663688 0 -0.0053642011743033286 0.024710370546672362 0 -0.0053955848059077703 0.024691540391667093 0 -0.0017734494658814132 0.031351030533900051 0 -0.0017606873798502428 0.031390354568631151 0 -0.0015081992221969293 0.031086192672199978 0 -0.0025045490338391962 0.029136424646267128 0 -0.002341271295535925 0.02932436872797586 0 -0.0013748953619190396 0.028117855856625434 0 -0.003102682647352654 0.029864454540382442 0 -0.0038297866217965621 0.027623390579948726 0 -0.0026822691822802787 0.029029266394504382 0 -0.002341271295535925 0.02932436872797586 0 -0.0026822691822802787 0.029029266394504382 0 -0.0025045490338391962 0.029136424646267128 0 -0.002341271295535925 0.02932436872797586 0 -0.0013215820033554272 0.030884630620738596 0 -0.0032600535993418784 0.029816707548488405 0 -0.0028569015414229783 0.029315881917380559 0 -0.0034687609513925815 0.029172117271432273 0 -0.0021933317622623897 0.02889199501533057 0 -0.0028569015414229783 0.029315881917380559 0 -0.0034687609513925815 0.029172117271432273 0 -0.0030643962223300507 0.028368314410997665 0 -0.0013215820033554272 0.030884630620738596 0 -0.0031310317283264767 0.02984259574640347 0 -0.0032600535993418784 0.029816707548488405 0 -0.0028569015414229783 0.029315881917380559 0 -0.002341271295535925 0.02932436872797586 0 -0.00057747345351317873 0.031561549120365948 0 -0.0013215820033554272 0.030884630620738596 0 -0.00057747345351317873 0.031561549120365948 0 -0.001003868958695558 0.030891743361154311 0 -0.0010364121252783853 0.030790547693511156 0 -0.0012449553126056266 0.030846343282675857 0 0.00073267630841124167 0.034769005533086435 0 0.00088181643432354761 0.034839161445937385 0 0.00067072780217764471 0.034912865239475864 0 -0.0017606873798502428 0.031390354568631151 0 -0.0012458311095215151 0.031498721777265717 0 -0.0015081992221969293 0.031086192672199978 0 -0.0025045490338391962 0.029136424646267128 0 -0.0021933336416190699 0.030601504585075344 0 -0.0011184660994576026 0.031150077802132164 0 -0.0012458311095215151 0.031498721777265717 0 -0.0015081992221969293 0.031086192672199978 0 -0.00019292545591598063 0.031851067931647797 0 -0.00057747345351317873 0.031561549120365948 0 0.00063345093424422476 0.034821342705952725 0 0.00073267630841124167 0.034769005533086435 0 0.00067072780217764471 0.034912865239475864 0 0.00056036535544670739 0.03491399636118122 0 0.00063345093424422476 0.034821342705952725 0 0.00067072780217764471 0.034912865239475864 0 -0.00074784905693354629 0.03481198150741667 0 -0.0010531841441989306 0.034892644768845245 0 -0.0009049115825049541 0.035068407147450464 0 -0.0010531841441989306 0.034892644768845245 0 -0.0009049115825049541 0.035068407147450464 0 -0.0011628243178520498 0.035080416651304867 0 -0.00082480055436941137 0.035323476645354845 0 -0.0009049115825049541 0.035068407147450464 0 -0.0011102453907138063 0.035240409032671109 0 -0.00082480055436941137 0.035323476645354845 0 -0.0011102453907138063 0.035240409032671109 0 -0.001188172374052716 0.0353190606811861 0 -0.0011125326532404139 0.031835912974423036 0 -0.0021933336416190699 0.030601504585075344 0 -0.0009049115825049541 0.035068407147450464 0 -0.0011102453907138063 0.035240409032671109 0 -0.0011628243178520498 0.035080416651304867 0 -0.0011102453907138063 0.035240409032671109 0 -0.0012952763161533502 0.035223081221034055 0 -0.0011628243178520498 0.035080416651304867 0 -0.0011102453907138063 0.035240409032671109 0 -0.0012081936794040083 0.035351647599211278 0 -0.0012952763161533502 0.035223081221034055 0 -0.0022711125839376483 0.030787701017837545 0 -0.0021933336416190699 0.030601504585075344 0 -0.0012952763161533502 0.035223081221034055 0 -0.0011628243178520498 0.035080416651304867 0 -0.0013842922040090597 0.035123592597204545 0 -0.0011628243178520498 0.035080416651304867 0 -0.001292434665048327 0.034943229518240825 0 -0.0013842922040090597 0.035123592597204545 0 -0.0010531841441989306 0.034892644768845245 0 -0.0011628243178520498 0.035080416651304867 0 -0.001292434665048327 0.034943229518240825 0 -0.0010531841441989306 0.034892644768845245 0 -0.001292434665048327 0.034943229518240825 0 -0.0013139089757410963 0.034750183854860443 0 -0.001292434665048327 0.034943229518240825 0 -0.0013842922040090597 0.035123592597204545 0 -0.001812803623171623 0.034893678374141215 0 -0.0013842922040090597 0.035123592597204545 0 -0.0015992058214702731 0.035313337687344279 0 -0.001812803623171623 0.034893678374141215 0 -0.0012081936794040083 0.035351647599211278 0 -0.0012952763161533502 0.035223081221034055 0 -0.0015992058214702731 0.035313337687344279 0 -0.0021933336416190699 0.030601504585075344 0 -0.0031122707274417408 0.029101200801361065 0 -0.0012952763161533502 0.035223081221034055 0 -0.0013842922040090597 0.035123592597204545 0 -0.0015992058214702731 0.035313337687344279 0 -0.0053472895700089817 0.024746508698705039 0 -0.0053491659444621659 0.024741483437698875 0 -0.0053885312782867663 0.024694091927299405 0 -0.0062246136070140921 0.024587490465876348 0 -0.0059094972732119935 0.024630911991181597 0 -0.0060735960771949862 0.025092945711302279 0 -0.0031122707274417408 0.029101200801361065 0 -0.0047663069239293147 0.027849998758807375 0 -0.0059094972732119935 0.024630911991181597 0 -0.0060735960771949862 0.025092945711302279 0 -0.0057999193853224612 0.024926156806880123 0 -0.0031122707274417408 0.029101200801361065 0 -0.0035981560651429773 0.029726191569383935 0 -0.0035981560651429773 0.029726191569383935 0 -0.0039580659667357515 0.029839868019088809 0 -0.0060735960771949862 0.025092945711302279 0 -0.005948085479580722 0.025617962811853773 0 -0.0056509769766689812 0.025220447556982561 0 -0.001812803623171623 0.034893678374141215 0 -0.0021793524349140586 0.034421009305118933 0 -0.0016238655370150838 0.034457486931880763 0 -0.0021793524349140586 0.034421009305118933 0 -0.0016238655370150838 0.034457486931880763 0 -0.0015608288170473011 0.033970457192401722 0 -0.0016238655370150838 0.034457486931880763 0 -0.00096930179177023628 0.034149479268677917 0 -0.0015608288170473011 0.033970457192401722 0 -0.001292434665048327 0.034943229518240825 0 -0.001812803623171623 0.034893678374141215 0 -0.0013139089757410963 0.034750183854860443 0 -0.001812803623171623 0.034893678374141215 0 -0.0016238655370150838 0.034457486931880763 0 -0.0013139089757410963 0.034750183854860443 0 -0.0010531841441989306 0.034892644768845245 0 -0.0013139089757410963 0.034750183854860443 0 -0.00096082374250988796 0.034664094473788702 0 -0.0011402264164454335 0.0344979530446708 0 -0.0010100316906787644 0.034262511188215036 0 -0.0013139089757410963 0.034750183854860443 0 -0.00096082374250988796 0.034664094473788702 0 -0.0010188544852377803 0.034366759598555514 0 -0.0016238655370150838 0.034457486931880763 0 -0.0013139089757410963 0.034750183854860443 0 -0.00096930179177023628 0.034149479268677917 0 -0.00071100356166927379 0.034514969132184652 0 -0.0010188544852377803 0.034366759598555514 0 -0.00069644271802233931 0.034294008179032116 0 -0.00071100356166927379 0.034514969132184652 0 -0.00096082374250988796 0.034664094473788702 0 -0.0010188544852377803 0.034366759598555514 0 -0.00074784905693354629 0.03481198150741667 0 -0.0010531841441989306 0.034892644768845245 0 -0.00096082374250988796 0.034664094473788702 0 -0.00074784905693354629 0.03481198150741667 0 -0.00071100356166927379 0.034514969132184652 0 -0.00096082374250988796 0.034664094473788702 0 -0.0050952139633593857 0.024804336398927075 0 -0.0052952323952687912 0.02491345697706639 0 -0.0050493721971237911 0.02513199194104087 0 -0.0050952139633593857 0.024804336398927075 0 -0.004694722226520333 0.024952447303725964 0 -0.0050493721971237911 0.02513199194104087 0 -0.0045516542069048973 0.024648668319503096 0 -0.004759479890332252 0.024789719102700052 0 -0.0047912760496878568 0.024504898161932114 0 -0.0045516542069048973 0.024648668319503096 0 -0.0045906965088993584 0.024282663918516589 0 -0.0044806039584882815 0.024323311831281554 0 -0.0045261766764083701 0.024260173510101339 0 -0.0044806039584882815 0.024323311831281554 0 -0.0045261766764083701 0.024260173510101339 0 -0.0044751432846118532 0.024252454776380782 0 -0.0045261766764083701 0.024260173510101339 0 -0.0045191847829930357 0.02420303084031402 0 -0.0045778937559126836 0.024247124848400674 0 -0.0044751432846118532 0.024252454776380782 0 -0.0045191847829930357 0.02420303084031402 0 -0.0044341962741409943 0.024185191526296116 0 -0.0042609164965177505 0.023924327109952324 0 -0.0040385018679652022 0.023777435399208159 0 -0.0045261766764083701 0.024260173510101339 0 -0.0044751432846118532 0.024252454776380782 0 -0.0045191847829930357 0.02420303084031402 0 -0.0045191847829930357 0.02420303084031402 0 -0.0045778937559126836 0.024247124848400674 0 -0.0046050227539130763 0.024220854381826896 0 -0.0042609164965177505 0.023924327109952324 0 -0.0045573807505336133 0.024102612706905065 0 -0.0045906965088993584 0.024282663918516589 0 -0.0045261766764083701 0.024260173510101339 0 -0.0045778937559126836 0.024247124848400674 0 -0.0045906965088993584 0.024282663918516589 0 -0.0045778937559126836 0.024247124848400674 0 -0.004615366258918242 0.024241062704398474 0 -0.0045778937559126836 0.024247124848400674 0 -0.004615366258918242 0.024241062704398474 0 -0.0046050227539130763 0.024220854381826896 0 -0.0045591684044107329 0.024106336183115668 0 -0.0045573807505336133 0.024102612706905065 0 -0.0045921730353939939 0.024896151681296899 0 -0.0049202717524482603 0.024758719088381207 0 -0.0050079903670364814 0.024919879586798293 0 -0.004615366258918242 0.024241062704398474 0 -0.004605080590528947 0.024220699840691157 0 -0.0047027237331398646 0.024241571639107864 0 -0.0045906965088993584 0.024282663918516589 0 -0.004615366258918242 0.024241062704398474 0 -0.0047027237331398646 0.024241571639107864 0 -0.0047912760496878568 0.024504898161932114 0 -0.0049533348655464949 0.024364352574897781 0 -0.0045573807505336133 0.024102612706905065 0 -0.0049533348655464949 0.024364352574897781 0 -0.0047654541168877422 0.02463316654264644 0 -0.0045921730353939939 0.024896151681296899 0 -0.0049202717524482603 0.024758719088381207 0 -0.0049202717524482603 0.024758719088381207 0 -0.0050079903670364814 0.024919879586798293 0 -0.0050391145600639474 0.024774688959717545 0 -0.0055137398092813469 0.024668213164277749 0 -0.0055395697152617321 0.024771208084673556 0 -0.0052952323952687912 0.02491345697706639 0 -0.0055672236456288391 0.024682209637774444 0 -0.0055137398092813469 0.024668213164277749 0 -0.0055395697152617321 0.024771208084673556 0 -0.0049581248265834479 0.024365718740534344 0 -0.0049533348655464949 0.024364352574897781 0 -0.0059094972732119935 0.024630911991181597 0 -0.0055545712078062543 0.024680330053916826 0 -0.0056719621730044571 0.024790526178517541 0 -0.0053472895700089817 0.024746508698705039 0 -0.0053885312782867663 0.024694091927299405 0 -0.0055545712078062543 0.024680330053916826 0 -0.0053472895700089817 0.024746508698705039 0 -0.0055672236456288391 0.024682209637774444 0 -0.0055545712078062543 0.024680330053916826 0 -0.0051857273801390611 0.02474170536196468 0 -0.0053472895700089817 0.024746508698705039 0 -0.0050079903670364814 0.024919879586798293 0 -0.0053472895700089817 0.024746508698705039 0 -0.0055672236456288391 0.024682209637774444 0 -0.0055873673931359736 0.024688073154561566 0 -0.0047663069239293147 0.027849998758807375 0 -0.0051489154642231144 0.027482128437163415 0 -0.0051254963615845646 0.024432351341984491 0 -0.0049533348655464949 0.024364352574897781 0 -0.0051857273801390611 0.02474170536196468 0 -0.0050079903670364814 0.024919879586798293 0 -0.0050391145600639474 0.024774688959717545 0 -0.0055672236456288391 0.024682209637774444 0 -0.0055395697152617321 0.024771208084673556 0 -0.0055545712078062543 0.024680330053916826 0 -0.0055395697152617321 0.024771208084673556 0 -0.0055545712078062543 0.024680330053916826 0 -0.0056719621730044571 0.024790526178517541 0 -0.0059094972732119935 0.024630911991181597 0 -0.0056719621730044571 0.024790526178517541 0 -0.0057999193853224612 0.024926156806880123 0 -0.0060735960771949862 0.025092945711302279 0 -0.0057999193853224612 0.024926156806880123 0 -0.0056509769766689812 0.025220447556982561 0 -0.0056719621730044571 0.024790526178517541 0 -0.0057999193853224612 0.024926156806880123 0 -0.0055856579335076826 0.02493016774157918 0 -0.0055395697152617321 0.024771208084673556 0 -0.0056719621730044571 0.024790526178517541 0 -0.0055856579335076826 0.02493016774157918 0 -0.0055856579335076826 0.02493016774157918 0 -0.0054652100058570942 0.025069695512974718 0 -0.0056509769766689812 0.025220447556982561 0 -0.0057999193853224612 0.024926156806880123 0 -0.0055856579335076826 0.02493016774157918 0 -0.0056509769766689812 0.025220447556982561 0 -0.0050952139633593857 0.024804336398927075 0 -0.0055137398092813469 0.024668213164277749 0 -0.0052952323952687912 0.02491345697706639 0 -0.0052952323952687912 0.02491345697706639 0 -0.0054652100058570942 0.025069695512974718 0 -0.0053018037028513655 0.025237284334362748 0 -0.0055395697152617321 0.024771208084673556 0 -0.0055856579335076826 0.02493016774157918 0 -0.0052952323952687912 0.02491345697706639 0 -0.0055856579335076826 0.02493016774157918 0 -0.0052952323952687912 0.02491345697706639 0 -0.0054652100058570942 0.025069695512974718 0 -0.0054652100058570942 0.025069695512974718 0 -0.0053018037028513655 0.025237284334362748 0 -0.0056509769766689812 0.025220447556982561 0 -0.0053018037028513655 0.025237284334362748 0 -0.0056509769766689812 0.025220447556982561 0 -0.0053600109192495108 0.025632909293594072 0 -0.005948085479580722 0.025617962811853773 0 -0.0056509769766689812 0.025220447556982561 0 -0.0053600109192495108 0.025632909293594072 0 -0.0053600109192495108 0.025632909293594072 0 -0.0049906665631899525 0.025483941538619378 0 -0.004785225440370011 0.025966053357516831 0 -0.0053018037028513655 0.025237284334362748 0 -0.0053600109192495108 0.025632909293594072 0 -0.0049906665631899525 0.025483941538619378 0 -0.0052952323952687912 0.02491345697706639 0 -0.0053018037028513655 0.025237284334362748 0 -0.0050493721971237911 0.02513199194104087 0 -0.0053018037028513655 0.025237284334362748 0 -0.0049906665631899525 0.025483941538619378 0 -0.0050493721971237911 0.02513199194104087 0 -0.0046627627550274572 0.024902591566239092 0 -0.004730384328602298 0.025296548716267121 0 -0.0045242165770642611 0.025140128176854046 0 -0.0049906665631899525 0.025483941538619378 0 -0.0050493721971237911 0.02513199194104087 0 -0.004730384328602298 0.025296548716267121 0 -0.0046627627550274572 0.024902591566239092 0 -0.0050493721971237911 0.02513199194104087 0 -0.004730384328602298 0.025296548716267121 0 -0.0047347411003599077 0.025569759499919627 0 -0.0044397355373381854 0.025532900368040533 0 -0.004785225440370011 0.025966053357516831 0 -0.0049906665631899525 0.025483941538619378 0 -0.0047347411003599077 0.025569759499919627 0 -0.004785225440370011 0.025966053357516831 0 -0.004730384328602298 0.025296548716267121 0 -0.0047347411003599077 0.025569759499919627 0 -0.0044397355373381854 0.025532900368040533 0 -0.0049906665631899525 0.025483941538619378 0 -0.004730384328602298 0.025296548716267121 0 -0.0047347411003599077 0.025569759499919627 0 -0.0042198848752384834 0.025599434318285819 0 -0.0037889769852405527 0.025675079610159524 0 -0.0037238763956205169 0.025452683561209714 0 -0.0042198848752384834 0.025599434318285819 0 -0.0037889769852405527 0.025675079610159524 0 -0.0040075085744281282 0.025828109460368679 0 -0.0042198848752384834 0.025599434318285819 0 -0.0037238763956205169 0.025452683561209714 0 -0.0037731446312527636 0.025182029907363842 0 -0.0041055498055952294 0.024871639857241598 0 -0.0043523219225108786 0.025162250240732729 0 -0.0041450458552105369 0.024584571805725951 0 -0.0043221711830490148 0.025545416213901544 0 -0.0038561996507940266 0.025064349917499229 0 -0.0044397355373381854 0.025532900368040533 0 -0.0039922516135324519 0.025024387381694678 0 -0.0041322600549724628 0.025064423700188319 0 -0.0039532357728173572 0.024993674108000106 0 -0.0041055498055952294 0.024871639857241598 0 -0.0039438658856646488 0.024660748878057213 0 -0.0039532357728173572 0.024993674108000106 0 -0.0041055498055952294 0.024871639857241598 0 -0.0041322600549724628 0.025064423700188319 0 -0.0038561996507940266 0.025064349917499229 0 -0.0038688265420554042 0.025066232386059237 0 -0.0041055498055952294 0.024871639857241598 0 -0.0041322600549724628 0.025064423700188319 0 -0.0043523219225108786 0.025162250240732729 0 -0.0045242165770642611 0.025140128176854046 0 -0.0043523219225108786 0.025162250240732729 0 -0.0044090051051272981 0.024993064847334771 0 -0.0044397355373381854 0.025532900368040533 0 -0.0041322600549724628 0.025064423700188319 0 -0.0043523219225108786 0.025162250240732729 0 -0.004730384328602298 0.025296548716267121 0 -0.0044397355373381854 0.025532900368040533 0 -0.0045242165770642611 0.025140128176854046 0 -0.0044397355373381854 0.025532900368040533 0 -0.0045242165770642611 0.025140128176854046 0 -0.0043523219225108786 0.025162250240732729 0 -0.0043791946472431622 0.025564187161521909 0 -0.0036660171725058826 0.025189451005464089 0 -0.0038582859715101561 0.025617328429932498 0 -0.0040528995280461402 0.025838116445751385 0 -0.0043791946472431622 0.025564187161521909 0 -0.0042328943446461181 0.026187036122308181 0 -0.0040528995280461402 0.025838116445751385 0 -0.0038582859715101561 0.025617328429932498 0 -0.0037308477959852866 0.025984841209457765 0 -0.0040528995280461402 0.025838116445751385 0 -0.0043791946472431622 0.025564187161521909 0 -0.0038582859715101561 0.025617328429932498 0 -0.0037889769852405527 0.025675079610159524 0 -0.0033061909052133111 0.025510570114582375 0 -0.003692722408170947 0.02603827250073831 0 -0.0037889769852405527 0.025675079610159524 0 -0.0037238763956205169 0.025452683561209714 0 -0.0033061909052133111 0.025510570114582375 0 -0.0037238763956205169 0.025452683561209714 0 -0.0033061909052133111 0.025510570114582375 0 -0.0035371208590154572 0.025294845115793597 0 -0.0037731446312527636 0.025182029907363842 0 -0.0035371208590154572 0.025294845115793597 0 -0.0033456351830795979 0.02508801707113896 0 -0.0038889500320122929 0.024792652304387226 0 -0.0034896564519061781 0.024697931829781684 0 -0.0036403055132323216 0.02455656599833397 0 -0.0033061909052133111 0.025510570114582375 0 -0.0035371208590154572 0.025294845115793597 0 -0.0033456351830795979 0.02508801707113896 0 -0.0038561996507940266 0.025064349917499229 0 -0.0034933583698246993 0.024970534971396813 0 -0.0037238763956205169 0.025452683561209714 0 -0.0037731446312527636 0.025182029907363842 0 -0.0035371208590154572 0.025294845115793597 0 -0.0038561996507940266 0.025064349917499229 0 -0.0037926321497958318 0.024976266243272049 0 -0.0037538648767144142 0.025545839651786171 0 -0.0032553141255055253 0.024924157051739563 0 -0.0033061909052133111 0.025510570114582375 0 -0.0033456351830795979 0.02508801707113896 0 -0.0029215255298374802 0.024992491152149271 0 -0.0043791946472431622 0.025564187161521909 0 -0.0037187934368143019 0.024607578296592939 0 -0.0036660171725058826 0.025189451005464089 0 -0.0034933583698246993 0.024970534971396813 0 -0.0032553141255055253 0.024924157051739563 0 -0.0034896564519061781 0.024697931829781684 0 -0.0032234675427628822 0.024501670339094433 0 -0.0030294921517855762 0.024563632614928683 0 -0.0031487021652492342 0.024333307798120467 0 -0.0032234675427628822 0.024501670339094433 0 -0.0033699037941869168 0.024474250445148442 0 -0.0031487021652492342 0.024333307798120467 0 -0.0033699037941869168 0.024474250445148442 0 -0.0033119687937537582 0.024263057159819464 0 -0.0031487021652492342 0.024333307798120467 0 -0.0032234675427628822 0.024501670339094433 0 -0.0030771005080114829 0.024433794758776824 0 -0.0034896564519061781 0.024697931829781684 0 -0.0032234675427628822 0.024501670339094433 0 -0.0033699037941869168 0.024474250445148442 0 -0.0033699037941869168 0.024474250445148442 0 -0.0033119687937537582 0.024263057159819464 0 -0.003482243633985842 0.024348013742781803 0 -0.0033699037941869168 0.024474250445148442 0 -0.003482243633985842 0.024348013742781803 0 -0.0036403055132323216 0.02455656599833397 0 -0.003482243633985842 0.024348013742781803 0 -0.0036403055132323216 0.02455656599833397 0 -0.0036471034412956078 0.024269202935656101 0 -0.0034896564519061781 0.024697931829781684 0 -0.0033699037941869168 0.024474250445148442 0 -0.0036403055132323216 0.02455656599833397 0 -0.0039532357728173572 0.024993674108000106 0 -0.0036403055132323216 0.02455656599833397 0 -0.0039438658856646488 0.024660748878057213 0 -0.0036403055132323216 0.02455656599833397 0 -0.0039008059642431712 0.024375313851057272 0 -0.0039438658856646488 0.024660748878057213 0 -0.0036403055132323216 0.02455656599833397 0 -0.0039008059642431712 0.024375313851057272 0 -0.0036471034412956078 0.024269202935656101 0 -0.0039008059642431712 0.024375313851057272 0 -0.0037513455451591046 0.023988567031870148 0 -0.0036471034412956078 0.024269202935656101 0 -0.0037513455451591046 0.023988567031870148 0 -0.0036471034412956078 0.024269202935656101 0 -0.0034746196444589861 0.024077374737194287 0 -0.003482243633985842 0.024348013742781803 0 -0.0036471034412956078 0.024269202935656101 0 -0.0034746196444589861 0.024077374737194287 0 -0.0034746196444589861 0.024077374737194287 0 -0.0031187922798078136 0.023598822282401722 0 -0.0031099194717160161 0.023882305453886907 0 -0.0037513455451591046 0.023988567031870148 0 -0.0034746196444589861 0.024077374737194287 0 -0.0031187922798078136 0.023598822282401722 0 -0.0033119687937537582 0.024263057159819464 0 -0.003482243633985842 0.024348013742781803 0 -0.0034746196444589861 0.024077374737194287 0 -0.0033119687937537582 0.024263057159819464 0 -0.0034746196444589861 0.024077374737194287 0 -0.003279678298665472 0.024087135878952122 0 -0.0034746196444589861 0.024077374737194287 0 -0.003279678298665472 0.024087135878952122 0 -0.0031099194717160161 0.023882305453886907 0 -0.003279678298665472 0.024087135878952122 0 -0.0031179737701206517 0.024087725489776619 0 -0.0031099194717160161 0.023882305453886907 0 -0.0033119687937537582 0.024263057159819464 0 -0.003279678298665472 0.024087135878952122 0 -0.0031179737701206517 0.024087725489776619 0 -0.0031487021652492342 0.024333307798120467 0 -0.0033119687937537582 0.024263057159819464 0 -0.0031179737701206517 0.024087725489776619 0 -0.0041950628857177702 0.024674678880869765 0 -0.0041918173694187426 0.02438135753018068 0 -0.0043523219225108786 0.025162250240732729 0 -0.0044252892384828539 0.024818860886287181 0 -0.0044090051051272981 0.024993064847334771 0 -0.0044806039584882815 0.024323311831281554 0 -0.0044751432846118532 0.024252454776380782 0 -0.0044156912392292712 0.0242904439861212 0 -0.0045516542069048973 0.024648668319503096 0 -0.0041918173694187426 0.02438135753018068 0 -0.0045516542069048973 0.024648668319503096 0 -0.0045155660028071871 0.024684566222582395 0 -0.0046159325395289464 0.024915926359382792 0 -0.0044252892384828539 0.024818860886287181 0 -0.0044090051051272981 0.024993064847334771 0 -0.0046627627550274572 0.024902591566239092 0 -0.0045242165770642611 0.025140128176854046 0 -0.0044090051051272981 0.024993064847334771 0 -0.0043523219225108786 0.025162250240732729 0 -0.0045295909627008756 0.024393325316138758 0 -0.0041450458552105369 0.024584571805725951 0 -0.0039008059642431712 0.024375313851057272 0 -0.0045295909627008756 0.024393325316138758 0 -0.0041450458552105369 0.024584571805725951 0 -0.0039008059642431712 0.024375313851057272 0 -0.0041450458552105369 0.024584571805725951 0 -0.0039438658856646488 0.024660748878057213 0 -0.0041055498055952294 0.024871639857241598 0 -0.0041450458552105369 0.024584571805725951 0 -0.0039438658856646488 0.024660748878057213 0 -0.0039008059642431712 0.024375313851057272 0 -0.0037513455451591046 0.023988567031870148 0 -0.0045295909627008756 0.024393325316138758 0 -0.003724930933189036 0.024032983340423721 0 -0.0041918173694187426 0.02438135753018068 0 -0.003707246797369185 0.023887558421447158 0 -0.0042712384350375825 0.024169676080852558 0 -0.0040504222556118057 0.02390710447046572 0 -0.0040504222556118057 0.02390710447046572 0 -0.0039726643495717378 0.023786809231442906 0 -0.004348861424612549 0.023737580824082113 0 -0.003707246797369185 0.023887558421447158 0 -0.0040504222556118057 0.02390710447046572 0 -0.0039726643495717378 0.023786809231442906 0 -0.0041918173694187426 0.02438135753018068 0 -0.0040385018679652022 0.023777435399208159 0 -0.0044751432846118532 0.024252454776380782 0 -0.0044156912392292712 0.0242904439861212 0 -0.0044341962741409943 0.024185191526296116 0 -0.0042712384350375825 0.024169676080852558 0 -0.0040504222556118057 0.02390710447046572 0 -0.004348861424612549 0.023737580824082113 0 -0.003802222527506692 0.02334655028194859 0 -0.0036821416373603237 0.023440324945170628 0 -0.0037181195851429144 0.02324241656560019 0 -0.0036946428395178256 0.023389786867921245 0 -0.0037246666233875948 0.023216186276671619 0 -0.0035646767874734533 0.023269682542343049 0 -0.0040385018679652022 0.023777435399208159 0 -0.0039913054943161996 0.023469318376856948 0 -0.0039913054943161996 0.023469318376856948 0 -0.0039789653535117096 0.023360858527622257 0 -0.0037246666233875948 0.023216186276671619 0 -0.0036337370848706766 0.023086953589356762 0 -0.0037530675028074655 0.023048755480106639 0 -0.0037246666233875948 0.023216186276671619 0 -0.0036101879024360386 0.023177784186066815 0 -0.0036337370848706766 0.023086953589356762 0 -0.0037246666233875948 0.023216186276671619 0 -0.0036101879024360386 0.023177784186066815 0 -0.0035646767874734533 0.023269682542343049 0 -0.0035166080075635557 0.023138367002381879 0 -0.0034393396369095663 0.023197104064073968 0 -0.003407516523273551 0.023084659836072319 0 -0.0036101879024360386 0.023177784186066815 0 -0.0036337370848706766 0.023086953589356762 0 -0.0035166080075635557 0.023138367002381879 0 -0.0036101879024360386 0.023177784186066815 0 -0.0035166080075635557 0.023138367002381879 0 -0.0035646767874734533 0.023269682542343049 0 -0.0035166080075635557 0.023138367002381879 0 -0.0034393396369095663 0.023197104064073968 0 -0.0035646767874734533 0.023269682542343049 0 -0.0040385018679652022 0.023777435399208159 0 -0.0035810649195817325 0.023572575179342577 0 -0.0034393396369095663 0.023197104064073968 0 -0.0035646767874734533 0.023269682542343049 0 -0.0034123596161102676 0.023332178140418484 0 -0.0036946428395178256 0.023389786867921245 0 -0.0035646767874734533 0.023269682542343049 0 -0.0034123596161102676 0.023332178140418484 0 -0.0039726643495717378 0.023786809231442906 0 -0.004348861424612549 0.023737580824082113 0 -0.0037835325554875466 0.023616151564872664 0 -0.003707246797369185 0.023887558421447158 0 -0.0039726643495717378 0.023786809231442906 0 -0.0037835325554875466 0.023616151564872664 0 -0.0035810649195817325 0.023572575179342577 0 -0.0031451983756914932 0.023436864813115563 0 -0.003707246797369185 0.023887558421447158 0 -0.0037835325554875466 0.023616151564872664 0 -0.0034538304916973926 0.023647201646983668 0 -0.0037835325554875466 0.023616151564872664 0 -0.0034538304916973926 0.023647201646983668 0 -0.0032026536455971653 0.023487434050110088 0 -0.003707246797369185 0.023887558421447158 0 -0.0034538304916973926 0.023647201646983668 0 -0.0031187922798078136 0.023598822282401722 0 -0.0034123596161102676 0.023332178140418484 0 -0.0031252498264085415 0.023297801382029904 0 -0.0032127563203106281 0.023217513380179088 0 -0.003724930933189036 0.024032983340423721 0 -0.0034036767840669351 0.023837838087139091 0 -0.0034538304916973926 0.023647201646983668 0 -0.0032026536455971653 0.023487434050110088 0 -0.0031187922798078136 0.023598822282401722 0 -0.0031329049857899949 0.023088294105314627 0 -0.003305764754529426 0.023155339275723927 0 -0.0033153637714028275 0.022953387208537412 0 -0.0032127563203106281 0.023217513380179088 0 -0.0031329049857899949 0.023088294105314627 0 -0.0030293635320103071 0.023166440807439417 0 -0.0031252498264085415 0.023297801382029904 0 -0.0032127563203106281 0.023217513380179088 0 -0.0030293635320103071 0.023166440807439417 0 -0.0032127563203106281 0.023217513380179088 0 -0.0031329049857899949 0.023088294105314627 0 -0.003305764754529426 0.023155339275723927 0 -0.0034123596161102676 0.023332178140418484 0 -0.0032127563203106281 0.023217513380179088 0 -0.003305764754529426 0.023155339275723927 0 -0.0034393396369095663 0.023197104064073968 0 -0.0034123596161102676 0.023332178140418484 0 -0.003305764754529426 0.023155339275723927 0 -0.0034393396369095663 0.023197104064073968 0 -0.003305764754529426 0.023155339275723927 0 -0.003407516523273551 0.023084659836072319 0 -0.003407516523273551 0.023084659836072319 0 -0.0033153637714028275 0.022953387208537412 0 -0.0035170492449673363 0.022956572622598384 0 -0.003305764754529426 0.023155339275723927 0 -0.003407516523273551 0.023084659836072319 0 -0.0033153637714028275 0.022953387208537412 0 -0.0033153637714028275 0.022953387208537412 0 -0.0034434666134150454 0.022791204941259302 0 -0.0035170492449673363 0.022956572622598384 0 -0.0031329049857899949 0.023088294105314627 0 -0.0033153637714028275 0.022953387208537412 0 -0.0030850149479896664 0.022889781109888815 0 -0.0032383596085427324 0.022708314591312419 0 -0.0033153637714028275 0.022953387208537412 0 -0.0030850149479896664 0.022889781109888815 0 -0.0032383596085427324 0.022708314591312419 0 -0.0030850149479896664 0.022889781109888815 0 -0.0030167999878868831 0.022700374579621017 0 -0.0032383596085427324 0.022708314591312419 0 -0.0033153637714028275 0.022953387208537412 0 -0.0034434666134150454 0.022791204941259302 0 -0.0036610708532553711 0.022711795957809495 0 -0.0034434666134150454 0.022791204941259302 0 -0.0035170492449673363 0.022956572622598384 0 -0.0036610708532553711 0.022711795957809495 0 -0.0040478633096802559 0.022881224029286447 0 -0.0038673801786475934 0.023415097057015548 0 -0.0036610708532553711 0.022711795957809495 0 -0.0037713500652164769 0.022936422336209641 0 -0.0036659967930826451 0.022941838891664332 0 -0.0036610708532553711 0.022711795957809495 0 -0.0036659967930826451 0.022941838891664332 0 -0.0035170492449673363 0.022956572622598384 0 -0.0037983558635978822 0.022999200359257042 0 -0.003921362351006207 0.02323162477813244 0 -0.0037713500652164769 0.022936422336209641 0 -0.0036659967930826451 0.022941838891664332 0 -0.0037530675028074655 0.023048755480106639 0 -0.0036337370848706766 0.023086953589356762 0 -0.0036659967930826451 0.022941838891664332 0 -0.0037530675028074655 0.023048755480106639 0 -0.0036337370848706766 0.023086953589356762 0 -0.0036659967930826451 0.022941838891664332 0 -0.0035170492449673363 0.022956572622598384 0 -0.0036337370848706766 0.023086953589356762 0 -0.0035166080075635557 0.023138367002381879 0 -0.0035170492449673363 0.022956572622598384 0 -0.0035166080075635557 0.023138367002381879 0 -0.003407516523273551 0.023084659836072319 0 -0.0035170492449673363 0.022956572622598384 0 -0.0019904476104028322 0.022549311227343209 0 -0.0024626812930723867 0.02273013029783397 0 -0.0020951975210185226 0.023071850822895399 0 -0.0019904476104028322 0.022549311227343209 0 -0.0020951975210185226 0.023071850822895399 0 -0.0015920542137214115 0.022898816840844237 0 -0.0019904476104028322 0.022549311227343209 0 -0.0023266940931339626 0.022097508870232319 0 -0.0024626812930723867 0.02273013029783397 0 -0.0019904476104028322 0.022549311227343209 0 -0.0016111445625184983 0.02238371314010585 0 -0.0015920542137214115 0.022898816840844237 0 -0.0011438953858115982 0.022557775366144752 0 -0.0016111445625184983 0.02238371314010585 0 -0.0015920542137214115 0.022898816840844237 0 -0.0019904476104028322 0.022549311227343209 0 -0.0016111445625184983 0.02238371314010585 0 -0.0018943776941101173 0.022084208824816706 0 -0.0011438953858115982 0.022557775366144752 0 -0.0014676160638349813 0.021793810177896528 0 -0.0016111445625184983 0.02238371314010585 0 -0.0014676160638349813 0.021793810177896528 0 -0.0016111445625184983 0.02238371314010585 0 -0.0018943776941101173 0.022084208824816706 0 -0.0020757140053567166 0.021565274598442485 0 -0.0018943776941101173 0.022084208824816706 0 -0.0023266940931339626 0.022097508870232319 0 -0.0019904476104028322 0.022549311227343209 0 -0.0018943776941101173 0.022084208824816706 0 -0.0023266940931339626 0.022097508870232319 0 -0.0023266940931339626 0.022097508870232319 0 -0.0028579016876819712 0.022275217093239336 0 -0.0024626812930723867 0.02273013029783397 0 -0.0026668542271403592 0.021377902154972615 0 -0.0028430878159740698 0.0222983792835235 0 -0.0027140956324231726 0.021501214223738029 0 -0.0023266940931339626 0.022097508870232319 0 -0.0028579016876819712 0.022275217093239336 0 -0.0028002105877338928 0.022558414684607377 0 -0.0028873087671943808 0.022835334815296607 0 -0.0030167999878868831 0.022700374579621017 0 -0.0030850149479896664 0.022889781109888815 0 -0.0028873087671943808 0.022835334815296607 0 -0.0030167999878868831 0.022700374579621017 0 -0.0028430878159740698 0.0222983792835235 0 -0.0029017880877894083 0.022615056635781165 0 -0.0031329049857899949 0.023088294105314627 0 -0.0030850149479896664 0.022889781109888815 0 -0.0029327516174223632 0.02305067146619311 0 -0.0030850149479896664 0.022889781109888815 0 -0.0028873087671943808 0.022835334815296607 0 -0.0029327516174223632 0.02305067146619311 0 -0.0028579016876819712 0.022275217093239336 0 -0.0024626812930723867 0.02273013029783397 0 -0.0029327516174223632 0.02305067146619311 0 -0.0024626812930723867 0.02273013029783397 0 -0.002560468084820551 0.023263608181245097 0 -0.0020951975210185226 0.023071850822895399 0 -0.0024626812930723867 0.02273013029783397 0 -0.002560468084820551 0.023263608181245097 0 -0.0029327516174223632 0.02305067146619311 0 -0.002560468084820551 0.023263608181245097 0 -0.0029327516174223632 0.02305067146619311 0 -0.0030293635320103071 0.023166440807439417 0 -0.0031252498264085415 0.023297801382029904 0 -0.002560468084820551 0.023263608181245097 0 -0.0030293635320103071 0.023166440807439417 0 -0.0031329049857899949 0.023088294105314627 0 -0.0029327516174223632 0.02305067146619311 0 -0.0030293635320103071 0.023166440807439417 0 -0.0032026536455971653 0.023487434050110088 0 -0.002560468084820551 0.023263608181245097 0 -0.0029091811856428534 0.023557721645987306 0 -0.0031451983756914932 0.023436864813115563 0 -0.0028644005884498102 0.02336593643846949 0 -0.0032026536455971653 0.023487434050110088 0 -0.0031187922798078136 0.023598822282401722 0 -0.0029091811856428534 0.023557721645987306 0 -0.0029091811856428534 0.023557721645987306 0 -0.0029489700501703566 0.023736408290000406 0 -0.0027071465512794315 0.023706997776137727 0 -0.0031187922798078136 0.023598822282401722 0 -0.0029091811856428534 0.023557721645987306 0 -0.0029489700501703566 0.023736408290000406 0 -0.0031187922798078136 0.023598822282401722 0 -0.0029489700501703566 0.023736408290000406 0 -0.0031099194717160161 0.023882305453886907 0 -0.002560468084820551 0.023263608181245097 0 -0.0027071465512794315 0.023706997776137727 0 -0.0023302468797224097 0.023751160898003644 0 -0.002560468084820551 0.023263608181245097 0 -0.0023302468797224097 0.023751160898003644 0 -0.0021424841461249611 0.023452306016206403 0 -0.002560468084820551 0.023263608181245097 0 -0.0029091811856428534 0.023557721645987306 0 -0.0027071465512794315 0.023706997776137727 0 -0.0023302468797224097 0.023751160898003644 0 -0.0021424841461249611 0.023452306016206403 0 -0.0019526139823029956 0.023780645432009563 0 -0.0021424841461249611 0.023452306016206403 0 -0.0017515142587984636 0.023339087702478657 0 -0.0019526139823029956 0.023780645432009563 0 -0.002560468084820551 0.023263608181245097 0 -0.0021424841461249611 0.023452306016206403 0 -0.0020951975210185226 0.023071850822895399 0 -0.0021424841461249611 0.023452306016206403 0 -0.0020951975210185226 0.023071850822895399 0 -0.0017515142587984636 0.023339087702478657 0 -0.0020951975210185226 0.023071850822895399 0 -0.0015920542137214115 0.022898816840844237 0 -0.0017515142587984636 0.023339087702478657 0 -0.0015920542137214115 0.022898816840844237 0 -0.0014363772396797612 0.023265345017514146 0 -0.0017515142587984636 0.023339087702478657 0 -0.0012380794428510234 0.023052919649003342 0 -0.0015920542137214115 0.022898816840844237 0 -0.0014363772396797612 0.023265345017514146 0 -0.0014363772396797612 0.023265345017514146 0 -0.0017515142587984636 0.023339087702478657 0 -0.0014977465189633435 0.023565905236959905 0 -0.0014977465189633435 0.023565905236959905 0 -0.0016145507330374504 0.023869234437960633 0 -0.0019526139823029956 0.023780645432009563 0 -0.0017515142587984636 0.023339087702478657 0 -0.0014977465189633435 0.023565905236959905 0 -0.0019526139823029956 0.023780645432009563 0 -0.0016145507330374504 0.023869234437960633 0 -0.0019526139823029956 0.023780645432009563 0 -0.0020516885108883423 0.024297542096484277 0 -0.0016145507330374504 0.023869234437960633 0 -0.0020516885108883423 0.024297542096484277 0 -0.0015763873005188976 0.024254777849607036 0 -0.0023302468797224097 0.023751160898003644 0 -0.0020516885108883423 0.024297542096484277 0 -0.0025505526655083492 0.02406611674023372 0 -0.0023302468797224097 0.023751160898003644 0 -0.0019526139823029956 0.023780645432009563 0 -0.0020516885108883423 0.024297542096484277 0 -0.0025584951132729878 0.024609458986041052 0 -0.0028076627305476929 0.024700968089684801 0 -0.0020516885108883423 0.024297542096484277 0 -0.0028971918412088009 0.024426728109272419 0 -0.002521010083543729 0.024861823829138586 0 -0.0020516885108883423 0.024297542096484277 0 -0.0020498260370163477 0.024832644014313364 0 -0.002521010083543729 0.024861823829138586 0 -0.0020516885108883423 0.024297542096484277 0 -0.0017027343566392648 0.024652968645088869 0 -0.0020498260370163477 0.024832644014313364 0 -0.0017027343566392648 0.024652968645088869 0 -0.001465713906357179 0.024522509707619305 0 -0.0015763873005188976 0.024254777849607036 0 -0.0013913681211880492 0.024769391252812752 0 -0.0017027343566392648 0.024652968645088869 0 -0.001465713906357179 0.024522509707619305 0 -0.0020516885108883423 0.024297542096484277 0 -0.0017027343566392648 0.024652968645088869 0 -0.0015763873005188976 0.024254777849607036 0 -0.0031487021652492342 0.024333307798120467 0 -0.0029759992789384479 0.024189809398995486 0 -0.0031179737701206517 0.024087725489776619 0 -0.0029759992789384479 0.024189809398995486 0 -0.0031179737701206517 0.024087725489776619 0 -0.0028658984122315934 0.023975878626507036 0 -0.0029489700501703566 0.023736408290000406 0 -0.0031099194717160161 0.023882305453886907 0 -0.0028658984122315934 0.023975878626507036 0 -0.0031179737701206517 0.024087725489776619 0 -0.0031099194717160161 0.023882305453886907 0 -0.0028658984122315934 0.023975878626507036 0 -0.0029489700501703566 0.023736408290000406 0 -0.0027071465512794315 0.023706997776137727 0 -0.0028658984122315934 0.023975878626507036 0 -0.0029759992789384479 0.024189809398995486 0 -0.0028658984122315934 0.023975878626507036 0 -0.0028183330311659176 0.024224588808867777 0 -0.0028658984122315934 0.023975878626507036 0 -0.0025505526655083492 0.02406611674023372 0 -0.0028183330311659176 0.024224588808867777 0 -0.0027071465512794315 0.023706997776137727 0 -0.0028658984122315934 0.023975878626507036 0 -0.0025505526655083492 0.02406611674023372 0 -0.0027071465512794315 0.023706997776137727 0 -0.0023302468797224097 0.023751160898003644 0 -0.0025505526655083492 0.02406611674023372 0 -0.0020516885108883423 0.024297542096484277 0 -0.0025505526655083492 0.02406611674023372 0 -0.002540576575451915 0.024420270131087177 0 -0.0025505526655083492 0.02406611674023372 0 -0.002540576575451915 0.024420270131087177 0 -0.0028183330311659176 0.024224588808867777 0 -0.0028076627305476929 0.024700968089684801 0 -0.0032553141255055253 0.024924157051739563 0 -0.002540576575451915 0.024420270131087177 0 -0.0029440867293409798 0.024433133590961428 0 -0.0030312625402797266 0.024553422891979506 0 -0.002540576575451915 0.024420270131087177 0 -0.0028183330311659176 0.024224588808867777 0 -0.0029440867293409798 0.024433133590961428 0 -0.0028971918412088009 0.024426728109272419 0 -0.0037187934368143019 0.024607578296592939 0 -0.0033555248231335573 0.024812592538447698 0 -0.0028183330311659176 0.024224588808867777 0 -0.0029440867293409798 0.024433133590961428 0 -0.003003835360243113 0.024324304950455629 0 -0.0032234675427628822 0.024501670339094433 0 -0.0030294921517855762 0.024563632614928683 0 -0.0030771005080114829 0.024433794758776824 0 -0.0032393275295390326 0.024901826202533402 0 -0.0032553141255055253 0.024924157051739563 0 -0.0029440867293409798 0.024433133590961428 0 -0.0030294921517855762 0.024563632614928683 0 -0.0030771005080114829 0.024433794758776824 0 -0.0031487021652492342 0.024333307798120467 0 -0.0030771005080114829 0.024433794758776824 0 -0.003003835360243113 0.024324304950455629 0 -0.0029440867293409798 0.024433133590961428 0 -0.0030771005080114829 0.024433794758776824 0 -0.003003835360243113 0.024324304950455629 0 -0.0029759992789384479 0.024189809398995486 0 -0.0028183330311659176 0.024224588808867777 0 -0.003003835360243113 0.024324304950455629 0 -0.0031487021652492342 0.024333307798120467 0 -0.0029759992789384479 0.024189809398995486 0 -0.003003835360243113 0.024324304950455629 0 -0.0037187934368143019 0.024607578296592939 0 -0.0036660171725058826 0.025189451005464089 0 -0.0033555248231335573 0.024812592538447698 0 -0.0036660171725058826 0.025189451005464089 0 -0.0033555248231335573 0.024812592538447698 0 -0.0031391166900320753 0.025026829529986781 0 -0.0036660171725058826 0.025189451005464089 0 -0.0031391166900320753 0.025026829529986781 0 -0.0033792060116182433 0.025479242597743566 0 -0.0031391166900320753 0.025026829529986781 0 -0.0027828439771214941 0.025368895418685141 0 -0.0033792060116182433 0.025479242597743566 0 -0.0028971918412088009 0.024426728109272419 0 -0.0033555248231335573 0.024812592538447698 0 -0.0031391166900320753 0.025026829529986781 0 -0.0028971918412088009 0.024426728109272419 0 -0.0031391166900320753 0.025026829529986781 0 -0.002521010083543729 0.024861823829138586 0 -0.0031391166900320753 0.025026829529986781 0 -0.0027828439771214941 0.025368895418685141 0 -0.002521010083543729 0.024861823829138586 0 -0.0027828439771214941 0.025368895418685141 0 -0.0031827620537116207 0.025863374597814907 0 -0.0025007406916587576 0.025992942701753969 0 -0.0027828439771214941 0.025368895418685141 0 -0.0031827620537116207 0.025863374597814907 0 -0.0033792060116182433 0.025479242597743566 0 -0.0031827620537116207 0.025863374597814907 0 -0.0033792060116182433 0.025479242597743566 0 -0.0037308477959852866 0.025984841209457765 0 -0.0033792060116182433 0.025479242597743566 0 -0.0038582859715101561 0.025617328429932498 0 -0.0037308477959852866 0.025984841209457765 0 -0.0036660171725058826 0.025189451005464089 0 -0.0033792060116182433 0.025479242597743566 0 -0.0038582859715101561 0.025617328429932498 0 -0.0018007180335061176 0.025065462834529463 0 -0.0015199491819621401 0.025098382034669308 0 -0.0018481786369755622 0.025564159824603781 0 -0.0018007180335061176 0.025065462834529463 0 -0.002168215287007098 0.025276589431664012 0 -0.0018481786369755622 0.025564159824603781 0 -0.0018007180335061176 0.025065462834529463 0 -0.0015199491819621401 0.025098382034669308 0 -0.0015970491674988162 0.024897622192936526 0 -0.0013913681211880492 0.024769391252812752 0 -0.0015199491819621401 0.025098382034669308 0 -0.0015970491674988162 0.024897622192936526 0 -0.0013913681211880492 0.024769391252812752 0 -0.0017027343566392648 0.024652968645088869 0 -0.0015970491674988162 0.024897622192936526 0 -0.0017027343566392648 0.024652968645088869 0 -0.0018007180335061176 0.025065462834529463 0 -0.0015970491674988162 0.024897622192936526 0 -0.0017027343566392648 0.024652968645088869 0 -0.0018007180335061176 0.025065462834529463 0 -0.0020498260370163477 0.024832644014313364 0 -0.0020498260370163477 0.024832644014313364 0 -0.002521010083543729 0.024861823829138586 0 -0.002168215287007098 0.025276589431664012 0 -0.0027828439771214941 0.025368895418685141 0 -0.002521010083543729 0.024861823829138586 0 -0.002168215287007098 0.025276589431664012 0 -0.0018007180335061176 0.025065462834529463 0 -0.0020498260370163477 0.024832644014313364 0 -0.002168215287007098 0.025276589431664012 0 -0.0027910329763080615 0.024262098249826131 0 -0.0026614776215033637 0.023606686215443293 0 -0.00097332142951709276 0.017564579609315765 0 -0.0010133922051103101 0.018206441304793351 0 -0.0017604664555033035 0.017957850851592294 0 -0.0027828439771214941 0.025368895418685141 0 -0.002168215287007098 0.025276589431664012 0 -0.0025007406916587576 0.025992942701753969 0 -0.0018193730805644631 0.021867682839971373 0 -0.0026614776215033637 0.023606686215443293 0 -0.002168215287007098 0.025276589431664012 0 -0.0018481786369755622 0.025564159824603781 0 -0.0024358812342160745 0.025874867991896491 0 -0.00027555832078078531 0.01762342151795411 0 -0.00097332142951709276 0.017564579609315765 0 -0.00040425724142663177 0.017986124082909394 0 -0.00027555832078078531 0.01762342151795411 0 -0.00035617688081816752 0.017353752690089142 0 -0.00097332142951709276 0.017564579609315765 0 -0.0015875372673513019 0.020484049584477668 0 -0.0018193730805644631 0.021867682839971373 0 -0.00022949148510176726 0.017196301459918188 0 -0.00035617688081816752 0.017353752690089142 0 -0.00097332142951709276 0.017564579609315765 0 -0.00097332142951709276 0.017564579609315765 0 -0.0010133922051103101 0.018206441304793351 0 -0.00040425724142663177 0.017986124082909394 0 -0.0012450854111275438 0.025248840420839413 0 -0.0015199491819621401 0.025098382034669308 0 -0.0018481786369755622 0.025564159824603781 0 -0.0010133922051103101 0.018206441304793351 0 -0.00040425724142663177 0.017986124082909394 0 2.3103270272912709e-05 0.018473191056197956 0 -0.0010133922051103101 0.018206441304793351 0 -0.0010785468405195096 0.01886866346753531 0 2.3103270272912709e-05 0.018473191056197956 0 -0.0017604664555033035 0.017957850851592294 0 -0.0015449328533352019 0.018658884119557986 0 -0.0022667789115965449 0.018985487733036238 0 -0.0010133922051103101 0.018206441304793351 0 -0.0017604664555033035 0.017957850851592294 0 -0.0015449328533352019 0.018658884119557986 0 -0.0010133922051103101 0.018206441304793351 0 -0.0015449328533352019 0.018658884119557986 0 -0.0010785468405195096 0.01886866346753531 0 -0.0015449328533352019 0.018658884119557986 0 -0.0016263351688747473 0.019304986670312763 0 -0.0010785468405195096 0.01886866346753531 0 -0.0015449328533352019 0.018658884119557986 0 -0.0016263351688747473 0.019304986670312763 0 -0.0022667789115965449 0.018985487733036238 0 -0.0010785468405195096 0.01886866346753531 0 -0.00068373563174759433 0.019557639813113249 0 2.3103270272912709e-05 0.018473191056197956 0 -0.0016263351688747473 0.019304986670312763 0 -0.0010785468405195096 0.01886866346753531 0 -0.00068373563174759433 0.019557639813113249 0 -0.0037308477959852866 0.025984841209457765 0 -0.0035039582784687899 0.02647915796056562 0 -0.0042328943446461181 0.026187036122308181 0 -0.0031827620537116207 0.025863374597814907 0 -0.0037308477959852866 0.025984841209457765 0 -0.0035039582784687899 0.02647915796056562 0 -0.0051249697813002962 0.027407977127285078 0 -0.0046136652110689543 0.027102328017961683 0 -0.0049531714757875163 0.026998654555942903 0 -0.0026614776215033637 0.023606686215443293 0 -0.0031454113112995589 0.023204221686723848 0 -0.0031827620537116207 0.025863374597814907 0 -0.0025007406916587576 0.025992942701753969 0 -0.0035039582784687899 0.02647915796056562 0 -0.0026614776215033637 0.023606686215443293 0 -0.004212130372928038 0.025566744137044677 0 -0.0016263351688747473 0.019304986670312763 0 -0.0022667789115965449 0.018985487733036238 0 -0.0020312404155297514 0.01975401194375332 0 -0.0046136652110689543 0.027102328017961683 0 -0.0049531714757875163 0.026998654555942903 0 -0.0045754912115611498 0.026873037768552557 0 -0.0049531714757875163 0.026998654555942903 0 -0.0045754912115611498 0.026873037768552557 0 -0.0046007069213637548 0.026629442572597892 0 -0.0045754912115611498 0.026873037768552557 0 -0.0045339395608362462 0.026765683469865773 0 -0.0044907539343767436 0.026836223600657599 0 -0.0046136652110689543 0.027102328017961683 0 -0.0045754912115611498 0.026873037768552557 0 -0.0044907539343767436 0.026836223600657599 0 -0.0046007069213637548 0.026629442572597892 0 -0.0048355087863112267 0.025993906028226745 0 -0.0039572239811912647 0.024719994752943963 0 -0.0046007069213637548 0.026629442572597892 0 -0.0044994044381857093 0.026967505363308109 0 -0.0045458095498256733 0.026811525558975868 0 -0.0045339395608362462 0.026765683469865773 0 -0.0046007069213637548 0.026629442572597892 0 -0.0045458095498256733 0.026811525558975868 0 -0.0045754912115611498 0.026873037768552557 0 -0.0045339395608362462 0.026765683469865773 0 -0.0046007069213637548 0.026629442572597892 0 -0.0031454113112995589 0.023204221686723848 0 -0.003459180704866185 0.023073616906801143 0 -0.0049531714757875163 0.026998654555942903 0 -0.0046007069213637548 0.026629442572597892 0 -0.0048355087863112267 0.025993906028226745 0 -0.0022667789115965449 0.018985487733036238 0 -0.0028202204258297621 0.020119861361008483 0 -0.0020312404155297514 0.01975401194375332 0 -0.0028202204258297621 0.020119861361008483 0 -0.0020312404155297514 0.01975401194375332 0 -0.0020565543677024426 0.020333932039714297 0 -0.0020565543677024426 0.020333932039714297 0 -0.0022557047541142457 0.02104240475217406 0 -0.002516001957094709 0.020537191131800882 0 -0.0020565543677024426 0.020333932039714297 0 -0.0022557047541142457 0.02104240475217406 0 -0.0014931491599875612 0.020818495539153752 0 -0.0022557047541142457 0.02104240475217406 0 -0.002516001957094709 0.020537191131800882 0 -0.0027803408526308627 0.020995443137030993 0 -0.0028202204258297621 0.020119861361008483 0 -0.002516001957094709 0.020537191131800882 0 -0.0027803408526308627 0.020995443137030993 0 -0.0028202204258297621 0.020119861361008483 0 -0.0020565543677024426 0.020333932039714297 0 -0.002516001957094709 0.020537191131800882 0 -0.0048355087863112267 0.025993906028226745 0 -0.0043065739205892959 0.024274555421119476 0 -0.0039572239811912647 0.024719994752943963 0 -0.0045539945199637583 0.026250121406307728 0 -0.0044338871565863611 0.025888421374271272 0 -0.003459180704866185 0.023073616906801143 0 -0.0036006533348175657 0.022964713434316754 0 -0.0028202204258297621 0.020119861361008483 0 -0.0027803408526308627 0.020995443137030993 0 -0.0034091724215548854 0.021406175693729892 0 -0.00068373563174759433 0.019557639813113249 0 -0.00078617476563353286 0.020504731409210507 0 0.00014640756068300429 0.019859006350655309 0 -0.00068373563174759433 0.019557639813113249 0 -0.0014132018417674799 0.020045546701703297 0 -0.00078617476563353286 0.020504731409210507 0 -0.0016263351688747473 0.019304986670312763 0 -0.00068373563174759433 0.019557639813113249 0 -0.0014132018417674799 0.020045546701703297 0 -0.0016263351688747473 0.019304986670312763 0 -0.0020312404155297514 0.01975401194375332 0 -0.0014132018417674799 0.020045546701703297 0 -0.0020312404155297514 0.01975401194375332 0 -0.0020565543677024426 0.020333932039714297 0 -0.0014132018417674799 0.020045546701703297 0 -0.0014931491599875612 0.020818495539153752 0 -0.00078617476563353286 0.020504731409210507 0 -0.0011247020227005092 0.021587990413674939 0 -0.0014132018417674799 0.020045546701703297 0 -0.0014931491599875612 0.020818495539153752 0 -0.00078617476563353286 0.020504731409210507 0 -0.0020565543677024426 0.020333932039714297 0 -0.0014132018417674799 0.020045546701703297 0 -0.0014931491599875612 0.020818495539153752 0 -0.00078617476563353286 0.020504731409210507 0 -0.0011247020227005092 0.021587990413674939 0 -0.00022021001883888369 0.021241435909827151 0 -0.0005489989787948043 0.022231852697138843 0 -0.0011247020227005092 0.021587990413674939 0 -0.00022021001883888369 0.021241435909827151 0 -0.0005489989787948043 0.022231852697138843 0 -0.00033279088254549775 0.023048229520488076 0 -0.0013188290572282639 0.022962544032798474 0 -0.0005489989787948043 0.022231852697138843 0 -0.0011247020227005092 0.021587990413674939 0 -0.0013188290572282639 0.022962544032798474 0 -0.0011247020227005092 0.021587990413674939 0 -0.0019354550703304561 0.021839659822462967 0 -0.0013188290572282639 0.022962544032798474 0 -0.0019354550703304561 0.021839659822462967 0 -0.002205453580112593 0.022637701649654712 0 -0.0013188290572282639 0.022962544032798474 0 -0.0014931491599875612 0.020818495539153752 0 -0.0011247020227005092 0.021587990413674939 0 -0.0019354550703304561 0.021839659822462967 0 -0.0022557047541142457 0.02104240475217406 0 -0.0014931491599875612 0.020818495539153752 0 -0.0019354550703304561 0.021839659822462967 0 -0.0022557047541142457 0.02104240475217406 0 -0.002621674118906681 0.021575259842819248 0 -0.0019354550703304561 0.021839659822462967 0 -0.0022557047541142457 0.02104240475217406 0 -0.0027803408526308627 0.020995443137030993 0 -0.002621674118906681 0.021575259842819248 0 -0.002621674118906681 0.021575259842819248 0 -0.0019354550703304561 0.021839659822462967 0 -0.0025998421107882633 0.022234190039387744 0 -0.0027803408526308627 0.020995443137030993 0 -0.002621674118906681 0.021575259842819248 0 -0.0029477592476600161 0.021472093775294923 0 -0.0027803408526308627 0.020995443137030993 0 -0.0034091724215548854 0.021406175693729892 0 -0.0029477592476600161 0.021472093775294923 0 -0.0034091724215548854 0.021406175693729892 0 -0.0029477592476600161 0.021472093775294923 0 -0.0029941294454782327 0.021930379991417462 0 -0.002621674118906681 0.021575259842819248 0 -0.0029477592476600161 0.021472093775294923 0 -0.0029941294454782327 0.021930379991417462 0 -0.002621674118906681 0.021575259842819248 0 -0.0029941294454782327 0.021930379991417462 0 -0.0025998421107882633 0.022234190039387744 0 -0.0034091724215548854 0.021406175693729892 0 -0.0029941294454782327 0.021930379991417462 0 -0.003352565702643891 0.022390483904797264 0 -0.0034091724215548854 0.021406175693729892 0 -0.003352565702643891 0.022390483904797264 0 -0.0038641505240407771 0.023034232842032164 0 -0.003352565702643891 0.022390483904797264 0 -0.0030734268343158115 0.022532029989657049 0 -0.0033230354165107567 0.023017856934964366 0 -0.0029941294454782327 0.021930379991417462 0 -0.0030734268343158115 0.022532029989657049 0 -0.0025998421107882633 0.022234190039387744 0 -0.0030734268343158115 0.022532029989657049 0 -0.0028030480016416537 0.022884972592659883 0 -0.0025998421107882633 0.022234190039387744 0 -0.0029941294454782327 0.021930379991417462 0 -0.003352565702643891 0.022390483904797264 0 -0.0030734268343158115 0.022532029989657049 0 -0.0030734268343158115 0.022532029989657049 0 -0.0028030480016416537 0.022884972592659883 0 -0.0033230354165107567 0.023017856934964366 0 -0.0028030480016416537 0.022884972592659883 0 -0.0033230354165107567 0.023017856934964366 0 -0.0031540709471842713 0.023502831225156895 0 -0.003352565702643891 0.022390483904797264 0 -0.0033230354165107567 0.023017856934964366 0 -0.0038641505240407771 0.023034232842032164 0 -0.002205453580112593 0.022637701649654712 0 -0.0024248990588436195 0.02336869785310015 0 -0.0013188290572282639 0.022962544032798474 0 -0.0019354550703304561 0.021839659822462967 0 -0.0025998421107882633 0.022234190039387744 0 -0.002205453580112593 0.022637701649654712 0 -0.0028030480016416537 0.022884972592659883 0 -0.0025998421107882633 0.022234190039387744 0 -0.002205453580112593 0.022637701649654712 0 -0.0028030480016416537 0.022884972592659883 0 -0.002205453580112593 0.022637701649654712 0 -0.0024248990588436195 0.02336869785310015 0 -0.001935850914801085 0.023882398447643092 0 -0.0024248990588436195 0.02336869785310015 0 -0.0030386370533650817 0.024435570625111414 0 -0.001935850914801085 0.023882398447643092 0 -0.0024248990588436195 0.02336869785310015 0 -0.0013188290572282639 0.022962544032798474 0 -0.0024248990588436195 0.02336869785310015 0 -0.0031540709471842713 0.023502831225156895 0 -0.0030386370533650817 0.024435570625111414 0 -0.0031540709471842713 0.023502831225156895 0 -0.0030386370533650817 0.024435570625111414 0 -0.0038199921602361147 0.023917612174524532 0 -0.0033230354165107567 0.023017856934964366 0 -0.0031540709471842713 0.023502831225156895 0 -0.0036688420285072259 0.023356699655560795 0 -0.0028030480016416537 0.022884972592659883 0 -0.0024248990588436195 0.02336869785310015 0 -0.0031540709471842713 0.023502831225156895 0 -0.001935850914801085 0.023882398447643092 0 -0.0013356516093544738 0.024426246292356041 0 -0.0022342764771352869 0.025172349981504444 0 -0.001935850914801085 0.023882398447643092 0 -0.0030386370533650817 0.024435570625111414 0 -0.0022342764771352869 0.025172349981504444 0 -0.0013356516093544738 0.024426246292356041 0 -0.0003814493345494016 0.024026111227770326 0 -0.0013188290572282639 0.022962544032798474 0 -0.0013356516093544738 0.024426246292356041 0 -0.0003814493345494016 0.024026111227770326 0 -0.0012145736482270669 0.025685842559919507 0 -0.0003814493345494016 0.024026111227770326 0 -0.00033279088254549775 0.023048229520488076 0 -0.0013188290572282639 0.022962544032798474 0 -0.001935850914801085 0.023882398447643092 0 -0.0013356516093544738 0.024426246292356041 0 -0.0013188290572282639 0.022962544032798474 0 -0.0046939041210048186 0.02705546934061126 0 -0.0047072543219665915 0.026980837188908237 0 -0.004840366984549066 0.027017341353052924 0 -0.0046356367517777237 0.027048025404012441 0 -0.0046383638862422197 0.026977538653267213 0 -0.0047072543219665915 0.026980837188908237 0 -0.0046939041210048186 0.02705546934061126 0 -0.0046356367517777237 0.027048025404012441 0 -0.0047072543219665915 0.026980837188908237 0 -0.0046939041210048186 0.02705546934061126 0 -0.0046356367517777237 0.027048025404012441 0 -0.0046249477116849748 0.027079947300146446 0 -0.0046356367517777237 0.027048025404012441 0 -0.0045755976287051347 0.027066681414165843 0 -0.0046249477116849748 0.027079947300146446 0 -0.0046356367517777237 0.027048025404012441 0 -0.0045755976287051347 0.027066681414165843 0 -0.0045751086936695971 0.027030176166115933 0 -0.0045755976287051347 0.027066681414165843 0 -0.0045751086936695971 0.027030176166115933 0 -0.0045177198841458771 0.027064191754946818 0 -0.0046356367517777237 0.027048025404012441 0 -0.0045751086936695971 0.027030176166115933 0 -0.0046383638862422197 0.026977538653267213 0 -0.0045751086936695971 0.027030176166115933 0 -0.0046383638862422197 0.026977538653267213 0 -0.0045998764735023694 0.026938816700870068 0 -0.0046383638862422197 0.026977538653267213 0 -0.0045998764735023694 0.026938816700870068 0 -0.0046697562797506616 0.026876581719086454 0 -0.0045751086936695971 0.027030176166115933 0 -0.0045998764735023694 0.026938816700870068 0 -0.0045428418045897548 0.027010733416188516 0 -0.0045998764735023694 0.026938816700870068 0 -0.0046073638886372755 0.026866958050666669 0 -0.0046466043065806692 0.026821935574450544 0 -0.0045998764735023694 0.026938816700870068 0 -0.0045630183746124273 0.026956906054273824 0 -0.0046073638886372755 0.026866958050666669 0 -0.0045998764735023694 0.026938816700870068 0 -0.0045630183746124273 0.026956906054273824 0 -0.0045428418045897548 0.027010733416188516 0 -0.0045998764735023694 0.026938816700870068 0 -0.0046697562797506616 0.026876581719086454 0 -0.0046466043065806692 0.026821935574450544 0 -0.0047428221523570131 0.026810717227657991 0 -0.0047072543219665915 0.026980837188908237 0 -0.004840366984549066 0.027017341353052924 0 -0.0046697562797506616 0.026876581719086454 0 -0.0047428221523570131 0.026810717227657991 0 -0.0047213797732241864 0.026680219336659542 0 -0.0047428221523570131 0.026810717227657991 0 -0.004840366984549066 0.027017341353052924 0 -0.0049289170182163292 0.026361202664486719 0 -0.0046697562797506616 0.026876581719086454 0 -0.0047428221523570131 0.026810717227657991 0 -0.0047072543219665915 0.026980837188908237 0 -0.0046383638862422197 0.026977538653267213 0 -0.0046697562797506616 0.026876581719086454 0 -0.0047072543219665915 0.026980837188908237 0 -0.0046703122848246086 0.024299374213557615 0 -0.0039764600462658317 0.024900056658463881 0 -0.0044033164912983943 0.025625881583360662 0 -0.0045549347520482892 0.025628946562720984 0 -0.0046785479625929003 0.025848277156143962 0 -0.0046703122848246086 0.024299374213557615 0 -0.0039764600462658317 0.024900056658463881 0 -0.0038199921602361147 0.023917612174524532 0 -0.0030386370533650817 0.024435570625111414 0 -0.0039764600462658317 0.024900056658463881 0 -0.0036995179876733713 0.025556829771890534 0 -0.0030386370533650817 0.024435570625111414 0 -0.0039764600462658317 0.024900056658463881 0 -0.0038199921602361147 0.023917612174524532 0 -0.0046703122848246086 0.024299374213557615 0 -0.0038199921602361147 0.023917612174524532 0 -0.0038277995067159658 0.023009505568254065 0 -0.0038199921602361147 0.023917612174524532 0 -0.0036688420285072259 0.023356699655560795 0 -0.0038277995067159658 0.023009505568254065 0 -0.0031540709471842713 0.023502831225156895 0 -0.0038199921602361147 0.023917612174524532 0 -0.0036688420285072259 0.023356699655560795 0 -0.0045549347520482892 0.025628946562720984 0 -0.0043752085604133843 0.025474367582601513 0 -0.004840366984549066 0.027017341353052924 0 -0.0046978063621660364 0.02706542713504977 0 -0.0046358722856060164 0.027077503113437967 0 -0.0046939041210048186 0.02705546934061126 0 -0.004840366984549066 0.027017341353052924 0 -0.0046978063621660364 0.02706542713504977 0 -0.0046939041210048186 0.02705546934061126 0 -0.0046978063621660364 0.02706542713504977 0 -0.0046598747027463356 0.027064620885694935 0 -0.0046978063621660364 0.02706542713504977 0 -0.0046483378092342419 0.027053822753866537 0 -0.0046358722856060164 0.027077503113437967 0 -0.0046978063621660364 0.02706542713504977 0 -0.0046483378092342419 0.027053822753866537 0 -0.0046598747027463356 0.027064620885694935 0 -0.0043065739205892959 0.024274555421119476 0 -0.0038641505240407771 0.023034232842032164 0 -0.0038277995067159658 0.023009505568254065 0 -0.0036688420285072259 0.023356699655560795 0 -0.0038641505240407771 0.023034232842032164 0 -0.0038277995067159658 0.023009505568254065 0 -0.0033230354165107567 0.023017856934964366 0 -0.0036688420285072259 0.023356699655560795 0 -0.0038641505240407771 0.023034232842032164 0 -0.0043065739205892959 0.024274555421119476 0 -0.0038277995067159658 0.023009505568254065 0 -0.0039572239811912647 0.024719994752943963 0 -0.0036006533348175657 0.022964713434316754 0 -0.0036483313379031116 0.0229558360209908 0 -0.0046358722856060164 0.027077503113437967 0 -0.0046049228055146628 0.027014647924121241 0 -0.0044994044381857093 0.026967505363308109 0 -0.0043752085604133843 0.025474367582601513 0 -0.0044338871565863611 0.025888421374271272 0 -0.0046483378092342419 0.027053822753866537 0 -0.0046358722856060164 0.027077503113437967 0 -0.0046049228055146628 0.027014647924121241 0 -0.0046598747027463356 0.027064620885694935 0 -0.0046305065633085538 0.027032514696582348 0 -0.0046312310931742153 0.027043310717384503 0 -0.0046483378092342419 0.027053822753866537 0 -0.0046598747027463356 0.027064620885694935 0 -0.0046305065633085538 0.027032514696582348 0 -0.0046483378092342419 0.027053822753866537 0 -0.0046049228055146628 0.027014647924121241 0 -0.0046305065633085538 0.027032514696582348 0 -0.0046049228055146628 0.027014647924121241 0 -0.0046305065633085538 0.027032514696582348 0 -0.0046057100476033829 0.026988433883004148 0 -0.0046305065633085538 0.027032514696582348 0 -0.0046192939767095527 0.0270183682062511 0 -0.0046057100476033829 0.026988433883004148 0 -0.0046305065633085538 0.027032514696582348 0 -0.0046312310931742153 0.027043310717384503 0 -0.0046192939767095527 0.0270183682062511 0 -0.0046312310931742153 0.027043310717384503 0 -0.0046298840296722663 0.027063233648645428 0 -0.0046178758212973899 0.027042545069171694 0 -0.0046312310931742153 0.027043310717384503 0 -0.0046178758212973899 0.027042545069171694 0 -0.0046192939767095527 0.0270183682062511 0 -0.0046298840296722663 0.027063233648645428 0 -0.0046108689951479013 0.027079768542607342 0 -0.0046058690150022957 0.02706921750258277 0 -0.0046298840296722663 0.027063233648645428 0 -0.0046058690150022957 0.02706921750258277 0 -0.0046178758212973899 0.027042545069171694 0 -0.0046298840296722663 0.027063233648645428 0 -0.0046249477116849748 0.027079947300146446 0 -0.0046108689951479013 0.027079768542607342 0 -0.0046598747027463356 0.027064620885694935 0 -0.0046312310931742153 0.027043310717384503 0 -0.0046298840296722663 0.027063233648645428 0 -0.0046939041210048186 0.02705546934061126 0 -0.0046598747027463356 0.027064620885694935 0 -0.0046249477116849748 0.027079947300146446 0 -0.0046598747027463356 0.027064620885694935 0 -0.0046298840296722663 0.027063233648645428 0 -0.0046249477116849748 0.027079947300146446 0 -0.0046249477116849748 0.027079947300146446 0 -0.0045859434752961838 0.027101352383707925 0 -0.0045574756818569841 0.027087640676912429 0 -0.0045755976287051347 0.027066681414165843 0 -0.0046249477116849748 0.027079947300146446 0 -0.0045574756818569841 0.027087640676912429 0 -0.0046249477116849748 0.027079947300146446 0 -0.0045859434752961838 0.027101352383707925 0 -0.0046108689951479013 0.027079768542607342 0 -0.0045859434752961838 0.027101352383707925 0 -0.0046108689951479013 0.027079768542607342 0 -0.0046058690150022957 0.02706921750258277 0 -0.0045859434752961838 0.027101352383707925 0 -0.0046058690150022957 0.02706921750258277 0 -0.0045775784448531098 0.027096795707572827 0 -0.0045859434752961838 0.027101352383707925 0 -0.0045775784448531098 0.027096795707572827 0 -0.004556719281538551 0.027158453762815438 0 -0.0045775784448531098 0.027096795707572827 0 -0.0045608541339543984 0.027051976652037756 0 -0.0045921093457194284 0.02704707882544774 0 -0.0045775784448531098 0.027096795707572827 0 -0.0045608541339543984 0.027051976652037756 0 -0.004556719281538551 0.027158453762815438 0 -0.0045608541339543984 0.027051976652037756 0 -0.0045921093457194284 0.02704707882544774 0 -0.0046065337248849397 0.027007788148372108 0 -0.0046058690150022957 0.02706921750258277 0 -0.0045775784448531098 0.027096795707572827 0 -0.0045921093457194284 0.02704707882544774 0 -0.0046058690150022957 0.02706921750258277 0 -0.0046178758212973899 0.027042545069171694 0 -0.0046098709045057822 0.027016886785562196 0 -0.0046058690150022957 0.02706921750258277 0 -0.0045921093457194284 0.02704707882544774 0 -0.0046098709045057822 0.027016886785562196 0 -0.0046192939767095527 0.0270183682062511 0 -0.0046098709045057822 0.027016886785562196 0 -0.0046043027659735877 0.026970950521001624 0 -0.0046178758212973899 0.027042545069171694 0 -0.0046192939767095527 0.0270183682062511 0 -0.0046098709045057822 0.027016886785562196 0 -0.0046098709045057822 0.027016886785562196 0 -0.004604416880698842 0.026961643958403964 0 -0.0046043027659735877 0.026970950521001624 0 -0.0046098709045057822 0.027016886785562196 0 -0.0046065337248849397 0.027007788148372108 0 -0.004604416880698842 0.026961643958403964 0 -0.0045921093457194284 0.02704707882544774 0 -0.0046098709045057822 0.027016886785562196 0 -0.0046065337248849397 0.027007788148372108 0 -0.0046065337248849397 0.027007788148372108 0 -0.004604416880698842 0.026961643958403964 0 -0.0046225284006156967 0.026972437444185423 0 -0.004604416880698842 0.026961643958403964 0 -0.0046225284006156967 0.026972437444185423 0 -0.0045873845780040222 0.026885162730080382 0 -0.0045038927966834811 0.026665568969171039 0 -0.0045809096206983584 0.026744433920878986 0 -0.0045608541339543984 0.027051976652037756 0 -0.0046065337248849397 0.027007788148372108 0 -0.0046225284006156967 0.026972437444185423 0 -0.0040862447529800916 0.026580007427914214 0 -0.0044005826115540905 0.026363005003295931 0 -0.0044932839746823243 0.026660173268145085 0 -0.0045608541339543984 0.027051976652037756 0 -0.0042845375263345885 0.026709619906061154 0 -0.0046001463611995029 0.026764127385641448 0 -0.0045038927966834811 0.026665568969171039 0 -0.0045806169510732003 0.026687624080847041 0 -0.0045538086909414667 0.026784609977695408 0 -0.0045038927966834811 0.026665568969171039 0 -0.0044994044381857093 0.026967505363308109 0 -0.0045556622003788717 0.026900130093443806 0 -0.0045458095498256733 0.026811525558975868 0 -0.0045556622003788717 0.026900130093443806 0 -0.0045523500440717724 0.026866088151210728 0 -0.0045458095498256733 0.026811525558975868 0 -0.0044994044381857093 0.026967505363308109 0 -0.0045736482909665291 0.02695686470672104 0 -0.0045556622003788717 0.026900130093443806 0 -0.0046049228055146628 0.027014647924121241 0 -0.0044994044381857093 0.026967505363308109 0 -0.0045736482909665291 0.02695686470672104 0 -0.0045556622003788717 0.026900130093443806 0 -0.0045777771833197959 0.026920889420791926 0 -0.0045523500440717724 0.026866088151210728 0 -0.0045736482909665291 0.02695686470672104 0 -0.0045556622003788717 0.026900130093443806 0 -0.0045777771833197959 0.026920889420791926 0 -0.0045777771833197959 0.026920889420791926 0 -0.0046043027659735877 0.026970950521001624 0 -0.0045836482379539127 0.026915647011436152 0 -0.0045777771833197959 0.026920889420791926 0 -0.0046057100476033829 0.026988433883004148 0 -0.0046043027659735877 0.026970950521001624 0 -0.0046049228055146628 0.027014647924121241 0 -0.0045736482909665291 0.02695686470672104 0 -0.0046057100476033829 0.026988433883004148 0 -0.0045736482909665291 0.02695686470672104 0 -0.0045777771833197959 0.026920889420791926 0 -0.0046057100476033829 0.026988433883004148 0 -0.0046192939767095527 0.0270183682062511 0 -0.0046057100476033829 0.026988433883004148 0 -0.0046043027659735877 0.026970950521001624 0 -0.004604416880698842 0.026961643958403964 0 -0.0046043027659735877 0.026970950521001624 0 -0.0045836482379539127 0.026915647011436152 0 -0.004604416880698842 0.026961643958403964 0 -0.0045836482379539127 0.026915647011436152 0 -0.0045873845780040222 0.026885162730080382 0 -0.0045836482379539127 0.026915647011436152 0 -0.0045407613636536809 0.026857851546187785 0 -0.0045873845780040222 0.026885162730080382 0 -0.0045777771833197959 0.026920889420791926 0 -0.0045836482379539127 0.026915647011436152 0 -0.0045407613636536809 0.026857851546187785 0 -0.0045407613636536809 0.026857851546187785 0 -0.0044907539343767436 0.026836223600657599 0 -0.0045873845780040222 0.026885162730080382 0 -0.0045777771833197959 0.026920889420791926 0 -0.0045523500440717724 0.026866088151210728 0 -0.0045407613636536809 0.026857851546187785 0 -0.0045523500440717724 0.026866088151210728 0 -0.0045407613636536809 0.026857851546187785 0 -0.0045334236725811349 0.026817391270343424 0 -0.0045339395608362462 0.026765683469865773 0 -0.0045334236725811349 0.026817391270343424 0 -0.0044907539343767436 0.026836223600657599 0 -0.0045407613636536809 0.026857851546187785 0 -0.0045334236725811349 0.026817391270343424 0 -0.0044907539343767436 0.026836223600657599 0 -0.0045339395608362462 0.026765683469865773 0 -0.0045334236725811349 0.026817391270343424 0 -0.0045458095498256733 0.026811525558975868 0 -0.0045523500440717724 0.026866088151210728 0 -0.0045334236725811349 0.026817391270343424 0 -0.0045458095498256733 0.026811525558975868 0 -0.0045542463588934597 0.026757982437276718 0 -0.0045809096206983584 0.026744433920878986 0 -0.004212130372928038 0.025566744137044677 0 -0.0045082730112116359 0.026012826420489663 0 -0.0046136652110689543 0.027102328017961683 0 -0.0044907539343767436 0.026836223600657599 0 -0.0044991493320674682 0.026809397636466052 0 -0.0044907539343767436 0.026836223600657599 0 -0.0044991493320674682 0.026809397636466052 0 -0.0046291152953736401 0.026839934184044154 0 -0.0035039582784687899 0.02647915796056562 0 -0.0044991493320674682 0.026809397636466052 0 -0.0042067545782411286 0.026508435988124215 0 -0.0044991493320674682 0.026809397636466052 0 -0.0042067545782411286 0.026508435988124215 0 -0.0045174142560801371 0.026561095326896395 0 -0.0045174142560801371 0.026561095326896395 0 -0.0046291152953736401 0.026839934184044154 0 -0.004825587073326516 0.026384993476482075 0 -0.0044991493320674682 0.026809397636466052 0 -0.0045174142560801371 0.026561095326896395 0 -0.0046291152953736401 0.026839934184044154 0 -0.0045174142560801371 0.026561095326896395 0 -0.004825587073326516 0.026384993476482075 0 -0.0042328943446461181 0.026187036122308181 0 -0.0043791946472431622 0.025564187161521909 0 -0.004825587073326516 0.026384993476482075 0 -0.0042328943446461181 0.026187036122308181 0 -0.0037538648767144142 0.025545839651786171 0 -0.0041890471120780079 0.026165329269602293 0 -0.0035039582784687899 0.02647915796056562 0 -0.0042067545782411286 0.026508435988124215 0 -0.0042328943446461181 0.026187036122308181 0 -0.0042067545782411286 0.026508435988124215 0 -0.0045174142560801371 0.026561095326896395 0 -0.0042328943446461181 0.026187036122308181 0 -0.0040528995280461402 0.025838116445751385 0 -0.0037308477959852866 0.025984841209457765 0 -0.0042328943446461181 0.026187036122308181 0 -0.0040862447529800916 0.026580007427914214 0 -0.0044005826115540905 0.026363005003295931 0 -0.0041765690553621001 0.026084818956119988 0 -0.0044005826115540905 0.026363005003295931 0 -0.0041765690553621001 0.026084818956119988 0 -0.004678403516957608 0.02602077581844537 0 -0.0040862447529800916 0.026580007427914214 0 -0.003692722408170947 0.02603827250073831 0 -0.0041765690553621001 0.026084818956119988 0 -0.0045038927966834811 0.026665568969171039 0 -0.0041890471120780079 0.026165329269602293 0 -0.0051605820235555667 0.026931652396158023 0 -0.0046291152953736401 0.026839934184044154 0 -0.004825587073326516 0.026384993476482075 0 -0.0037889769852405527 0.025675079610159524 0 -0.003692722408170947 0.02603827250073831 0 -0.0040075085744281282 0.025828109460368679 0 -0.003692722408170947 0.02603827250073831 0 -0.0040075085744281282 0.025828109460368679 0 -0.0041765690553621001 0.026084818956119988 0 -0.0042198848752384834 0.025599434318285819 0 -0.0040075085744281282 0.025828109460368679 0 -0.0041765690553621001 0.026084818956119988 0 -0.0042198848752384834 0.025599434318285819 0 -0.0041765690553621001 0.026084818956119988 0 -0.004678403516957608 0.02602077581844537 0 -0.0043221711830490148 0.025545416213901544 0 -0.0047188945380927175 0.025951629812172958 0 -0.0044005826115540905 0.026363005003295931 0 -0.004678403516957608 0.02602077581844537 0 -0.0047140090544671486 0.026449709127483418 0 -0.0044005826115540905 0.026363005003295931 0 -0.0047140090544671486 0.026449709127483418 0 -0.0044932839746823243 0.026660173268145085 0 -0.004785225440370011 0.025966053357516831 0 -0.0051756460234440131 0.026449340260593694 0 -0.0054073414761213927 0.026052703961048865 0 -0.004678403516957608 0.02602077581844537 0 -0.0047140090544671486 0.026449709127483418 0 -0.0051756460234440131 0.026449340260593694 0 -0.0047188945380927175 0.025951629812172958 0 -0.0049408121834182304 0.026174726882805425 0 -0.0053600109192495108 0.025632909293594072 0 -0.004785225440370011 0.025966053357516831 0 -0.0054073414761213927 0.026052703961048865 0 -0.005948085479580722 0.025617962811853773 0 -0.0053600109192495108 0.025632909293594072 0 -0.0054073414761213927 0.026052703961048865 0 -0.005948085479580722 0.025617962811853773 0 -0.0054073414761213927 0.026052703961048865 0 -0.0058097905233614449 0.026213108811024646 0 -0.0039580659667357515 0.029839868019088809 0 -0.0042793718767438083 0.029705717680753981 0 -0.0051756460234440131 0.026449340260593694 0 -0.0054073414761213927 0.026052703961048865 0 -0.0058097905233614449 0.026213108811024646 0 -0.0051756460234440131 0.026449340260593694 0 -0.0056331928901719262 0.026873689994100648 0 -0.0051588136967309611 0.026945293075933775 0 -0.0051756460234440131 0.026449340260593694 0 -0.0058097905233614449 0.026213108811024646 0 -0.0056331928901719262 0.026873689994100648 0 -0.0042793718767438083 0.029705717680753981 0 -0.0045970509345344482 0.029324823612948438 0 -0.0028362154643903313 0.033681047932044912 0 -0.003837547765253795 0.03214808588982887 0 -0.0024074362867982447 0.032479035254594453 0 -0.003837547765253795 0.03214808588982887 0 -0.0034624816948434982 0.030913086045937527 0 -0.0024074362867982447 0.032479035254594453 0 -0.0045970509345344482 0.029324823612948438 0 -0.0048461157848625905 0.028823359633128015 0 -0.003837547765253795 0.03214808588982887 0 -0.0034624816948434982 0.030913086045937527 0 -0.0046897318306506584 0.029880207564862361 0 -0.0056331928901719262 0.026873689994100648 0 -0.0052545524743487591 0.027249794348626448 0 -0.0051588136967309611 0.026945293075933775 0 -0.0056331928901719262 0.026873689994100648 0 -0.0052545524743487591 0.027249794348626448 0 -0.0054131005864241251 0.027598459323591378 0 -0.0052545524743487591 0.027249794348626448 0 -0.0051588136967309611 0.026945293075933775 0 -0.0049784508792713057 0.027253025076364203 0 -0.0051588136967309611 0.026945293075933775 0 -0.00495510577344172 0.026996591954530295 0 -0.0049784508792713057 0.027253025076364203 0 -0.00495510577344172 0.026996591954530295 0 -0.0049784508792713057 0.027253025076364203 0 -0.0047716140184710307 0.027034951619240556 0 -0.00495510577344172 0.026996591954530295 0 -0.0047716140184710307 0.027034951619240556 0 -0.0049191953269235103 0.026758261831808322 0 -0.0049784508792713057 0.027253025076364203 0 -0.0047560110050899702 0.027258262857797724 0 -0.0047716140184710307 0.027034951619240556 0 -0.0047560110050899702 0.027258262857797724 0 -0.0046388836718079616 0.027077301420769612 0 -0.0047716140184710307 0.027034951619240556 0 -0.0045608541339543984 0.027051976652037756 0 -0.0046388836718079616 0.027077301420769612 0 -0.004556719281538551 0.027158453762815438 0 -0.0047560110050899702 0.027258262857797724 0 -0.0046388836718079616 0.027077301420769612 0 -0.004556719281538551 0.027158453762815438 0 -0.0045608541339543984 0.027051976652037756 0 -0.0046388836718079616 0.027077301420769612 0 -0.0046643655618351879 0.026925831815146982 0 -0.0046388836718079616 0.027077301420769612 0 -0.0047716140184710307 0.027034951619240556 0 -0.0046643655618351879 0.026925831815146982 0 -0.0045806169510732003 0.026687624080847041 0 -0.0046713412322443521 0.026705345045533999 0 -0.0046643655618351879 0.026925831815146982 0 -0.0046001463611995029 0.026764127385641448 0 -0.0049191953269235103 0.026758261831808322 0 -0.0047140090544671486 0.026449709127483418 0 -0.0044932839746823243 0.026660173268145085 0 -0.0049191953269235103 0.026758261831808322 0 -0.0047716140184710307 0.027034951619240556 0 -0.0046643655618351879 0.026925831815146982 0 -0.0049191953269235103 0.026758261831808322 0 -0.0045608541339543984 0.027051976652037756 0 -0.0046643655618351879 0.026925831815146982 0 -0.0046001463611995029 0.026764127385641448 0 -0.0047140090544671486 0.026449709127483418 0 -0.0051756460234440131 0.026449340260593694 0 -0.0049191953269235103 0.026758261831808322 0 -0.0051756460234440131 0.026449340260593694 0 -0.0051588136967309611 0.026945293075933775 0 -0.0049191953269235103 0.026758261831808322 0 -0.0051588136967309611 0.026945293075933775 0 -0.00495510577344172 0.026996591954530295 0 -0.0049191953269235103 0.026758261831808322 0 -0.0007871945361867395 0.033590208031879988 0 -0.00096930179177023628 0.034149479268677917 0 -0.0011261255636858375 0.033613446273490583 0 -0.00081456513728559571 0.033902741259537475 0 -0.0010100316906787644 0.034262511188215036 0 -0.00080628068679056055 0.034081590743983953 0 -0.0010188544852377803 0.034366759598555514 0 -0.00069644271802233931 0.034294008179032116 0 -0.00096930179177023628 0.034149479268677917 0 -0.0011261255636858375 0.033613446273490583 0 -0.0015608288170473011 0.033970457192401722 0 -0.0007871945361867395 0.033590208031879988 0 -0.0011261255636858375 0.033613446273490583 0 -0.0010918981991115875 0.033346225929143117 0 -0.0011261255636858375 0.033613446273490583 0 -0.0015608288170473011 0.033970457192401722 0 -0.0013596339443352162 0.033168649392826113 0 -0.0015608288170473011 0.033970457192401722 0 -0.0019790071645662041 0.033609176519100226 0 -0.0013596339443352162 0.033168649392826113 0 -0.0021793524349140586 0.034421009305118933 0 -0.0015608288170473011 0.033970457192401722 0 -0.0019790071645662041 0.033609176519100226 0 -0.0021793524349140586 0.034421009305118933 0 -0.0028362154643903313 0.033681047932044912 0 -0.0019790071645662041 0.033609176519100226 0 -0.0028362154643903313 0.033681047932044912 0 -0.0019790071645662041 0.033609176519100226 0 -0.0024074362867982447 0.032479035254594453 0 -0.0019790071645662041 0.033609176519100226 0 -0.0024074362867982447 0.032479035254594453 0 -0.0013596339443352162 0.033168649392826113 0 -0.0024074362867982447 0.032479035254594453 0 -0.0020810410547682369 0.031160923430295782 0 -0.0011771052914041865 0.031819190879550506 0 -0.0034624816948434982 0.030913086045937527 0 -0.0024074362867982447 0.032479035254594453 0 -0.0020810410547682369 0.031160923430295782 0 -0.0019202089987018739 0.032263858145988339 0 -0.002131228889258493 0.031860284148582017 0 -0.0020810410547682369 0.031160923430295782 0 -0.0011771052914041865 0.031819190879550506 0 -0.0011329674397146021 0.030501666250831269 0 -0.0012998908435607021 0.033192094407501954 0 -0.0010547039882146743 0.033143740591537761 0 -0.0012964123355023601 0.033045174393996589 0 -0.0012998908435607021 0.033192094407501954 0 -0.0013596339443352162 0.033168649392826113 0 -0.0010918981991115875 0.033346225929143117 0 -0.0019202089987018739 0.032263858145988339 0 -0.001857786210947164 0.032472191895333465 0 -0.0024074362867982447 0.032479035254594453 0 -0.0011771052914041865 0.031819190879550506 0 -0.0013596339443352162 0.033168649392826113 0 -0.0011261255636858375 0.033613446273490583 0 -0.0013596339443352162 0.033168649392826113 0 -0.0010918981991115875 0.033346225929143117 0 -0.0010918981991115875 0.033346225929143117 0 -0.0010547039882146743 0.033143740591537761 0 -0.00084895119249103702 0.03343764934564137 0 -0.0012998908435607021 0.033192094407501954 0 -0.0010918981991115875 0.033346225929143117 0 -0.0010547039882146743 0.033143740591537761 0 -0.0014529761360545959 0.032767545646590256 0 -0.00099927318459082197 0.033209045467703022 0 -0.0018496827181968829 0.034276924226338851 0 -0.00083096137758898012 0.034232711455720308 0 -0.00082220586488237449 0.033865990616487623 0 -0.0010547039882146743 0.033143740591537761 0 -0.00084895119249103702 0.03343764934564137 0 -0.0007396021216333385 0.033358107473153931 0 -0.0007871945361867395 0.033590208031879988 0 -0.0010918981991115875 0.033346225929143117 0 -0.00084895119249103702 0.03343764934564137 0 -0.0013799038085142799 0.032965692618629805 0 -0.0011165661533938621 0.033541092853319153 0 -0.00061748212168206225 0.033051558987066521 0 -0.0013799038085142799 0.032965692618629805 0 -0.0011165661533938621 0.033541092853319153 0 -0.0021633082341165183 0.033417718779495766 0 -0.0018496827181968829 0.034276924226338851 0 -0.0011165661533938621 0.033541092853319153 0 -0.00082220586488237449 0.033865990616487623 0 -0.0018496827181968829 0.034276924226338851 0 -0.0011165661533938621 0.033541092853319153 0 -0.0021633082341165183 0.033417718779495766 0 -0.0018496827181968829 0.034276924226338851 0 -0.0021633082341165183 0.033417718779495766 0 -0.0029601209303976926 0.034110656528163107 0 -0.0014529761360545959 0.032767545646590256 0 -0.002131228889258493 0.031860284148582017 0 -0.0021633082341165183 0.033417718779495766 0 -0.0031176532477425337 0.03292020284239968 0 -0.0029601209303976926 0.034110656528163107 0 -0.0026710370826804821 0.030801456916640761 0 -0.002131228889258493 0.031860284148582017 0 -0.0029420157134796877 0.028765917388242843 0 -0.002878880002022857 0.029703684297444341 0 -0.0034994000107791772 0.029555655739894014 0 -0.0034624816948434982 0.030913086045937527 0 -0.0020810410547682369 0.031160923430295782 0 -0.0025047614913854036 0.03007510361593705 0 -0.002131228889258493 0.031860284148582017 0 -0.0029811869999397948 0.031120642367417819 0 -0.0020810410547682369 0.031160923430295782 0 -0.0011329674397146021 0.030501666250831269 0 -0.0025047614913854036 0.03007510361593705 0 -0.0029420157134796877 0.028765917388242843 0 -0.0034994000107791772 0.029555655739894014 0 -0.0036598133520151376 0.029006319123467829 0 -0.0029420157134796877 0.028765917388242843 0 -0.0036598133520151376 0.029006319123467829 0 -0.0036692111026369392 0.028377724496748104 0 -0.0029420157134796877 0.028765917388242843 0 -0.0031357885327568317 0.027866597932569081 0 -0.0036692111026369392 0.028377724496748104 0 -0.0031357885327568317 0.027866597932569081 0 -0.0036692111026369392 0.028377724496748104 0 -0.0037138338094907021 0.027612450852544792 0 -0.0026710370826804821 0.030801456916640761 0 -0.0029971471616948571 0.029734006547066125 0 -0.0031176532477425337 0.03292020284239968 0 -0.0033792460732250066 0.03152612777968497 0 -0.0020391248503565662 0.032103296377883617 0 -0.0013799038085142799 0.032965692618629805 0 -0.0021633082341165183 0.033417718779495766 0 -0.0020391248503565662 0.032103296377883617 0 -0.0021633082341165183 0.033417718779495766 0 -0.0031176532477425337 0.03292020284239968 0 -0.0020391248503565662 0.032103296377883617 0 -0.0033792460732250066 0.03152612777968497 0 -0.0020391248503565662 0.032103296377883617 0 -0.0022370755454357099 0.030173543644591197 0 -0.0020391248503565662 0.032103296377883617 0 -0.0012422439383512024 0.030968872591910734 0 -0.00080644101539690876 0.032250739501457681 0 -0.0013799038085142799 0.032965692618629805 0 -0.0020391248503565662 0.032103296377883617 0 -0.00080644101539690876 0.032250739501457681 0 -0.0050397172576891044 0.027875023927685785 0 -0.0047614539142009022 0.027981656588601314 0 -0.0049452523591556755 0.028311830887044549 0 -0.0050397172576891044 0.027875023927685785 0 -0.0047614539142009022 0.027981656588601314 0 -0.0050688700136364388 0.027580466450576414 0 -0.0045859434752961838 0.027101352383707925 0 -0.0045574756818569841 0.027087640676912429 0 -0.0045112614894693868 0.027095871899789854 0 -0.0045574756818569841 0.027087640676912429 0 -0.0045112614894693868 0.027095871899789854 0 -0.0045050885323824211 0.027086024614883741 0 -0.0047560110050899702 0.027258262857797724 0 -0.004556719281538551 0.027158453762815438 0 -0.0047614539142009022 0.027981656588601314 0 -0.0045859434752961838 0.027101352383707925 0 -0.004556719281538551 0.027158453762815438 0 -0.0045112614894693868 0.027095871899789854 0 -0.0045769179243753469 0.027416131582631894 0 -0.0046075532612871867 0.027512278170420477 0 -0.0047560110050899702 0.027258262857797724 0 -0.0047614539142009022 0.027981656588601314 0 -0.0048951769304214519 0.02751069968526924 0 -0.0049784508792713057 0.027253025076364203 0 -0.0047560110050899702 0.027258262857797724 0 -0.0048951769304214519 0.02751069968526924 0 -0.0049784508792713057 0.027253025076364203 0 -0.0048951769304214519 0.02751069968526924 0 -0.0050688700136364388 0.027580466450576414 0 -0.0047614539142009022 0.027981656588601314 0 -0.0048951769304214519 0.02751069968526924 0 -0.0050688700136364388 0.027580466450576414 0 -0.0052545524743487591 0.027249794348626448 0 -0.0049784508792713057 0.027253025076364203 0 -0.0050688700136364388 0.027580466450576414 0 -0.0052545524743487591 0.027249794348626448 0 -0.0050688700136364388 0.027580466450576414 0 -0.0054131005864241251 0.027598459323591378 0 -0.0050397172576891044 0.027875023927685785 0 -0.0050688700136364388 0.027580466450576414 0 -0.0054131005864241251 0.027598459323591378 0 -0.0034994000107791772 0.029555655739894014 0 -0.0040764575100121865 0.029571938680146778 0 -0.0036598133520151376 0.029006319123467829 0 -0.0034624816948434982 0.030913086045937527 0 -0.0025047614913854036 0.03007510361593705 0 -0.0040764575100121865 0.029571938680146778 0 -0.0029811869999397948 0.031120642367417819 0 -0.0033928781986424014 0.030857838571450209 0 -0.0034624816948434982 0.030913086045937527 0 -0.0046897318306506584 0.029880207564862361 0 -0.0040764575100121865 0.029571938680146778 0 -0.0036598133520151376 0.029006319123467829 0 -0.0042102838962639645 0.02879687115979546 0 -0.0036692111026369392 0.028377724496748104 0 -0.0040764575100121865 0.029571938680146778 0 -0.0036598133520151376 0.029006319123467829 0 -0.0042102838962639645 0.02879687115979546 0 -0.0050397172576891044 0.027875023927685785 0 -0.0054131005864241251 0.027598459323591378 0 -0.0049452523591556755 0.028311830887044549 0 -0.0046897318306506584 0.029880207564862361 0 -0.0042102838962639645 0.02879687115979546 0 -0.0049452523591556755 0.028311830887044549 0 -0.0046897318306506584 0.029880207564862361 0 -0.0040764575100121865 0.029571938680146778 0 -0.0042102838962639645 0.02879687115979546 0 -0.0048461157848625905 0.028823359633128015 0 -0.0049287053044575393 0.028580073435475507 0 -0.0042102838962639645 0.02879687115979546 0 -0.0043352635161094857 0.028196749659893602 0 -0.0049452523591556755 0.028311830887044549 0 -0.0043352635161094857 0.028196749659893602 0 -0.0049284486803632468 0.028268378706989946 0 -0.0049452523591556755 0.028311830887044549 0 -0.0042102838962639645 0.02879687115979546 0 -0.0043352635161094857 0.028196749659893602 0 -0.0036692111026369392 0.028377724496748104 0 -0.0043352635161094857 0.028196749659893602 0 -0.0042463933289097009 0.027381893628645376 0 -0.0037138338094907021 0.027612450852544792 0 -0.0043352635161094857 0.028196749659893602 0 -0.0036692111026369392 0.028377724496748104 0 -0.0037138338094907021 0.027612450852544792 0 -0.0043352635161094857 0.028196749659893602 0 -0.0049284486803632468 0.028268378706989946 0 -0.0042463933289097009 0.027381893628645376 0 -0.0044509845022752351 0.027109273581971967 0 -0.0043659189508570657 0.027220731707771468 0 -0.0042463933289097009 0.027381893628645376 0 -0.0045838962588446051 0.027548372668569625 0 -0.0044954442321180942 0.02745809490820178 0 -0.0044303917491225614 0.027129850090330618 0 -0.0044509845022752351 0.027109273581971967 0 -0.0043659189508570657 0.027220731707771468 0 -0.0044524524893183627 0.027102399628077204 0 -0.0044303917491225614 0.027129850090330618 0 -0.0043659189508570657 0.027220731707771468 0 -0.0044524524893183627 0.027102399628077204 0 -0.0044807519333895113 0.027055802102170574 0 -0.0043659189508570657 0.027220731707771468 0 -0.0044303917491225614 0.027129850090330618 0 -0.0044509845022752351 0.027109273581971967 0 -0.0044668518651239013 0.02709623641963501 0 -0.0044524524893183627 0.027102399628077204 0 -0.0044303917491225614 0.027129850090330618 0 -0.0044668518651239013 0.02709623641963501 0 -0.0046075532612871867 0.027512278170420477 0 -0.0045838962588446051 0.027548372668569625 0 -0.0044509845022752351 0.027109273581971967 0 -0.0044668518651239013 0.02709623641963501 0 -0.0045050885323824211 0.027086024614883741 0 -0.0045112614894693868 0.027095871899789854 0 -0.0044509845022752351 0.027109273581971967 0 -0.0045050885323824211 0.027086024614883741 0 -0.0047614539142009022 0.027981656588601314 0 -0.0049284486803632468 0.028268378706989946 0 -0.0049452523591556755 0.028311830887044549 0 -0.0045755976287051347 0.027066681414165843 0 -0.0045050885323824211 0.027086024614883741 0 -0.0045177198841458771 0.027064191754946818 0 -0.0045755976287051347 0.027066681414165843 0 -0.0045574756818569841 0.027087640676912429 0 -0.0045050885323824211 0.027086024614883741 0 -0.0044668518651239013 0.02709623641963501 0 -0.0045050885323824211 0.027086024614883741 0 -0.0045177198841458771 0.027064191754946818 0 -0.0044668518651239013 0.02709623641963501 0 -0.0045177198841458771 0.027064191754946818 0 -0.0044911783214735433 0.027065640750573241 0 -0.0045751086936695971 0.027030176166115933 0 -0.0045177198841458771 0.027064191754946818 0 -0.0045428418045897548 0.027010733416188516 0 -0.0045177198841458771 0.027064191754946818 0 -0.0045428418045897548 0.027010733416188516 0 -0.0044911783214735433 0.027065640750573241 0 -0.0045428418045897548 0.027010733416188516 0 -0.0044911783214735433 0.027065640750573241 0 -0.00450797758898975 0.027030317214892213 0 -0.0044524524893183627 0.027102399628077204 0 -0.0044668518651239013 0.02709623641963501 0 -0.0044911783214735433 0.027065640750573241 0 -0.0044524524893183627 0.027102399628077204 0 -0.00450797758898975 0.027030317214892213 0 -0.0044807519333895113 0.027055802102170574 0 -0.0044524524893183627 0.027102399628077204 0 -0.0044911783214735433 0.027065640750573241 0 -0.00450797758898975 0.027030317214892213 0 -0.0045630183746124273 0.026956906054273824 0 -0.0045428418045897548 0.027010733416188516 0 -0.00450797758898975 0.027030317214892213 0 -0.0045630183746124273 0.026956906054273824 0 -0.00450797758898975 0.027030317214892213 0 -0.0045491180840525405 0.02695772004829658 0 -0.0045491180840525405 0.02695772004829658 0 -0.0045921110430251384 0.026882586708389396 0 -0.0046073638886372755 0.026866958050666669 0 -0.0045491180840525405 0.02695772004829658 0 -0.0045396806718600155 0.026963207807088659 0 -0.0045921110430251384 0.026882586708389396 0 -0.0045491180840525405 0.02695772004829658 0 -0.0044807519333895113 0.027055802102170574 0 -0.0045396806718600155 0.026963207807088659 0 -0.00450797758898975 0.027030317214892213 0 -0.0045491180840525405 0.02695772004829658 0 -0.0044807519333895113 0.027055802102170574 0 -0.0045396806718600155 0.026963207807088659 0 -0.0046142565774392645 0.026864628424831605 0 -0.0044673891261499139 0.027038022850573711 0 -0.0044807519333895113 0.027055802102170574 0 -0.0045396806718600155 0.026963207807088659 0 -0.0044673891261499139 0.027038022850573711 0 -0.0045396806718600155 0.026963207807088659 0 -0.0045921110430251384 0.026882586708389396 0 -0.0046142565774392645 0.026864628424831605 0 -0.0046142565774392645 0.026864628424831605 0 -0.0045197604356941347 0.026906387440186873 0 -0.0047000163739473709 0.026786229141826799 0 -0.0046142565774392645 0.026864628424831605 0 -0.0044673891261499139 0.027038022850573711 0 -0.0045197604356941347 0.026906387440186873 0 -0.0044673891261499139 0.027038022850573711 0 -0.0042983349884351037 0.027154821952539925 0 -0.0045197604356941347 0.026906387440186873 0 -0.0042983349884351037 0.027154821952539925 0 -0.0042050804628564545 0.026997625948972696 0 -0.0045197604356941347 0.026906387440186873 0 -0.0044673891261499139 0.027038022850573711 0 -0.0043659189508570657 0.027220731707771468 0 -0.0042983349884351037 0.027154821952539925 0 -0.0044807519333895113 0.027055802102170574 0 -0.0044673891261499139 0.027038022850573711 0 -0.0043659189508570657 0.027220731707771468 0 -0.0043659189508570657 0.027220731707771468 0 -0.0042463933289097009 0.027381893628645376 0 -0.0042983349884351037 0.027154821952539925 0 -0.0042463933289097009 0.027381893628645376 0 -0.0037138338094907021 0.027612450852544792 0 -0.0037709007581442485 0.027234800118512818 0 -0.0042463933289097009 0.027381893628645376 0 -0.0037709007581442485 0.027234800118512818 0 -0.0042983349884351037 0.027154821952539925 0 -0.0037709007581442485 0.027234800118512818 0 -0.0042983349884351037 0.027154821952539925 0 -0.0042050804628564545 0.026997625948972696 0 -0.0042050804628564545 0.026997625948972696 0 -0.0039480215992220187 0.026895230762916677 0 -0.0044293438829241692 0.026768762360917079 0 -0.0037709007581442485 0.027234800118512818 0 -0.0042050804628564545 0.026997625948972696 0 -0.0039480215992220187 0.026895230762916677 0 -0.0037709007581442485 0.027234800118512818 0 -0.0039480215992220187 0.026895230762916677 0 -0.0035701735411139564 0.026838450935276596 0 -0.0039480215992220187 0.026895230762916677 0 -0.0035701735411139564 0.026838450935276596 0 -0.0040572821779934036 0.026519745521847334 0 -0.0039480215992220187 0.026895230762916677 0 -0.0044293438829241692 0.026768762360917079 0 -0.0040572821779934036 0.026519745521847334 0 -0.0044293438829241692 0.026768762360917079 0 -0.0045518392222428216 0.02644146867379878 0 -0.0040572821779934036 0.026519745521847334 0 -0.0044293438829241692 0.026768762360917079 0 -0.0047576913194260807 0.026602441040015103 0 -0.0045518392222428216 0.02644146867379878 0 -0.0044293438829241692 0.026768762360917079 0 -0.0047576913194260807 0.026602441040015103 0 -0.0047241127229312868 0.026796061696224737 0 -0.0045197604356941347 0.026906387440186873 0 -0.0047241127229312868 0.026796061696224737 0 -0.0047000163739473709 0.026786229141826799 0 -0.0044293438829241692 0.026768762360917079 0 -0.0045197604356941347 0.026906387440186873 0 -0.0047241127229312868 0.026796061696224737 0 -0.0042050804628564545 0.026997625948972696 0 -0.0044293438829241692 0.026768762360917079 0 -0.0045197604356941347 0.026906387440186873 0 -0.0010418061719090607 0.029635750638916776 0 -0.0022370755454357099 0.030173543644591197 0 -0.0020334856585204112 0.028674322978175504 0 -0.0010418061719090607 0.029635750638916776 0 -0.0012422439383512024 0.030968872591910734 0 -0.0022370755454357099 0.030173543644591197 0 -0.0020391248503565662 0.032103296377883617 0 -0.0012422439383512024 0.030968872591910734 0 -0.0022370755454357099 0.030173543644591197 0 -0.0022370755454357099 0.030173543644591197 0 -0.0035352753435715567 0.029751506553704395 0 -0.0020334856585204112 0.028674322978175504 0 -0.0031776449888201159 0.028767155660147811 0 -0.0032262123299152301 0.028251865933068842 0 -0.0033792460732250066 0.03152612777968497 0 -0.0022370755454357099 0.030173543644591197 0 -0.0035352753435715567 0.029751506553704395 0 -0.0029971471616948571 0.029734006547066125 0 -0.0031776449888201159 0.028767155660147811 0 -0.0031357885327568317 0.027866597932569081 0 -0.0037138338094907021 0.027612450852544792 0 -0.0033658554742630278 0.027402595551992204 0 -0.0037709007581442485 0.027234800118512818 0 -0.0033658554742630278 0.027402595551992204 0 -0.0033212399031498779 0.027518577370960202 0 -0.0037138338094907021 0.027612450852544792 0 -0.0037709007581442485 0.027234800118512818 0 -0.0033658554742630278 0.027402595551992204 0 -0.0037709007581442485 0.027234800118512818 0 -0.0035701735411139564 0.026838450935276596 0 -0.0033212399031498779 0.027518577370960202 0 -0.0035701735411139564 0.026838450935276596 0 -0.0033212399031498779 0.027518577370960202 0 -0.0030496676888601575 0.026812243805099924 0 -0.0033212399031498779 0.027518577370960202 0 -0.002032174364017582 0.027448505367795684 0 -0.0030496676888601575 0.026812243805099924 0 -0.0035352753435715567 0.029751506553704395 0 -0.0033212399031498779 0.027518577370960202 0 -0.0020334856585204112 0.028674322978175504 0 -0.0033212399031498779 0.027518577370960202 0 -0.0020334856585204112 0.028674322978175504 0 -0.002032174364017582 0.027448505367795684 0 -0.002032174364017582 0.027448505367795684 0 -0.002339289382423137 0.026657077738415816 0 -0.0030496676888601575 0.026812243805099924 0 -0.002032174364017582 0.027448505367795684 0 -0.0012138172268962041 0.027064236129598674 0 -0.0018005875345069795 0.026681413169252856 0 -0.002032174364017582 0.027448505367795684 0 -0.0012138172268962041 0.027064236129598674 0 -0.0011320457003912827 0.028211786919398487 0 -0.0020334856585204112 0.028674322978175504 0 -0.002032174364017582 0.027448505367795684 0 -0.0011320457003912827 0.028211786919398487 0 -0.0010418061719090607 0.029635750638916776 0 -0.0020334856585204112 0.028674322978175504 0 -0.0011320457003912827 0.028211786919398487 0 -0.0013090827462844184 0.025648540919098628 0 -0.0014203989125294212 0.026277623410332733 0 -0.0018870420501817162 0.024929517998003494 0 -0.0011530315286742009 0.025765139338028421 0 -0.0010095753739936735 0.025673645786687474 0 -0.0013090827462844184 0.025648540919098628 0 -0.0014203989125294212 0.026277623410332733 0 -0.00071545666750390377 0.026369219793587775 0 -0.0012138172268962041 0.027064236129598674 0 -0.0014203989125294212 0.026277623410332733 0 -0.00071545666750390377 0.026369219793587775 0 -0.0012138172268962041 0.027064236129598674 0 -0.0018005875345069795 0.026681413169252856 0 -0.0014203989125294212 0.026277623410332733 0 -0.002032174364017582 0.027448505367795684 0 -0.0018005875345069795 0.026681413169252856 0 -0.002339289382423137 0.026657077738415816 0 -0.0018005875345069795 0.026681413169252856 0 -0.0014203989125294212 0.026277623410332733 0 -0.0021816119333483838 0.026047738372386334 0 -0.0018005875345069795 0.026681413169252856 0 -0.002339289382423137 0.026657077738415816 0 -0.0021816119333483838 0.026047738372386334 0 -0.0014203989125294212 0.026277623410332733 0 -0.0021816119333483838 0.026047738372386334 0 -0.0019040086099131083 0.025340264099331031 0 -0.002339289382423137 0.026657077738415816 0 -0.0021816119333483838 0.026047738372386334 0 -0.0028643021365038798 0.026116092530151618 0 -0.0021816119333483838 0.026047738372386334 0 -0.0028643021365038798 0.026116092530151618 0 -0.0026467650515669301 0.025429432356573783 0 -0.002339289382423137 0.026657077738415816 0 -0.0028643021365038798 0.026116092530151618 0 -0.0030496676888601575 0.026812243805099924 0 -0.0035701735411139564 0.026838450935276596 0 -0.0030496676888601575 0.026812243805099924 0 -0.0034356662236868394 0.026241600015333915 0 -0.0028643021365038798 0.026116092530151618 0 -0.0030496676888601575 0.026812243805099924 0 -0.0034356662236868394 0.026241600015333915 0 -0.0028643021365038798 0.026116092530151618 0 -0.0034356662236868394 0.026241600015333915 0 -0.0033309345871552873 0.025654581183165222 0 -0.0028643021365038798 0.026116092530151618 0 -0.0026467650515669301 0.025429432356573783 0 -0.0033309345871552873 0.025654581183165222 0 -0.0030072082360303289 0.024926822826008613 0 -0.0026467650515669301 0.025429432356573783 0 -0.0033309345871552873 0.025654581183165222 0 -0.0022672449139023317 0.025089747590590839 0 -0.0017169698289754528 0.025037789341607795 0 -0.0030072082360303289 0.024926822826008613 0 -0.0026467650515669301 0.025429432356573783 0 -0.0024585376653460983 0.024748357407904563 0 -0.0021816119333483838 0.026047738372386334 0 -0.0026467650515669301 0.025429432356573783 0 -0.0019040086099131083 0.025340264099331031 0 -0.0010095753739936735 0.025673645786687474 0 -0.0017169698289754528 0.025037789341607795 0 -0.0011633533248615892 0.025390532602836798 0 -0.0011864380159159939 0.025326234934085864 0 -0.0012102288671023986 0.025332988840645533 0 -0.0010095753739936735 0.025673645786687474 0 -0.0011644536084599217 0.025113396994271741 0 0.00079202609049913014 0.026481310176086171 0 0.00085066778701775115 0.026347921050878853 0 0.00071562231142030053 0.026266854543452577 0 -0.0026467650515669301 0.025429432356573783 0 -0.0019040086099131083 0.025340264099331031 0 -0.0024585376653460983 0.024748357407904563 0 0.00085066778701775115 0.026347921050878853 0 0.00098647902564555682 0.026429553391598148 0 0.00091864785342627407 0.026207612216692735 0 0.00079202609049913014 0.026481310176086171 0 0.00085066778701775115 0.026347921050878853 0 0.00098647902564555682 0.026429553391598148 0 0.00089284087016544143 0.026605109544784299 0 0.00079202609049913014 0.026481310176086171 0 0.00098647902564555682 0.026429553391598148 0 -0.00036002336081690717 0.026130594115417207 0 -0.0010095753739936735 0.025673645786687474 0 -0.0044305506020358128 0.025997577028666584 0 -0.004991373179739458 0.025582405927098498 0 -0.0050223955239001679 0.026223903009406781 0 -0.0047576913194260807 0.026602441040015103 0 -0.0045518392222428216 0.02644146867379878 0 -0.0050223955239001679 0.026223903009406781 0 -0.0044305506020358128 0.025997577028666584 0 -0.0045518392222428216 0.02644146867379878 0 -0.0050223955239001679 0.026223903009406781 0 -0.0044305506020358128 0.025997577028666584 0 -0.0045518392222428216 0.02644146867379878 0 -0.0040572821779934036 0.026519745521847334 0 -0.0035701735411139564 0.026838450935276596 0 -0.0034356662236868394 0.026241600015333915 0 -0.0040572821779934036 0.026519745521847334 0 -0.0034356662236868394 0.026241600015333915 0 -0.0040572821779934036 0.026519745521847334 0 -0.0038407083659868974 0.0260313494019217 0 -0.0034356662236868394 0.026241600015333915 0 -0.0038407083659868974 0.0260313494019217 0 -0.0033309345871552873 0.025654581183165222 0 -0.0044305506020358128 0.025997577028666584 0 -0.0038407083659868974 0.0260313494019217 0 -0.0039595952922143541 0.02556676364064692 0 -0.0044305506020358128 0.025997577028666584 0 -0.0040572821779934036 0.026519745521847334 0 -0.0038407083659868974 0.0260313494019217 0 -0.0038407083659868974 0.0260313494019217 0 -0.0039595952922143541 0.02556676364064692 0 -0.0033309345871552873 0.025654581183165222 0 -0.0039595952922143541 0.02556676364064692 0 -0.0033309345871552873 0.025654581183165222 0 -0.0035499592113021859 0.025188968446199778 0 -0.0030072082360303289 0.024926822826008613 0 -0.0033309345871552873 0.025654581183165222 0 -0.0035499592113021859 0.025188968446199778 0 -0.0030072082360303289 0.024926822826008613 0 -0.0035499592113021859 0.025188968446199778 0 -0.0034359007520892047 0.024607310511183152 0 -0.0039595952922143541 0.02556676364064692 0 -0.0039539152143386255 0.024876908038963121 0 -0.0044916736671984404 0.025216405864171364 0 -0.0035499592113021859 0.025188968446199778 0 -0.0039539152143386255 0.024876908038963121 0 -0.0034359007520892047 0.024607310511183152 0 -0.0039595952922143541 0.02556676364064692 0 -0.0035499592113021859 0.025188968446199778 0 -0.0039539152143386255 0.024876908038963121 0 -0.0039539152143386255 0.024876908038963121 0 -0.0043535199556683189 0.024776752842475009 0 -0.0044916736671984404 0.025216405864171364 0 -0.0043535199556683189 0.024776752842475009 0 -0.0044916736671984404 0.025216405864171364 0 -0.0047061957288607736 0.024786089828047721 0 -0.0044305506020358128 0.025997577028666584 0 -0.0039595952922143541 0.02556676364064692 0 -0.0044916736671984404 0.025216405864171364 0 -0.0044305506020358128 0.025997577028666584 0 -0.0044916736671984404 0.025216405864171364 0 -0.004991373179739458 0.025582405927098498 0 -0.0045920097754724339 0.023049107063812638 0 -0.0055653365833627727 0.022923673038431621 0 -0.0044916736671984404 0.025216405864171364 0 -0.004991373179739458 0.025582405927098498 0 -0.0049001608997624492 0.024790217435364557 0 -0.0044916736671984404 0.025216405864171364 0 -0.0047061957288607736 0.024786089828047721 0 -0.0049001608997624492 0.024790217435364557 0 -0.0032329818920418625 0.020551123722565592 0 -0.0032508875144566592 0.020531078550527312 0 -0.0032284996222647915 0.020515165244909012 0 -0.0032508875144566592 0.020531078550527312 0 -0.0032512654706230142 0.020510635099333291 0 -0.0032284996222647915 0.020515165244909012 0 -0.0032508875144566592 0.020531078550527312 0 -0.003277627533275161 0.020503861363824337 0 -0.0032512654706230142 0.020510635099333291 0 -0.0032508875144566592 0.020531078550527312 0 -0.0032733630071464376 0.020537454067278981 0 -0.003277627533275161 0.020503861363824337 0 -0.0032733630071464376 0.020537454067278981 0 -0.0032554689497129937 0.020561801487194734 0 -0.0032833816187370023 0.020560372979510577 0 -0.0032508875144566592 0.020531078550527312 0 -0.0032733630071464376 0.020537454067278981 0 -0.0032554689497129937 0.020561801487194734 0 -0.0032329818920418625 0.020551123722565592 0 -0.0032508875144566592 0.020531078550527312 0 -0.0032554689497129937 0.020561801487194734 0 -0.0032554689497129937 0.020561801487194734 0 -0.0032612487047178822 0.020598597717043098 0 -0.0032351362135689689 0.020595210620899387 0 -0.0032329818920418625 0.020551123722565592 0 -0.0032554689497129937 0.020561801487194734 0 -0.0032351362135689689 0.020595210620899387 0 -0.0045920097754724339 0.023049107063812638 0 -0.0040552405086404023 0.023648434480286456 0 -0.0032612487047178822 0.020598597717043098 0 -0.0032832142630185137 0.020572784216220649 0 -0.0032750953024400036 0.020529046653880438 0 -0.0020758229244073889 0.01946088238245252 0 -0.002006747666160799 0.01883160142055447 0 -0.0032554689497129937 0.020561801487194734 0 -0.0032612487047178822 0.020598597717043098 0 -0.0032833816187370023 0.020560372979510577 0 -0.0032612487047178822 0.020598597717043098 0 -0.0032903665813566181 0.020610456457767684 0 -0.0032443965000546358 0.020653124889949925 0 -0.0040552405086404023 0.023648434480286456 0 -0.003689256494356862 0.02511408358422268 0 -0.0032612487047178822 0.020598597717043098 0 -0.0032351362135689689 0.020595210620899387 0 -0.0032443965000546358 0.020653124889949925 0 -0.0031896058043003697 0.023538407189171856 0 -0.0021610657093757506 0.021400219447845054 0 -0.0035149722210124894 0.028209079515116846 0 -0.0044812035693627969 0.028223308498748007 0 -0.0035380005664139842 0.028943652496724936 0 -0.0032903665813566181 0.020610456457767684 0 -0.0033059881627764223 0.020550226629209269 0 -0.0032832142630185137 0.020572784216220649 0 -0.0032612487047178822 0.020598597717043098 0 -0.0032903665813566181 0.020610456457767684 0 -0.0032832142630185137 0.020572784216220649 0 -0.0032903665813566181 0.020610456457767684 0 -0.0033059881627764223 0.020550226629209269 0 -0.0033500925687108872 0.020558850445731046 0 -0.0033059881627764223 0.020550226629209269 0 -0.0032832142630185137 0.020572784216220649 0 -0.0032750953024400036 0.020529046653880438 0 -0.0033059881627764223 0.020550226629209269 0 -0.0032750953024400036 0.020529046653880438 0 -0.0033088624137665328 0.020500916038582753 0 -0.0033059881627764223 0.020550226629209269 0 -0.0033500925687108872 0.020558850445731046 0 -0.0033088624137665328 0.020500916038582753 0 -0.0021610657093757506 0.021400219447845054 0 -0.0023242811669515104 0.021219046569253001 0 -0.0032851653788165355 0.020456798296535465 0 -0.0032992991794750727 0.020500222369890509 0 -0.00326089003053864 0.020471477112054971 0 -0.00093998149621175972 0.016121295116224853 0 -0.0016693528788744711 0.018417520518852936 0 -0.0032851653788165355 0.020456798296535465 0 -0.0032992991794750727 0.020500222369890509 0 -0.0033088624137665328 0.020500916038582753 0 0.003914326668975592 0.0068023557402846838 0 0.002638617384071 0.006985160460205502 0 0.0020410640504011962 0.0085797198252590464 0 -0.0032992991794750727 0.020500222369890509 0 -0.0033088624137665328 0.020500916038582753 0 -0.0033038785482098964 0.020480639308876107 0 0.003914326668975592 0.0068023557402846838 0 0.0056512821959741437 0.0051603246208582589 0 0.0038628427937076075 0.0050715267353583487 0 -0.00093998149621175972 0.016121295116224853 0 -0.0021395499380916284 0.015893656671065567 0 0.003914326668975592 0.0068023557402846838 0 0.0030681730570364003 0.0057695225390339243 0 0.002638617384071 0.006985160460205502 0 0.003914326668975592 0.0068023557402846838 0 0.0030681730570364003 0.0057695225390339243 0 0.0038628427937076075 0.0050715267353583487 0 -0.0032733630071464376 0.020537454067278981 0 -0.0032833816187370023 0.020560372979510577 0 -0.0033009209301536474 0.020521737607375464 0 -0.0032750953024400036 0.020529046653880438 0 -0.0033088624137665328 0.020500916038582753 0 -0.0033038785482098964 0.020480639308876107 0 -0.002006747666160799 0.01883160142055447 0 -0.0021395499380916284 0.015893656671065567 0 -0.0021395499380916284 0.015893656671065567 0 -0.0055625186937263539 0.019419840649108299 0 -0.0024859737570075906 0.016600324834965752 0 -0.0023943760378582588 0.016793972179161804 0 -0.0026940522868892361 0.016788055882441071 0 -0.0032733630071464376 0.020537454067278981 0 -0.0033009209301536474 0.020521737607375464 0 -0.003277627533275161 0.020503861363824337 0 -0.0021395499380916284 0.015893656671065567 0 -0.0020469764041423245 0.014578450329665848 0 0.0030983575302819663 0.0048599147399075917 0 0.0038628427937076075 0.0050715267353583487 0 0.0032903541809123247 0.004074442624138295 0 0.0030681730570364003 0.0057695225390339243 0 0.0030983575302819663 0.0048599147399075917 0 0.002444843096404341 0.0051038239195176647 0 0.0030681730570364003 0.0057695225390339243 0 0.0030983575302819663 0.0048599147399075917 0 0.0038628427937076075 0.0050715267353583487 0 0.0056512821959741437 0.0051603246208582589 0 0.0038628427937076075 0.0050715267353583487 0 0.0041959208847597079 0.0041961984859201027 0 0.0041959208847597079 0.0041961984859201027 0 0.003683034739389733 0.0036302999693316588 0 0.0046333785797599454 0.0030790064989015338 0 0.0056512821959741437 0.0051603246208582589 0 0.0041959208847597079 0.0041961984859201027 0 0.0046333785797599454 0.0030790064989015338 0 0.003683034739389733 0.0036302999693316588 0 0.0029816670392798471 0.0036009978385116363 0 0.003446534146507902 0.0030731462279653 0 0.0038628427937076075 0.0050715267353583487 0 0.0041959208847597079 0.0041961984859201027 0 0.0032903541809123247 0.004074442624138295 0 0.0041959208847597079 0.0041961984859201027 0 0.003683034739389733 0.0036302999693316588 0 0.0032903541809123247 0.004074442624138295 0 0.0030983575302819663 0.0048599147399075917 0 0.0032903541809123247 0.004074442624138295 0 0.0028062009190922069 0.0043103346521187434 0 0.0032903541809123247 0.004074442624138295 0 0.0028872079074984004 0.0039033521658999098 0 0.0028062009190922069 0.0043103346521187434 0 0.0032903541809123247 0.004074442624138295 0 0.0028872079074984004 0.0039033521658999098 0 0.0029816670392798471 0.0036009978385116363 0 0.003683034739389733 0.0036302999693316588 0 0.0032903541809123247 0.004074442624138295 0 0.0029816670392798471 0.0036009978385116363 0 0.0024778811652860409 0.0036422486737613486 0 0.0028062009190922069 0.0043103346521187434 0 0.002444843096404341 0.0051038239195176647 0 0.0024778811652860409 0.0036422486737613486 0 0.002035852543964288 0.0037142996925253733 0 0.0021704776720442407 0.0042918170425235453 0 0.0024778811652860409 0.0036422486737613486 0 0.002444843096404341 0.0051038239195176647 0 0.0013916997153943914 0.0060766453640763675 0 0.0017606535020159657 0.0058380484962300772 0 0.0014000080108906891 0.0068101953993852339 0 0.0029816670392798471 0.0036009978385116363 0 0.0024778811652860409 0.0036422486737613486 0 0.0025359375659372149 0.0032047483250490405 0 0.0028872079074984004 0.0039033521658999098 0 0.0029816670392798471 0.0036009978385116363 0 0.0024778811652860409 0.0036422486737613486 0 0.0028872079074984004 0.0039033521658999098 0 0.0024778811652860409 0.0036422486737613486 0 0.0028062009190922069 0.0043103346521187434 0 0.0030983575302819663 0.0048599147399075917 0 0.0028062009190922069 0.0043103346521187434 0 0.002444843096404341 0.0051038239195176647 0 0.002035852543964288 0.0037142996925253733 0 0.0015878770405944825 0.0039156267330564282 0 0.0021704776720442407 0.0042918170425235453 0 0.0024778811652860409 0.0036422486737613486 0 0.002035852543964288 0.0037142996925253733 0 0.0021794100207460864 0.003373049619195918 0 0.002035852543964288 0.0037142996925253733 0 0.0017836669195686809 0.0033270700443276606 0 0.0021794100207460864 0.003373049619195918 0 0.0015878770405944825 0.0039156267330564282 0 0.00071474192711528154 0.0042397646449084583 0 0.0012582382821546064 0.0033795834671698382 0 0.0015878770405944825 0.0039156267330564282 0 0.0012582382821546064 0.0033795834671698382 0 0.0017836669195686809 0.0033270700443276606 0 0.002035852543964288 0.0037142996925253733 0 0.0015878770405944825 0.0039156267330564282 0 0.0017836669195686809 0.0033270700443276606 0 0.0015324318300775804 0.0045112800044931969 0 0.00071474192711528154 0.0042397646449084583 0 0.0015497846499318239 0.0052675300123636052 0 0.0015878770405944825 0.0039156267330564282 0 0.0015324318300775804 0.0045112800044931969 0 0.00071474192711528154 0.0042397646449084583 0 0.0015324318300775804 0.0045112800044931969 0 0.0021704776720442407 0.0042918170425235453 0 0.0018751923515584578 0.0050426606712198098 0 0.0015878770405944825 0.0039156267330564282 0 0.0015324318300775804 0.0045112800044931969 0 0.0021704776720442407 0.0042918170425235453 0 0.0014000080108906891 0.0068101953993852339 0 0.00036916468419777662 0.0096417968122647964 0 0.002638617384071 0.006985160460205502 0 0.0013916997153943914 0.0060766453640763675 0 0.00043438984642344645 0.0085025939597163317 0 0.0011048953693137519 0.0090034413322298851 0 0.00036916468419777662 0.0096417968122647964 0 0.0030681730570364003 0.0057695225390339243 0 0.002638617384071 0.006985160460205502 0 0.0023451235102878369 0.0060046707628179418 0 0.002638617384071 0.006985160460205502 0 0.0023451235102878369 0.0060046707628179418 0 0.0013916997153943914 0.0060766453640763675 0 0.0030681730570364003 0.0057695225390339243 0 0.002444843096404341 0.0051038239195176647 0 0.0023451235102878369 0.0060046707628179418 0 0.002444843096404341 0.0051038239195176647 0 0.0023451235102878369 0.0060046707628179418 0 0.0013916997153943914 0.0060766453640763675 0 -0.010396695127636184 -0.0055720178944275852 0 -0.008642192901371859 -0.0057871781745019628 0 -0.0085423139130444865 -0.0032906474122474088 0 0.00071474192711528154 0.0042397646449084583 0 0.00065491892515698118 0.0029154251099002401 0 -0.00013984805130927289 0.0031788778159295246 0 -0.008642192901371859 -0.0057871781745019628 0 -0.0085423139130444865 -0.0032906474122474088 0 -0.0076258096314197679 -0.0046261882933906128 0 -0.0044899229152111668 0.0014151226330274295 0 -0.002780852560218529 0.00062121359357138607 0 0.00071474192711528154 0.0042397646449084583 0 0.00065491892515698118 0.0029154251099002401 0 0.0012582382821546064 0.0033795834671698382 0 -0.0044899229152111668 0.0014151226330274295 0 -0.0012207703530921407 0.0095655519376579949 0 -0.008642192901371859 -0.0057871781745019628 0 -0.0092373077218047463 -0.0074731047634116953 0 -0.0080494413341271123 -0.0074736043081395165 0 -0.010396695127636184 -0.0055720178944275852 0 -0.008642192901371859 -0.0057871781745019628 0 -0.0092373077218047463 -0.0074731047634116953 0 -0.0092373077218047463 -0.0074731047634116953 0 -0.0086052029223788861 -0.0088646165821601366 0 -0.0080494413341271123 -0.0074736043081395165 0 -0.0092373077218047463 -0.0074731047634116953 0 -0.0095560936328334348 -0.0084541183892416962 0 -0.010525946509499276 -0.0079818111901807619 0 -0.0092373077218047463 -0.0074731047634116953 0 -0.0095560936328334348 -0.0084541183892416962 0 -0.0086052029223788861 -0.0088646165821601366 0 -0.010396695127636184 -0.0055720178944275852 0 -0.010525946509499276 -0.0079818111901807619 0 -0.012229004035783983 -0.0078237360349456726 0 -0.010396695127636184 -0.0055720178944275852 0 -0.0092373077218047463 -0.0074731047634116953 0 -0.010525946509499276 -0.0079818111901807619 0 -0.010525946509499276 -0.0079818111901807619 0 -0.0098536968686114834 -0.0094950457388318071 0 -0.012229004035783983 -0.0078237360349456726 0 -0.00046847818333927441 0.026390244087995566 0 -0.0010300059745637065 0.026471812449942303 0 -0.00058057255671601802 0.026078477266675774 0 -0.0011708690545745655 0.018081750895421921 0 -0.0026611333168591596 0.0215805349868291 0 -0.0036939763725685197 0.0093082345605718288 0 -0.0012207703530921407 0.0095655519376579949 0 -0.0095560936328334348 -0.0084541183892416962 0 -0.010525946509499276 -0.0079818111901807619 0 -0.0098536968686114834 -0.0094950457388318071 0 -0.0098536968686114834 -0.0094950457388318071 0 -0.0086052029223788861 -0.0088646165821601366 0 -0.0074697012617888376 -0.011178601594157995 0 -0.0095560936328334348 -0.0084541183892416962 0 -0.0098536968686114834 -0.0094950457388318071 0 -0.0086052029223788861 -0.0088646165821601366 0 -0.0016693528788744711 0.018417520518852936 0 -2.8703794474075516e-05 0.016232878218276174 0 -0.00080862085122418242 0.025217254863066477 0 -0.00089903112960530631 0.025309866391977742 0 -0.00083745550016542261 0.025317158229919996 0 0.0020410640504011962 0.0085797198252590464 0 0.00034912531189086306 0.0085793633449745121 0 8.4206711304043864e-05 0.010376118119719625 0 -0.00074509123806468171 0.025268549320426572 0 -0.00080862085122418242 0.025217254863066477 0 -0.00083745550016542261 0.025317158229919996 0 0.002638617384071 0.006985160460205502 0 0.0020410640504011962 0.0085797198252590464 0 0.00034912531189086306 0.0085793633449745121 0 -0.0021610657093757506 0.021400219447845054 0 -0.0016693528788744711 0.018417520518852936 0 0.0015324318300775804 0.0045112800044931969 0 0.0018751923515584578 0.0050426606712198098 0 0.0015497846499318239 0.0052675300123636052 0 0.00036916468419777662 0.0096417968122647964 0 -0.0012207703530921407 0.0095655519376579949 0 0.00034912531189086306 0.0085793633449745121 0 -0.00021137460887967651 0.010012727759673486 0 8.4206711304043864e-05 0.010376118119719625 0 -0.001010003464018324 0.026690425810170525 0 -0.0010845128092189051 0.026600026913912802 0 -0.0010300059745637065 0.026471812449942303 0 0.00036916468419777662 0.0096417968122647964 0 -0.00031419195527491962 0.014327400289029672 0 -0.0035563052032732828 0.013199343926889944 0 0.0033283729695635488 0.0084771926471598254 0 -4.8991346834612895e-05 0.0043301287403782768 0 -0.0012207703530921407 0.0095655519376579949 0 -0.00031419195527491962 0.014327400289029672 0 -0.00031419195527491962 0.014327400289029672 0 -2.8703794474075516e-05 0.016232878218276174 0 -0.0011708690545745655 0.018081750895421921 0 -0.0019445543605429889 0.023310590259875804 0 -0.00088870204006591695 0.025325102080209324 0 -0.00091048644606676627 0.025355795491562059 0 -0.00087647141393494847 0.025339934459132199 0 -0.00091048644606676627 0.025355795491562059 0 -0.00088526544262203135 0.025396603320128587 0 -0.00087647141393494847 0.025339934459132199 0 -2.8703794474075516e-05 0.016232878218276174 0 4.9614908125678338e-05 0.016399589041683618 0 -0.00046847818333927441 0.026390244087995566 0 -0.001010003464018324 0.026690425810170525 0 -0.0010300059745637065 0.026471812449942303 0 -0.00091048644606676627 0.025355795491562059 0 -0.00088526544262203135 0.025396603320128587 0 -0.00088640957580331031 0.02543804076267531 0 -0.00037685313316816434 0.021437163240766315 0 -0.0027297073797118336 0.018548063635881025 0 0.0027052572804643696 0.013639831614752192 0 -0.00031419195527491962 0.014327400289029672 0 -0.0011708690545745655 0.018081750895421921 0 -2.8703794474075516e-05 0.016232878218276174 0 -0.0011708690545745655 0.018081750895421921 0 -0.0021610657093757506 0.021400219447845054 0 -0.0025775936247442303 0.025190042608782999 0 -0.00083745550016542261 0.025317158229919996 0 -0.00087647141393494847 0.025339934459132199 0 -0.00086432914065271316 0.025436760244617138 0 -0.00074509123806468171 0.025268549320426572 0 -0.00083745550016542261 0.025317158229919996 0 -0.00086432914065271316 0.025436760244617138 0 -0.0035149722210124894 0.028209079515116846 0 -0.0035380005664139842 0.028943652496724936 0 -0.0028839701147848743 0.027994118246753508 0 -0.00088526544262203135 0.025396603320128587 0 -0.00087647141393494847 0.025339934459132199 0 -0.00086432914065271316 0.025436760244617138 0 -0.00089903112960530631 0.025309866391977742 0 -0.00083745550016542261 0.025317158229919996 0 -0.00087647141393494847 0.025339934459132199 0 -0.0033066941266305648 0.027647394346605781 0 -0.0028839701147848743 0.027994118246753508 0 -0.0029387685598067413 0.027200940500583082 0 -0.0035149722210124894 0.028209079515116846 0 -0.0033066941266305648 0.027647394346605781 0 -0.0028839701147848743 0.027994118246753508 0 -0.00088640957580331031 0.02543804076267531 0 -0.0008935563685334995 0.02546386249748046 0 -0.0009106625071584021 0.025414782140317265 0 -0.00088526544262203135 0.025396603320128587 0 -0.00086432914065271316 0.025436760244617138 0 -0.00088640957580331031 0.02543804076267531 0 -0.00086432914065271316 0.025436760244617138 0 -0.00088640957580331031 0.02543804076267531 0 -0.0009106625071584021 0.025414782140317265 0 -0.00091048644606676627 0.025355795491562059 0 -0.00088640957580331031 0.02543804076267531 0 -0.0008935563685334995 0.02546386249748046 0 -0.0025775936247442303 0.025190042608782999 0 -0.001930622788534851 0.025570463892008545 0 -0.0021016026402738827 0.026976341921717086 0 -0.0029387685598067413 0.027200940500583082 0 -0.002632489767038134 0.026631741854844529 0 -0.0028839701147848743 0.027994118246753508 0 -0.0021016026402738827 0.026976341921717086 0 -0.0029387685598067413 0.027200940500583082 0 -0.0029387685598067413 0.027200940500583082 0 -0.0031808627148545215 0.026639425756620191 0 -0.002632489767038134 0.026631741854844529 0 -0.0029387685598067413 0.027200940500583082 0 -0.0031808627148545215 0.026639425756620191 0 -0.0036245685256095848 0.027126888506315033 0 -0.0033066941266305648 0.027647394346605781 0 -0.0029387685598067413 0.027200940500583082 0 -0.0036245685256095848 0.027126888506315033 0 -0.00058057255671601802 0.026078477266675774 0 -0.00024218055061267816 0.025674393708648949 0 0.00027560765949700278 0.02607673949607639 0 -0.0036939763725685197 0.0093082345605718288 0 -0.0029053012904913574 0.0081886874431973192 0 -0.00046847818333927441 0.026390244087995566 0 -0.00058057255671601802 0.026078477266675774 0 0.00027560765949700278 0.02607673949607639 0 -0.0011592493999874401 0.026553348916689947 0 -0.00092438522203860604 0.025991073371822042 0 -0.00058057255671601802 0.026078477266675774 0 -0.00092438522203860604 0.025991073371822042 0 -0.00058057255671601802 0.026078477266675774 0 -0.00060640258689293337 0.025753210237213778 0 -0.0019445543605429889 0.023310590259875804 0 -0.0019231996113003153 0.024210021994781783 0 -0.0008935563685334995 0.02546386249748046 0 -0.0009106625071584021 0.025414782140317265 0 -0.00071218284669214869 0.025320537677166046 0 -0.00092438522203860604 0.025991073371822042 0 -0.00060640258689293337 0.025753210237213778 0 -0.00071218284669214869 0.025320537677166046 0 -0.00060640258689293337 0.025753210237213778 0 -0.00024218055061267816 0.025674393708648949 0 -0.00071218284669214869 0.025320537677166046 0 -0.00058057255671601802 0.026078477266675774 0 -0.00060640258689293337 0.025753210237213778 0 -0.00024218055061267816 0.025674393708648949 0 -0.00024218055061267816 0.025674393708648949 0 -0.00036909233393971535 0.025149895977735353 0 5.7621978400590597e-05 0.025360170742017862 0 -0.00024218055061267816 0.025674393708648949 0 -0.00036909233393971535 0.025149895977735353 0 -0.00071218284669214869 0.025320537677166046 0 -0.00036909233393971535 0.025149895977735353 0 -7.5354283580387197e-05 0.024688129521955461 0 5.7621978400590597e-05 0.025360170742017862 0 -0.00036909233393971535 0.025149895977735353 0 -0.00070841607249204146 0.024877633119557239 0 -7.5354283580387197e-05 0.024688129521955461 0 -0.001930622788534851 0.025570463892008545 0 -0.001259480497053157 0.025064800541273968 0 -0.00036909233393971535 0.025149895977735353 0 -0.00071218284669214869 0.025320537677166046 0 -0.00070841607249204146 0.024877633119557239 0 -0.0009106625071584021 0.025414782140317265 0 -0.00071218284669214869 0.025320537677166046 0 -0.00070841607249204146 0.024877633119557239 0 -0.0013356516093544738 0.024426246292356041 0 -0.0012145736482270669 0.025685842559919507 0 -0.0022342764771352869 0.025172349981504444 0 -0.00088634961462522087 0.024597240315927391 0 -0.001259480497053157 0.025064800541273968 0 -0.0003814493345494016 0.024026111227770326 0 -0.00070841607249204146 0.024877633119557239 0 -7.5354283580387197e-05 0.024688129521955461 0 -0.0027119956774806666 0.025969825305055278 0 -0.003383137673328142 0.026049095920045218 0 -0.0031808627148545215 0.026639425756620191 0 -0.0027119956774806666 0.025969825305055278 0 -0.0031808627148545215 0.026639425756620191 0 -0.002632489767038134 0.026631741854844529 0 -0.0021016026402738827 0.026976341921717086 0 -0.0012145736482270669 0.025685842559919507 0 -0.002184819943551069 0.026100308494294025 0 -0.0021016026402738827 0.026976341921717086 0 -0.002632489767038134 0.026631741854844529 0 -0.002184819943551069 0.026100308494294025 0 -0.0027119956774806666 0.025969825305055278 0 -0.002632489767038134 0.026631741854844529 0 -0.002184819943551069 0.026100308494294025 0 -0.0027119956774806666 0.025969825305055278 0 -0.002184819943551069 0.026100308494294025 0 -0.0022342764771352869 0.025172349981504444 0 -0.0012145736482270669 0.025685842559919507 0 -0.002184819943551069 0.026100308494294025 0 -0.0022342764771352869 0.025172349981504444 0 -0.0030386370533650817 0.024435570625111414 0 -0.0022342764771352869 0.025172349981504444 0 -0.0030218852561203482 0.025444664230631391 0 -0.0030386370533650817 0.024435570625111414 0 -0.0030218852561203482 0.025444664230631391 0 -0.0036995179876733713 0.025556829771890534 0 -0.0027119956774806666 0.025969825305055278 0 -0.0022342764771352869 0.025172349981504444 0 -0.0030218852561203482 0.025444664230631391 0 -0.0027119956774806666 0.025969825305055278 0 -0.003383137673328142 0.026049095920045218 0 -0.0030218852561203482 0.025444664230631391 0 -0.003383137673328142 0.026049095920045218 0 -0.0030218852561203482 0.025444664230631391 0 -0.0036995179876733713 0.025556829771890534 0 -0.0039764600462658317 0.024900056658463881 0 -0.0036995179876733713 0.025556829771890534 0 -0.0041077202235855082 0.025846437367910653 0 -0.0036995179876733713 0.025556829771890534 0 -0.0041077202235855082 0.025846437367910653 0 -0.0038987519718982032 0.02614909468555629 0 -0.003383137673328142 0.026049095920045218 0 -0.0036995179876733713 0.025556829771890534 0 -0.0038987519718982032 0.02614909468555629 0 -0.003383137673328142 0.026049095920045218 0 -0.0038987519718982032 0.02614909468555629 0 -0.0037141679995829164 0.026566476310794052 0 -0.0038987519718982032 0.02614909468555629 0 -0.0040489960225762985 0.026479504306146814 0 -0.0043403581255832832 0.02636803243081242 0 -0.0041077202235855082 0.025846437367910653 0 -0.0038987519718982032 0.02614909468555629 0 -0.0043403581255832832 0.02636803243081242 0 -0.0038987519718982032 0.02614909468555629 0 -0.0040489960225762985 0.026479504306146814 0 -0.0037141679995829164 0.026566476310794052 0 -0.0040489960225762985 0.026479504306146814 0 -0.0037141679995829164 0.026566476310794052 0 -0.0041936163896532964 0.026785094243128887 0 -0.003383137673328142 0.026049095920045218 0 -0.0031808627148545215 0.026639425756620191 0 -0.0037141679995829164 0.026566476310794052 0 -0.0045334585789168127 0.026591251275959363 0 -0.0047850304526788363 0.026570170792626569 0 -0.0046673025691259494 0.026847300993581055 0 -0.0045334585789168127 0.026591251275959363 0 -0.0041936163896532964 0.026785094243128887 0 -0.0046673025691259494 0.026847300993581055 0 -0.0040489960225762985 0.026479504306146814 0 -0.0043403581255832832 0.02636803243081242 0 -0.0041936163896532964 0.026785094243128887 0 -0.0045334585789168127 0.026591251275959363 0 -0.0043403581255832832 0.02636803243081242 0 -0.0041936163896532964 0.026785094243128887 0 -0.0043403581255832832 0.02636803243081242 0 -0.0046211966025295594 0.026405111600701844 0 -0.0045582486144578388 0.026168590527922964 0 -0.0045334585789168127 0.026591251275959363 0 -0.0043403581255832832 0.02636803243081242 0 -0.0046211966025295594 0.026405111600701844 0 -0.0046211966025295594 0.026405111600701844 0 -0.004771285794464856 0.026400184568949981 0 -0.0047850304526788363 0.026570170792626569 0 -0.0045334585789168127 0.026591251275959363 0 -0.0046211966025295594 0.026405111600701844 0 -0.0047850304526788363 0.026570170792626569 0 -0.0046211966025295594 0.026405111600701844 0 -0.0045582486144578388 0.026168590527922964 0 -0.004771285794464856 0.026400184568949981 0 -0.0045582486144578388 0.026168590527922964 0 -0.0049289170182163292 0.026361202664486719 0 -0.004771285794464856 0.026400184568949981 0 -0.0045582486144578388 0.026168590527922964 0 -0.0044033164912983943 0.025625881583360662 0 -0.0049289170182163292 0.026361202664486719 0 -0.0046703122848246086 0.024299374213557615 0 -0.0044033164912983943 0.025625881583360662 0 -0.0049289170182163292 0.026361202664486719 0 -0.0041077202235855082 0.025846437367910653 0 -0.0045582486144578388 0.026168590527922964 0 -0.0044033164912983943 0.025625881583360662 0 -0.0041077202235855082 0.025846437367910653 0 -0.0043403581255832832 0.02636803243081242 0 -0.0045582486144578388 0.026168590527922964 0 -0.0039764600462658317 0.024900056658463881 0 -0.0041077202235855082 0.025846437367910653 0 -0.0044033164912983943 0.025625881583360662 0 -0.0047428221523570131 0.026810717227657991 0 -0.0047213797732241864 0.026680219336659542 0 -0.0049289170182163292 0.026361202664486719 0 -0.0047213797732241864 0.026680219336659542 0 -0.0048049205965681463 0.026519932971188456 0 -0.0049289170182163292 0.026361202664486719 0 -0.0047213797732241864 0.026680219336659542 0 -0.0047369799743805412 0.026620627416636306 0 -0.0048049205965681463 0.026519932971188456 0 -0.0047369799743805412 0.026620627416636306 0 -0.0048049205965681463 0.026519932971188456 0 -0.004765104587957739 0.026584606746398367 0 -0.0048049205965681463 0.026519932971188456 0 -0.0049289170182163292 0.026361202664486719 0 -0.0048460402490269547 0.026465105191804335 0 -0.0049289170182163292 0.026361202664486719 0 -0.004771285794464856 0.026400184568949981 0 -0.0048460402490269547 0.026465105191804335 0 -0.0046073638886372755 0.026866958050666669 0 -0.004677621677168709 0.026735893996619148 0 -0.0046556721295137465 0.026776431504472693 0 -0.0045630183746124273 0.026956906054273824 0 -0.0045491180840525405 0.02695772004829658 0 -0.0046073638886372755 0.026866958050666669 0 -0.0046697562797506616 0.026876581719086454 0 -0.0047213797732241864 0.026680219336659542 0 -0.0046466043065806692 0.026821935574450544 0 -0.0046073638886372755 0.026866958050666669 0 -0.0046466043065806692 0.026821935574450544 0 -0.004677621677168709 0.026735893996619148 0 -0.0047213797732241864 0.026680219336659542 0 -0.0046466043065806692 0.026821935574450544 0 -0.004677621677168709 0.026735893996619148 0 -0.004713294425499775 0.02667235469665559 0 -0.0046556721295137465 0.026776431504472693 0 -0.0047166640563186812 0.026698551034428274 0 -0.0047369799743805412 0.026620627416636306 0 -0.004677621677168709 0.026735893996619148 0 -0.004713294425499775 0.02667235469665559 0 -0.0047213797732241864 0.026680219336659542 0 -0.0047369799743805412 0.026620627416636306 0 -0.004677621677168709 0.026735893996619148 0 -0.0047369799743805412 0.026620627416636306 0 -0.004713294425499775 0.02667235469665559 0 -0.004765104587957739 0.026584606746398367 0 -0.004677621677168709 0.026735893996619148 0 -0.004713294425499775 0.02667235469665559 0 -0.0046556721295137465 0.026776431504472693 0 -0.0045921110430251384 0.026882586708389396 0 -0.0046142565774392645 0.026864628424831605 0 -0.0046556721295137465 0.026776431504472693 0 -0.0045921110430251384 0.026882586708389396 0 -0.0046073638886372755 0.026866958050666669 0 -0.0046556721295137465 0.026776431504472693 0 -0.0047166640563186812 0.026698551034428274 0 -0.0047000163739473709 0.026786229141826799 0 -0.0047065550833141319 0.02672826850751675 0 -0.0046142565774392645 0.026864628424831605 0 -0.0046556721295137465 0.026776431504472693 0 -0.0047166640563186812 0.026698551034428274 0 -0.0046142565774392645 0.026864628424831605 0 -0.0047166640563186812 0.026698551034428274 0 -0.0047000163739473709 0.026786229141826799 0 -0.004713294425499775 0.02667235469665559 0 -0.0047166640563186812 0.026698551034428274 0 -0.004765104587957739 0.026584606746398367 0 -0.0047166640563186812 0.026698551034428274 0 -0.004765104587957739 0.026584606746398367 0 -0.0047065550833141319 0.02672826850751675 0 -0.0043392734894241551 0.026427525592935337 0 -0.0042139216463231615 0.026213087301176798 0 -0.0048460402490269547 0.026465105191804335 0 -0.004765104587957739 0.026584606746398367 0 -0.0047065550833141319 0.02672826850751675 0 -0.0048460402490269547 0.026465105191804335 0 -0.0047850304526788363 0.026570170792626569 0 -0.0051142161382747601 0.026852453665650138 0 -0.004771285794464856 0.026400184568949981 0 -0.0048460402490269547 0.026465105191804335 0 -0.0047850304526788363 0.026570170792626569 0 -0.0048049205965681463 0.026519932971188456 0 -0.0048460402490269547 0.026465105191804335 0 -0.004765104587957739 0.026584606746398367 0 -0.0047850304526788363 0.026570170792626569 0 -0.0051142161382747601 0.026852453665650138 0 -0.0046673025691259494 0.026847300993581055 0 -0.0042139216463231615 0.026213087301176798 0 -0.003689256494356862 0.02511408358422268 0 -0.0051142161382747601 0.026852453665650138 0 -0.0047817738595609515 0.027339341498189604 0 -0.0046673025691259494 0.026847300993581055 0 -0.0051142161382747601 0.026852453665650138 0 -0.0047817738595609515 0.027339341498189604 0 -0.0053578608819299907 0.027514436104522286 0 -0.0047241127229312868 0.026796061696224737 0 -0.0047065550833141319 0.02672826850751675 0 -0.0047063855191742769 0.026782270388840457 0 -0.0047241127229312868 0.026796061696224737 0 -0.0047000163739473709 0.026786229141826799 0 -0.0047065550833141319 0.02672826850751675 0 -0.0038045297376033218 0.025326966355160026 0 -0.003689256494356862 0.02511408358422268 0 -0.0047576913194260807 0.026602441040015103 0 -0.0047241127229312868 0.026796061696224737 0 -0.0050253874487386245 0.026674547876913157 0 -0.0047576913194260807 0.026602441040015103 0 -0.0050223955239001679 0.026223903009406781 0 -0.0050253874487386245 0.026674547876913157 0 -0.0044812035693627969 0.028223308498748007 0 -0.0047817738595609515 0.027339341498189604 0 -0.0053578608819299907 0.027514436104522286 0 -0.0031896058043003697 0.023538407189171856 0 -0.003689256494356862 0.02511408358422268 0 -0.0044812035693627969 0.028223308498748007 0 -0.0037729148924356528 0.027724555606720769 0 -0.0042693675062103024 0.027318509086551156 0 -0.0044812035693627969 0.028223308498748007 0 -0.0047817738595609515 0.027339341498189604 0 -0.0042693675062103024 0.027318509086551156 0 -0.0035149722210124894 0.028209079515116846 0 -0.0044812035693627969 0.028223308498748007 0 -0.0037729148924356528 0.027724555606720769 0 -0.0035149722210124894 0.028209079515116846 0 -0.0033066941266305648 0.027647394346605781 0 -0.0037729148924356528 0.027724555606720769 0 -0.0033066941266305648 0.027647394346605781 0 -0.0037729148924356528 0.027724555606720769 0 -0.0036245685256095848 0.027126888506315033 0 -0.0037729148924356528 0.027724555606720769 0 -0.0036245685256095848 0.027126888506315033 0 -0.0042693675062103024 0.027318509086551156 0 -0.0031808627148545215 0.026639425756620191 0 -0.0037141679995829164 0.026566476310794052 0 -0.0036245685256095848 0.027126888506315033 0 -0.0037141679995829164 0.026566476310794052 0 -0.0036245685256095848 0.027126888506315033 0 -0.0041936163896532964 0.026785094243128887 0 -0.0036245685256095848 0.027126888506315033 0 -0.0041936163896532964 0.026785094243128887 0 -0.0042693675062103024 0.027318509086551156 0 -0.0041936163896532964 0.026785094243128887 0 -0.0046673025691259494 0.026847300993581055 0 -0.0042693675062103024 0.027318509086551156 0 -0.0047817738595609515 0.027339341498189604 0 -0.0046673025691259494 0.026847300993581055 0 -0.0042693675062103024 0.027318509086551156 0 3.1753368380783417e-05 0.034844112761654916 0 3.8795236474494985e-05 0.034850681564459425 0 4.0803065094268336e-05 0.034712296745473978 0 3.1753368380783417e-05 0.034844112761654916 0 4.0803065094268336e-05 0.034712296745473978 0 5.2516317148888291e-05 0.034715734635599946 0 3.1753368380783417e-05 0.034844112761654916 0 1.3890512688539437e-07 0.034999760278305626 0 -1.8954187138232163e-07 0.034999337494267153 0 3.1753368380783417e-05 0.034844112761654916 0 1.3890512688539437e-07 0.034999760278305626 0 3.8795236474494985e-05 0.034850681564459425 0 1.3890512688539437e-07 0.034999760278305626 0 5.4392978329360954e-05 0.03492532211751205 0 3.8795236474494985e-05 0.034850681564459425 0 5.4392978329360954e-05 0.03492532211751205 0 3.8795236474494985e-05 0.034850681564459425 0 3.6444300760218609e-05 0.034738667067149301 0 1.3890512688539437e-07 0.034999760278305626 0 5.4392978329360954e-05 0.03492532211751205 0 3.1707523829176201e-08 0.034999859730792705 0 3.8795236474494985e-05 0.034850681564459425 0 4.0803065094268336e-05 0.034712296745473978 0 3.6444300760218609e-05 0.034738667067149301 0 4.0803065094268336e-05 0.034712296745473978 0 3.0048765537513078e-05 0.034636734350543208 0 3.6444300760218609e-05 0.034738667067149301 0 4.0803065094268336e-05 0.034712296745473978 0 3.3690671813079354e-05 0.034562096248255805 0 6.150656006116192e-05 0.034592080344020934 0 4.0803065094268336e-05 0.034712296745473978 0 3.3690671813079354e-05 0.034562096248255805 0 3.0048765537513078e-05 0.034636734350543208 0 3.3690671813079354e-05 0.034562096248255805 0 6.150656006116192e-05 0.034592080344020934 0 3.3589255070962466e-05 0.034418277560508991 0 6.150656006116192e-05 0.034592080344020934 0 5.2516317148888291e-05 0.034715734635599946 0 7.9058028639440836e-05 0.034641205286090805 0 4.0803065094268336e-05 0.034712296745473978 0 6.150656006116192e-05 0.034592080344020934 0 5.2516317148888291e-05 0.034715734635599946 0 7.9058028639440836e-05 0.034641205286090805 0 6.6244118931925165e-05 0.034640007518298786 0 4.0005597960787277e-05 0.03477367980669703 0 5.2516317148888291e-05 0.034715734635599946 0 7.9058028639440836e-05 0.034641205286090805 0 4.0005597960787277e-05 0.03477367980669703 0 7.9058028639440836e-05 0.034641205286090805 0 0.00012010745129043867 0.034521180685210796 0 0.00011119894561091253 0.034548236009990706 0 6.150656006116192e-05 0.034592080344020934 0 7.9058028639440836e-05 0.034641205286090805 0 0.00012010745129043867 0.034521180685210796 0 6.150656006116192e-05 0.034592080344020934 0 0.00012010745129043867 0.034521180685210796 0 0.00017132012163096513 0.034487382680897474 0 0.00011119894561091253 0.034548236009990706 0 0.00013966329706760957 0.034469033041760001 0 0.00014856765689202464 0.034457347102572741 0 0.00012010745129043867 0.034521180685210796 0 0.00011119894561091253 0.034548236009990706 0 0.00014856765689202464 0.034457347102572741 0 0.00011119894561091253 0.034548236009990706 0 6.6244118931925165e-05 0.034640007518298786 0 9.8333960802899896e-05 0.034531083880032509 0 7.9058028639440836e-05 0.034641205286090805 0 0.00011119894561091253 0.034548236009990706 0 6.6244118931925165e-05 0.034640007518298786 0 6.6244118931925165e-05 0.034640007518298786 0 4.0005597960787277e-05 0.03477367980669703 0 2.7450504633192228e-06 0.034644596320477693 0 6.6244118931925165e-05 0.034640007518298786 0 2.7450504633192228e-06 0.034644596320477693 0 9.8333960802899896e-05 0.034531083880032509 0 3.1753368380783417e-05 0.034844112761654916 0 5.2516317148888291e-05 0.034715734635599946 0 4.0005597960787277e-05 0.03477367980669703 0 3.1753368380783417e-05 0.034844112761654916 0 4.0005597960787277e-05 0.03477367980669703 0 -1.8954187138232163e-07 0.034999337494267153 0 -2.228317368542315e-10 0.035000001200854107 0 1.5535200897293953e-09 0.034999999884696618 0 1.0927981742995292e-06 0.035000457043559433 0 4.0005597960787277e-05 0.03477367980669703 0 -1.8954187138232163e-07 0.034999337494267153 0 2.7450504633192228e-06 0.034644596320477693 0 6.4679985181840655e-08 0.034999779248367918 0 6.1930463584847944e-05 0.034872337020097788 0 1.5535200897293953e-09 0.034999999884696618 0 1.0927981742995292e-06 0.035000457043559433 0 1.7031767785612685e-06 0.03499973127324349 0 2.7450504633192228e-06 0.034644596320477693 0 6.7727095713100596e-05 0.034461010428506862 0 9.8333960802899896e-05 0.034531083880032509 0 6.1930463584847944e-05 0.034872337020097788 0 8.9616310955087096e-05 0.034822546308622811 0 1.0927981742995292e-06 0.035000457043559433 0 1.7031767785612685e-06 0.03499973127324349 0 3.4585545822208876e-06 0.035000070128459036 0 1.7031767785612685e-06 0.03499973127324349 0 3.5502928589988702e-06 0.034998865536845766 0 3.4585545822208876e-06 0.035000070128459036 0 1.5535200897293953e-09 0.034999999884696618 0 1.7031767785612685e-06 0.03499973127324349 0 1.2777464595523029e-10 0.035000000955517335 0 1.7031767785612685e-06 0.03499973127324349 0 1.2777464595523029e-10 0.035000000955517335 0 2.7104668404009279e-06 0.034998507357818474 0 1.7031767785612685e-06 0.03499973127324349 0 3.5502928589988702e-06 0.034998865536845766 0 2.7104668404009279e-06 0.034998507357818474 0 3.5502928589988702e-06 0.034998865536845766 0 2.7104668404009279e-06 0.034998507357818474 0 4.2932873752281717e-06 0.034997536953808868 0 2.7104668404009279e-06 0.034998507357818474 0 3.6937716885164156e-06 0.034994920601961819 0 4.2932873752281717e-06 0.034997536953808868 0 5.7149035020301489e-05 0.034926012326729185 0 6.6955921061662011e-05 0.034913266917227723 0 9.8225491635717728e-06 0.034993938861857705 0 3.6937716885164156e-06 0.034994920601961819 0 1.5596126896604459e-05 0.035000529635347472 0 2.0529458385545532e-06 0.034993274105788216 0 9.8225491635717728e-06 0.034993938861857705 0 3.6937716885164156e-06 0.034994920601961819 0 1.2777464595523029e-10 0.035000000955517335 0 2.7104668404009279e-06 0.034998507357818474 0 3.6937716885164156e-06 0.034994920601961819 0 5.4677959233145362e-10 0.034999976291562283 0 2.0529458385545532e-06 0.034993274105788216 0 1.2777464595523029e-10 0.035000000955517335 0 2.0529458385545532e-06 0.034993274105788216 0 1.2777464595523029e-10 0.035000000955517335 0 3.6937716885164156e-06 0.034994920601961819 0 3.7572048730450236e-05 0.034985364772183808 0 1.8569849566124018e-05 0.034987954343940454 0 2.6482297130076868e-05 0.034996169320256357 0 3.7572048730450236e-05 0.034985364772183808 0 2.6482297130076868e-05 0.034996169320256357 0 3.5936112754104288e-05 0.035000777070819236 0 1.8569849566124018e-05 0.034987954343940454 0 2.6482297130076868e-05 0.034996169320256357 0 1.5596126896604459e-05 0.035000529635347472 0 1.8569849566124018e-05 0.034987954343940454 0 9.8225491635717728e-06 0.034993938861857705 0 1.5596126896604459e-05 0.035000529635347472 0 2.6482297130076868e-05 0.034996169320256357 0 1.5596126896604459e-05 0.035000529635347472 0 2.8003833237034247e-05 0.035008846548844244 0 3.5502928589988702e-06 0.034998865536845766 0 4.2932873752281717e-06 0.034997536953808868 0 5.6041174129832785e-06 0.034998563971521908 0 6.6955921061662011e-05 0.034913266917227723 0 9.1965810563295782e-05 0.034864427476065489 0 2.6482297130076868e-05 0.034996169320256357 0 2.8003833237034247e-05 0.035008846548844244 0 3.5936112754104288e-05 0.035000777070819236 0 2.9519319678180791e-05 0.035007231556699714 0 3.5936112754104288e-05 0.035000777070819236 0 3.8251398146849891e-05 0.035013634008991039 0 9.1965810563295782e-05 0.034864427476065489 0 6.7825045735407671e-05 0.034894805578583099 0 0.00013110007465321402 0.03438955764137834 0 0.00013486928948030838 0.034446241369050161 0 0.00016435011435811275 0.034419132367063274 0 9.1965810563295782e-05 0.034864427476065489 0 9.0541224495335176e-05 0.034718493936840213 0 0.00013486928948030838 0.034446241369050161 0 0.00016272624503272306 0.034424642893458882 0 0.00016435011435811275 0.034419132367063274 0 3.5502928589988702e-06 0.034998865536845766 0 5.6041174129832785e-06 0.034998563971521908 0 3.4585545822208876e-06 0.035000070128459036 0 0.00013110007465321402 0.03438955764137834 0 0.00013486928948030838 0.034446241369050161 0 6.7727095713100596e-05 0.034461010428506862 0 9.1965810563295782e-05 0.034864427476065489 0 8.9616310955087096e-05 0.034822546308622811 0 0.00013486928948030838 0.034446241369050161 0 6.7727095713100596e-05 0.034461010428506862 0 9.8333960802899896e-05 0.034531083880032509 0 0.00013486928948030838 0.034446241369050161 0 0.00013966329706760957 0.034469033041760001 0 0.00016272624503272306 0.034424642893458882 0 0.00013486928948030838 0.034446241369050161 0 9.8333960802899896e-05 0.034531083880032509 0 0.00013966329706760957 0.034469033041760001 0 0.00011119894561091253 0.034548236009990706 0 9.8333960802899896e-05 0.034531083880032509 0 0.00013966329706760957 0.034469033041760001 0 0.00013966329706760957 0.034469033041760001 0 0.00015704988949244358 0.034428468991108255 0 0.00014856765689202464 0.034457347102572741 0 0.00013966329706760957 0.034469033041760001 0 0.00015704988949244358 0.034428468991108255 0 0.00016272624503272306 0.034424642893458882 0 0.00015704988949244358 0.034428468991108255 0 0.00016831564342485007 0.034387446323261107 0 0.00018233905852806803 0.034382881535584192 0 0.00016831564342485007 0.034387446323261107 0 0.00016282465181469686 0.034409067275471085 0 0.00016272624503272306 0.034424642893458882 0 9.5237506250374991e-05 0.034555732020290393 0 8.4951090450376471e-05 0.034571972237080938 0 0.00015704988949244358 0.034428468991108255 0 0.00016831564342485007 0.034387446323261107 0 0.00016272624503272306 0.034424642893458882 0 0.00020201476402145676 0.034267153520210356 0 0.00022057450594683878 0.034303712851194379 0 0.00025248926159955799 0.034249181178847385 0 0.00022057450594683878 0.034303712851194379 0 0.00024476851119095152 0.034256193560372558 0 0.00022605943090807105 0.034307491937362732 0 0.00016831564342485007 0.034387446323261107 0 0.00022057450594683878 0.034303712851194379 0 0.00018233905852806803 0.034382881535584192 0 8.4951090450376471e-05 0.034571972237080938 0 9.1496770009372785e-05 0.034555035228422348 0 0.00016831564342485007 0.034387446323261107 0 0.00018383896118876801 0.034345133777635165 0 0.00022057450594683878 0.034303712851194379 0 0.00022057450594683878 0.034303712851194379 0 0.00025248926159955799 0.034249181178847385 0 0.00024476851119095152 0.034256193560372558 0 0.00020201476402145676 0.034267153520210356 0 0.0002631815834259012 0.034241603457101519 0 0.00025248926159955799 0.034249181178847385 0 4.7335837528024757e-05 0.035020141467064274 0 4.6528757950811529e-05 0.035012113097260766 0 5.6220344485304533e-05 0.03500855999985443 0 8.4951090450376471e-05 0.034571972237080938 0 0.00012349129339892824 0.034624816038716581 0 0.00016282465181469686 0.034409067275471085 0 0.00016272624503272306 0.034424642893458882 0 0.00016435011435811275 0.034419132367063274 0 8.4951090450376471e-05 0.034571972237080938 0 9.0541224495335176e-05 0.034718493936840213 0 4.7335837528024757e-05 0.035020141467064274 0 4.6528757950811529e-05 0.035012113097260766 0 3.8251398146849891e-05 0.035013634008991039 0 4.6528757950811529e-05 0.035012113097260766 0 3.8251398146849891e-05 0.035013634008991039 0 4.453130355945772e-05 0.035006066295242576 0 3.5936112754104288e-05 0.035000777070819236 0 4.453130355945772e-05 0.035006066295242576 0 4.946761132586419e-05 0.034996811374944578 0 3.5936112754104288e-05 0.035000777070819236 0 3.8251398146849891e-05 0.035013634008991039 0 4.453130355945772e-05 0.035006066295242576 0 5.6220344485304533e-05 0.03500855999985443 0 4.946761132586419e-05 0.034996811374944578 0 6.5778571349882248e-05 0.034995994440392274 0 4.453130355945772e-05 0.035006066295242576 0 5.6220344485304533e-05 0.03500855999985443 0 4.946761132586419e-05 0.034996811374944578 0 4.6528757950811529e-05 0.035012113097260766 0 4.453130355945772e-05 0.035006066295242576 0 5.6220344485304533e-05 0.03500855999985443 0 5.6106629029393346e-05 0.034983666549787802 0 4.946761132586419e-05 0.034996811374944578 0 6.5778571349882248e-05 0.034995994440392274 0 3.7572048730450236e-05 0.034985364772183808 0 3.5936112754104288e-05 0.035000777070819236 0 4.946761132586419e-05 0.034996811374944578 0 3.7572048730450236e-05 0.034985364772183808 0 5.6106629029393346e-05 0.034983666549787802 0 4.946761132586419e-05 0.034996811374944578 0 0.00028539013952387575 0.03441185232315732 0 0.00030226302596029521 0.034299581881125557 0 0.00022365290341246682 0.034348887071635734 0 0.00030226302596029521 0.034299581881125557 0 0.00024548944978739515 0.034252177002552314 0 0.00022365290341246682 0.034348887071635734 0 0.00016406133807049208 0.034730933732157375 0 0.00015258227873782491 0.034669370142465246 0 7.5416714459539014e-05 0.034982416126947018 0 5.6106629029393346e-05 0.034983666549787802 0 6.5778571349882248e-05 0.034995994440392274 0 0.00012349129339892824 0.034624816038716581 0 0.00015258227873782491 0.034669370142465246 0 0.0002631815834259012 0.034241603457101519 0 0.00030226302596029521 0.034299581881125557 0 0.00026931833677746789 0.034247680024567184 0 0.00030226302596029521 0.034299581881125557 0 0.00026931833677746789 0.034247680024567184 0 0.00024548944978739515 0.034252177002552314 0 0.00024548944978739515 0.034252177002552314 0 0.00025624331578147499 0.034225859825387409 0 0.00022791415141505884 0.034171560054907596 0 0.00026931833677746789 0.034247680024567184 0 0.00024548944978739515 0.034252177002552314 0 0.00025624331578147499 0.034225859825387409 0 0.0002631815834259012 0.034241603457101519 0 0.00026931833677746789 0.034247680024567184 0 0.00025248926159955799 0.034249181178847385 0 0.00026931833677746789 0.034247680024567184 0 0.00025624331578147499 0.034225859825387409 0 0.00025248926159955799 0.034249181178847385 0 0.00025624331578147499 0.034225859825387409 0 0.00024476851119095152 0.034256193560372558 0 0.00024011117766821065 0.034211396328988793 0 0.00025624331578147499 0.034225859825387409 0 0.00025248926159955799 0.034249181178847385 0 0.00024476851119095152 0.034256193560372558 0 0.00025624331578147499 0.034225859825387409 0 0.00024011117766821065 0.034211396328988793 0 0.00022791415141505884 0.034171560054907596 0 0.00024011117766821065 0.034211396328988793 0 0.00019420965815692345 0.034070179103364462 0 0.00022791415141505884 0.034171560054907596 0 0.00024011117766821065 0.034211396328988793 0 0.00018285962306448516 0.034091969408719468 0 0.00019420965815692345 0.034070179103364462 0 9.1279458026810793e-05 0.03418976930772314 0 0.00012930811538740852 0.034147953928713719 0 0.00018285962306448516 0.034091969408719468 0 0.00024011117766821065 0.034211396328988793 0 0.00023510132255317019 0.034300289083536786 0 0.00018285962306448516 0.034091969408719468 0 0.00014339580645512999 0.034304032881100198 0 0.0001543464231858903 0.034267938272022527 0 0.00024011117766821065 0.034211396328988793 0 0.00023510132255317019 0.034300289083536786 0 0.00022605943090807105 0.034307491937362732 0 0.00024476851119095152 0.034256193560372558 0 0.00024011117766821065 0.034211396328988793 0 0.00022605943090807105 0.034307491937362732 0 0.00022057450594683878 0.034303712851194379 0 0.00022605943090807105 0.034307491937362732 0 0.00018233905852806803 0.034382881535584192 0 0.00022605943090807105 0.034307491937362732 0 0.0001866013928250024 0.034405518350509819 0 0.00018233905852806803 0.034382881535584192 0 0.00012010745129043867 0.034521180685210796 0 0.0001866013928250024 0.034405518350509819 0 0.00014856765689202464 0.034457347102572741 0 0.00015704988949244358 0.034428468991108255 0 0.00014856765689202464 0.034457347102572741 0 0.00018233905852806803 0.034382881535584192 0 0.0001866013928250024 0.034405518350509819 0 0.00014856765689202464 0.034457347102572741 0 0.00018233905852806803 0.034382881535584192 0 0.00012010745129043867 0.034521180685210796 0 0.0001866013928250024 0.034405518350509819 0 0.00017132012163096513 0.034487382680897474 0 0.00023510132255317019 0.034300289083536786 0 0.00022605943090807105 0.034307491937362732 0 0.0001866013928250024 0.034405518350509819 0 0.00014339580645512999 0.034304032881100198 0 0.00011982271131112099 0.034371566100453985 0 0.00023510132255317019 0.034300289083536786 0 0.0001866013928250024 0.034405518350509819 0 0.00017132012163096513 0.034487382680897474 0 9.1279458026810793e-05 0.03418976930772314 0 4.2158749868469055e-05 0.034366873295612436 0 7.6936156571077335e-05 0.034264169746095308 0 6.150656006116192e-05 0.034592080344020934 0 4.2158749868469055e-05 0.034366873295612436 0 3.3589255070962466e-05 0.034418277560508991 0 0.00010344237648664698 0.034409227885379048 0 0.00011982271131112099 0.034371566100453985 0 4.2158749868469055e-05 0.034366873295612436 0 3.3589255070962466e-05 0.034418277560508991 0 7.6936156571077335e-05 0.034264169746095308 0 7.6936156571077335e-05 0.034264169746095308 0 0.00010784013466403524 0.03415876813334634 0 8.9705567371494807e-05 0.034216580922112876 0 0.00010784013466403524 0.03415876813334634 0 0.00012930811538740852 0.034147953928713719 0 0.00013755810555340266 0.034038900649922724 0 7.6936156571077335e-05 0.034264169746095308 0 0.00010784013466403524 0.03415876813334634 0 0.00012930811538740852 0.034147953928713719 0 0.00012930811538740852 0.034147953928713719 0 0.00013755810555340266 0.034038900649922724 0 0.00018285962306448516 0.034091969408719468 0 9.1279458026810793e-05 0.03418976930772314 0 7.6936156571077335e-05 0.034264169746095308 0 0.00012930811538740852 0.034147953928713719 0 0.00013755810555340266 0.034038900649922724 0 0.00012181409871199292 0.033887854253032632 0 0.00016080064876540761 0.033910247344345584 0 0.00013755810555340266 0.034038900649922724 0 0.00016080064876540761 0.033910247344345584 0 0.00018285962306448516 0.034091969408719468 0 0.00010784013466403524 0.03415876813334634 0 0.00013755810555340266 0.034038900649922724 0 0.00010290681967006996 0.034083327044339834 0 0.00013755810555340266 0.034038900649922724 0 0.00012181409871199292 0.033887854253032632 0 0.00010290681967006996 0.034083327044339834 0 0.00012181409871199292 0.033887854253032632 0 0.00017171509639680077 0.033565627550297045 0 0.00014567658636236873 0.033917917234933516 0 0.00012181409871199292 0.033887854253032632 0 0.00016096975326041437 0.033766441308773383 0 0.00017171509639680077 0.033565627550297045 0 0.00016096975326041437 0.033766441308773383 0 0.0001588702743753671 0.033756296600381694 0 0.00017171509639680077 0.033565627550297045 0 0.00012181409871199292 0.033887854253032632 0 0.00016096975326041437 0.033766441308773383 0 0.00016080064876540761 0.033910247344345584 0 0.0001588702743753671 0.033756296600381694 0 0.00016394040364340638 0.03392418516662201 0 0.00016080064876540761 0.033910247344345584 0 0.00016096975326041437 0.033766441308773383 0 0.0001588702743753671 0.033756296600381694 0 0.00016080064876540761 0.033910247344345584 0 0.0001588702743753671 0.033756296600381694 0 0.00012919379140748018 0.033896865469638701 0 0.00010629429753970901 0.033746071522462347 0 0.0001588702743753671 0.033756296600381694 0 0.00012919379140748018 0.033896865469638701 0 0.00016394040364340638 0.03392418516662201 0 0.00012919379140748018 0.033896865469638701 0 0.00016394040364340638 0.03392418516662201 0 0.0001564605374951357 0.034030215136511006 0 0.00016394040364340638 0.03392418516662201 0 0.00019420965815692345 0.034070179103364462 0 0.0001564605374951357 0.034030215136511006 0 0.00016394040364340638 0.03392418516662201 0 0.00016080064876540761 0.033910247344345584 0 0.00019420965815692345 0.034070179103364462 0 0.00016080064876540761 0.033910247344345584 0 0.00018285962306448516 0.034091969408719468 0 0.00019420965815692345 0.034070179103364462 0 0.00019420965815692345 0.034070179103364462 0 0.00017527976950954482 0.034122561265776903 0 0.00022791415141505884 0.034171560054907596 0 0.00019420965815692345 0.034070179103364462 0 0.00017527976950954482 0.034122561265776903 0 0.0001564605374951357 0.034030215136511006 0 0.00017527976950954482 0.034122561265776903 0 0.00016195597400551316 0.034247492094372695 0 0.00011893242822040321 0.034136986359319277 0 0.00017527976950954482 0.034122561265776903 0 0.00011893242822040321 0.034136986359319277 0 0.0001564605374951357 0.034030215136511006 0 0.00017527976950954482 0.034122561265776903 0 0.00022791415141505884 0.034171560054907596 0 0.00016195597400551316 0.034247492094372695 0 0.00024548944978739515 0.034252177002552314 0 0.00016195597400551316 0.034247492094372695 0 0.00022365290341246682 0.034348887071635734 0 0.00024548944978739515 0.034252177002552314 0 0.00022791415141505884 0.034171560054907596 0 0.00016195597400551316 0.034247492094372695 0 0.00016195597400551316 0.034247492094372695 0 5.5192527969738142e-05 0.034259861524409664 0 0.00011893242822040321 0.034136986359319277 0 0.00016195597400551316 0.034247492094372695 0 7.350526121804216e-05 0.034339233038003153 0 5.5192527969738142e-05 0.034259861524409664 0 0.00016195597400551316 0.034247492094372695 0 7.350526121804216e-05 0.034339233038003153 0 0.00011696638264719406 0.034376560356130834 0 4.8007122975569347e-05 0.034489861376693451 0 7.350526121804216e-05 0.034339233038003153 0 0.00011696638264719406 0.034376560356130834 0 0.00016195597400551316 0.034247492094372695 0 0.00011696638264719406 0.034376560356130834 0 0.00022365290341246682 0.034348887071635734 0 0.00013683224022226846 0.034496010079297958 0 0.00011696638264719406 0.034376560356130834 0 0.00022365290341246682 0.034348887071635734 0 3.5858286700941845e-05 0.0343390530358288 0 -6.626671401359771e-05 0.034204069414598748 0 2.3714195001581367e-05 0.034341739557744416 0 0.00019765241891258524 0.034314362076351204 0 -3.1480317293425078e-05 0.0341652590599743 0 9.4237290413619679e-05 0.034446779220871776 0 2.3714195001581367e-05 0.034341739557744416 0 0.00019765241891258524 0.034314362076351204 0 3.4835761202343604e-05 0.034339009615077312 0 3.5858286700941845e-05 0.0343390530358288 0 4.8007122975569347e-05 0.034489861376693451 0 7.350526121804216e-05 0.034339233038003153 0 -1.2253277865628748e-05 0.034369594670443031 0 7.350526121804216e-05 0.034339233038003153 0 -1.2253277865628748e-05 0.034369594670443031 0 5.5192527969738142e-05 0.034259861524409664 0 -1.2253277865628748e-05 0.034369594670443031 0 -3.5952986808052316e-05 0.034341948380594248 0 5.5192527969738142e-05 0.034259861524409664 0 -3.5952986808052316e-05 0.034341948380594248 0 6.1822619385233063e-05 0.034176558239309443 0 5.5192527969738142e-05 0.034259861524409664 0 3.5858286700941845e-05 0.0343390530358288 0 3.6576431236613344e-05 0.034307422567947735 0 6.1822619385233063e-05 0.034176558239309443 0 5.5192527969738142e-05 0.034259861524409664 0 0.00011893242822040321 0.034136986359319277 0 6.1796246397561347e-05 0.034204698121494584 0 6.1822619385233063e-05 0.034176558239309443 0 1.8776713286449173e-05 0.034171120387158041 0 6.1822619385233063e-05 0.034176558239309443 0 2.2799066572408705e-05 0.03406284785495272 0 1.8776713286449173e-05 0.034171120387158041 0 6.1822619385233063e-05 0.034176558239309443 0 9.3875214494615542e-05 0.034034540326804232 0 2.2799066572408705e-05 0.03406284785495272 0 6.1822619385233063e-05 0.034176558239309443 0 9.3875214494615542e-05 0.034034540326804232 0 0.00011893242822040321 0.034136986359319277 0 9.3875214494615542e-05 0.034034540326804232 0 0.00011893242822040321 0.034136986359319277 0 0.0001564605374951357 0.034030215136511006 0 0.00012919379140748018 0.033896865469638701 0 9.3875214494615542e-05 0.034034540326804232 0 0.0001564605374951357 0.034030215136511006 0 0.00012919379140748018 0.033896865469638701 0 9.3875214494615542e-05 0.034034540326804232 0 5.2000216444255128e-05 0.033916495058528132 0 5.2000216444255128e-05 0.033916495058528132 0 -9.4497459018515689e-05 0.033952290387296809 0 2.2799066572408705e-05 0.03406284785495272 0 5.2000216444255128e-05 0.033916495058528132 0 -9.4497459018515689e-05 0.033952290387296809 0 -8.3567985894041991e-05 0.033771600832925491 0 -9.4497459018515689e-05 0.033952290387296809 0 -0.00030161572687800178 0.033880026889503374 0 -8.3567985894041991e-05 0.033771600832925491 0 -9.4497459018515689e-05 0.033952290387296809 0 -0.00014181303586117085 0.034106602895336707 0 2.2799066572408705e-05 0.03406284785495272 0 -9.4497459018515689e-05 0.033952290387296809 0 -0.00014181303586117085 0.034106602895336707 0 -0.00030161572687800178 0.033880026889503374 0 9.3875214494615542e-05 0.034034540326804232 0 5.2000216444255128e-05 0.033916495058528132 0 2.2799066572408705e-05 0.03406284785495272 0 -0.00014181303586117085 0.034106602895336707 0 2.2799066572408705e-05 0.03406284785495272 0 1.8776713286449173e-05 0.034171120387158041 0 -0.0002261431842578346 0.034074831628582165 0 -6.626671401359771e-05 0.034204069414598748 0 -0.00027311934222450709 0.033996523312983098 0 -3.1480317293425078e-05 0.0341652590599743 0 -0.00019531379020812145 0.034298256788624464 0 -0.00027311934222450709 0.033996523312983098 0 -0.00019531379020812145 0.034298256788624464 0 -0.00049007390714866949 0.03412170017254338 0 -1.2023161945771475e-05 0.034508633270626053 0 2.3714195001581367e-05 0.034341739557744416 0 -0.00019531379020812145 0.034298256788624464 0 2.3714195001581367e-05 0.034341739557744416 0 -3.1480317293425078e-05 0.0341652590599743 0 -0.00019531379020812145 0.034298256788624464 0 -0.00069644271802233931 0.034294008179032116 0 -0.00045640926083567615 0.034390271590269639 0 -0.00049007390714866949 0.03412170017254338 0 -0.00019531379020812145 0.034298256788624464 0 -0.00045640926083567615 0.034390271590269639 0 -0.00049007390714866949 0.03412170017254338 0 -0.00080628068679056055 0.034081590743983953 0 -0.00069644271802233931 0.034294008179032116 0 -0.00049007390714866949 0.03412170017254338 0 -0.00080628068679056055 0.034081590743983953 0 -0.00049007390714866949 0.03412170017254338 0 -0.0005014024614832575 0.033808583856994763 0 -0.0007871945361867395 0.033590208031879988 0 -0.00084895119249103702 0.03343764934564137 0 -0.00060370922956309739 0.033608431628243216 0 -0.00081456513728559571 0.033902741259537475 0 -0.00070982963291534951 0.033718195186025188 0 -0.00080628068679056055 0.034081590743983953 0 -0.0005014024614832575 0.033808583856994763 0 -0.00060370922956309739 0.033608431628243216 0 -0.0002261431842578346 0.034074831628582165 0 -0.00034267495744827491 0.033993668832449211 0 -0.00027311934222450709 0.033996523312983098 0 -0.00049007390714866949 0.03412170017254338 0 -0.0005014024614832575 0.033808583856994763 0 -0.00014181303586117085 0.034106602895336707 0 -0.0005014024614832575 0.033808583856994763 0 -0.00030161572687800178 0.033880026889503374 0 -0.00030161572687800178 0.033880026889503374 0 -0.00038925367119567499 0.033862751848607375 0 -8.3567985894041991e-05 0.033771600832925491 0 -0.0005014024614832575 0.033808583856994763 0 -0.00030161572687800178 0.033880026889503374 0 -0.00060370922956309739 0.033608431628243216 0 -0.00030161572687800178 0.033880026889503374 0 -0.00083096137758898012 0.034232711455720308 0 -0.00038925367119567499 0.033862751848607375 0 -0.00030161572687800178 0.033880026889503374 0 -0.00060370922956309739 0.033608431628243216 0 -0.0007396021216333385 0.033358107473153931 0 -0.00084895119249103702 0.03343764934564137 0 -0.00060370922956309739 0.033608431628243216 0 -0.0007396021216333385 0.033358107473153931 0 -0.00079746331377319633 0.033350856362340024 0 -0.00099927318459082197 0.033209045467703022 0 -0.0011165661533938621 0.033541092853319153 0 -0.00082220586488237449 0.033865990616487623 0 -0.00024146286446768519 0.033535264212834974 0 -0.00082220586488237449 0.033865990616487623 0 -0.00024146286446768519 0.033535264212834974 0 -0.00038925367119567499 0.033862751848607375 0 -0.00083096137758898012 0.034232711455720308 0 -0.00082220586488237449 0.033865990616487623 0 -0.00038925367119567499 0.033862751848607375 0 -0.0011165661533938621 0.033541092853319153 0 -0.00024146286446768519 0.033535264212834974 0 -0.00061748212168206225 0.033051558987066521 0 -0.00024146286446768519 0.033535264212834974 0 -0.00038925367119567499 0.033862751848607375 0 -8.3567985894041991e-05 0.033771600832925491 0 -0.00024146286446768519 0.033535264212834974 0 -8.3567985894041991e-05 0.033771600832925491 0 0.00018637140193086561 0.03349944419277049 0 -8.3567985894041991e-05 0.033771600832925491 0 0.00010629429753970901 0.033746071522462347 0 0.00018637140193086561 0.03349944419277049 0 5.2000216444255128e-05 0.033916495058528132 0 -8.3567985894041991e-05 0.033771600832925491 0 0.00010629429753970901 0.033746071522462347 0 0.00012919379140748018 0.033896865469638701 0 5.2000216444255128e-05 0.033916495058528132 0 0.00010629429753970901 0.033746071522462347 0 0.0001588702743753671 0.033756296600381694 0 0.00018637140193086561 0.03349944419277049 0 0.00017171509639680077 0.033565627550297045 0 0.0001588702743753671 0.033756296600381694 0 0.00010629429753970901 0.033746071522462347 0 0.00018637140193086561 0.03349944419277049 0 -0.00024146286446768519 0.033535264212834974 0 0.00018637140193086561 0.03349944419277049 0 0.00033573832177051798 0.032867086315679535 0 0.00018637140193086561 0.03349944419277049 0 0.00017171509639680077 0.033565627550297045 0 0.00033573832177051798 0.032867086315679535 0 0.00017171509639680077 0.033565627550297045 0 0.00033573832177051798 0.032867086315679535 0 0.000335425650871682 0.033702789616218275 0 0.00067591780140595034 0.032556969474107182 0 0.00093383148210386658 0.032143835798632427 0 -0.00080644101539690876 0.032250739501457681 0 0.00033573832177051798 0.032867086315679535 0 -2.7055672710312972e-05 0.030677749683101743 0 -0.0012422439383512024 0.030968872591910734 0 -0.00080644101539690876 0.032250739501457681 0 -2.7055672710312972e-05 0.030677749683101743 0 -0.0013799038085142799 0.032965692618629805 0 -0.00080644101539690876 0.032250739501457681 0 -0.00061748212168206225 0.033051558987066521 0 -0.00080644101539690876 0.032250739501457681 0 -0.00061748212168206225 0.033051558987066521 0 0.00033573832177051798 0.032867086315679535 0 -0.00024146286446768519 0.033535264212834974 0 -0.00061748212168206225 0.033051558987066521 0 0.00033573832177051798 0.032867086315679535 0 -2.7055672710312972e-05 0.030677749683101743 0 0.0013160240389528341 0.029112003435734037 0 -9.9302270334921961e-05 0.028842412170788256 0 -0.0010418061719090607 0.029635750638916776 0 -2.7055672710312972e-05 0.030677749683101743 0 -9.9302270334921961e-05 0.028842412170788256 0 -0.0010418061719090607 0.029635750638916776 0 -0.0012422439383512024 0.030968872591910734 0 -2.7055672710312972e-05 0.030677749683101743 0 0.00033573832177051798 0.032867086315679535 0 -2.7055672710312972e-05 0.030677749683101743 0 0.0017552149650772806 0.030652743880384491 0 0.00017171509639680077 0.033565627550297045 0 0.000335425650871682 0.033702789616218275 0 0.00014567658636236873 0.033917917234933516 0 0.000335425650871682 0.033702789616218275 0 0.00024797712551048739 0.034039584396397995 0 0.00014567658636236873 0.033917917234933516 0 0.00093383148210386658 0.032143835798632427 0 0.0012684770499054778 0.031494044162011597 0 0.0017552149650772806 0.030652743880384491 0 0.0013160240389528341 0.029112003435734037 0 0.0026253651560728839 0.028787482540745764 0 -2.7055672710312972e-05 0.030677749683101743 0 0.0017552149650772806 0.030652743880384491 0 0.0013160240389528341 0.029112003435734037 0 0.0013160240389528341 0.029112003435734037 0 0.0014335447337085088 0.028238025387586321 0 0.0026253651560728839 0.028787482540745764 0 0.0013160240389528341 0.029112003435734037 0 0.0014335447337085088 0.028238025387586321 0 0.00063162104785285879 0.027983475876319042 0 0.0014335447337085088 0.028238025387586321 0 0.0026253651560728839 0.028787482540745764 0 0.0020954958938238255 0.027897806481742064 0 0.0026253651560728839 0.028787482540745764 0 0.0020954958938238255 0.027897806481742064 0 0.0029205918300513694 0.027422143306918934 0 0.0020954958938238255 0.027897806481742064 0 0.0022502566297854963 0.02733563467123298 0 0.0015764642209828998 0.027031664984560201 0 0.0020954958938238255 0.027897806481742064 0 0.0022502566297854963 0.02733563467123298 0 0.0029205918300513694 0.027422143306918934 0 0.0014335447337085088 0.028238025387586321 0 0.0012852061752545237 0.027635697069956527 0 0.00063162104785285879 0.027983475876319042 0 0.0014335447337085088 0.028238025387586321 0 0.0020954958938238255 0.027897806481742064 0 0.0012852061752545237 0.027635697069956527 0 0.0020954958938238255 0.027897806481742064 0 0.0012852061752545237 0.027635697069956527 0 0.0015764642209828998 0.027031664984560201 0 0.0012852061752545237 0.027635697069956527 0 0.00068128255611554843 0.027038984445866106 0 0.0015764642209828998 0.027031664984560201 0 0.0002220289211658395 0.027432492834365399 0 0.00063162104785285879 0.027983475876319042 0 0.00068128255611554843 0.027038984445866106 0 0.0012852061752545237 0.027635697069956527 0 0.00063162104785285879 0.027983475876319042 0 0.00068128255611554843 0.027038984445866106 0 0.0002220289211658395 0.027432492834365399 0 0.00063162104785285879 0.027983475876319042 0 -0.00032817298824356831 0.027730865738299266 0 0.00063162104785285879 0.027983475876319042 0 -9.9302270334921961e-05 0.028842412170788256 0 -0.00032817298824356831 0.027730865738299266 0 0.0013160240389528341 0.029112003435734037 0 0.00063162104785285879 0.027983475876319042 0 -9.9302270334921961e-05 0.028842412170788256 0 -0.0011320457003912827 0.028211786919398487 0 -9.9302270334921961e-05 0.028842412170788256 0 -0.00032817298824356831 0.027730865738299266 0 -0.0010418061719090607 0.029635750638916776 0 -0.0011320457003912827 0.028211786919398487 0 -9.9302270334921961e-05 0.028842412170788256 0 -0.0012138172268962041 0.027064236129598674 0 -0.0011320457003912827 0.028211786919398487 0 -0.00032817298824356831 0.027730865738299266 0 -0.0012138172268962041 0.027064236129598674 0 -0.00032817298824356831 0.027730865738299266 0 -4.2278290776126143e-05 0.026824842160916431 0 0.0002220289211658395 0.027432492834365399 0 -0.00032817298824356831 0.027730865738299266 0 -4.2278290776126143e-05 0.026824842160916431 0 -0.0012138172268962041 0.027064236129598674 0 -4.2278290776126143e-05 0.026824842160916431 0 -0.00048312775607308334 0.026264063999382945 0 -0.00013737676489305442 0.026764550325125279 0 0.00018113388894312995 0.026509593099314565 0 -4.2278290776126143e-05 0.026824842160916431 0 -0.00041542664949117887 0.026365463605717593 0 0.00030386217766068061 0.026380211621975558 0 0.00015432114404638969 0.026504593160116222 0 0.00018113388894312995 0.026509593099314565 0 -4.2278290776126143e-05 0.026824842160916431 0 0.00068128255611554843 0.027038984445866106 0 0.00030386217766068061 0.026380211621975558 0 0.0002220289211658395 0.027432492834365399 0 -4.2278290776126143e-05 0.026824842160916431 0 0.00068128255611554843 0.027038984445866106 0 0.00068128255611554843 0.027038984445866106 0 0.00030386217766068061 0.026380211621975558 0 0.00098338642385633669 0.02625228900310039 0 0.00030386217766068061 0.026380211621975558 0 0.00034891149001450611 0.025421548721083223 0 0.00098338642385633669 0.02625228900310039 0 0.00034891149001450611 0.025421548721083223 0 0.00098338642385633669 0.02625228900310039 0 0.0014694719338423136 0.025494824329628921 0 0.00089284087016544143 0.026605109544784299 0 0.00099240095882175794 0.026728342276042538 0 0.0011080116324944315 0.026587056358599058 0 0.00018113388894312995 0.026509593099314565 0 0.00093962526309645741 0.026324636537459506 0 -0.00041542664949117887 0.026365463605717593 0 0.00030386217766068061 0.026380211621975558 0 0.00034891149001450611 0.025421548721083223 0 -0.00036002336081690717 0.026130594115417207 0 0.00018113388894312995 0.026509593099314565 0 0.00089284087016544143 0.026605109544784299 0 0.0011080116324944315 0.026587056358599058 0 0.00098647902564555682 0.026429553391598148 0 0.0011080116324944315 0.026587056358599058 0 0.00098647902564555682 0.026429553391598148 0 0.0012247090220865019 0.026445886930889315 0 0.00034891149001450611 0.025421548721083223 0 0.0011429978284952015 0.024442330233109297 0 0.0014694719338423136 0.025494824329628921 0 0.00093962526309645741 0.026324636537459506 0 0.001663033267504079 0.026411560043681837 0 0.00098647902564555682 0.026429553391598148 0 0.0012247090220865019 0.026445886930889315 0 0.0010954417122754456 0.026304560185672704 0 0.0012247090220865019 0.026445886930889315 0 0.0012202427036144172 0.026233238928926067 0 0.0010954417122754456 0.026304560185672704 0 0.00098647902564555682 0.026429553391598148 0 0.0010954417122754456 0.026304560185672704 0 0.00091864785342627407 0.026207612216692735 0 0.0024385169730332897 0.027110154682820759 0 0.002134097399826626 0.027425414947345406 0 0.0031341913853115307 0.029561544886109126 0 0.0034573390289812985 0.029065847604241947 0 0.0029565399029380089 0.02935641979901002 0 0.0031341913853115307 0.029561544886109126 0 0.0034573390289812985 0.029065847604241947 0 0.0034115967831037861 0.029607772328390753 0 0.0011429978284952015 0.024442330233109297 0 0.0022643398345856863 0.024719046808864879 0 0.0019320312958586931 0.023467683594917525 0 0.001663033267504079 0.026411560043681837 0 0.002134097399826626 0.027425414947345406 0 0.0012247090220865019 0.026445886930889315 0 0.0012202427036144172 0.026233238928926067 0 0.0013409346927398685 0.026304915648305786 0 0.0011429978284952015 0.024442330233109297 0 0.0022643398345856863 0.024719046808864879 0 0.0014694719338423136 0.025494824329628921 0 0.0024385169730332897 0.027110154682820759 0 0.0026476178963027001 0.027197830132224245 0 0.0034573390289812985 0.029065847604241947 0 0.0033681401169701145 0.028194663136407092 0 0.0029701321205047341 0.028666830102627699 0 0.0026175429721806828 0.025996372242631235 0 0.0014694719338423136 0.025494824329628921 0 0.0017694359982699606 0.026322520206059484 0 0.0022643398345856863 0.024719046808864879 0 0.0026175429721806828 0.025996372242631235 0 0.0014694719338423136 0.025494824329628921 0 0.00098338642385633669 0.02625228900310039 0 0.0014694719338423136 0.025494824329628921 0 0.0017694359982699606 0.026322520206059484 0 0.00098338642385633669 0.02625228900310039 0 0.0017694359982699606 0.026322520206059484 0 0.0015764642209828998 0.027031664984560201 0 0.0017694359982699606 0.026322520206059484 0 0.0015764642209828998 0.027031664984560201 0 0.0022308287605565446 0.026828896126746153 0 0.00068128255611554843 0.027038984445866106 0 0.00098338642385633669 0.02625228900310039 0 0.0015764642209828998 0.027031664984560201 0 0.0026476178963027001 0.027197830132224245 0 0.002721645305166354 0.027303886962241397 0 0.0026175429721806828 0.025996372242631235 0 0.0022308287605565446 0.026828896126746153 0 0.0029205918300513694 0.027422143306918934 0 0.0026175429721806828 0.025996372242631235 0 0.0017694359982699606 0.026322520206059484 0 0.0022308287605565446 0.026828896126746153 0 0.0022502566297854963 0.02733563467123298 0 0.0015764642209828998 0.027031664984560201 0 0.0022308287605565446 0.026828896126746153 0 0.0022502566297854963 0.02733563467123298 0 0.0022308287605565446 0.026828896126746153 0 0.0029205918300513694 0.027422143306918934 0 0.0029676021748509165 0.027909783126902045 0 0.0029205918300513694 0.027422143306918934 0 0.0030349672479482387 0.027437441689856189 0 0.0033681401169701145 0.028194663136407092 0 0.0029676021748509165 0.027909783126902045 0 0.0029205918300513694 0.027422143306918934 0 0.0029676021748509165 0.027909783126902045 0 0.0023510344282237894 0.028298210970320491 0 0.0030349672479482387 0.027437441689856189 0 0.0012000800437019462 0.031192808389546078 0 0.0013919725909930852 0.03108140388333373 0 4.3137446353409106e-05 0.034164860781228275 0 -6.8308768607173781e-05 0.034104023799006955 0 0.00010414560754549213 0.034173114484419113 0 0.0033681401169701145 0.028194663136407092 0 0.0029676021748509165 0.027909783126902045 0 0.0029701321205047341 0.028666830102627699 0 0.0029676021748509165 0.027909783126902045 0 0.0023510344282237894 0.028298210970320491 0 0.0029701321205047341 0.028666830102627699 0 0.0029701321205047341 0.028666830102627699 0 0.0026261412778776608 0.029055785453361536 0 0.0029565399029380089 0.02935641979901002 0 0.0034573390289812985 0.029065847604241947 0 0.0029701321205047341 0.028666830102627699 0 0.0029565399029380089 0.02935641979901002 0 0.0023510344282237894 0.028298210970320491 0 0.0029701321205047341 0.028666830102627699 0 0.0026261412778776608 0.029055785453361536 0 0.0023510344282237894 0.028298210970320491 0 0.0022862447352744032 0.029138623102650769 0 0.0026261412778776608 0.029055785453361536 0 0.0023510344282237894 0.028298210970320491 0 0.0022862447352744032 0.029138623102650769 0 0.0015715761826946132 0.029533929906986216 0 0.0022862447352744032 0.029138623102650769 0 0.0026261412778776608 0.029055785453361536 0 0.0025953658636946909 0.029655742488567668 0 0.0022862447352744032 0.029138623102650769 0 0.0025953658636946909 0.029655742488567668 0 0.0015715761826946132 0.029533929906986216 0 0.0031341913853115307 0.029561544886109126 0 0.0029565399029380089 0.02935641979901002 0 0.0028829043898932582 0.029694723231335263 0 0.0025953658636946909 0.029655742488567668 0 0.0029565399029380089 0.02935641979901002 0 0.0028829043898932582 0.029694723231335263 0 0.0026261412778776608 0.029055785453361536 0 0.0025953658636946909 0.029655742488567668 0 0.0029565399029380089 0.02935641979901002 0 0.00047656634329266349 0.033568950186513277 0 0.00074115460883308871 0.033519305363466118 0 0.0005261285294913331 0.032989799243382467 0 0.00012102421807625605 0.033636428746117678 0 0.0015905227493525414 0.033026840730583165 0 0.00096145567139698602 0.032486079408015622 0 0.0005261285294913331 0.032989799243382467 0 0.0015905227493525414 0.033026840730583165 0 0.00096145567139698602 0.032486079408015622 0 0.0015905227493525414 0.033026840730583165 0 0.0015662788078130035 0.032151340718654539 0 0.0005261285294913331 0.032989799243382467 0 -8.8854718453749835e-05 0.033472929583570787 0 0.0011491473952261468 0.031372325273065715 0 0.0025953658636946909 0.029655742488567668 0 0.0015715761826946132 0.029533929906986216 0 0.0012641024675097662 0.031234053088313885 0 0.0005261285294913331 0.032989799243382467 0 -8.8854718453749835e-05 0.033472929583570787 0 0.00012102421807625605 0.033636428746117678 0 -6.8308768607173781e-05 0.034104023799006955 0 -8.8854718453749835e-05 0.033472929583570787 0 8.7422798736841537e-05 0.03398899388029706 0 -8.8854718453749835e-05 0.033472929583570787 0 0.00012102421807625605 0.033636428746117678 0 8.7422798736841537e-05 0.03398899388029706 0 0.0012000800437019462 0.031192808389546078 0 0.0010214120372041048 0.031364345607056067 0 0.00012102421807625605 0.033636428746117678 0 0.00018525468641022625 0.033930349297538812 0 0.00020750028485871266 0.033876842300385887 0 0.00012102421807625605 0.033636428746117678 0 0.00018525468641022625 0.033930349297538812 0 8.7422798736841537e-05 0.03398899388029706 0 0.00018525468641022625 0.033930349297538812 0 0.00015435161358448314 0.034111931157889457 0 0.00021418201092142502 0.034066783365332184 0 0.00018525468641022625 0.033930349297538812 0 0.00015435161358448314 0.034111931157889457 0 8.7422798736841537e-05 0.03398899388029706 0 0.00015435161358448314 0.034111931157889457 0 8.7422798736841537e-05 0.03398899388029706 0 7.5783291734332929e-05 0.034144587850475902 0 -6.8308768607173781e-05 0.034104023799006955 0 8.7422798736841537e-05 0.03398899388029706 0 7.5783291734332929e-05 0.034144587850475902 0 4.3137446353409106e-05 0.034164860781228275 0 7.5783291734332929e-05 0.034144587850475902 0 8.898608143920105e-05 0.034186843123171114 0 4.3137446353409106e-05 0.034164860781228275 0 -6.8308768607173781e-05 0.034104023799006955 0 7.5783291734332929e-05 0.034144587850475902 0 0.00015435161358448314 0.034111931157889457 0 7.5783291734332929e-05 0.034144587850475902 0 0.00013274353752688807 0.034202638302423059 0 0.00015435161358448314 0.034111931157889457 0 0.00013274353752688807 0.034202638302423059 0 0.00019712624434405584 0.034214548490554768 0 7.5783291734332929e-05 0.034144587850475902 0 0.00013274353752688807 0.034202638302423059 0 8.898608143920105e-05 0.034186843123171114 0 0.00013274353752688807 0.034202638302423059 0 0.00010644407041575421 0.034206853107165633 0 8.898608143920105e-05 0.034186843123171114 0 0.00010644407041575421 0.034206853107165633 0 8.8555583766114666e-05 0.034151651809440416 0 8.898608143920105e-05 0.034186843123171114 0 0.00010644407041575421 0.034206853107165633 0 8.8555583766114666e-05 0.034151651809440416 0 9.4060468724373568e-05 0.034112741451974002 0 0.00010644407041575421 0.034206853107165633 0 9.4060468724373568e-05 0.034112741451974002 0 9.6865932017718728e-05 0.034191204392746859 0 8.8555583766114666e-05 0.034151651809440416 0 9.8496971488002443e-05 0.034079448463698002 0 9.4060468724373568e-05 0.034112741451974002 0 8.8555583766114666e-05 0.034151651809440416 0 8.898608143920105e-05 0.034186843123171114 0 7.4713868110027671e-05 0.034153749344512131 0 4.3137446353409106e-05 0.034164860781228275 0 8.898608143920105e-05 0.034186843123171114 0 7.4713868110027671e-05 0.034153749344512131 0 7.4713868110027671e-05 0.034153749344512131 0 0.00010414560754549213 0.034173114484419113 0 0.00012749974939327605 0.034094222778472724 0 4.3137446353409106e-05 0.034164860781228275 0 7.4713868110027671e-05 0.034153749344512131 0 0.00010414560754549213 0.034173114484419113 0 0.0012684770499054778 0.031494044162011597 0 0.0013919725909930852 0.03108140388333373 0 0.0026253651560728839 0.028787482540745764 0 0.0029205918300513694 0.027422143306918934 0 0.0030349672479482387 0.027437441689856189 0 0.00024797712551048739 0.034039584396397995 0 0.00010414560754549213 0.034173114484419113 0 0.00012749974939327605 0.034094222778472724 0 7.4713868110027671e-05 0.034153749344512131 0 0.00012749974939327605 0.034094222778472724 0 9.8496971488002443e-05 0.034079448463698002 0 8.8555583766114666e-05 0.034151651809440416 0 7.4713868110027671e-05 0.034153749344512131 0 9.8496971488002443e-05 0.034079448463698002 0 0.00012749974939327605 0.034094222778472724 0 9.8496971488002443e-05 0.034079448463698002 0 0.00014567658636236873 0.033917917234933516 0 9.8496971488002443e-05 0.034079448463698002 0 0.00014567658636236873 0.033917917234933516 0 0.00010727553660089874 0.034010088672432846 0 0.00024797712551048739 0.034039584396397995 0 0.00012749974939327605 0.034094222778472724 0 0.00014567658636236873 0.033917917234933516 0 0.00012181409871199292 0.033887854253032632 0 0.00014567658636236873 0.033917917234933516 0 0.00010727553660089874 0.034010088672432846 0 0.00012181409871199292 0.033887854253032632 0 0.00010727553660089874 0.034010088672432846 0 0.00010290681967006996 0.034083327044339834 0 0.00010290681967006996 0.034083327044339834 0 9.4060468724373568e-05 0.034112741451974002 0 9.6865932017718728e-05 0.034191204392746859 0 0.00010727553660089874 0.034010088672432846 0 0.00010290681967006996 0.034083327044339834 0 9.4060468724373568e-05 0.034112741451974002 0 9.8496971488002443e-05 0.034079448463698002 0 0.00010727553660089874 0.034010088672432846 0 9.4060468724373568e-05 0.034112741451974002 0 8.6979499187768577e-05 0.034277500622078669 0 8.9705567371494807e-05 0.034216580922112876 0 6.6608865023994705e-05 0.034305528085842758 0 8.6979499187768577e-05 0.034277500622078669 0 9.6865932017718728e-05 0.034191204392746859 0 8.9705567371494807e-05 0.034216580922112876 0 0.00010290681967006996 0.034083327044339834 0 9.6865932017718728e-05 0.034191204392746859 0 8.9705567371494807e-05 0.034216580922112876 0 0.00010784013466403524 0.03415876813334634 0 0.00010290681967006996 0.034083327044339834 0 8.9705567371494807e-05 0.034216580922112876 0 7.6936156571077335e-05 0.034264169746095308 0 8.9705567371494807e-05 0.034216580922112876 0 6.6608865023994705e-05 0.034305528085842758 0 3.3589255070962466e-05 0.034418277560508991 0 6.6608865023994705e-05 0.034305528085842758 0 4.0666108918827293e-05 0.034386162476086252 0 3.3589255070962466e-05 0.034418277560508991 0 7.6936156571077335e-05 0.034264169746095308 0 6.6608865023994705e-05 0.034305528085842758 0 3.3589255070962466e-05 0.034418277560508991 0 4.0666108918827293e-05 0.034386162476086252 0 2.4462286565328583e-05 0.034468031021216004 0 4.0666108918827293e-05 0.034386162476086252 0 4.7172523776577234e-05 0.034370242389533533 0 1.7883312840960631e-05 0.034439362282481574 0 4.0666108918827293e-05 0.034386162476086252 0 6.6177026228045099e-05 0.0343309324397107 0 4.7172523776577234e-05 0.034370242389533533 0 4.0666108918827293e-05 0.034386162476086252 0 1.7883312840960631e-05 0.034439362282481574 0 2.4462286565328583e-05 0.034468031021216004 0 6.6608865023994705e-05 0.034305528085842758 0 4.0666108918827293e-05 0.034386162476086252 0 6.6177026228045099e-05 0.0343309324397107 0 8.6979499187768577e-05 0.034277500622078669 0 6.6608865023994705e-05 0.034305528085842758 0 6.6177026228045099e-05 0.0343309324397107 0 6.6177026228045099e-05 0.0343309324397107 0 9.6155505006190935e-05 0.034316459647100485 0 4.7172523776577234e-05 0.034370242389533533 0 8.6979499187768577e-05 0.034277500622078669 0 6.6177026228045099e-05 0.0343309324397107 0 9.6155505006190935e-05 0.034316459647100485 0 4.7172523776577234e-05 0.034370242389533533 0 3.179042784658791e-05 0.034406856378194663 0 1.9838159972748853e-05 0.034407849577101295 0 4.7172523776577234e-05 0.034370242389533533 0 8.615174341767434e-05 0.034357976218977238 0 3.179042784658791e-05 0.034406856378194663 0 9.6155505006190935e-05 0.034316459647100485 0 4.7172523776577234e-05 0.034370242389533533 0 8.615174341767434e-05 0.034357976218977238 0 9.6155505006190935e-05 0.034316459647100485 0 8.615174341767434e-05 0.034357976218977238 0 0.0001427408225104513 0.034292488408007533 0 9.6155505006190935e-05 0.034316459647100485 0 0.0001427408225104513 0.034292488408007533 0 0.00011649115832101784 0.034260326829176249 0 0.0001427408225104513 0.034292488408007533 0 0.00011649115832101784 0.034260326829176249 0 0.00015214017520750404 0.034250883623837131 0 8.6979499187768577e-05 0.034277500622078669 0 9.6155505006190935e-05 0.034316459647100485 0 0.00011649115832101784 0.034260326829176249 0 8.6979499187768577e-05 0.034277500622078669 0 9.6865932017718728e-05 0.034191204392746859 0 0.00011649115832101784 0.034260326829176249 0 0.00010644407041575421 0.034206853107165633 0 9.6865932017718728e-05 0.034191204392746859 0 0.00011649115832101784 0.034260326829176249 0 0.00010644407041575421 0.034206853107165633 0 0.00011649115832101784 0.034260326829176249 0 0.00015214017520750404 0.034250883623837131 0 0.00013274353752688807 0.034202638302423059 0 0.00010644407041575421 0.034206853107165633 0 0.00015214017520750404 0.034250883623837131 0 0.00015214017520750404 0.034250883623837131 0 0.00019712624434405584 0.034214548490554768 0 0.00019431961067985776 0.034273938137680912 0 0.00013274353752688807 0.034202638302423059 0 0.00015214017520750404 0.034250883623837131 0 0.00019712624434405584 0.034214548490554768 0 0.00019431961067985776 0.034273938137680912 0 0.00028290409411128588 0.034266382118401217 0 0.00014792220869775164 0.034338255305665699 0 0.0001427408225104513 0.034292488408007533 0 0.00019431961067985776 0.034273938137680912 0 0.00014792220869775164 0.034338255305665699 0 0.0001427408225104513 0.034292488408007533 0 0.00015214017520750404 0.034250883623837131 0 0.00019431961067985776 0.034273938137680912 0 0.00019712624434405584 0.034214548490554768 0 0.00019431961067985776 0.034273938137680912 0 0.00028290409411128588 0.034266382118401217 0 0.00015435161358448314 0.034111931157889457 0 0.00019712624434405584 0.034214548490554768 0 0.00021418201092142502 0.034066783365332184 0 0.00019712624434405584 0.034214548490554768 0 0.00028290409411128588 0.034266382118401217 0 0.00021418201092142502 0.034066783365332184 0 0.00018525468641022625 0.033930349297538812 0 0.00021418201092142502 0.034066783365332184 0 0.00020750028485871266 0.033876842300385887 0 0.00021418201092142502 0.034066783365332184 0 0.0002964995610053518 0.034010356751649956 0 0.00020750028485871266 0.033876842300385887 0 0.00028290409411128588 0.034266382118401217 0 0.00021418201092142502 0.034066783365332184 0 0.0002964995610053518 0.034010356751649956 0 0.00028290409411128588 0.034266382118401217 0 0.0002964995610053518 0.034010356751649956 0 0.00049117966253604838 0.034003131003908761 0 0.00016382615811889097 0.034120451183703458 0 0.00017693804183402823 0.034039307888941772 0 0.0002964995610053518 0.034010356751649956 0 0.00036510340096731326 0.033858785541145277 0 0.00049117966253604838 0.034003131003908761 0 0.00097487184981492154 0.03349494949770504 0 0.00074115460883308871 0.033519305363466118 0 0.0002964995610053518 0.034010356751649956 0 0.00036510340096731326 0.033858785541145277 0 0.00020750028485871266 0.033876842300385887 0 0.0024632731767997304 0.032662270763362769 0 0.0015905227493525414 0.033026840730583165 0 0.0020728056586526754 0.032188610946305325 0 0.0015905227493525414 0.033026840730583165 0 0.0015662788078130035 0.032151340718654539 0 0.0020728056586526754 0.032188610946305325 0 0.00025177803587115633 0.033701524197468614 0 0.00024158814608786134 0.033996715577611164 0 -0.00033589305868802577 0.034604947000840533 0 -0.00043138101682996515 0.034634888526477746 0 -0.00011299984265936132 0.034689614460257777 0 8.4390634099086034e-05 0.034791769481747697 0 5.5194809641196216e-05 0.034617750037134763 0 -0.00011299984265936132 0.034689614460257777 0 0.00012685045065322751 0.033770337071316436 0 0.00025177803587115633 0.033701524197468614 0 0.00097487184981492154 0.03349494949770504 0 0.00025177803587115633 0.033701524197468614 0 8.4390634099086034e-05 0.034791769481747697 0 0.0001944548117676742 0.034610928244527668 0 5.5194809641196216e-05 0.034617750037134763 0 0.00025177803587115633 0.033701524197468614 0 0.00017693804183402823 0.034039307888941772 0 0.00036510340096731326 0.033858785541145277 0 0.00062786502126332337 0.03381340854226187 0 0.00049117966253604838 0.034003131003908761 0 0.00028290409411128588 0.034266382118401217 0 0.0001944548117676742 0.034610928244527668 0 0.00010787079772638992 0.034447723329675085 0 0.0001944548117676742 0.034610928244527668 0 5.5194809641196216e-05 0.034617750037134763 0 0.00010787079772638992 0.034447723329675085 0 5.5194809641196216e-05 0.034617750037134763 0 6.749559436575118e-06 0.034549980215087088 0 -0.00011299984265936132 0.034689614460257777 0 5.5194809641196216e-05 0.034617750037134763 0 6.749559436575118e-06 0.034549980215087088 0 0.00010787079772638992 0.034447723329675085 0 6.749559436575118e-06 0.034549980215087088 0 4.1933657250195783e-05 0.034442283998852886 0 -3.1928736593490931e-05 0.034564701773302793 0 6.749559436575118e-06 0.034549980215087088 0 0.00010787079772638992 0.034447723329675085 0 4.1933657250195783e-05 0.034442283998852886 0 0.00010787079772638992 0.034447723329675085 0 0.00014792220869775164 0.034338255305665699 0 4.1933657250195783e-05 0.034442283998852886 0 0.00028290409411128588 0.034266382118401217 0 0.00010787079772638992 0.034447723329675085 0 0.00014792220869775164 0.034338255305665699 0 8.615174341767434e-05 0.034357976218977238 0 0.00014792220869775164 0.034338255305665699 0 4.1933657250195783e-05 0.034442283998852886 0 8.615174341767434e-05 0.034357976218977238 0 0.0001427408225104513 0.034292488408007533 0 0.00014792220869775164 0.034338255305665699 0 8.615174341767434e-05 0.034357976218977238 0 4.1933657250195783e-05 0.034442283998852886 0 3.179042784658791e-05 0.034406856378194663 0 4.1933657250195783e-05 0.034442283998852886 0 -2.4148851444979724e-05 0.034504606432068374 0 -3.1928736593490931e-05 0.034564701773302793 0 4.1933657250195783e-05 0.034442283998852886 0 -2.4148851444979724e-05 0.034504606432068374 0 3.179042784658791e-05 0.034406856378194663 0 -2.4148851444979724e-05 0.034504606432068374 0 -5.5189895625351399e-05 0.034647860945260983 0 -0.0001134602443849728 0.03454161528935748 0 -2.4148851444979724e-05 0.034504606432068374 0 -0.0001134602443849728 0.03454161528935748 0 -4.9208157788896505e-05 0.034471598432865749 0 -5.5189895625351399e-05 0.034647860945260983 0 -3.1928736593490931e-05 0.034564701773302793 0 -0.00011299984265936132 0.034689614460257777 0 -2.4148851444979724e-05 0.034504606432068374 0 -5.5189895625351399e-05 0.034647860945260983 0 -3.1928736593490931e-05 0.034564701773302793 0 6.749559436575118e-06 0.034549980215087088 0 -3.1928736593490931e-05 0.034564701773302793 0 -0.00011299984265936132 0.034689614460257777 0 -0.00011299984265936132 0.034689614460257777 0 -6.5662074700046207e-05 0.034731944200908166 0 -0.00010108134588527889 0.034706010740995448 0 -5.5189895625351399e-05 0.034647860945260983 0 -6.5662074700046207e-05 0.034731944200908166 0 -5.9921591168069058e-05 0.03474956998687246 0 -5.5189895625351399e-05 0.034647860945260983 0 -0.00011299984265936132 0.034689614460257777 0 -6.5662074700046207e-05 0.034731944200908166 0 -0.00010108134588527889 0.034706010740995448 0 -3.1335128098696571e-05 0.03480440531751413 0 -2.558274586795742e-05 0.034729609692915844 0 -6.5662074700046207e-05 0.034731944200908166 0 -0.00010108134588527889 0.034706010740995448 0 -3.1335128098696571e-05 0.03480440531751413 0 -0.00010108134588527889 0.034706010740995448 0 -2.558274586795742e-05 0.034729609692915844 0 -0.00010175870339910187 0.034620661830157599 0 -0.00010108134588527889 0.034706010740995448 0 -0.00018743287048864006 0.034601768157323451 0 -0.00010175870339910187 0.034620661830157599 0 -0.00011299984265936132 0.034689614460257777 0 -0.00010108134588527889 0.034706010740995448 0 -0.00020154852459449053 0.034642599718363434 0 -0.00033589305868802577 0.034604947000840533 0 -0.00011299984265936132 0.034689614460257777 0 -0.00020154852459449053 0.034642599718363434 0 -0.00010108134588527889 0.034706010740995448 0 -0.00020154852459449053 0.034642599718363434 0 -0.00018743287048864006 0.034601768157323451 0 1.2216892183102832e-05 0.034861798669137793 0 -3.1335128098696571e-05 0.03480440531751413 0 -2.3150637653747064e-07 0.034999467982456157 0 1.2216892183102832e-05 0.034861798669137793 0 -2.3150637653747064e-07 0.034999467982456157 0 7.0811579008074944e-08 0.03499993738425855 0 1.2216892183102832e-05 0.034861798669137793 0 -3.1335128098696571e-05 0.03480440531751413 0 -2.558274586795742e-05 0.034729609692915844 0 -3.1335128098696571e-05 0.03480440531751413 0 -5.9921591168069058e-05 0.03474956998687246 0 -2.3150637653747064e-07 0.034999467982456157 0 -6.5662074700046207e-05 0.034731944200908166 0 -3.1335128098696571e-05 0.03480440531751413 0 -5.9921591168069058e-05 0.03474956998687246 0 -1.1804876895295747e-09 0.034999998828601823 0 1.1876227270694406e-06 0.035000532530835175 0 1.51253207891356e-09 0.035000003248682111 0 -6.9743046657887434e-09 0.034999794205283201 0 1.7494021522808637e-05 0.034875583045228871 0 -5.9921591168069058e-05 0.03474956998687246 0 -2.3150637653747064e-07 0.034999467982456157 0 -0.00011123067534976764 0.034714853601891589 0 1.1876227270694406e-06 0.035000532530835175 0 1.51253207891356e-09 0.035000003248682111 0 4.3353960615233909e-10 0.034999992909627152 0 -5.5189895625351399e-05 0.034647860945260983 0 -5.9921591168069058e-05 0.03474956998687246 0 -0.0001134602443849728 0.03454161528935748 0 -5.9921591168069058e-05 0.03474956998687246 0 -0.00011123067534976764 0.034714853601891589 0 -0.0001134602443849728 0.03454161528935748 0 1.7494021522808637e-05 0.034875583045228871 0 3.5834451339639243e-05 0.03481036314322164 0 1.1876227270694406e-06 0.035000532530835175 0 4.3353960615233909e-10 0.034999992909627152 0 2.5655858379036764e-06 0.034997338742228046 0 1.1876227270694406e-06 0.035000532530835175 0 6.060200272155357e-06 0.034996884520751573 0 2.5655858379036764e-06 0.034997338742228046 0 4.2757697658180239e-06 0.035001655622538673 0 0.0015121324960479625 0.035013316072168031 0 4.3353960615233909e-10 0.034999992909627152 0 2.5655858379036764e-06 0.034997338742228046 0 6.5853048594227288e-07 0.034994464630566019 0 6.060200272155357e-06 0.034996884520751573 0 2.5655858379036764e-06 0.034997338742228046 0 4.1546844315280422e-06 0.034993490789543641 0 6.5853048594227288e-07 0.034994464630566019 0 4.1546844315280422e-06 0.034993490789543641 0 1.2331769315831311e-06 0.034989362346080084 0 0.0015121324960479625 0.035013316072168031 0 0.00028487557542130785 0.034988189322441771 0 -2.9376836841296599e-09 0.034903042984534831 0 3.9069423233019521e-09 0.035000000265441485 0 -1.5310699690345878e-05 0.034997890351811028 0 2.5655858379036764e-06 0.034997338742228046 0 6.5853048594227288e-07 0.034994464630566019 0 4.1546844315280422e-06 0.034993490789543641 0 4.1546844315280422e-06 0.034993490789543641 0 1.2331769315831311e-06 0.034989362346080084 0 5.4377492238519059e-06 0.034989802751267382 0 0.00018985797414419994 0.034441335721594052 0 0.0001120626796014259 0.034504692854311424 0 0.00018760540452357049 0.034592636762601388 0 0.00028487557542130785 0.034988189322441771 0 0.00021923234273369784 0.034860223777443883 0 -1.1666843767737347e-08 0.035000098636971545 0 -1.0651351155832836e-06 0.034999921440427371 0 2.2179201480358145e-06 0.035009426867234628 0 2.5722415006515762e-06 0.034999465746208713 0 0.00028487557542130785 0.034988189322441771 0 0.00028487557542130785 0.034988189322441771 0 0.00014113452152447875 0.034866910758673209 0 0.00018985797414419994 0.034441335721594052 0 0.0001120626796014259 0.034504692854311424 0 9.2109283567617177e-05 0.034437149691597717 0 5.3662601270480686e-05 0.034464819378707955 0 3.3050879920180349e-05 0.034484824139266991 0 5.4297643182518054e-05 0.034527762468293047 0 0.0001120626796014259 0.034504692854311424 0 5.3662601270480686e-05 0.034464819378707955 0 5.4297643182518054e-05 0.034527762468293047 0 0.0001120626796014259 0.034504692854311424 0 5.3662601270480686e-05 0.034464819378707955 0 9.2109283567617177e-05 0.034437149691597717 0 0.00014113452152447875 0.034866910758673209 0 8.3815052019647077e-05 0.034784644063209379 0 5.3662601270480686e-05 0.034464819378707955 0 9.2109283567617177e-05 0.034437149691597717 0 3.0937881445683728e-05 0.034434866484154732 0 4.1546844315280422e-06 0.034993490789543641 0 5.4377492238519059e-06 0.034989802751267382 0 1.0143373778786989e-05 0.034990216062054477 0 6.060200272155357e-06 0.034996884520751573 0 4.1546844315280422e-06 0.034993490789543641 0 1.0143373778786989e-05 0.034990216062054477 0 3.5834451339639243e-05 0.03481036314322164 0 8.3815052019647077e-05 0.034784644063209379 0 -2.4148851444979724e-05 0.034504606432068374 0 -4.9208157788896505e-05 0.034471598432865749 0 2.0506017372710715e-06 0.034415912629630341 0 -0.0001134602443849728 0.03454161528935748 0 -4.9208157788896505e-05 0.034471598432865749 0 -7.6997023234458392e-05 0.034409259942901449 0 -4.9208157788896505e-05 0.034471598432865749 0 2.0506017372710715e-06 0.034415912629630341 0 -7.6997023234458392e-05 0.034409259942901449 0 4.6765614275586381e-05 0.034749215271136238 0 8.3815052019647077e-05 0.034784644063209379 0 -2.4148851444979724e-05 0.034504606432068374 0 3.179042784658791e-05 0.034406856378194663 0 2.0506017372710715e-06 0.034415912629630341 0 3.179042784658791e-05 0.034406856378194663 0 2.0506017372710715e-06 0.034415912629630341 0 1.9838159972748853e-05 0.034407849577101295 0 2.0506017372710715e-06 0.034415912629630341 0 1.9838159972748853e-05 0.034407849577101295 0 1.3472432110065517e-05 0.034441068909604945 0 1.9838159972748853e-05 0.034407849577101295 0 1.3472432110065517e-05 0.034441068909604945 0 1.7883312840960631e-05 0.034439362282481574 0 4.7172523776577234e-05 0.034370242389533533 0 1.9838159972748853e-05 0.034407849577101295 0 1.7883312840960631e-05 0.034439362282481574 0 5.3662601270480686e-05 0.034464819378707955 0 2.5394461635166608e-05 0.034451943129301388 0 3.0937881445683728e-05 0.034434866484154732 0 9.0003090585833321e-05 0.03476432688636532 0 8.3815052019647077e-05 0.034784644063209379 0 2.0506017372710715e-06 0.034415912629630341 0 2.5394461635166608e-05 0.034451943129301388 0 3.5227212111577075e-05 0.034433946010910058 0 2.0506017372710715e-06 0.034415912629630341 0 1.3472432110065517e-05 0.034441068909604945 0 2.5394461635166608e-05 0.034451943129301388 0 1.3472432110065517e-05 0.034441068909604945 0 2.5394461635166608e-05 0.034451943129301388 0 2.1445849514784966e-05 0.034468735470222445 0 5.3662601270480686e-05 0.034464819378707955 0 2.5394461635166608e-05 0.034451943129301388 0 3.3050879920180349e-05 0.034484824139266991 0 2.5394461635166608e-05 0.034451943129301388 0 2.1445849514784966e-05 0.034468735470222445 0 3.3050879920180349e-05 0.034484824139266991 0 2.0644511694002956e-05 0.034512424827549813 0 1.7883312840960631e-05 0.034439362282481574 0 2.1116434764654182e-05 0.034539879849958169 0 2.1445849514784966e-05 0.034468735470222445 0 3.3050879920180349e-05 0.034484824139266991 0 2.0644511694002956e-05 0.034512424827549813 0 3.3050879920180349e-05 0.034484824139266991 0 2.0644511694002956e-05 0.034512424827549813 0 5.4297643182518054e-05 0.034527762468293047 0 1.3472432110065517e-05 0.034441068909604945 0 2.1445849514784966e-05 0.034468735470222445 0 2.0644511694002956e-05 0.034512424827549813 0 2.0644511694002956e-05 0.034512424827549813 0 2.1116434764654182e-05 0.034539879849958169 0 2.9330243247165166e-05 0.034616599810195103 0 1.3472432110065517e-05 0.034441068909604945 0 2.0644511694002956e-05 0.034512424827549813 0 1.7883312840960631e-05 0.034439362282481574 0 1.7883312840960631e-05 0.034439362282481574 0 2.4462286565328583e-05 0.034468031021216004 0 2.1116434764654182e-05 0.034539879849958169 0 3.3690671813079354e-05 0.034562096248255805 0 3.3589255070962466e-05 0.034418277560508991 0 2.4462286565328583e-05 0.034468031021216004 0 3.3690671813079354e-05 0.034562096248255805 0 2.4462286565328583e-05 0.034468031021216004 0 2.1116434764654182e-05 0.034539879849958169 0 2.1116434764654182e-05 0.034539879849958169 0 3.0048765537513078e-05 0.034636734350543208 0 2.9330243247165166e-05 0.034616599810195103 0 3.3690671813079354e-05 0.034562096248255805 0 2.1116434764654182e-05 0.034539879849958169 0 3.0048765537513078e-05 0.034636734350543208 0 3.0048765537513078e-05 0.034636734350543208 0 3.6444300760218609e-05 0.034738667067149301 0 2.9330243247165166e-05 0.034616599810195103 0 3.6444300760218609e-05 0.034738667067149301 0 2.9330243247165166e-05 0.034616599810195103 0 5.568580397332645e-05 0.034704518941316972 0 2.9330243247165166e-05 0.034616599810195103 0 5.568580397332645e-05 0.034704518941316972 0 4.5302111968448911e-05 0.0345978909964232 0 5.4392978329360954e-05 0.03492532211751205 0 5.568580397332645e-05 0.034704518941316972 0 0.00018760540452357049 0.034592636762601388 0 0.00019559866780567993 0.034854362714980776 0 0.00021923234273369784 0.034860223777443883 0 5.4392978329360954e-05 0.03492532211751205 0 3.6444300760218609e-05 0.034738667067149301 0 5.568580397332645e-05 0.034704518941316972 0 5.4392978329360954e-05 0.03492532211751205 0 3.1707523829176201e-08 0.034999859730792705 0 2.2179201480358145e-06 0.035009426867234628 0 5.568580397332645e-05 0.034704518941316972 0 0.00018760540452357049 0.034592636762601388 0 8.5585105493708605e-05 0.034581660793091974 0 -1.1666843767737347e-08 0.035000098636971545 0 3.1707523829176201e-08 0.034999859730792705 0 2.2179201480358145e-06 0.035009426867234628 0 0.0001120626796014259 0.034504692854311424 0 0.00018760540452357049 0.034592636762601388 0 8.5585105493708605e-05 0.034581660793091974 0 0.0001120626796014259 0.034504692854311424 0 5.4297643182518054e-05 0.034527762468293047 0 8.5585105493708605e-05 0.034581660793091974 0 2.0644511694002956e-05 0.034512424827549813 0 5.4297643182518054e-05 0.034527762468293047 0 4.5302111968448911e-05 0.0345978909964232 0 2.0644511694002956e-05 0.034512424827549813 0 2.9330243247165166e-05 0.034616599810195103 0 4.5302111968448911e-05 0.0345978909964232 0 5.568580397332645e-05 0.034704518941316972 0 4.5302111968448911e-05 0.0345978909964232 0 8.5585105493708605e-05 0.034581660793091974 0 5.4297643182518054e-05 0.034527762468293047 0 4.5302111968448911e-05 0.0345978909964232 0 8.5585105493708605e-05 0.034581660793091974 0 9.2668285683052015e-06 0.034977981464473826 0 6.0738944684393645e-07 0.034986705232260482 0 7.5869422457356024e-06 0.034994286612290725 0 9.2668285683052015e-06 0.034977981464473826 0 1.7518260413462783e-08 0.034999973961053713 0 7.5869422457356024e-06 0.034994286612290725 0 1.7518260413462783e-08 0.034999973961053713 0 7.4910593588165104e-06 0.034974294928712325 0 -3.2955725314693328e-09 0.034999959641540769 0 9.2668285683052015e-06 0.034977981464473826 0 1.7518260413462783e-08 0.034999973961053713 0 7.4910593588165104e-06 0.034974294928712325 0 9.2668285683052015e-06 0.034977981464473826 0 1.4768343214356517e-05 0.034933133229921615 0 7.4910593588165104e-06 0.034974294928712325 0 1.4768343214356517e-05 0.034933133229921615 0 7.2093693163293341e-05 0.034795838618309191 0 0.00010463463001667806 0.034893547349153717 0 9.2668285683052015e-06 0.034977981464473826 0 1.4768343214356517e-05 0.034933133229921615 0 6.0738944684393645e-07 0.034986705232260482 0 1.4768343214356517e-05 0.034933133229921615 0 7.2093693163293341e-05 0.034795838618309191 0 -2.4693122156501029e-05 0.034804355238371616 0 5.6048227577182206e-05 0.034885950221654562 0 6.2011897386023428e-05 0.034846797897028048 0 -2.4693122156501029e-05 0.034804355238371616 0 2.2229346345555585e-05 0.034735685995659196 0 -5.0906555997913031e-05 0.034690839989319995 0 7.2093693163293341e-05 0.034795838618309191 0 -2.4693122156501029e-05 0.034804355238371616 0 2.2229346345555585e-05 0.034735685995659196 0 6.2011897386023428e-05 0.034846797897028048 0 8.8864232063879081e-05 0.034715399846377587 0 7.2093693163293341e-05 0.034795838618309191 0 2.2229346345555585e-05 0.034735685995659196 0 8.5898636377623961e-05 0.034704369412735969 0 7.2093693163293341e-05 0.034795838618309191 0 8.5898636377623961e-05 0.034704369412735969 0 0.00012458835890387683 0.034750651913106709 0 0.00010347672619142886 0.03347550463401773 0 0.00061684415027242739 0.032640662707614281 0 2.2229346345555585e-05 0.034735685995659196 0 8.5898636377623961e-05 0.034704369412735969 0 4.204203726359379e-05 0.034635641516749263 0 8.5898636377623961e-05 0.034704369412735969 0 4.204203726359379e-05 0.034635641516749263 0 0.00016396803710416819 0.03469162485337153 0 2.2229346345555585e-05 0.034735685995659196 0 -5.0906555997913031e-05 0.034690839989319995 0 4.204203726359379e-05 0.034635641516749263 0 7.4902407983369817e-06 0.034997690563948067 0 7.5869422457356024e-06 0.034994286612290725 0 1.110278827921919e-05 0.03499845105257085 0 6.0738944684393645e-07 0.034986705232260482 0 7.4902407983369817e-06 0.034997690563948067 0 7.5869422457356024e-06 0.034994286612290725 0 1.7518260413462783e-08 0.034999973961053713 0 7.5869422457356024e-06 0.034994286612290725 0 -2.2350483202266611e-09 0.034999971298820015 0 -2.2350483202266611e-09 0.034999971298820015 0 1.110278827921919e-05 0.03499845105257085 0 5.3724442968059331e-08 0.035000105180755303 0 7.5869422457356024e-06 0.034994286612290725 0 -2.2350483202266611e-09 0.034999971298820015 0 1.110278827921919e-05 0.03499845105257085 0 1.110278827921919e-05 0.03499845105257085 0 2.0441176293830401e-05 0.034993607060527711 0 5.3724442968059331e-08 0.035000105180755303 0 1.110278827921919e-05 0.03499845105257085 0 2.0441176293830401e-05 0.034993607060527711 0 1.7296429096404047e-05 0.034995463580031763 0 2.0441176293830401e-05 0.034993607060527711 0 5.3724442968059331e-08 0.035000105180755303 0 4.3080481526266283e-05 0.034970738178136007 0 8.8864232063879081e-05 0.034715399846377587 0 0.00012329777267199124 0.034304145723619332 0 7.4902407983369817e-06 0.034997690563948067 0 1.110278827921919e-05 0.03499845105257085 0 1.7296429096404047e-05 0.034995463580031763 0 0.00062566988387084124 0.035128612572792046 0 0.00050465659047138958 0.034609747034953578 0 4.3080481526266283e-05 0.034970738178136007 0 0.00060369867763592736 0.033599180384999171 0 0.00030305177770573665 0.034074243578943196 0 3.4638712907758674e-05 0.033531343454051406 0 0.00060369867763592736 0.033599180384999171 0 0.00030305177770573665 0.034074243578943196 0 0.00050465659047138958 0.034609747034953578 0 0.00012329777267199124 0.034304145723619332 0 0.0001651412241362158 0.034348699781082813 0 0.00030305177770573665 0.034074243578943196 0 0.00050465659047138958 0.034609747034953578 0 0.00049173541912618979 0.034631474603278804 0 0.00050465659047138958 0.034609747034953578 0 4.3080481526266283e-05 0.034970738178136007 0 1.862534044423848e-07 0.034999206763613379 0 5.3724442968059331e-08 0.035000105180755303 0 4.3080481526266283e-05 0.034970738178136007 0 1.862534044423848e-07 0.034999206763613379 0 2.0441176293830401e-05 0.034993607060527711 0 1.7296429096404047e-05 0.034995463580031763 0 4.3080481526266283e-05 0.034970738178136007 0 0.00012329777267199124 0.034304145723619332 0 0.00019651674264296382 0.03444623225470158 0 0.00050465659047138958 0.034609747034953578 0 1.862534044423848e-07 0.034999206763613379 0 0.00049173541912618979 0.034631474603278804 0 1.4816167472122821e-07 0.034999447642491292 0 6.2818064321531575e-05 0.034698888484738358 0 3.3967498722302715e-05 0.034871634377027942 0 1.4816167472122821e-07 0.034999447642491292 0 0.00010673200697917957 0.034457443297024853 0 6.2818064321531575e-05 0.034698888484738358 0 2.06530602303391e-07 0.034999458684789563 0 4.0389993726125288e-05 0.034741190067191216 0 0.00010673200697917957 0.034457443297024853 0 6.3831652454718527e-05 0.034533561120113382 0 6.2818064321531575e-05 0.034698888484738358 0 0.00010673200697917957 0.034457443297024853 0 6.3831652454718527e-05 0.034533561120113382 0 -5.1362585212095509e-06 0.034333722488890633 0 3.2428662070002936e-05 0.034569453273459859 0 6.3831652454718527e-05 0.034533561120113382 0 -5.1362585212095509e-06 0.034333722488890633 0 3.2428662070002936e-05 0.034569453273459859 0 6.2818064321531575e-05 0.034698888484738358 0 3.091310920046341e-05 0.034733353986180902 0 3.2428662070002936e-05 0.034569453273459859 0 6.3831652454718527e-05 0.034533561120113382 0 6.2818064321531575e-05 0.034698888484738358 0 1.2216892183102832e-05 0.034861798669137793 0 3.091310920046341e-05 0.034733353986180902 0 -2.558274586795742e-05 0.034729609692915844 0 3.2428662070002936e-05 0.034569453273459859 0 3.091310920046341e-05 0.034733353986180902 0 -3.3282573437380863e-05 0.03458573913989834 0 3.091310920046341e-05 0.034733353986180902 0 -2.558274586795742e-05 0.034729609692915844 0 -3.3282573437380863e-05 0.03458573913989834 0 1.4816167472122821e-07 0.034999447642491292 0 7.0811579008074944e-08 0.03499993738425855 0 3.3967498722302715e-05 0.034871634377027942 0 1.2216892183102832e-05 0.034861798669137793 0 3.091310920046341e-05 0.034733353986180902 0 3.3967498722302715e-05 0.034871634377027942 0 1.2216892183102832e-05 0.034861798669137793 0 7.0811579008074944e-08 0.03499993738425855 0 3.3967498722302715e-05 0.034871634377027942 0 6.2818064321531575e-05 0.034698888484738358 0 3.091310920046341e-05 0.034733353986180902 0 3.3967498722302715e-05 0.034871634377027942 0 -0.0001881928440383225 0.034429643420704842 0 -0.00028847569879745892 0.034553824724776756 0 -0.00041135160850394082 0.034449311274333788 0 -0.00033589305868802577 0.034604947000840533 0 -0.00020154852459449053 0.034642599718363434 0 -0.00028847569879745892 0.034553824724776756 0 -0.00020154852459449053 0.034642599718363434 0 -0.00028847569879745892 0.034553824724776756 0 -0.00018743287048864006 0.034601768157323451 0 -0.0001881928440383225 0.034429643420704842 0 -0.00028847569879745892 0.034553824724776756 0 -0.00018743287048864006 0.034601768157323451 0 -0.0001881928440383225 0.034429643420704842 0 -0.00018743287048864006 0.034601768157323451 0 -0.00010175870339910187 0.034620661830157599 0 -2.558274586795742e-05 0.034729609692915844 0 -0.00010175870339910187 0.034620661830157599 0 -3.3282573437380863e-05 0.03458573913989834 0 -0.0001881928440383225 0.034429643420704842 0 -0.00010175870339910187 0.034620661830157599 0 -3.3282573437380863e-05 0.03458573913989834 0 -0.0001881928440383225 0.034429643420704842 0 -5.5965897023901478e-05 0.034372690112673215 0 -0.00013961776522248808 0.034159113707114178 0 -0.0001881928440383225 0.034429643420704842 0 -3.3282573437380863e-05 0.03458573913989834 0 -5.5965897023901478e-05 0.034372690112673215 0 3.2428662070002936e-05 0.034569453273459859 0 -5.5965897023901478e-05 0.034372690112673215 0 -5.1362585212095509e-06 0.034333722488890633 0 3.2428662070002936e-05 0.034569453273459859 0 -3.3282573437380863e-05 0.03458573913989834 0 -5.5965897023901478e-05 0.034372690112673215 0 -5.5965897023901478e-05 0.034372690112673215 0 -5.1362585212095509e-06 0.034333722488890633 0 -0.00013961776522248808 0.034159113707114178 0 -5.1362585212095509e-06 0.034333722488890633 0 -0.00013961776522248808 0.034159113707114178 0 -0.00012375237824186039 0.03383166052694607 0 -0.00018968332899291888 0.034100191063925651 0 -0.00016190816482349599 0.034114022286576902 0 -0.0001881928440383225 0.034429643420704842 0 -0.0003541515253320632 0.033946751290245943 0 -0.00041135160850394082 0.034449311274333788 0 -0.0001881928440383225 0.034429643420704842 0 -0.00013961776522248808 0.034159113707114178 0 -0.0003541515253320632 0.033946751290245943 0 -0.0003541515253320632 0.033946751290245943 0 -0.00045601543058717506 0.033453641420989243 0 -0.00075609248195942786 0.033611650751425463 0 -0.00013961776522248808 0.034159113707114178 0 -0.0003541515253320632 0.033946751290245943 0 -0.00012375237824186039 0.03383166052694607 0 -0.0003541515253320632 0.033946751290245943 0 -0.00045601543058717506 0.033453641420989243 0 -0.00012375237824186039 0.03383166052694607 0 -0.00045601543058717506 0.033453641420989243 0 -0.00012375237824186039 0.03383166052694607 0 -0.00026609750469895773 0.03333621372157413 0 0.00010673200697917957 0.034457443297024853 0 -5.1362585212095509e-06 0.034333722488890633 0 -0.00012375237824186039 0.03383166052694607 0 0.00030305177770573665 0.034074243578943196 0 0.00049173541912618979 0.034631474603278804 0 -0.00012375237824186039 0.03383166052694607 0 4.0389993726125288e-05 0.034741190067191216 0 -5.6895111540416575e-05 0.034570948773994255 0 -0.00012375237824186039 0.03383166052694607 0 3.4638712907758674e-05 0.033531343454051406 0 -0.00026609750469895773 0.03333621372157413 0 0.00030305177770573665 0.034074243578943196 0 -0.00012375237824186039 0.03383166052694607 0 3.4638712907758674e-05 0.033531343454051406 0 0.00060369867763592736 0.033599180384999171 0 3.4638712907758674e-05 0.033531343454051406 0 -0.00026196708236233483 0.032812280055123579 0 0.00012329777267199124 0.034304145723619332 0 0.00010347672619142886 0.03347550463401773 0 -5.0906555997913031e-05 0.034690839989319995 0 -7.6158252321374757e-05 0.034577953639692564 0 4.204203726359379e-05 0.034635641516749263 0 3.4638712907758674e-05 0.033531343454051406 0 -0.00026609750469895773 0.03333621372157413 0 -0.00026196708236233483 0.032812280055123579 0 -0.00050932643585990193 0.033070767041860141 0 -0.00026196708236233483 0.032812280055123579 0 -0.00073727755865863394 0.03272009054978077 0 -0.00045601543058717506 0.033453641420989243 0 -0.00050932643585990193 0.033070767041860141 0 -0.00076156175051408698 0.032998489715716187 0 -0.00045601543058717506 0.033453641420989243 0 -0.00050932643585990193 0.033070767041860141 0 -0.00026609750469895773 0.03333621372157413 0 -0.00050932643585990193 0.033070767041860141 0 -0.00026609750469895773 0.03333621372157413 0 -0.00026196708236233483 0.032812280055123579 0 -0.00073727755865863394 0.03272009054978077 0 -0.00076156175051408698 0.032998489715716187 0 -0.0010764911810788676 0.032449727741537919 0 -0.00076156175051408698 0.032998489715716187 0 -0.0010764911810788676 0.032449727741537919 0 -0.0010448121107585239 0.032837189200964456 0 -0.00050932643585990193 0.033070767041860141 0 -0.00073727755865863394 0.03272009054978077 0 -0.00076156175051408698 0.032998489715716187 0 -0.0010764911810788676 0.032449727741537919 0 -0.0012473180449852968 0.032079663930603047 0 -0.00096416327907116481 0.03248289811899157 0 -0.0010764911810788676 0.032449727741537919 0 -0.0012473180449852968 0.032079663930603047 0 -0.0010448121107585239 0.032837189200964456 0 -0.0012473180449852968 0.032079663930603047 0 -0.0014390000449487027 0.032979444934492876 0 -0.0010448121107585239 0.032837189200964456 0 -0.0014390000449487027 0.032979444934492876 0 -0.0010448121107585239 0.032837189200964456 0 -0.0012124400853706948 0.03341252136787573 0 -0.0010448121107585239 0.032837189200964456 0 -0.0012124400853706948 0.03341252136787573 0 -0.00075609248195942786 0.033611650751425463 0 -0.0014390000449487027 0.032979444934492876 0 -0.0012124400853706948 0.03341252136787573 0 -0.0017506395736606832 0.033509084310417735 0 -0.00076156175051408698 0.032998489715716187 0 -0.0010448121107585239 0.032837189200964456 0 -0.00075609248195942786 0.033611650751425463 0 -0.00045601543058717506 0.033453641420989243 0 -0.00076156175051408698 0.032998489715716187 0 -0.00075609248195942786 0.033611650751425463 0 -0.00075609248195942786 0.033611650751425463 0 -0.0011491531792520971 0.033933688224078599 0 -0.00060849803907028484 0.034198032633192425 0 -0.0003541515253320632 0.033946751290245943 0 -0.00075609248195942786 0.033611650751425463 0 -0.00060849803907028484 0.034198032633192425 0 -0.0011491531792520971 0.033933688224078599 0 -0.0018106331299425494 0.034206046778669598 0 -0.0017506395736606832 0.033509084310417735 0 -0.0012124400853706948 0.03341252136787573 0 -0.00075609248195942786 0.033611650751425463 0 -0.0011491531792520971 0.033933688224078599 0 -0.0012124400853706948 0.03341252136787573 0 -0.0011491531792520971 0.033933688224078599 0 -0.0017506395736606832 0.033509084310417735 0 -0.00099661866414260149 0.03479504965753482 0 -0.001058253166633811 0.034497670352322721 0 -0.0018106331299425494 0.034206046778669598 0 -0.0011491531792520971 0.033933688224078599 0 -0.001058253166633811 0.034497670352322721 0 -0.0018106331299425494 0.034206046778669598 0 0.00025177803587115633 0.033701524197468614 0 0.00054317906238618603 0.032721039875827286 0 0.0024632731767997304 0.032662270763362769 0 0.0034596125380143201 0.032502952699800254 0 0.0024738916352166317 0.031715184103021869 0 -0.00033589305868802577 0.034604947000840533 0 -0.00040968485151984081 0.034638860180848552 0 -0.00041135160850394082 0.034449311274333788 0 -0.00099661866414260149 0.03479504965753482 0 -0.001058253166633811 0.034497670352322721 0 -0.00060849803907028484 0.034198032633192425 0 0.00025177803587115633 0.033701524197468614 0 -0.00016190816482349599 0.034114022286576902 0 -0.0011491531792520971 0.033933688224078599 0 -0.001058253166633811 0.034497670352322721 0 -0.00060849803907028484 0.034198032633192425 0 -0.00033589305868802577 0.034604947000840533 0 -0.00028847569879745892 0.034553824724776756 0 -0.00041135160850394082 0.034449311274333788 0 0.0016023011850333571 0.03168318828543918 0 0.0020728056586526754 0.032188610946305325 0 0.0024738916352166317 0.031715184103021869 0 0.0016023011850333571 0.03168318828543918 0 0.0015662788078130035 0.032151340718654539 0 0.0013124650200227893 0.031920231928206831 0 0.0016023011850333571 0.03168318828543918 0 0.0015662788078130035 0.032151340718654539 0 0.0020728056586526754 0.032188610946305325 0 0.0024632731767997304 0.032662270763362769 0 0.0020728056586526754 0.032188610946305325 0 0.0024738916352166317 0.031715184103021869 0 -0.0018106331299425494 0.034206046778669598 0 -0.0017506395736606832 0.033509084310417735 0 -0.0027952093216436452 0.03347921722089086 0 0.0016023011850333571 0.03168318828543918 0 0.0014085431679541492 0.031283591002378985 0 0.0011491473952261468 0.031372325273065715 0 0.00054317906238618603 0.032721039875827286 0 0.00091688228325761695 0.031595032266119476 0 0.0016023011850333571 0.03168318828543918 0 0.0024738916352166317 0.031715184103021869 0 0.0014085431679541492 0.031283591002378985 0 0.00090507260116239096 0.02927672413510889 0 -0.00020956590919283269 0.030281051859610927 0 0.00097088090951893773 0.030629071586870942 0 0.00091688228325761695 0.031595032266119476 0 -1.4495047685589927e-05 0.031921807115132809 0 -0.0017506395736606832 0.033509084310417735 0 -0.0027952093216436452 0.03347921722089086 0 -0.0021835532208291822 0.032919057717826078 0 -0.0014390000449487027 0.032979444934492876 0 -0.0017506395736606832 0.033509084310417735 0 -0.0021835532208291822 0.032919057717826078 0 -0.0012473180449852968 0.032079663930603047 0 -0.0014390000449487027 0.032979444934492876 0 -0.0021835532208291822 0.032919057717826078 0 -0.0012473180449852968 0.032079663930603047 0 -0.00014223543110747667 0.03158662227925807 0 -0.00096416327907116481 0.03248289811899157 0 -0.00026610132031118793 0.032012015358101595 0 -1.4495047685589927e-05 0.031921807115132809 0 -0.0012473180449852968 0.032079663930603047 0 -0.00020956590919283269 0.030281051859610927 0 -0.00014223543110747667 0.03158662227925807 0 -0.00014223543110747667 0.03158662227925807 0 0.00097088090951893773 0.030629071586870942 0 0.00093900882132196711 0.031984639825248316 0 -0.00020956590919283269 0.030281051859610927 0 -0.00014223543110747667 0.03158662227925807 0 0.00097088090951893773 0.030629071586870942 0 0.003205915058813515 0.030365009593379927 0 0.0033260436973490365 0.030164063067987145 0 0.0035285094950811653 0.03029745564475789 0 0.003205915058813515 0.030365009593379927 0 0.0033260436973490365 0.030164063067987145 0 0.0029615081067935548 0.03005752041964713 0 0.0033260436973490365 0.030164063067987145 0 0.0032500818802933006 0.029948665136995484 0 0.0029615081067935548 0.03005752041964713 0 0.0033260436973490365 0.030164063067987145 0 0.0032500818802933006 0.029948665136995484 0 0.0035653059093116342 0.030119158522349629 0 0.0016072502900389117 0.032549648809740511 0 0.0014590230112261641 0.032659037095161977 0 0.00027346469369548811 0.034770599830155492 0 0.00021577789814343991 0.034743097163248679 0 0.00020587651680292941 0.034787732898815045 0 0.0017935881240937559 0.031541301097197202 0 0.0013590645299474755 0.031929402813736359 0 0.0033260436973490365 0.030164063067987145 0 0.0035653059093116342 0.030119158522349629 0 0.0035285094950811653 0.03029745564475789 0 -0.00014223543110747667 0.03158662227925807 0 0.00093900882132196711 0.031984639825248316 0 -0.00096416327907116481 0.03248289811899157 0 0.0013590645299474755 0.031929402813736359 0 0.00061684415027242739 0.032640662707614281 0 -0.0010764911810788676 0.032449727741537919 0 -0.00096416327907116481 0.03248289811899157 0 -0.00098343665831687852 0.032361905601526367 0 0.0035653059093116342 0.030119158522349629 0 0.0035285094950811653 0.03029745564475789 0 0.0038313267205614798 0.030258812657786519 0 0.0014590230112261641 0.032659037095161977 0 0.00061684415027242739 0.032640662707614281 0 0.00039321559654212953 0.032862640716560067 0 0.00061684415027242739 0.032640662707614281 0 -0.00026196708236233483 0.032812280055123579 0 -0.00073727755865863394 0.03272009054978077 0 -0.00098343665831687852 0.032361905601526367 0 8.5898636377623961e-05 0.034704369412735969 0 0.00014703023978271637 0.034703066423727412 0 0.00012458835890387683 0.034750651913106709 0 -0.00073727755865863394 0.03272009054978077 0 -0.0010764911810788676 0.032449727741537919 0 -0.00098343665831687852 0.032361905601526367 0 7.2093693163293341e-05 0.034795838618309191 0 0.00012458835890387683 0.034750651913106709 0 0.00014680098973221081 0.034798413909506429 0 0.00014703023978271637 0.034703066423727412 0 0.00012458835890387683 0.034750651913106709 0 0.00016706568301370022 0.034755347544311525 0 0.00012458835890387683 0.034750651913106709 0 0.00016706568301370022 0.034755347544311525 0 0.00014680098973221081 0.034798413909506429 0 0.00021577789814343991 0.034743097163248679 0 0.00014703023978271637 0.034703066423727412 0 0.00016706568301370022 0.034755347544311525 0 0.00021577789814343991 0.034743097163248679 0 0.00016706568301370022 0.034755347544311525 0 0.00020587651680292941 0.034787732898815045 0 0.00016706568301370022 0.034755347544311525 0 0.00020587651680292941 0.034787732898815045 0 0.00014680098973221081 0.034798413909506429 0 0.00020587651680292941 0.034787732898815045 0 0.00014680098973221081 0.034798413909506429 0 0.00018515346605901413 0.03484598728725715 0 0.00020587651680292941 0.034787732898815045 0 0.00018515346605901413 0.03484598728725715 0 0.00023184722654918174 0.034815420788274078 0 7.2093693163293341e-05 0.034795838618309191 0 0.00014680098973221081 0.034798413909506429 0 0.00010463463001667806 0.034893547349153717 0 0.00014680098973221081 0.034798413909506429 0 0.00010463463001667806 0.034893547349153717 0 0.00018515346605901413 0.03484598728725715 0 0.00010463463001667806 0.034893547349153717 0 0.00018515346605901413 0.03484598728725715 0 0.00019872263500514547 0.034897414924910865 0 0.00018515346605901413 0.03484598728725715 0 0.00024410900124593649 0.034857813326172798 0 0.00019872263500514547 0.034897414924910865 0 0.00024410900124593649 0.034857813326172798 0 0.00027909176027943677 0.034814979739619389 0 0.00023184722654918174 0.034815420788274078 0 0.00018515346605901413 0.03484598728725715 0 0.00024410900124593649 0.034857813326172798 0 0.00023184722654918174 0.034815420788274078 0 0.00024410900124593649 0.034857813326172798 0 0.00027909176027943677 0.034814979739619389 0 0.0003092593126006861 0.034844109179601068 0 0.00027346469369548811 0.034770599830155492 0 0.00027909176027943677 0.034814979739619389 0 0.00023184722654918174 0.034815420788274078 0 0.00027346469369548811 0.034770599830155492 0 0.00027909176027943677 0.034814979739619389 0 0.00032665891699861448 0.034787104297979085 0 0.00027346469369548811 0.034770599830155492 0 0.00020587651680292941 0.034787732898815045 0 0.00023184722654918174 0.034815420788274078 0 0.001573206852000165 0.032474389949565426 0 0.0014784798007938043 0.03245742561367785 0 0.0028239513271029622 0.029865119089629421 0 0.0029289546648992972 0.029832854553696525 0 0.0027610275893366729 0.029836227252625348 0 0.0028239513271029622 0.029865119089629421 0 0.0027880524233022896 0.029862411441456495 0 0.0027610275893366729 0.029836227252625348 0 0.0028239513271029622 0.029865119089629421 0 0.0027880524233022896 0.029862411441456495 0 0.0027846150031678269 0.029914849710660739 0 0.0028239513271029622 0.029865119089629421 0 0.0029289546648992972 0.029832854553696525 0 0.0029615081067935548 0.03005752041964713 0 0.0016072502900389117 0.032549648809740511 0 0.001573206852000165 0.032474389949565426 0 0.00027909176027943677 0.034814979739619389 0 0.00032665891699861448 0.034787104297979085 0 0.0003092593126006861 0.034844109179601068 0 0.00032665891699861448 0.034787104297979085 0 0.0003092593126006861 0.034844109179601068 0 0.00034608433946037612 0.034807723982524796 0 0.0003092593126006861 0.034844109179601068 0 0.00034916286762225933 0.034830209414941457 0 0.00034608433946037612 0.034807723982524796 0 0.00032665891699861448 0.034787104297979085 0 0.00034608433946037612 0.034807723982524796 0 0.00038387622032762632 0.034797677695337523 0 0.00034916286762225933 0.034830209414941457 0 0.00034608433946037612 0.034807723982524796 0 0.00037227388056850424 0.034814567832102357 0 0.00034608433946037612 0.034807723982524796 0 0.00037227388056850424 0.034814567832102357 0 0.00038387622032762632 0.034797677695337523 0 0.00037227388056850424 0.034814567832102357 0 0.00038387622032762632 0.034797677695337523 0 0.00038324593173321889 0.034805658885076057 0 0.00034916286762225933 0.034830209414941457 0 0.00037227388056850424 0.034814567832102357 0 0.00037163199970741503 0.034831708744624053 0 0.00037163199970741503 0.034831708744624053 0 0.00038339898055454735 0.034822816336086408 0 0.00038752731409181606 0.034833210413577134 0 0.00037227388056850424 0.034814567832102357 0 0.00037163199970741503 0.034831708744624053 0 0.00038339898055454735 0.034822816336086408 0 0.0027809176929048823 0.02985749366223878 0 0.0027610275893366729 0.029836227252625348 0 0.0028107725476786724 0.02989580724578195 0 0.00038339898055454735 0.034822816336086408 0 0.00038793537987238301 0.034812749827384505 0 0.00039822136961550599 0.034822286517250514 0 0.00038339898055454735 0.034822816336086408 0 0.00039822136961550599 0.034822286517250514 0 0.00038752731409181606 0.034833210413577134 0 0.0014784798007938043 0.03245742561367785 0 0.0019839478255998899 0.031031940685204835 0 0.00040438155270109311 0.034804742497059185 0 0.00038387622032762632 0.034797677695337523 0 0.00046415218942014413 0.034802221039412516 0 0.00040438155270109311 0.034804742497059185 0 0.00041558936780851385 0.034807179875381691 0 0.00046415218942014413 0.034802221039412516 0 0.0014784798007938043 0.03245742561367785 0 0.0012731118675561631 0.032993913100614447 0 0.0027610275893366729 0.029836227252625348 0 0.0028456630920911056 0.029964471200941666 0 0.0028107725476786724 0.02989580724578195 0 0.00037227388056850424 0.034814567832102357 0 0.00038793537987238301 0.034812749827384505 0 0.00038324593173321889 0.034805658885076057 0 0.00037227388056850424 0.034814567832102357 0 0.00038339898055454735 0.034822816336086408 0 0.00038793537987238301 0.034812749827384505 0 0.00038793537987238301 0.034812749827384505 0 0.00038324593173321889 0.034805658885076057 0 0.00039247131652050005 0.034806323880495517 0 0.00038793537987238301 0.034812749827384505 0 0.00040114908364110658 0.034811853437061273 0 0.00039247131652050005 0.034806323880495517 0 0.00038793537987238301 0.034812749827384505 0 0.00040114908364110658 0.034811853437061273 0 0.00039822136961550599 0.034822286517250514 0 0.00040438155270109311 0.034804742497059185 0 0.00040114908364110658 0.034811853437061273 0 0.00039247131652050005 0.034806323880495517 0 0.00040114908364110658 0.034811853437061273 0 0.00039822136961550599 0.034822286517250514 0 0.00041175401250496773 0.034814910924721464 0 0.00041175401250496773 0.034814910924721464 0 0.00042887014304821176 0.034810466741609578 0 0.00041552530577246261 0.034822463715817972 0 0.00039822136961550599 0.034822286517250514 0 0.00041175401250496773 0.034814910924721464 0 0.00041552530577246261 0.034822463715817972 0 0.00041175401250496773 0.034814910924721464 0 0.00042887014304821176 0.034810466741609578 0 0.00041558936780851385 0.034807179875381691 0 0.00042887014304821176 0.034810466741609578 0 0.00043340321407612619 0.034819111253240331 0 0.00041552530577246261 0.034822463715817972 0 0.00040114908364110658 0.034811853437061273 0 0.00041175401250496773 0.034814910924721464 0 0.00041558936780851385 0.034807179875381691 0 0.00040438155270109311 0.034804742497059185 0 0.00040114908364110658 0.034811853437061273 0 0.00041558936780851385 0.034807179875381691 0 0.0027930230517083008 0.029869152854318921 0 0.0027809176929048823 0.02985749366223878 0 0.0028107725476786724 0.02989580724578195 0 0.0027999300881207498 0.029875047387185195 0 0.0027930230517083008 0.029869152854318921 0 0.0028107725476786724 0.02989580724578195 0 0.0027999300881207498 0.029875047387185195 0 0.0028085428253348324 0.029870244009023206 0 0.0027931686390521393 0.029859832865672169 0 0.0027930230517083008 0.029869152854318921 0 0.0027821016086677893 0.029856156312850834 0 0.0027931686390521393 0.029859832865672169 0 0.0027999300881207498 0.029875047387185195 0 0.0027930230517083008 0.029869152854318921 0 0.0027931686390521393 0.029859832865672169 0 0.0027930230517083008 0.029869152854318921 0 0.0027809176929048823 0.02985749366223878 0 0.0027821016086677893 0.029856156312850834 0 0.0027809176929048823 0.02985749366223878 0 0.0027741523744205482 0.029850144355367019 0 0.0027821016086677893 0.029856156312850834 0 0.0027809176929048823 0.02985749366223878 0 0.0027741523744205482 0.029850144355367019 0 0.0027610275893366729 0.029836227252625348 0 0.0027741523744205482 0.029850144355367019 0 0.0027610275893366729 0.029836227252625348 0 0.0027731162472389003 0.029849250376102334 0 0.00038387622032762632 0.034797677695337523 0 0.00038324593173321889 0.034805658885076057 0 0.00039247131652050005 0.034806323880495517 0 0.00040438155270109311 0.034804742497059185 0 0.00038387622032762632 0.034797677695337523 0 0.00039247131652050005 0.034806323880495517 0 0.00037029844627226347 0.034731095738352154 0 0.00046415218942014413 0.034802221039412516 0 0.00047543273576297629 0.034786318546546409 0 0.0028456630920911056 0.029964471200941666 0 0.0028736065410080833 0.029926212499574039 0 0.0029211473738736935 0.029933730414702982 0 0.00047694873480912608 0.034805382297248132 0 0.00047543273576297629 0.034786318546546409 0 0.00049483920546726284 0.034810453821502177 0 0.00047694873480912608 0.034805382297248132 0 0.00046415218942014413 0.034802221039412516 0 0.00047543273576297629 0.034786318546546409 0 0.0028456630920911056 0.029964471200941666 0 0.0028353240896787303 0.029926186606951712 0 0.0028506794612735901 0.029923527061945634 0 0.0028456630920911056 0.029964471200941666 0 0.0028506794612735901 0.029923527061945634 0 0.0028736065410080833 0.029926212499574039 0 0.00042887014304821176 0.034810466741609578 0 0.00041558936780851385 0.034807179875381691 0 0.00046415218942014413 0.034802221039412516 0 0.00042887014304821176 0.034810466741609578 0 0.00046415218942014413 0.034802221039412516 0 0.00044440811167679041 0.034813610225268209 0 0.00042887014304821176 0.034810466741609578 0 0.00043340321407612619 0.034819111253240331 0 0.00044440811167679041 0.034813610225268209 0 0.0028456630920911056 0.029964471200941666 0 0.0028107725476786724 0.02989580724578195 0 0.0028353240896787303 0.029926186606951712 0 0.0028107725476786724 0.02989580724578195 0 0.0028085428253348324 0.029870244009023206 0 0.00282394962508957 0.029881238344947905 0 0.0027999300881207498 0.029875047387185195 0 0.0028107725476786724 0.02989580724578195 0 0.0028085428253348324 0.029870244009023206 0 0.00282394962508957 0.029881238344947905 0 0.0028356702693310837 0.02990001503526208 0 0.002847449244923376 0.029867934955584614 0 0.0028107725476786724 0.02989580724578195 0 0.00282394962508957 0.029881238344947905 0 0.0028356702693310837 0.02990001503526208 0 0.0028107725476786724 0.02989580724578195 0 0.0028356702693310837 0.02990001503526208 0 0.0028353240896787303 0.029926186606951712 0 0.0028356702693310837 0.02990001503526208 0 0.0028353240896787303 0.029926186606951712 0 0.0028506794612735901 0.029923527061945634 0 0.0028506794612735901 0.029923527061945634 0 0.0028621485139749729 0.029900964153701946 0 0.0028736065410080833 0.029926212499574039 0 0.0028356702693310837 0.02990001503526208 0 0.0028506794612735901 0.029923527061945634 0 0.0028621485139749729 0.029900964153701946 0 0.0028356702693310837 0.02990001503526208 0 0.0028621485139749729 0.029900964153701946 0 0.002847449244923376 0.029867934955584614 0 0.0028621485139749729 0.029900964153701946 0 0.002847449244923376 0.029867934955584614 0 0.0028970997950781268 0.029854818053201847 0 0.0028621485139749729 0.029900964153701946 0 0.0028990544231186268 0.029900043688330734 0 0.0028970997950781268 0.029854818053201847 0 0.0028990544231186268 0.029900043688330734 0 0.0028736065410080833 0.029926212499574039 0 0.0029211473738736935 0.029933730414702982 0 0.0028621485139749729 0.029900964153701946 0 0.0028990544231186268 0.029900043688330734 0 0.0028736065410080833 0.029926212499574039 0 0.0028970997950781268 0.029854818053201847 0 0.0028616058349698499 0.029828236993304919 0 0.0029097149837204769 0.029771372104994587 0 0.0028616058349698499 0.029828236993304919 0 0.002846723795483003 0.029798207344163261 0 0.0029097149837204769 0.029771372104994587 0 0.002847449244923376 0.029867934955584614 0 0.0028970997950781268 0.029854818053201847 0 0.0028616058349698499 0.029828236993304919 0 0.002847449244923376 0.029867934955584614 0 0.0028616058349698499 0.029828236993304919 0 0.0028271920281796193 0.029849756265222658 0 0.0028616058349698499 0.029828236993304919 0 0.0028271920281796193 0.029849756265222658 0 0.002846723795483003 0.029798207344163261 0 0.0028271920281796193 0.029849756265222658 0 0.0028098030113334086 0.029828069917340258 0 0.002846723795483003 0.029798207344163261 0 0.0028085428253348324 0.029870244009023206 0 0.00282394962508957 0.029881238344947905 0 0.0028271920281796193 0.029849756265222658 0 0.00282394962508957 0.029881238344947905 0 0.002847449244923376 0.029867934955584614 0 0.0028271920281796193 0.029849756265222658 0 0.0028085428253348324 0.029870244009023206 0 0.0028271920281796193 0.029849756265222658 0 0.0028053524630073795 0.029852422761676649 0 0.0028085428253348324 0.029870244009023206 0 0.0028053524630073795 0.029852422761676649 0 0.0027931686390521393 0.029859832865672169 0 0.0028053524630073795 0.029852422761676649 0 0.0028098030113334086 0.029828069917340258 0 0.0027898155949330939 0.029848529376282573 0 0.0028271920281796193 0.029849756265222658 0 0.0028053524630073795 0.029852422761676649 0 0.0028098030113334086 0.029828069917340258 0 0.0028098030113334086 0.029828069917340258 0 0.0027980578064295048 0.029831882703651728 0 0.002826068324879655 0.029792644826387084 0 0.0028098030113334086 0.029828069917340258 0 0.002846723795483003 0.029798207344163261 0 0.002826068324879655 0.029792644826387084 0 0.002846723795483003 0.029798207344163261 0 0.0028747221596713743 0.029745231911405667 0 0.0029097149837204769 0.029771372104994587 0 0.002846723795483003 0.029798207344163261 0 0.0028747221596713743 0.029745231911405667 0 0.002826068324879655 0.029792644826387084 0 0.0027880524233022896 0.029862411441456495 0 0.0027610275893366729 0.029836227252625348 0 0.0027751410013995559 0.029852267321672947 0 0.0027784164972712183 0.029853007139496627 0 0.0027751410013995559 0.029852267321672947 0 0.0027765509873817506 0.029851756568739778 0 0.0027783995803499243 0.0298581883359074 0 0.0027784164972712183 0.029853007139496627 0 0.0027751410013995559 0.029852267321672947 0 0.0027880524233022896 0.029862411441456495 0 0.0027783995803499243 0.0298581883359074 0 0.0027751410013995559 0.029852267321672947 0 0.0027610275893366729 0.029836227252625348 0 0.0027751410013995559 0.029852267321672947 0 0.0027731162472389003 0.029849250376102334 0 0.0027751410013995559 0.029852267321672947 0 0.0027731162472389003 0.029849250376102334 0 0.0027765509873817506 0.029851756568739778 0 0.0027741523744205482 0.029850144355367019 0 0.0027731162472389003 0.029849250376102334 0 0.0027765509873817506 0.029851756568739778 0 0.0027741523744205482 0.029850144355367019 0 0.0027765509873817506 0.029851756568739778 0 0.0027821016086677893 0.029856156312850834 0 0.0027821016086677893 0.029856156312850834 0 0.0027826112021526375 0.029853193138595191 0 0.0027931686390521393 0.029859832865672169 0 0.0027765509873817506 0.029851756568739778 0 0.0027821016086677893 0.029856156312850834 0 0.0027826112021526375 0.029853193138595191 0 0.0028053524630073795 0.029852422761676649 0 0.0027931686390521393 0.029859832865672169 0 0.0027898155949330939 0.029848529376282573 0 0.0027826112021526375 0.029853193138595191 0 0.0027931686390521393 0.029859832865672169 0 0.0027898155949330939 0.029848529376282573 0 0.0027784164972712183 0.029853007139496627 0 0.0027826112021526375 0.029853193138595191 0 0.0027898155949330939 0.029848529376282573 0 0.0027784164972712183 0.029853007139496627 0 0.0027898155949330939 0.029848529376282573 0 0.0027855278937118167 0.029847661568483862 0 0.0027784164972712183 0.029853007139496627 0 0.0027765509873817506 0.029851756568739778 0 0.0027826112021526375 0.029853193138595191 0 0.0027784164972712183 0.029853007139496627 0 0.0027855278937118167 0.029847661568483862 0 0.002777175760318521 0.029868446496890699 0 0.0028098030113334086 0.029828069917340258 0 0.0027855278937118167 0.029847661568483862 0 0.0027980578064295048 0.029831882703651728 0 0.0028098030113334086 0.029828069917340258 0 0.0027898155949330939 0.029848529376282573 0 0.0027855278937118167 0.029847661568483862 0 0.0027855278937118167 0.029847661568483862 0 0.0027980578064295048 0.029831882703651728 0 0.0027827966381890413 0.029860104778155223 0 0.0027855278937118167 0.029847661568483862 0 0.0027827966381890413 0.029860104778155223 0 0.002777175760318521 0.029868446496890699 0 0.0027827966381890413 0.029860104778155223 0 0.002777175760318521 0.029868446496890699 0 0.002777469362552409 0.029894884306593792 0 0.0027880524233022896 0.029862411441456495 0 0.002777175760318521 0.029868446496890699 0 0.0027846150031678269 0.029914849710660739 0 0.0027783995803499243 0.0298581883359074 0 0.0027784164972712183 0.029853007139496627 0 0.002777175760318521 0.029868446496890699 0 0.0027880524233022896 0.029862411441456495 0 0.0027783995803499243 0.0298581883359074 0 0.002777175760318521 0.029868446496890699 0 0.002777469362552409 0.029894884306593792 0 0.0027702250567811838 0.029983946947153357 0 0.0027846150031678269 0.029914849710660739 0 0.002777175760318521 0.029868446496890699 0 0.002777469362552409 0.029894884306593792 0 0.0027846150031678269 0.029914849710660739 0 0.0027827966381890413 0.029860104778155223 0 0.002777469362552409 0.029894884306593792 0 0.0027949501925802044 0.029848457738694073 0 0.0027980578064295048 0.029831882703651728 0 0.0027827966381890413 0.029860104778155223 0 0.0027949501925802044 0.029848457738694073 0 0.002777469362552409 0.029894884306593792 0 0.0027949501925802044 0.029848457738694073 0 0.0027878103803241987 0.029907204653236846 0 0.0027949501925802044 0.029848457738694073 0 0.0027878103803241987 0.029907204653236846 0 0.0028241048542268217 0.029809512473316008 0 0.0027878103803241987 0.029907204653236846 0 0.0028241048542268217 0.029809512473316008 0 0.0028259260357981113 0.029879256576445877 0 0.002777469362552409 0.029894884306593792 0 0.0027878103803241987 0.029907204653236846 0 0.0027702250567811838 0.029983946947153357 0 0.0027878103803241987 0.029907204653236846 0 0.0027702250567811838 0.029983946947153357 0 0.0027752164208664346 0.030013122745052908 0 0.0028747221596713743 0.029745231911405667 0 0.0028681953906080355 0.029728662363889793 0 0.0029490959770824528 0.029644103880942619 0 0.0028747221596713743 0.029745231911405667 0 0.0028681953906080355 0.029728662363889793 0 0.002826068324879655 0.029792644826387084 0 0.0027949501925802044 0.029848457738694073 0 0.002826068324879655 0.029792644826387084 0 0.0028241048542268217 0.029809512473316008 0 0.0028681953906080355 0.029728662363889793 0 0.002826068324879655 0.029792644826387084 0 0.0028241048542268217 0.029809512473316008 0 0.0027980578064295048 0.029831882703651728 0 0.0027949501925802044 0.029848457738694073 0 0.002826068324879655 0.029792644826387084 0 0.0028681953906080355 0.029728662363889793 0 0.0028241048542268217 0.029809512473316008 0 0.0028724731383424481 0.029737797334814249 0 0.0028241048542268217 0.029809512473316008 0 0.0028724731383424481 0.029737797334814249 0 0.0028259260357981113 0.029879256576445877 0 0.0028681953906080355 0.029728662363889793 0 0.0028724731383424481 0.029737797334814249 0 0.0029511576847396749 0.029574312170514622 0 0.0029041402983188739 0.029737385330676692 0 0.002983461959347981 0.029627472191063535 0 0.0029511576847396749 0.029574312170514622 0 0.0028724731383424481 0.029737797334814249 0 0.0029041402983188739 0.029737385330676692 0 0.0029511576847396749 0.029574312170514622 0 0.0029041402983188739 0.029737385330676692 0 0.0028753537762824344 0.029873527165872174 0 0.0028259260357981113 0.029879256576445877 0 0.0028724731383424481 0.029737797334814249 0 0.0029041402983188739 0.029737385330676692 0 0.0028259260357981113 0.029879256576445877 0 0.0029041402983188739 0.029737385330676692 0 0.0028753537762824344 0.029873527165872174 0 0.002983461959347981 0.029627472191063535 0 0.0027752164208664346 0.030013122745052908 0 0.0028259260357981113 0.029879256576445877 0 0.0027899939937081255 0.030060324946819778 0 0.0027752164208664346 0.030013122745052908 0 0.0027899939937081255 0.030060324946819778 0 0.0027368844637915206 0.030160863558853428 0 0.0027878103803241987 0.029907204653236846 0 0.0027752164208664346 0.030013122745052908 0 0.0028259260357981113 0.029879256576445877 0 0.0028753537762824344 0.029873527165872174 0 0.0027899939937081255 0.030060324946819778 0 0.0028185023463178412 0.030076738002353793 0 0.0028753537762824344 0.029873527165872174 0 0.0028259260357981113 0.029879256576445877 0 0.0027899939937081255 0.030060324946819778 0 0.0027899939937081255 0.030060324946819778 0 0.0027541757300388377 0.030258476772706121 0 0.0027368844637915206 0.030160863558853428 0 0.0027541757300388377 0.030258476772706121 0 0.0026727702220489561 0.030560376571208699 0 0.0027368844637915206 0.030160863558853428 0 0.0027368844637915206 0.030160863558853428 0 0.0028103208290926615 0.03001922252467671 0 0.002850187230656893 0.030217220323890976 0 0.0026727702220489561 0.030560376571208699 0 0.0027368844637915206 0.030160863558853428 0 0.002850187230656893 0.030217220323890976 0 0.0027702250567811838 0.029983946947153357 0 0.0027752164208664346 0.030013122745052908 0 0.0027368844637915206 0.030160863558853428 0 0.0028239513271029622 0.029865119089629421 0 0.0028103208290926615 0.03001922252467671 0 0.0029615081067935548 0.03005752041964713 0 0.0027702250567811838 0.029983946947153357 0 0.0027368844637915206 0.030160863558853428 0 0.0028103208290926615 0.03001922252467671 0 0.0028239513271029622 0.029865119089629421 0 0.0028103208290926615 0.03001922252467671 0 0.0027846150031678269 0.029914849710660739 0 0.0027702250567811838 0.029983946947153357 0 0.0028103208290926615 0.03001922252467671 0 0.0027846150031678269 0.029914849710660739 0 0.0032500818802933006 0.029948665136995484 0 0.0029289546648992972 0.029832854553696525 0 0.0029615081067935548 0.03005752041964713 0 0.0028103208290926615 0.03001922252467671 0 0.0029615081067935548 0.03005752041964713 0 0.002850187230656893 0.030217220323890976 0 0.003205915058813515 0.030365009593379927 0 0.0029615081067935548 0.03005752041964713 0 0.002850187230656893 0.030217220323890976 0 0.003205915058813515 0.030365009593379927 0 0.0026727702220489561 0.030560376571208699 0 0.002850187230656893 0.030217220323890976 0 0.0017935881240937559 0.031541301097197202 0 0.0020160199773701665 0.031377091857289673 0 0.00093900882132196711 0.031984639825248316 0 0.0026727702220489561 0.030560376571208699 0 0.0019674621960031262 0.030661611325007585 0 0.00097088090951893773 0.030629071586870942 0 0.00093900882132196711 0.031984639825248316 0 0.0019674621960031262 0.030661611325007585 0 0.0019674621960031262 0.030661611325007585 0 0.0027125165421735039 0.03022694954866394 0 0.0019605866296057311 0.030050266324156406 0 0.00097088090951893773 0.030629071586870942 0 0.0019674621960031262 0.030661611325007585 0 0.0019605866296057311 0.030050266324156406 0 0.0027541757300388377 0.030258476772706121 0 0.0027125165421735039 0.03022694954866394 0 0.0028185023463178412 0.030076738002353793 0 0.0027541757300388377 0.030258476772706121 0 0.0026727702220489561 0.030560376571208699 0 0.0027125165421735039 0.03022694954866394 0 0.0026727702220489561 0.030560376571208699 0 0.0019674621960031262 0.030661611325007585 0 0.0027125165421735039 0.03022694954866394 0 0.0016405015082488345 0.031131092139461376 0 0.0013939444066067338 0.031181716398520513 0 0.0027125165421735039 0.03022694954866394 0 0.0027906680132454564 0.03002404934103578 0 0.0026950992665130142 0.029942975710195281 0 0.0027125165421735039 0.03022694954866394 0 0.0027906680132454564 0.03002404934103578 0 0.0028185023463178412 0.030076738002353793 0 0.0027906680132454564 0.03002404934103578 0 0.0026950992665130142 0.029942975710195281 0 0.0028073481870942714 0.029912211676480057 0 0.0027125165421735039 0.03022694954866394 0 0.0026950992665130142 0.029942975710195281 0 0.0025240242096420274 0.029971997845513125 0 0.0026950992665130142 0.029942975710195281 0 0.0025240242096420274 0.029971997845513125 0 0.0026263773183550143 0.029838105161528589 0 0.0026950992665130142 0.029942975710195281 0 0.0026263773183550143 0.029838105161528589 0 0.0027759919738616612 0.029835503323822742 0 0.0026950992665130142 0.029942975710195281 0 0.0027759919738616612 0.029835503323822742 0 0.0028073481870942714 0.029912211676480057 0 0.0024068256565481254 0.029852661594476526 0 0.0025240242096420274 0.029971997845513125 0 0.0026263773183550143 0.029838105161528589 0 0.00090507260116239096 0.02927672413510889 0 0.00097088090951893773 0.030629071586870942 0 0.0019605866296057311 0.030050266324156406 0 0.00091688228325761695 0.031595032266119476 0 0.0013939444066067338 0.031181716398520513 0 0.0024068256565481254 0.029852661594476526 0 0.0026263773183550143 0.029838105161528589 0 0.002645310244442299 0.029712170973298049 0 0.00091688228325761695 0.031595032266119476 0 0.0019346801631451237 0.030577911420583047 0 0.0014085431679541492 0.031283591002378985 0 0.0012641024675097662 0.031234053088313885 0 0.0011491473952261468 0.031372325273065715 0 0.0026263773183550143 0.029838105161528589 0 0.0027058607564092313 0.029764801415533719 0 0.002645310244442299 0.029712170973298049 0 0.0026263773183550143 0.029838105161528589 0 0.0027058607564092313 0.029764801415533719 0 0.0027759919738616612 0.029835503323822742 0 0.0022804136994586601 0.03021412969908388 0 0.0019346801631451237 0.030577911420583047 0 0.0027058607564092313 0.029764801415533719 0 0.002645310244442299 0.029712170973298049 0 0.0027269981507384582 0.029734287405722554 0 0.0015715761826946132 0.029533929906986216 0 0.0012641024675097662 0.031234053088313885 0 0.0011491473952261468 0.031372325273065715 0 0.0010214120372041048 0.031364345607056067 0 0.0010459643846572894 0.031331817301384512 0 0.00096145567139698602 0.032486079408015622 0 0.0005261285294913331 0.032989799243382467 0 0.0011491473952261468 0.031372325273065715 0 0.00096145567139698602 0.032486079408015622 0 0.0013124650200227893 0.031920231928206831 0 0.0011491473952261468 0.031372325273065715 0 0.00096145567139698602 0.032486079408015622 0 0.0015662788078130035 0.032151340718654539 0 0.0013124650200227893 0.031920231928206831 0 0.0016023011850333571 0.03168318828543918 0 0.0013124650200227893 0.031920231928206831 0 0.0011491473952261468 0.031372325273065715 0 0.0031341913853115307 0.029561544886109126 0 0.0028829043898932582 0.029694723231335263 0 0.0030199791831923817 0.029809953594088154 0 0.0028829043898932582 0.029694723231335263 0 0.0027269981507384582 0.029734287405722554 0 0.0029128681301807515 0.029775744471933117 0 0.0028829043898932582 0.029694723231335263 0 0.0029128681301807515 0.029775744471933117 0 0.0030199791831923817 0.029809953594088154 0 0.0025953658636946909 0.029655742488567668 0 0.0028829043898932582 0.029694723231335263 0 0.0027269981507384582 0.029734287405722554 0 0.0025953658636946909 0.029655742488567668 0 0.002645310244442299 0.029712170973298049 0 0.0027269981507384582 0.029734287405722554 0 0.0027269981507384582 0.029734287405722554 0 0.0027672644654122688 0.02977895771450793 0 0.0028626954072621443 0.029793266227306665 0 0.0027269981507384582 0.029734287405722554 0 0.0028626954072621443 0.029793266227306665 0 0.0029128681301807515 0.029775744471933117 0 0.0027058607564092313 0.029764801415533719 0 0.0027269981507384582 0.029734287405722554 0 0.0027672644654122688 0.02977895771450793 0 0.0027058607564092313 0.029764801415533719 0 0.0027672644654122688 0.02977895771450793 0 0.0027759919738616612 0.029835503323822742 0 0.0027672644654122688 0.02977895771450793 0 0.0027759919738616612 0.029835503323822742 0 0.0028626954072621443 0.029793266227306665 0 0.0027759919738616612 0.029835503323822742 0 0.0028626954072621443 0.029793266227306665 0 0.0028763413890201869 0.029842742914101078 0 0.0028626954072621443 0.029793266227306665 0 0.0029128681301807515 0.029775744471933117 0 0.0029882597001776447 0.02978685705394862 0 0.0028626954072621443 0.029793266227306665 0 0.0029882597001776447 0.02978685705394862 0 0.0028763413890201869 0.029842742914101078 0 0.0029128681301807515 0.029775744471933117 0 0.0029882597001776447 0.02978685705394862 0 0.0030199791831923817 0.029809953594088154 0 0.0029882597001776447 0.02978685705394862 0 0.002937919980182791 0.029823442781791599 0 0.0030168010338914543 0.02967525813333895 0 0.0029882597001776447 0.02978685705394862 0 0.002937919980182791 0.029823442781791599 0 0.0028763413890201869 0.029842742914101078 0 0.0027759919738616612 0.029835503323822742 0 0.0028763413890201869 0.029842742914101078 0 0.0028073481870942714 0.029912211676480057 0 0.002937919980182791 0.029823442781791599 0 0.0028763413890201869 0.029842742914101078 0 0.0028642759609410111 0.029927270870038027 0 0.0027906680132454564 0.03002404934103578 0 0.0028642759609410111 0.029927270870038027 0 0.0028073481870942714 0.029912211676480057 0 0.0028763413890201869 0.029842742914101078 0 0.0028642759609410111 0.029927270870038027 0 0.0028073481870942714 0.029912211676480057 0 0.0027906680132454564 0.03002404934103578 0 0.0028642759609410111 0.029927270870038027 0 0.0028185023463178412 0.030076738002353793 0 0.0028642759609410111 0.029927270870038027 0 0.0028185023463178412 0.030076738002353793 0 0.0029240019677294442 0.029842940541738326 0 0.002937919980182791 0.029823442781791599 0 0.0028642759609410111 0.029927270870038027 0 0.0029240019677294442 0.029842940541738326 0 0.0028753537762824344 0.029873527165872174 0 0.0028185023463178412 0.030076738002353793 0 0.0029240019677294442 0.029842940541738326 0 0.0027899939937081255 0.030060324946819778 0 0.0027541757300388377 0.030258476772706121 0 0.0028185023463178412 0.030076738002353793 0 0.0029240019677294442 0.029842940541738326 0 0.0030168010338914543 0.02967525813333895 0 0.002983461959347981 0.029627472191063535 0 0.002937919980182791 0.029823442781791599 0 0.0029240019677294442 0.029842940541738326 0 0.0030168010338914543 0.02967525813333895 0 0.0028753537762824344 0.029873527165872174 0 0.0029240019677294442 0.029842940541738326 0 0.002983461959347981 0.029627472191063535 0 0.0030552050142299142 0.029511515019176655 0 0.0030168010338914543 0.02967525813333895 0 0.002983461959347981 0.029627472191063535 0 0.0030552050142299142 0.029511515019176655 0 0.0029719987392506173 0.029528277985620424 0 0.0030168010338914543 0.02967525813333895 0 0.0030552050142299142 0.029511515019176655 0 0.0029719987392506173 0.029528277985620424 0 0.0031230867244748774 0.029242171325542708 0 0.0029719987392506173 0.029528277985620424 0 0.0030168010338914543 0.02967525813333895 0 0.002958100743399104 0.029730243722956178 0 0.0040354733615613732 0.027827214337409235 0 0.0044878854216960605 0.028649577493767404 0 0.0039552408849914625 0.02834846911210101 0 0.0030391286459825789 0.028857073579167152 0 0.0023505393856009626 0.027976021108626067 0 0.0029882597001776447 0.02978685705394862 0 0.0030168010338914543 0.02967525813333895 0 0.002958100743399104 0.029730243722956178 0 0.0029882597001776447 0.02978685705394862 0 0.0030199791831923817 0.029809953594088154 0 0.003016929689161217 0.02980650732861451 0 0.0025619797589005373 0.028397509131825364 0 0.0023505393856009626 0.027976021108626067 0 0.0023505393856009626 0.027976021108626067 0 0.002134097399826626 0.027425414947345406 0 0.0012904048295408011 0.026108508182898067 0 0.0012202427036144172 0.026233238928926067 0 0.0013409346927398685 0.026304915648305786 0 0.0030199791831923817 0.029809953594088154 0 0.003016929689161217 0.02980650732861451 0 0.0030176465344692953 0.029803989407716006 0 0.0020509504571880706 0.028134560217383742 0 0.002134097399826626 0.027425414947345406 0 0.0031341913853115307 0.029561544886109126 0 0.0030199791831923817 0.029809953594088154 0 0.0034115967831037861 0.029607772328390753 0 0.0010954417122754456 0.026304560185672704 0 0.0010998104541572089 0.026160704914684772 0 0.00091864785342627407 0.026207612216692735 0 0.0020860321683142361 0.027002211169036228 0 0.0013472553173664065 0.025968188675376105 0 0.0012202427036144172 0.026233238928926067 0 0.0010954417122754456 0.026304560185672704 0 0.0010998104541572089 0.026160704914684772 0 0.0044878854216960605 0.028649577493767404 0 0.0038589727511585963 0.028954470795357689 0 0.0039552408849914625 0.02834846911210101 0 0.0012904048295408011 0.026108508182898067 0 0.0012202427036144172 0.026233238928926067 0 0.0010998104541572089 0.026160704914684772 0 0.0023505393856009626 0.027976021108626067 0 0.0020860321683142361 0.027002211169036228 0 0.0038589727511585963 0.028954470795357689 0 0.0034156959009855217 0.028617160391509716 0 0.0031785080055560669 0.029286515774125398 0 0.0038589727511585963 0.028954470795357689 0 0.0034156959009855217 0.028617160391509716 0 0.0039552408849914625 0.02834846911210101 0 0.0034156959009855217 0.028617160391509716 0 0.0039552408849914625 0.02834846911210101 0 0.0038762084577269552 0.027928893310182081 0 0.0034156959009855217 0.028617160391509716 0 0.0038762084577269552 0.027928893310182081 0 0.00306273441707348 0.027731684162472958 0 0.0040354733615613732 0.027827214337409235 0 0.0039552408849914625 0.02834846911210101 0 0.0038762084577269552 0.027928893310182081 0 0.0040354733615613732 0.027827214337409235 0 0.0038762084577269552 0.027928893310182081 0 0.0043093647035790175 0.027382475773796225 0 0.0038762084577269552 0.027928893310182081 0 0.0043093647035790175 0.027382475773796225 0 0.00306273441707348 0.027731684162472958 0 0.0043093647035790175 0.027382475773796225 0 0.0034081082509420735 0.025238024991690169 0 0.0031028208842686835 0.026726176649131253 0 0.0043093647035790175 0.027382475773796225 0 0.0044725824921587557 0.024642147105300886 0 0.0060559531288046226 0.023980328382385774 0 0.0038400001148848222 0.026625509129139302 0 0.0037638319757886175 0.026315073484978354 0 0.0043093647035790175 0.027382475773796225 0 0.0044725824921587557 0.024642147105300886 0 0.0034081082509420735 0.025238024991690169 0 0.0044725824921587557 0.024642147105300886 0 0.0060559531288046226 0.023980328382385774 0 0.0049432410900513875 0.023260645311865134 0 0.0044725824921587557 0.024642147105300886 0 0.0038245938677637574 0.023531944141294146 0 0.0034081082509420735 0.025238024991690169 0 0.0044725824921587557 0.024642147105300886 0 0.0038245938677637574 0.023531944141294146 0 0.0049432410900513875 0.023260645311865134 0 0.0043093647035790175 0.027382475773796225 0 0.0039806046625269721 0.029312039363284498 0 0.0034525863546477401 0.02861718867680842 0 0.0039806046625269721 0.029312039363284498 0 0.0034525863546477401 0.02861718867680842 0 0.0033648211442506258 0.029382011838124306 0 0.0030391286459825789 0.028857073579167152 0 0.0031900326157127843 0.028975808108129122 0 0.0040354733615613732 0.027827214337409235 0 0.0043093647035790175 0.027382475773796225 0 0.0034525863546477401 0.02861718867680842 0 0.0034525863546477401 0.02861718867680842 0 0.0031230867244748774 0.029242171325542708 0 0.0031931974642549262 0.029187315511538053 0 0.0029719987392506173 0.029528277985620424 0 0.0034525863546477401 0.02861718867680842 0 0.0031230867244748774 0.029242171325542708 0 0.0031230867244748774 0.029242171325542708 0 0.002983461959347981 0.029627472191063535 0 0.0029511576847396749 0.029574312170514622 0 0.0030552050142299142 0.029511515019176655 0 0.0031230867244748774 0.029242171325542708 0 0.002983461959347981 0.029627472191063535 0 0.0029511576847396749 0.029574312170514622 0 0.0030655307282243184 0.029414005555820778 0 0.0029490959770824528 0.029644103880942619 0 0.0031230867244748774 0.029242171325542708 0 0.0029511576847396749 0.029574312170514622 0 0.0030655307282243184 0.029414005555820778 0 0.0030655307282243184 0.029414005555820778 0 0.0030453498877965495 0.029586727995097577 0 0.0029490959770824528 0.029644103880942619 0 0.0028681953906080355 0.029728662363889793 0 0.0029511576847396749 0.029574312170514622 0 0.0029490959770824528 0.029644103880942619 0 0.0034525863546477401 0.02861718867680842 0 0.0031931974642549262 0.029187315511538053 0 0.0033648211442506258 0.029382011838124306 0 0.0031230867244748774 0.029242171325542708 0 0.0030655307282243184 0.029414005555820778 0 0.0031931974642549262 0.029187315511538053 0 0.0030655307282243184 0.029414005555820778 0 0.0031931974642549262 0.029187315511538053 0 0.0031401283564793056 0.029561776195217482 0 0.0030655307282243184 0.029414005555820778 0 0.0030453498877965495 0.029586727995097577 0 0.0031401283564793056 0.029561776195217482 0 0.0031931974642549262 0.029187315511538053 0 0.0033648211442506258 0.029382011838124306 0 0.0031401283564793056 0.029561776195217482 0 0.0033648211442506258 0.029382011838124306 0 0.0032582192218441343 0.029678801233125926 0 0.0031401283564793056 0.029561776195217482 0 0.0033648211442506258 0.029382011838124306 0 0.0032582192218441343 0.029678801233125926 0 0.0034461246447308721 0.029750757900461011 0 0.0031401283564793056 0.029561776195217482 0 0.0031384359894810828 0.029754082854741785 0 0.0030189433625938799 0.029711503588352249 0 0.0032582192218441343 0.029678801233125926 0 0.0031401283564793056 0.029561776195217482 0 0.0031384359894810828 0.029754082854741785 0 0.0032582192218441343 0.029678801233125926 0 0.0031384359894810828 0.029754082854741785 0 0.0032488371029671375 0.029823638734053044 0 0.0031384359894810828 0.029754082854741785 0 0.0030512963829560126 0.029836682020140323 0 0.0031466022664656092 0.029877801822351505 0 0.0031384359894810828 0.029754082854741785 0 0.0032488371029671375 0.029823638734053044 0 0.0031466022664656092 0.029877801822351505 0 0.0032582192218441343 0.029678801233125926 0 0.0032488371029671375 0.029823638734053044 0 0.0034461246447308721 0.029750757900461011 0 0.0032488371029671375 0.029823638734053044 0 0.0033379917330826907 0.029893131597144584 0 0.0034461246447308721 0.029750757900461011 0 0.0028747221596713743 0.029745231911405667 0 0.0029490959770824528 0.029644103880942619 0 0.0029097149837204769 0.029771372104994587 0 0.0029490959770824528 0.029644103880942619 0 0.0029097149837204769 0.029771372104994587 0 0.0030189433625938799 0.029711503588352249 0 0.0030453498877965495 0.029586727995097577 0 0.0031401283564793056 0.029561776195217482 0 0.0030189433625938799 0.029711503588352249 0 0.0030453498877965495 0.029586727995097577 0 0.0029490959770824528 0.029644103880942619 0 0.0030189433625938799 0.029711503588352249 0 0.0030189433625938799 0.029711503588352249 0 0.0030512963829560126 0.029836682020140323 0 0.0029665026969953883 0.029828528071117511 0 0.0031384359894810828 0.029754082854741785 0 0.0030189433625938799 0.029711503588352249 0 0.0030512963829560126 0.029836682020140323 0 0.0029097149837204769 0.029771372104994587 0 0.0030189433625938799 0.029711503588352249 0 0.0029665026969953883 0.029828528071117511 0 0.0028970997950781268 0.029854818053201847 0 0.0029097149837204769 0.029771372104994587 0 0.0029665026969953883 0.029828528071117511 0 0.0019839478255998899 0.031031940685204835 0 0.0023645678111245553 0.02865928572843765 0 0.0028456630920911056 0.029964471200941666 0 0.0030685309682480957 0.030018821115735006 0 0.002986896236712 0.029969770058139136 0 0.00047543273576297629 0.034786318546546409 0 0.00057141847361164792 0.034804581709160953 0 0.00049483920546726284 0.034810453821502177 0 0.0028456630920911056 0.029964471200941666 0 0.0030685309682480957 0.030018821115735006 0 0.0032006993657335107 0.03013533686074784 0 0.0029211473738736935 0.029933730414702982 0 0.0029423170678203299 0.029890162883616855 0 0.0029766409830974823 0.029930207776201145 0 0.0028990544231186268 0.029900043688330734 0 0.0029211473738736935 0.029933730414702982 0 0.0029423170678203299 0.029890162883616855 0 0.0028990544231186268 0.029900043688330734 0 0.0028970997950781268 0.029854818053201847 0 0.0029423170678203299 0.029890162883616855 0 0.0028970997950781268 0.029854818053201847 0 0.0029665026969953883 0.029828528071117511 0 0.0029423170678203299 0.029890162883616855 0 0.0029665026969953883 0.029828528071117511 0 0.0029423170678203299 0.029890162883616855 0 0.0030058842869919449 0.02989725157346923 0 0.0029211473738736935 0.029933730414702982 0 0.0029766409830974823 0.029930207776201145 0 0.002986896236712 0.029969770058139136 0 0.0029423170678203299 0.029890162883616855 0 0.0029766409830974823 0.029930207776201145 0 0.0030058842869919449 0.02989725157346923 0 0.0029766409830974823 0.029930207776201145 0 0.0030170211676157541 0.02994309956046572 0 0.002986896236712 0.029969770058139136 0 0.0030170211676157541 0.02994309956046572 0 0.0030058842869919449 0.02989725157346923 0 0.003069355719697282 0.029941424077926757 0 0.0030170211676157541 0.02994309956046572 0 0.003069355719697282 0.029941424077926757 0 0.0030491070487020382 0.029976225204178874 0 0.0029766409830974823 0.029930207776201145 0 0.0030170211676157541 0.02994309956046572 0 0.0030058842869919449 0.02989725157346923 0 0.0030512963829560126 0.029836682020140323 0 0.0029665026969953883 0.029828528071117511 0 0.0030058842869919449 0.02989725157346923 0 0.0030512963829560126 0.029836682020140323 0 0.0030058842869919449 0.02989725157346923 0 0.003069355719697282 0.029941424077926757 0 0.0030512963829560126 0.029836682020140323 0 0.003069355719697282 0.029941424077926757 0 0.0031466022664656092 0.029877801822351505 0 0.0030945490671279744 0.0299881260296921 0 0.0030685309682480957 0.030018821115735006 0 0.0031306802164529977 0.030012636635169603 0 0.003069355719697282 0.029941424077926757 0 0.0030945490671279744 0.0299881260296921 0 0.0031547077979215419 0.029973118609784331 0 0.003069355719697282 0.029941424077926757 0 0.0030945490671279744 0.0299881260296921 0 0.0030491070487020382 0.029976225204178874 0 0.0030945490671279744 0.0299881260296921 0 0.0030685309682480957 0.030018821115735006 0 0.0030491070487020382 0.029976225204178874 0 0.0030685309682480957 0.030018821115735006 0 0.0030491070487020382 0.029976225204178874 0 0.002986896236712 0.029969770058139136 0 0.0030170211676157541 0.02994309956046572 0 0.0030491070487020382 0.029976225204178874 0 0.002986896236712 0.029969770058139136 0 0.0028456630920911056 0.029964471200941666 0 0.0029211473738736935 0.029933730414702982 0 0.002986896236712 0.029969770058139136 0 0.003319672179496302 0.02999094533612098 0 0.0034597873489822552 0.029880600834724446 0 0.003318417901156492 0.030168974747529088 0 0.0033379917330826907 0.029893131597144584 0 0.003319672179496302 0.02999094533612098 0 0.0034597873489822552 0.029880600834724446 0 0.003231754809501768 0.02992959904630034 0 0.0032231126775514327 0.030002958159897102 0 0.003319672179496302 0.02999094533612098 0 0.0033379917330826907 0.029893131597144584 0 0.003231754809501768 0.02992959904630034 0 0.003319672179496302 0.02999094533612098 0 0.0032488371029671375 0.029823638734053044 0 0.0033379917330826907 0.029893131597144584 0 0.003231754809501768 0.02992959904630034 0 0.0032488371029671375 0.029823638734053044 0 0.0031466022664656092 0.029877801822351505 0 0.003231754809501768 0.02992959904630034 0 0.003069355719697282 0.029941424077926757 0 0.0031466022664656092 0.029877801822351505 0 0.0031547077979215419 0.029973118609784331 0 0.0031466022664656092 0.029877801822351505 0 0.003231754809501768 0.02992959904630034 0 0.0031547077979215419 0.029973118609784331 0 0.003231754809501768 0.02992959904630034 0 0.0032231126775514327 0.030002958159897102 0 0.0031547077979215419 0.029973118609784331 0 0.0032231126775514327 0.030002958159897102 0 0.0031756707570815669 0.030017862456693401 0 0.0031547077979215419 0.029973118609784331 0 0.0030685309682480957 0.030018821115735006 0 0.0031648383300864513 0.030060098946612636 0 0.0032006993657335107 0.03013533686074784 0 0.0032231126775514327 0.030002958159897102 0 0.0031756707570815669 0.030017862456693401 0 0.0032102585477361291 0.030052041319728384 0 0.0030945490671279744 0.0299881260296921 0 0.0031547077979215419 0.029973118609784331 0 0.0031306802164529977 0.030012636635169603 0 0.0031756707570815669 0.030017862456693401 0 0.0031547077979215419 0.029973118609784331 0 0.0031306802164529977 0.030012636635169603 0 0.0030685309682480957 0.030018821115735006 0 0.0031306802164529977 0.030012636635169603 0 0.0031648383300864513 0.030060098946612636 0 0.0031756707570815669 0.030017862456693401 0 0.0031306802164529977 0.030012636635169603 0 0.0031648383300864513 0.030060098946612636 0 0.0032231126775514327 0.030002958159897102 0 0.0032102585477361291 0.030052041319728384 0 0.003254130819945137 0.030068869209217093 0 0.0031648383300864513 0.030060098946612636 0 0.0032102585477361291 0.030052041319728384 0 0.0032006993657335107 0.03013533686074784 0 0.0032102585477361291 0.030052041319728384 0 0.003254130819945137 0.030068869209217093 0 0.0032006993657335107 0.03013533686074784 0 0.0031756707570815669 0.030017862456693401 0 0.0031648383300864513 0.030060098946612636 0 0.0032102585477361291 0.030052041319728384 0 0.003254130819945137 0.030068869209217093 0 0.003319672179496302 0.02999094533612098 0 0.003318417901156492 0.030168974747529088 0 0.0032231126775514327 0.030002958159897102 0 0.003254130819945137 0.030068869209217093 0 0.003319672179496302 0.02999094533612098 0 0.0031038853825891906 0.026045807548721687 0 0.0021734365500751121 0.027046289928416137 0 0.0067771076122893452 0.02140005996581448 0 0.005337771012991958 0.020266135651362146 0 0.0056367535834517682 0.022224547167999688 0 0.0031038853825891906 0.026045807548721687 0 0.0023550487700589179 0.024439067353047985 0 0.0067771076122893452 0.02140005996581448 0 0.005337771012991958 0.020266135651362146 0 0.0052323057040834847 0.018471518355832627 0 0.0056367535834517682 0.022224547167999688 0 0.0047131384348009196 0.018702340300774032 0 0.0039599210998286279 0.019904776519040046 0 0.005337771012991958 0.020266135651362146 0 0.0056367535834517682 0.022224547167999688 0 0.0036876808468863003 0.018917772564162032 0 0.0056367535834517682 0.022224547167999688 0 0.0039599210998286279 0.019904776519040046 0 0.0038219588050841641 0.021108241529740331 0 0.0045577616890886651 0.020290801958332817 0 0.0038501077884096576 0.018645241833986904 0 0.0056367535834517682 0.022224547167999688 0 0.0042676107456612235 0.022431251208368256 0 0.0038219588050841641 0.021108241529740331 0 0.0038245938677637574 0.023531944141294146 0 0.0042676107456612235 0.022431251208368256 0 0.0049432410900513875 0.023260645311865134 0 0.0060559531288046226 0.023980328382385774 0 0.0056367535834517682 0.022224547167999688 0 0.0049432410900513875 0.023260645311865134 0 0.0056367535834517682 0.022224547167999688 0 0.0042676107456612235 0.022431251208368256 0 0.0049432410900513875 0.023260645311865134 0 0.0037638319757886175 0.026315073484978354 0 0.0031038853825891906 0.026045807548721687 0 0.0060559531288046226 0.023980328382385774 0 0.0067771076122893452 0.02140005996581448 0 0.0056367535834517682 0.022224547167999688 0 0.0039806046625269721 0.029312039363284498 0 0.003576770794234488 0.030100305986790907 0 0.0034461246447308721 0.029750757900461011 0 0.0039806046625269721 0.029312039363284498 0 0.0033648211442506258 0.029382011838124306 0 0.0034461246447308721 0.029750757900461011 0 0.0033379917330826907 0.029893131597144584 0 0.0034597873489822552 0.029880600834724446 0 0.0034461246447308721 0.029750757900461011 0 0.0031038853825891906 0.026045807548721687 0 0.0032498196413246853 0.026522069948102328 0 0.0011878168146243378 0.025713444003215069 0 0.0011735311031228774 0.025749159775012843 0 0.0011470763720799659 0.025688420776424397 0 0.0011878168146243378 0.025713444003215069 0 0.0011733325753596222 0.025686499568323029 0 0.0011470763720799659 0.025688420776424397 0 0.0011878168146243378 0.025713444003215069 0 0.0011735311031228774 0.025749159775012843 0 0.0011932155353298452 0.025735996210698813 0 0.0011878168146243378 0.025713444003215069 0 0.0011932155353298452 0.025735996210698813 0 0.0012081821187123077 0.025727235223974305 0 0.0011878168146243378 0.025713444003215069 0 0.0012102007369553069 0.02570608000285915 0 0.0012004308515883757 0.025689200874251694 0 0.0011878168146243378 0.025713444003215069 0 0.0011733325753596222 0.025686499568323029 0 0.0012004308515883757 0.025689200874251694 0 0.0011878168146243378 0.025713444003215069 0 0.0012081821187123077 0.025727235223974305 0 0.0012102007369553069 0.02570608000285915 0 0.0035463508982284059 0.01826505846507814 0 0.0036876808468863003 0.018917772564162032 0 0.0021184475987505768 0.016272190498650432 0 0.0023550487700589179 0.024439067353047985 0 0.0012414882569422765 0.022058163370614264 0 0.0035463508982284059 0.01826505846507814 0 0.0033780465501486393 0.016386372745868724 0 0.0021184475987505768 0.016272190498650432 0 0.0035463508982284059 0.01826505846507814 0 0.0046123955663718999 0.018574173520760701 0 0.0033780465501486393 0.016386372745868724 0 0.0038501077884096576 0.018645241833986904 0 0.0026383106637534065 0.016142955398156637 0 0.0035463508982284059 0.01826505846507814 0 0.0036876808468863003 0.018917772564162032 0 0.0052323057040834847 0.018471518355832627 0 0.0024518919299638311 0.024127256527459329 0 0.0023550487700589179 0.024439067353047985 0 0.0047131384348009196 0.018702340300774032 0 0.0039599210998286279 0.019904776519040046 0 0.0034833516835699723 0.018728454500827545 0 0.005337771012991958 0.020266135651362146 0 0.0036876808468863003 0.018917772564162032 0 0.0052323057040834847 0.018471518355832627 0 0.0032054234698051919 0.026098913131281948 0 0.0030290154087910478 0.025652724649756875 0 0.0033461219905124438 0.025746289753105587 0 0.0011735311031228774 0.025749159775012843 0 0.0011932155353298452 0.025735996210698813 0 0.0012127689260727351 0.025760334508181371 0 0.0023550487700589179 0.024439067353047985 0 0.0021734365500751121 0.027046289928416137 0 0.0011932155353298452 0.025735996210698813 0 0.0012127689260727351 0.025760334508181371 0 0.0012081821187123077 0.025727235223974305 0 0.0011930360986047767 0.025832699397912193 0 0.0012288768911487189 0.025842886509797797 0 0.0012341906053728621 0.025714156340518071 0 0.0023645678111245553 0.02865928572843765 0 0.00072628924710811313 0.029302199031107382 0 0.0021734365500751121 0.027046289928416137 0 0.0023645678111245553 0.02865928572843765 0 0.003254130819945137 0.030068869209217093 0 0.003318417901156492 0.030168974747529088 0 0.0032006993657335107 0.03013533686074784 0 0.00057141847361164792 0.034804581709160953 0 0.00049483920546726284 0.034810453821502177 0 0.00052047391458665926 0.034840160874048523 0 0.00057141847361164792 0.034804581709160953 0 0.00052047391458665926 0.034840160874048523 0 0.00052828895653217749 0.034898153581472809 0 0.00049483920546726284 0.034810453821502177 0 0.00052047391458665926 0.034840160874048523 0 0.00048794434807386284 0.034849792367530656 0 0.00052047391458665926 0.034840160874048523 0 0.00052828895653217749 0.034898153581472809 0 0.00048794434807386284 0.034849792367530656 0 0.00052828895653217749 0.034898153581472809 0 0.00045303641543548498 0.034881156430944665 0 0.00048794434807386284 0.034849792367530656 0 0.0021734365500751121 0.027046289928416137 0 0.002096610910054076 0.026468910409118699 0 0.0012127689260727351 0.025760334508181371 0 0.0012081821187123077 0.025727235223974305 0 0.0012341906053728621 0.025714156340518071 0 0.0012288768911487189 0.025842886509797797 0 0.0012675683791659221 0.02571450589051278 0 0.0012341906053728621 0.025714156340518071 0 0.0012675683791659221 0.02571450589051278 0 0.0012341906053728621 0.025714156340518071 0 0.0012341957876869018 0.025685887699159058 0 0.0012341906053728621 0.025714156340518071 0 0.0012102007369553069 0.02570608000285915 0 0.0012341957876869018 0.025685887699159058 0 0.0012081821187123077 0.025727235223974305 0 0.0012341906053728621 0.025714156340518071 0 0.0012102007369553069 0.02570608000285915 0 0.0012102007369553069 0.02570608000285915 0 0.0012341957876869018 0.025685887699159058 0 0.0012004308515883757 0.025689200874251694 0 0.0012341957876869018 0.025685887699159058 0 0.0012898189852162299 0.025639661649217372 0 0.0012106538184747317 0.025654509602087074 0 0.0012341957876869018 0.025685887699159058 0 0.0012106538184747317 0.025654509602087074 0 0.0012004308515883757 0.025689200874251694 0 0.0012675683791659221 0.02571450589051278 0 0.0012341957876869018 0.025685887699159058 0 0.0012898189852162299 0.025639661649217372 0 0.00052828895653217749 0.034898153581472809 0 0.00048950215360563998 0.034980597872522785 0 0.00045267294802981643 0.034938950586776159 0 0.00072628924710811313 0.029302199031107382 0 8.458491796529998e-05 0.026673582345562812 0 8.458491796529998e-05 0.026673582345562812 0 0.00072267807155663088 0.023815604583013142 0 9.5818603711963487e-05 0.020568820777823484 0 0.00032407765083120976 0.020602391113268233 0 0.00032673661073124162 0.02069505836310806 0 0.00032407765083120976 0.020602391113268233 0 0.00030813364302551823 0.020619672398680764 0 0.00032673661073124162 0.02069505836310806 0 0.00032407765083120976 0.020602391113268233 0 0.00030813364302551823 0.020619672398680764 0 0.00030401433744985432 0.020712149005263667 0 0.00030813364302551823 0.020619672398680764 0 0.00024975715444252038 0.020625879640546352 0 0.00027583899853897068 0.020641317936188768 0 0.0012106538184747317 0.025654509602087074 0 0.0011733325753596222 0.025686499568323029 0 0.00113767826557421 0.025663512262116682 0 0.00072267807155663088 0.023815604583013142 0 0.00079509560835777432 0.021582425419387395 0 0.0012106538184747317 0.025654509602087074 0 0.0011733325753596222 0.025686499568323029 0 0.0012004308515883757 0.025689200874251694 0 0.0033780465501486393 0.016386372745868724 0 0.0027888194974460328 0.015606556959261735 0 0.0021184475987505768 0.016272190498650432 0 0.0012414882569422765 0.022058163370614264 0 0.00079509560835777432 0.021582425419387395 0 0.0011733325753596222 0.025686499568323029 0 0.0011470763720799659 0.025688420776424397 0 0.00113767826557421 0.025663512262116682 0 0.00032246409302521146 0.02057785629112624 0 0.00042175853309190753 0.018681755888391417 0 -2.3768576883366621e-05 0.020333324425466801 0 0.00030401433744985432 0.020712149005263667 0 0.00032246409302521146 0.02057785629112624 0 -2.3768576883366621e-05 0.020333324425466801 0 0.00030813364302551823 0.020619672398680764 0 0.00030401433744985432 0.020712149005263667 0 0.00032246409302521146 0.02057785629112624 0 0.00079509560835777432 0.021582425419387395 0 0.0004140526104965519 0.019069461016109322 0 0.00032246409302521146 0.02057785629112624 0 0.00024975715444252038 0.020625879640546352 0 0.00013997804941566185 0.020623162154293953 0 0.00030813364302551823 0.020619672398680764 0 0.00032246409302521146 0.02057785629112624 0 0.00024975715444252038 0.020625879640546352 0 0.00028062977135243902 0.019684617306105077 0 0.0002068219760553532 0.019213209633827975 0 0.00032246409302521146 0.02057785629112624 0 0.00013997804941566185 0.020623162154293953 0 -9.8187244238166421e-05 0.020615264297964363 0 0.00024975715444252038 0.020625879640546352 0 0.00013997804941566185 0.020623162154293953 0 0.00027583899853897068 0.020641317936188768 0 0.00013997804941566185 0.020623162154293953 0 0.00027583899853897068 0.020641317936188768 0 0.00016445730312889735 0.020517338226082558 0 0.00013997804941566185 0.020623162154293953 0 -9.8187244238166421e-05 0.020615264297964363 0 0.00016445730312889735 0.020517338226082558 0 0.00027583899853897068 0.020641317936188768 0 0.00031704471112055323 0.020614976819227394 0 0.00032673661073124162 0.02069505836310806 0 0.00030813364302551823 0.020619672398680764 0 0.00027583899853897068 0.020641317936188768 0 0.00032673661073124162 0.02069505836310806 0 0.00027583899853897068 0.020641317936188768 0 0.00031704471112055323 0.020614976819227394 0 0.00016445730312889735 0.020517338226082558 0 0.00031704471112055323 0.020614976819227394 0 0.00026182377744824511 0.020317951222986852 0 0.00037179211105590462 0.020771044977052216 0 0.00031704471112055323 0.020614976819227394 0 0.00026182377744824511 0.020317951222986852 0 0.00016445730312889735 0.020517338226082558 0 -9.8187244238166421e-05 0.020615264297964363 0 -2.3420892204517087e-05 0.020117994230990664 0 -0.00060405986309615921 0.019581803690116775 0 -9.8187244238166421e-05 0.020615264297964363 0 0.00016445730312889735 0.020517338226082558 0 -2.3420892204517087e-05 0.020117994230990664 0 0.00026182377744824511 0.020317951222986852 0 0.00016445730312889735 0.020517338226082558 0 -2.3420892204517087e-05 0.020117994230990664 0 0.00026182377744824511 0.020317951222986852 0 -2.3420892204517087e-05 0.020117994230990664 0 6.757800372300069e-05 0.019253922244434649 0 -2.3420892204517087e-05 0.020117994230990664 0 6.757800372300069e-05 0.019253922244434649 0 -0.00060405986309615921 0.019581803690116775 0 0.00026182377744824511 0.020317951222986852 0 6.757800372300069e-05 0.019253922244434649 0 0.00025683097667361703 0.020252840749473977 0 0.00026182377744824511 0.020317951222986852 0 0.00025683097667361703 0.020252840749473977 0 0.00037179211105590462 0.020771044977052216 0 9.9766019409912849e-07 0.01867007177715798 0 5.4101883300848358e-07 0.020595172680248793 0 0.00025683097667361703 0.020252840749473977 0 6.757800372300069e-05 0.019253922244434649 0 9.9766019409912849e-07 0.01867007177715798 0 0.00025683097667361703 0.020252840749473977 0 6.757800372300069e-05 0.019253922244434649 0 9.9766019409912849e-07 0.01867007177715798 0 -2.4127940731780035e-06 0.016748354795437251 0 5.4101883300848358e-07 0.020595172680248793 0 0.00024965426412971612 0.021586811906162802 0 -3.1466443369910947e-07 0.022519874231267289 0 5.4101883300848358e-07 0.020595172680248793 0 0.00025683097667361703 0.020252840749473977 0 0.00024965426412971612 0.021586811906162802 0 0.00025683097667361703 0.020252840749473977 0 0.00024965426412971612 0.021586811906162802 0 0.00037179211105590462 0.020771044977052216 0 0.00024965426412971612 0.021586811906162802 0 0.00021836996373831509 0.020882306020768144 0 -0.00019635328170688999 0.021073391409403612 0 0.00024965426412971612 0.021586811906162802 0 0.00037179211105590462 0.020771044977052216 0 0.00021836996373831509 0.020882306020768144 0 0.00037179211105590462 0.020771044977052216 0 0.00032673661073124162 0.02069505836310806 0 0.00021836996373831509 0.020882306020768144 0 0.00031704471112055323 0.020614976819227394 0 0.00037179211105590462 0.020771044977052216 0 0.00032673661073124162 0.02069505836310806 0 9.5818603711963487e-05 0.020568820777823484 0 0.00032673661073124162 0.02069505836310806 0 0.00021836996373831509 0.020882306020768144 0 -0.0016443617431538219 0.026663624297106697 0 -0.0011912211772400491 0.025513517490920162 0 -0.00041251320921367523 0.026408047217056124 0 9.5818603711963487e-05 0.020568820777823484 0 0.00021836996373831509 0.020882306020768144 0 -0.00019635328170688999 0.021073391409403612 0 8.458491796529998e-05 0.026673582345562812 0 0.0001390388621721331 0.024080097994195832 0 -0.0011912211772400491 0.025513517490920162 0 4.2164417733087933e-05 0.025337156369924937 0 -0.00041251320921367523 0.026408047217056124 0 0.0001390388621721331 0.024080097994195832 0 9.0856050327187864e-05 0.023623872327677639 0 -0.0011912211772400491 0.025513517490920162 0 -0.0003537996411599234 0.023447027511913819 0 4.2164417733087933e-05 0.025337156369924937 0 0.00024965426412971612 0.021586811906162802 0 -0.00019635328170688999 0.021073391409403612 0 -0.0003537996411599234 0.023447027511913819 0 -0.0003537996411599234 0.023447027511913819 0 -3.1466443369910947e-07 0.022519874231267289 0 -4.545535212068704e-08 0.024444400152633928 0 0.00024965426412971612 0.021586811906162802 0 -0.0003537996411599234 0.023447027511913819 0 -3.1466443369910947e-07 0.022519874231267289 0 -4.545535212068704e-08 0.024444400152633928 0 0.00010784994557534089 0.024643796928920554 0 4.5807691952579774e-07 0.026368948591822861 0 -0.0003537996411599234 0.023447027511913819 0 -4.545535212068704e-08 0.024444400152633928 0 0.00010784994557534089 0.024643796928920554 0 0.00010784994557534089 0.024643796928920554 0 0.00035652674690897425 0.025550608056130509 0 4.2164417733087933e-05 0.025337156369924937 0 -0.0003537996411599234 0.023447027511913819 0 0.00010784994557534089 0.024643796928920554 0 4.2164417733087933e-05 0.025337156369924937 0 0.00010784994557534089 0.024643796928920554 0 0.00035652674690897425 0.025550608056130509 0 4.5807691952579774e-07 0.026368948591822861 0 0.00035652674690897425 0.025550608056130509 0 0.00044701204653323456 0.026083987264253695 0 0.00046687267951174745 0.026063206251358141 0 0.00035652674690897425 0.025550608056130509 0 4.2164417733087933e-05 0.025337156369924937 0 0.00044701204653323456 0.026083987264253695 0 4.2164417733087933e-05 0.025337156369924937 0 0.00044701204653323456 0.026083987264253695 0 -0.00041251320921367523 0.026408047217056124 0 0.00029909216869417168 0.035033875062025398 0 0.00032412007129485078 0.034960054072534524 0 0.00023960798170842139 0.034992940423052357 0 0.00028450367892882887 0.03495445662922126 0 0.00024436135869958291 0.03493517014442183 0 0.00032412007129485078 0.034960054072534524 0 0.00033007525906175288 0.034914280720667545 0 0.00026384489278371659 0.034918013280326246 0 0.00032412007129485078 0.034960054072534524 0 0.00039705721268613441 0.034928160720528859 0 0.00033007525906175288 0.034914280720667545 0 0.00032412007129485078 0.034960054072534524 0 0.00039627185663193727 0.035006784530876682 0 0.00039705721268613441 0.034928160720528859 0 0.00029909216869417168 0.035033875062025398 0 0.00032412007129485078 0.034960054072534524 0 0.00039627185663193727 0.035006784530876682 0 0.00016521848672083607 0.030218607440322624 0 -0.00017066435360289312 0.02905859467013434 0 8.458491796529998e-05 0.026673582345562812 0 -0.00017066435360289312 0.02905859467013434 0 0.00048950215360563998 0.034980597872522785 0 0.00039627185663193727 0.035006784530876682 0 0.00045267294802981643 0.034938950586776159 0 0.00039627185663193727 0.035006784530876682 0 0.00045267294802981643 0.034938950586776159 0 0.00039705721268613441 0.034928160720528859 0 0.00039705721268613441 0.034928160720528859 0 0.00040776956657941651 0.034880423426672975 0 0.00036700580435480119 0.03488085410079967 0 0.00039705721268613441 0.034928160720528859 0 0.00040776956657941651 0.034880423426672975 0 0.00045303641543548498 0.034881156430944665 0 0.00040776956657941651 0.034880423426672975 0 0.00045303641543548498 0.034881156430944665 0 0.00042874028809083736 0.034845383550235615 0 0.00040776956657941651 0.034880423426672975 0 0.0003970435979023236 0.03485940881994911 0 0.00036700580435480119 0.03488085410079967 0 0.00045267294802981643 0.034938950586776159 0 0.00039705721268613441 0.034928160720528859 0 0.00045303641543548498 0.034881156430944665 0 0.00052828895653217749 0.034898153581472809 0 0.00045267294802981643 0.034938950586776159 0 0.00045303641543548498 0.034881156430944665 0 0.00045303641543548498 0.034881156430944665 0 0.00048794434807386284 0.034849792367530656 0 0.00045890993655411716 0.034844324918351773 0 0.00048794434807386284 0.034849792367530656 0 0.00045890993655411716 0.034844324918351773 0 0.00047319715357184373 0.034822057725687576 0 0.00045303641543548498 0.034881156430944665 0 0.00045890993655411716 0.034844324918351773 0 0.00042874028809083736 0.034845383550235615 0 0.00045890993655411716 0.034844324918351773 0 0.00045160722175771031 0.034823092003486829 0 0.00042874028809083736 0.034845383550235615 0 0.00043340321407612619 0.034819111253240331 0 0.00045160722175771031 0.034823092003486829 0 0.00042874028809083736 0.034845383550235615 0 0.00043340321407612619 0.034819111253240331 0 0.00044440811167679041 0.034813610225268209 0 0.00045160722175771031 0.034823092003486829 0 0.00046415218942014413 0.034802221039412516 0 0.00044440811167679041 0.034813610225268209 0 0.00045160722175771031 0.034823092003486829 0 0.00049483920546726284 0.034810453821502177 0 0.00048794434807386284 0.034849792367530656 0 0.00047319715357184373 0.034822057725687576 0 0.00045890993655411716 0.034844324918351773 0 0.00045160722175771031 0.034823092003486829 0 0.00047319715357184373 0.034822057725687576 0 0.00046415218942014413 0.034802221039412516 0 0.00045160722175771031 0.034823092003486829 0 0.00047319715357184373 0.034822057725687576 0 0.00047694873480912608 0.034805382297248132 0 0.00046415218942014413 0.034802221039412516 0 0.00047319715357184373 0.034822057725687576 0 0.00047694873480912608 0.034805382297248132 0 0.00049483920546726284 0.034810453821502177 0 0.00047319715357184373 0.034822057725687576 0 0.0003970435979023236 0.03485940881994911 0 0.00040483292726204578 0.034837634278529865 0 0.00037821214548458819 0.034852326692693288 0 0.00040776956657941651 0.034880423426672975 0 0.0003970435979023236 0.03485940881994911 0 0.00042874028809083736 0.034845383550235615 0 0.0003970435979023236 0.03485940881994911 0 0.00042874028809083736 0.034845383550235615 0 0.00040483292726204578 0.034837634278529865 0 0.00043340321407612619 0.034819111253240331 0 0.00042874028809083736 0.034845383550235615 0 0.00042080226110673943 0.03483142838053789 0 0.00042874028809083736 0.034845383550235615 0 0.00042080226110673943 0.03483142838053789 0 0.00040483292726204578 0.034837634278529865 0 0.00043340321407612619 0.034819111253240331 0 0.00042080226110673943 0.03483142838053789 0 0.00041552530577246261 0.034822463715817972 0 0.00042080226110673943 0.03483142838053789 0 0.00041552530577246261 0.034822463715817972 0 0.00040483292726204578 0.034837634278529865 0 0.00039822136961550599 0.034822286517250514 0 0.00040483292726204578 0.034837634278529865 0 0.00038752731409181606 0.034833210413577134 0 0.00040483292726204578 0.034837634278529865 0 0.00038752731409181606 0.034833210413577134 0 0.00037821214548458819 0.034852326692693288 0 0.00039822136961550599 0.034822286517250514 0 0.00041552530577246261 0.034822463715817972 0 0.00040483292726204578 0.034837634278529865 0 0.00034776647208701299 0.034853294975805846 0 0.00031601914101403537 0.034884618955753365 0 0.00036700580435480119 0.03488085410079967 0 0.00037163199970741503 0.034831708744624053 0 0.00038752731409181606 0.034833210413577134 0 0.00037821214548458819 0.034852326692693288 0 0.00037163199970741503 0.034831708744624053 0 0.00037821214548458819 0.034852326692693288 0 0.00034776647208701299 0.034853294975805846 0 0.00037821214548458819 0.034852326692693288 0 0.00034776647208701299 0.034853294975805846 0 0.00036700580435480119 0.03488085410079967 0 0.0003970435979023236 0.03485940881994911 0 0.00037821214548458819 0.034852326692693288 0 0.00036700580435480119 0.03488085410079967 0 0.00034916286762225933 0.034830209414941457 0 0.00037163199970741503 0.034831708744624053 0 0.00034776647208701299 0.034853294975805846 0 0.0003092593126006861 0.034844109179601068 0 0.00034776647208701299 0.034853294975805846 0 0.00031601914101403537 0.034884618955753365 0 0.0003092593126006861 0.034844109179601068 0 0.00031601914101403537 0.034884618955753365 0 0.00026384489278371659 0.034918013280326246 0 0.0003092593126006861 0.034844109179601068 0 0.00034916286762225933 0.034830209414941457 0 0.00034776647208701299 0.034853294975805846 0 0.00031601914101403537 0.034884618955753365 0 0.00033007525906175288 0.034914280720667545 0 0.00026384489278371659 0.034918013280326246 0 0.00031601914101403537 0.034884618955753365 0 0.00033007525906175288 0.034914280720667545 0 0.00036700580435480119 0.03488085410079967 0 0.00039705721268613441 0.034928160720528859 0 0.00033007525906175288 0.034914280720667545 0 0.00036700580435480119 0.03488085410079967 0 0.00024436135869958291 0.03493517014442183 0 0.00018069727977992512 0.034907036481225201 0 0.00022742892675878587 0.034937382376062996 0 0.00015798277008751554 0.034922553021148481 0 0.00017590405639650051 0.034980329565744338 0 0.00024410900124593649 0.034857813326172798 0 0.0003092593126006861 0.034844109179601068 0 0.00026384489278371659 0.034918013280326246 0 0.00024410900124593649 0.034857813326172798 0 0.00026384489278371659 0.034918013280326246 0 0.00019872263500514547 0.034897414924910865 0 0.00014211297005882592 0.034890095143621569 0 0.00018069727977992512 0.034907036481225201 0 0.00010463463001667806 0.034893547349153717 0 0.00015798277008751554 0.034922553021148481 0 0.00010933867741605819 0.034940689038067137 0 0.00010933867741605819 0.034940689038067137 0 0.00012754532251444913 0.034965524430121901 0 8.7674837708129103e-05 0.03496670466328728 0 0.00012754532251444913 0.034965524430121901 0 0.00010246851816295336 0.034987094257623412 0 8.7674837708129103e-05 0.03496670466328728 0 0.00015798277008751554 0.034922553021148481 0 0.00010933867741605819 0.034940689038067137 0 0.00012754532251444913 0.034965524430121901 0 0.00015798277008751554 0.034922553021148481 0 0.00012754532251444913 0.034965524430121901 0 0.00017590405639650051 0.034980329565744338 0 0.00012754532251444913 0.034965524430121901 0 0.00012639632449163037 0.035002884158937736 0 0.00017590405639650051 0.034980329565744338 0 0.00012754532251444913 0.034965524430121901 0 0.00010246851816295336 0.034987094257623412 0 0.00012639632449163037 0.035002884158937736 0 0.00010246851816295336 0.034987094257623412 0 0.00012639632449163037 0.035002884158937736 0 8.862069586130036e-05 0.035008190343248223 0 0.00012639632449163037 0.035002884158937736 0 9.8238394521596683e-05 0.035032684265722439 0 8.862069586130036e-05 0.035008190343248223 0 0.00012639632449163037 0.035002884158937736 0 9.8238394521596683e-05 0.035032684265722439 0 0.00013278865045009808 0.035031321766548204 0 0.00012639632449163037 0.035002884158937736 0 0.00015960890301860005 0.035012399494955028 0 0.00017590405639650051 0.034980329565744338 0 0.00012639632449163037 0.035002884158937736 0 0.00015960890301860005 0.035012399494955028 0 0.00013278865045009808 0.035031321766548204 0 0.00015960890301860005 0.035012399494955028 0 0.00013278865045009808 0.035031321766548204 0 0.00017042717099759056 0.035037944658798198 0 0.00019005395072949584 0.035014160367817522 0 0.00023960798170842139 0.034992940423052357 0 0.00020718911977321439 0.035050127746696545 0 0.00019005395072949584 0.035014160367817522 0 0.00017590405639650051 0.034980329565744338 0 0.00023960798170842139 0.034992940423052357 0 0.00015960890301860005 0.035012399494955028 0 0.00019005395072949584 0.035014160367817522 0 0.00017042717099759056 0.035037944658798198 0 0.00015960890301860005 0.035012399494955028 0 0.00019005395072949584 0.035014160367817522 0 0.00017590405639650051 0.034980329565744338 0 0.00032412007129485078 0.034960054072534524 0 0.00022742892675878587 0.034937382376062996 0 0.00023960798170842139 0.034992940423052357 0 0.00022742892675878587 0.034937382376062996 0 0.00017590405639650051 0.034980329565744338 0 0.00023960798170842139 0.034992940423052357 0 0.00029909216869417168 0.035033875062025398 0 0.00023960798170842139 0.034992940423052357 0 0.00020718911977321439 0.035050127746696545 0 0.00016521848672083607 0.030218607440322624 0 0.00028897625295708944 0.031159496807141227 0 0.00044701204653323456 0.026083987264253695 0 0.00042657831939836571 0.026057871360172628 0 0.00046687267951174745 0.026063206251358141 0 0.00042657831939836571 0.026057871360172628 0 0.00019466679992687731 0.026474869311129235 0 -0.00029932042255781231 0.026158903951081128 0 0.00028897625295708944 0.031159496807141227 0 0.00018281016389887165 0.032545314854457282 0 0.00019005395072949584 0.035014160367817522 0 0.00020718911977321439 0.035050127746696545 0 0.00017042717099759056 0.035037944658798198 0 0.00042657831939836571 0.026057871360172628 0 0.00019466679992687731 0.026474869311129235 0 0.00046687267951174745 0.026063206251358141 0 0.00019466679992687731 0.026474869311129235 0 0.00046687267951174745 0.026063206251358141 0 0.00031193495675096235 0.0266529905946064 0 0.00035652674690897425 0.025550608056130509 0 0.00046687267951174745 0.026063206251358141 0 0.00031193495675096235 0.0266529905946064 0 0.00035652674690897425 0.025550608056130509 0 0.00031193495675096235 0.0266529905946064 0 4.5807691952579774e-07 0.026368948591822861 0 0.00031193495675096235 0.0266529905946064 0 1.3089510623803038e-06 0.028294206601689142 0 -3.4889977205305286e-05 0.027277863755439051 0 0.00019466679992687731 0.026474869311129235 0 0.00031193495675096235 0.0266529905946064 0 -3.4889977205305286e-05 0.027277863755439051 0 0.00031193495675096235 0.0266529905946064 0 1.3089510623803038e-06 0.028294206601689142 0 4.5807691952579774e-07 0.026368948591822861 0 -0.00018601101417339727 0.028376319707328759 0 -3.2400472543647104e-06 0.030215475547202778 0 -0.0014942874106860305 0.028369147276402693 0 -9.396536180824995e-07 0.030220202324932673 0 -0.00020778175635118495 0.030819618962019339 0 1.3089510623803038e-06 0.028294206601689142 0 -0.00018601101417339727 0.028376319707328759 0 -3.4889977205305286e-05 0.027277863755439051 0 1.3089510623803038e-06 0.028294206601689142 0 -0.00018601101417339727 0.028376319707328759 0 -3.2400472543647104e-06 0.030215475547202778 0 -0.00018601101417339727 0.028376319707328759 0 -0.00090698323905127865 0.027539521675988683 0 -0.0014942874106860305 0.028369147276402693 0 -3.4889977205305286e-05 0.027277863755439051 0 -0.00090698323905127865 0.027539521675988683 0 -0.001020241056546186 0.026662908829924968 0 -0.00018601101417339727 0.028376319707328759 0 -3.4889977205305286e-05 0.027277863755439051 0 -0.00090698323905127865 0.027539521675988683 0 0.000184043284159344 0.032225546610113794 0 0.00018281016389887165 0.032545314854457282 0 -3.4889977205305286e-05 0.027277863755439051 0 -0.001020241056546186 0.026662908829924968 0 -0.00029932042255781231 0.026158903951081128 0 9.5901747800686962e-05 0.035071914260393619 0 0.00013143759324206594 0.035045305853741597 0 9.5624279028652469e-05 0.035057576561923307 0 0.00019466679992687731 0.026474869311129235 0 -3.4889977205305286e-05 0.027277863755439051 0 -0.00029932042255781231 0.026158903951081128 0 0.00020718911977321439 0.035050127746696545 0 0.00013612247002938721 0.035053408099289446 0 0.00017042717099759056 0.035037944658798198 0 0.00013278865045009808 0.035031321766548204 0 0.0001337782871538546 0.035057622597394811 0 0.00017042717099759056 0.035037944658798198 0 0.00018281016389887165 0.032545314854457282 0 -8.3131478177030958e-05 0.032959726260001064 0 0.0001337782871538546 0.035057622597394811 0 9.5624279028652469e-05 0.035057576561923307 0 0.0001106209696128422 0.035046032242664699 0 0.00018281016389887165 0.032545314854457282 0 4.7184645196434806e-05 0.032831432604660066 0 9.5624279028652469e-05 0.035057576561923307 0 0.0001106209696128422 0.035046032242664699 0 9.2422033022386411e-05 0.035047421126333224 0 0.00013278865045009808 0.035031321766548204 0 0.0001337782871538546 0.035057622597394811 0 0.0001106209696128422 0.035046032242664699 0 9.8238394521596683e-05 0.035032684265722439 0 0.00013278865045009808 0.035031321766548204 0 0.0001106209696128422 0.035046032242664699 0 9.8238394521596683e-05 0.035032684265722439 0 0.0001106209696128422 0.035046032242664699 0 9.2422033022386411e-05 0.035047421126333224 0 9.8238394521596683e-05 0.035032684265722439 0 9.2422033022386411e-05 0.035047421126333224 0 7.6112187168470602e-05 0.035044647944251939 0 9.8238394521596683e-05 0.035032684265722439 0 7.6112187168470602e-05 0.035044647944251939 0 6.9307534750626828e-05 0.035027053654629096 0 7.6112187168470602e-05 0.035044647944251939 0 5.6310157437459487e-05 0.035040242679015045 0 6.9307534750626828e-05 0.035027053654629096 0 7.6112187168470602e-05 0.035044647944251939 0 6.3732525716508784e-05 0.035059723133113167 0 8.1037373597301252e-05 0.035059140331438192 0 7.6112187168470602e-05 0.035044647944251939 0 6.3732525716508784e-05 0.035059723133113167 0 5.6310157437459487e-05 0.035040242679015045 0 9.2422033022386411e-05 0.035047421126333224 0 7.6112187168470602e-05 0.035044647944251939 0 8.1037373597301252e-05 0.035059140331438192 0 9.5624279028652469e-05 0.035057576561923307 0 9.2422033022386411e-05 0.035047421126333224 0 8.1037373597301252e-05 0.035059140331438192 0 6.3732525716508784e-05 0.035059723133113167 0 3.2248480946391924e-05 0.035046953141470126 0 5.6310157437459487e-05 0.035040242679015045 0 3.2248480946391924e-05 0.035046953141470126 0 5.6310157437459487e-05 0.035040242679015045 0 4.0895168315751555e-05 0.035022504613854324 0 5.4241672512529841e-05 0.03283904162858306 0 0.00022754428096921281 0.034012762178528284 0 6.3732525716508784e-05 0.035059723133113167 0 3.2248480946391924e-05 0.035046953141470126 0 6.4623468840345366e-05 0.035089348692162237 0 -4.7743962141673103e-05 0.034920933165087251 0 -3.8499593471735485e-05 0.034914785002472679 0 -2.1067918740905934e-06 0.034941282600106142 0 -1.113433301114368e-05 0.034979145174244747 0 -4.7743962141673103e-05 0.034920933165087251 0 -2.1067918740905934e-06 0.034941282600106142 0 0.0004903217572205038 0.034352801538213969 0 0.00022943579143008404 0.032447189734823807 0 0.000184043284159344 0.032225546610113794 0 0.00022943579143008404 0.032447189734823807 0 9.5901747800686962e-05 0.035071914260393619 0 7.5610640805362823e-05 0.035071397364240676 0 6.4623468840345366e-05 0.035089348692162237 0 -0.00090698323905127865 0.027539521675988683 0 -0.001020241056546186 0.026662908829924968 0 -0.0021089857791338654 0.027276079259357437 0 6.3732525716508784e-05 0.035059723133113167 0 7.5610640805362823e-05 0.035071397364240676 0 6.4623468840345366e-05 0.035089348692162237 0 9.5901747800686962e-05 0.035071914260393619 0 8.1037373597301252e-05 0.035059140331438192 0 7.5610640805362823e-05 0.035071397364240676 0 9.5901747800686962e-05 0.035071914260393619 0 9.5624279028652469e-05 0.035057576561923307 0 8.1037373597301252e-05 0.035059140331438192 0 6.3732525716508784e-05 0.035059723133113167 0 8.1037373597301252e-05 0.035059140331438192 0 7.5610640805362823e-05 0.035071397364240676 0 -0.00090698323905127865 0.027539521675988683 0 -0.0021089857791338654 0.027276079259357437 0 -0.0014942874106860305 0.028369147276402693 0 7.1487307262028146e-05 0.031501355277142956 0 8.3648758329771397e-05 0.031471967913007423 0 -9.0879096546106357e-06 0.031408196779714778 0 0.00022943579143008404 0.032447189734823807 0 -0.00020778175635118495 0.030819618962019339 0 7.5251762373780142e-05 0.031502370940799489 0 8.3648758329771397e-05 0.031471967913007423 0 -9.0879096546106357e-06 0.031408196779714778 0 9.5153527193039422e-06 0.033244985719722814 0 -8.9683734164149306e-07 0.033252116337288591 0 -5.1550379467089683e-06 0.033237269810679863 0 0.00022943579143008404 0.032447189734823807 0 5.4241672512529841e-05 0.03283904162858306 0 7.5251762373780142e-05 0.031502370940799489 0 8.3648758329771397e-05 0.031471967913007423 0 0.00010299952044262141 0.031483679676673156 0 8.3648758329771397e-05 0.031471967913007423 0 4.3827446136795996e-05 0.031404402269830503 0 2.8346498783335272e-05 0.031490886185606692 0 4.5991811116724744e-05 0.032828294122574972 0 5.4241672512529841e-05 0.03283904162858306 0 5.4241672512529841e-05 0.03283904162858306 0 5.7781873188476394e-05 0.033169753982561098 0 4.3827446136795996e-05 0.031404402269830503 0 -0.00028232625813081371 0.031465549480808236 0 2.8346498783335272e-05 0.031490886185606692 0 7.1487307262028146e-05 0.031501355277142956 0 2.8346498783335272e-05 0.031490886185606692 0 0.00012364004757805725 0.031669322629640194 0 -0.00028232625813081371 0.031465549480808236 0 2.8346498783335272e-05 0.031490886185606692 0 0.00012364004757805725 0.031669322629640194 0 7.1487307262028146e-05 0.031501355277142956 0 8.3648758329771397e-05 0.031471967913007423 0 2.8346498783335272e-05 0.031490886185606692 0 -0.00028232625813081371 0.031465549480808236 0 0.00012364004757805725 0.031669322629640194 0 8.0827759576815127e-09 0.032324421572507131 0 5.7781873188476394e-05 0.033169753982561098 0 -1.7756972797562516e-07 0.032329043195249429 0 -6.4397868930291777e-09 0.030222714047906721 0 0.00012364004757805725 0.031669322629640194 0 8.0827759576815127e-09 0.032324421572507131 0 -6.4397868930291777e-09 0.030222714047906721 0 0.00012364004757805725 0.031669322629640194 0 -9.0879096546106357e-06 0.031408196779714778 0 7.1487307262028146e-05 0.031501355277142956 0 0.00012364004757805725 0.031669322629640194 0 -9.0879096546106357e-06 0.031408196779714778 0 -3.9452651519037964e-07 0.032330962569945929 0 2.7084730283747807e-07 0.034998168310317421 0 -1.3861221203343931e-05 0.034620084454928465 0 2.7084730283747807e-07 0.034998168310317421 0 -1.1308453940712818e-05 0.034918860046662024 0 -1.4280011822917608e-07 0.035000721017482798 0 2.7084730283747807e-07 0.034998168310317421 0 -1.3861221203343931e-05 0.034620084454928465 0 -1.1308453940712818e-05 0.034918860046662024 0 -1.3861221203343931e-05 0.034620084454928465 0 -9.521253616651144e-05 0.034751994164047693 0 -1.1308453940712818e-05 0.034918860046662024 0 -1.5448646837626157e-05 0.033540190492667488 0 -1.7238379369047759e-05 0.033452798945781764 0 -0.00015272184278244274 0.033488001315888034 0 -3.9452651519037964e-07 0.032330962569945929 0 9.322715298841273e-05 0.033472110777667687 0 -3.9452651519037964e-07 0.032330962569945929 0 -1.3861221203343931e-05 0.034620084454928465 0 9.322715298841273e-05 0.033472110777667687 0 5.7781873188476394e-05 0.033169753982561098 0 -1.7238379369047759e-05 0.033452798945781764 0 5.7781873188476394e-05 0.033169753982561098 0 0.00022754428096921281 0.034012762178528284 0 -9.521253616651144e-05 0.034751994164047693 0 -0.00010212157384973377 0.034883085520761456 0 -1.1308453940712818e-05 0.034918860046662024 0 -0.00017723350665265256 0.034852905089686789 0 -0.00010212157384973377 0.034883085520761456 0 -0.00011204045956430941 0.034970963553016612 0 -0.00017723350665265256 0.034852905089686789 0 -9.521253616651144e-05 0.034751994164047693 0 -0.00010212157384973377 0.034883085520761456 0 -0.00010212157384973377 0.034883085520761456 0 -1.1308453940712818e-05 0.034918860046662024 0 -0.00011204045956430941 0.034970963553016612 0 -1.1308453940712818e-05 0.034918860046662024 0 -3.2072028643305806e-05 0.034986931540538953 0 -1.4280011822917608e-07 0.035000721017482798 0 -1.1308453940712818e-05 0.034918860046662024 0 -3.2072028643305806e-05 0.034986931540538953 0 -0.00011204045956430941 0.034970963553016612 0 0.00012497647405643094 0.034565416084922237 0 0.00022754428096921281 0.034012762178528284 0 0.00022754428096921281 0.034012762178528284 0 0.00027240924313520803 0.034615468777579914 0 -1.113433301114368e-05 0.034979145174244747 0 -2.1067918740905934e-06 0.034941282600106142 0 1.0527637844787941e-06 0.034992554037807364 0 7.7496228568239502e-07 0.034996928039233308 0 4.1253648371260306e-06 0.03499748119353055 0 1.0527637844787941e-06 0.034992554037807364 0 7.7496228568239502e-07 0.034996928039233308 0 -4.9462621926477533e-09 0.034999972931629687 0 1.0527637844787941e-06 0.034992554037807364 0 0.00012497647405643094 0.034565416084922237 0 5.3866013437005148e-07 0.034998772843133921 0 3.3967400195845891e-06 0.035002851688581076 0 9.0619333376361907e-09 0.035000017646692742 0 1.0527637844787941e-06 0.034992554037807364 0 -4.9462621926477533e-09 0.034999972931629687 0 9.0619333376361907e-09 0.035000017646692742 0 1.0527637844787941e-06 0.034992554037807364 0 3.3967400195845891e-06 0.035002851688581076 0 9.0619333376361907e-09 0.035000017646692742 0 5.5383759280002619e-06 0.034992477830319078 0 3.3967400195845891e-06 0.035002851688581076 0 1.5887031710358876e-05 0.034994546530890097 0 5.5383759280002619e-06 0.034992477830319078 0 3.3967400195845891e-06 0.035002851688581076 0 1.5887031710358876e-05 0.034994546530890097 0 3.1643678516417458e-05 0.035003063944635933 0 3.2248480946391924e-05 0.035046953141470126 0 3.3967400195845891e-06 0.035002851688581076 0 4.0895168315751555e-05 0.035022504613854324 0 -1.113433301114368e-05 0.034979145174244747 0 3.3967400195845891e-06 0.035002851688581076 0 1.0527637844787941e-06 0.034992554037807364 0 0.0004903217572205038 0.034352801538213969 0 0.00041699968352959971 0.034642369412619993 0 3.3967400195845891e-06 0.035002851688581076 0 4.0895168315751555e-05 0.035022504613854324 0 3.1643678516417458e-05 0.035003063944635933 0 5.6310157437459487e-05 0.035040242679015045 0 4.0895168315751555e-05 0.035022504613854324 0 6.9307534750626828e-05 0.035027053654629096 0 4.0895168315751555e-05 0.035022504613854324 0 6.9307534750626828e-05 0.035027053654629096 0 5.7653796365819451e-05 0.035005852827112188 0 4.0895168315751555e-05 0.035022504613854324 0 3.1643678516417458e-05 0.035003063944635933 0 5.7653796365819451e-05 0.035005852827112188 0 9.8238394521596683e-05 0.035032684265722439 0 6.9307534750626828e-05 0.035027053654629096 0 8.862069586130036e-05 0.035008190343248223 0 6.9307534750626828e-05 0.035027053654629096 0 8.862069586130036e-05 0.035008190343248223 0 5.7653796365819451e-05 0.035005852827112188 0 0.00010246851816295336 0.034987094257623412 0 8.862069586130036e-05 0.035008190343248223 0 7.6190704187265425e-05 0.034990425799808642 0 8.862069586130036e-05 0.035008190343248223 0 7.6190704187265425e-05 0.034990425799808642 0 5.7653796365819451e-05 0.035005852827112188 0 7.6190704187265425e-05 0.034990425799808642 0 5.7653796365819451e-05 0.035005852827112188 0 4.3842448793818099e-05 0.034985397336306047 0 0.00010246851816295336 0.034987094257623412 0 7.6190704187265425e-05 0.034990425799808642 0 8.7674837708129103e-05 0.03496670466328728 0 1.5887031710358876e-05 0.034994546530890097 0 3.1643678516417458e-05 0.035003063944635933 0 4.3842448793818099e-05 0.034985397336306047 0 3.1643678516417458e-05 0.035003063944635933 0 5.7653796365819451e-05 0.035005852827112188 0 4.3842448793818099e-05 0.034985397336306047 0 1.5887031710358876e-05 0.034994546530890097 0 4.3842448793818099e-05 0.034985397336306047 0 2.0596886728570613e-05 0.034976670977999939 0 4.3842448793818099e-05 0.034985397336306047 0 5.8748888208836213e-05 0.034953214947805872 0 2.0596886728570613e-05 0.034976670977999939 0 4.3842448793818099e-05 0.034985397336306047 0 8.7674837708129103e-05 0.03496670466328728 0 5.8748888208836213e-05 0.034953214947805872 0 0.00010933867741605819 0.034940689038067137 0 8.7674837708129103e-05 0.03496670466328728 0 5.8748888208836213e-05 0.034953214947805872 0 7.6190704187265425e-05 0.034990425799808642 0 4.3842448793818099e-05 0.034985397336306047 0 8.7674837708129103e-05 0.03496670466328728 0 1.4768343214356517e-05 0.034933133229921615 0 0.00010463463001667806 0.034893547349153717 0 5.8748888208836213e-05 0.034953214947805872 0 0.00010463463001667806 0.034893547349153717 0 0.00010933867741605819 0.034940689038067137 0 5.8748888208836213e-05 0.034953214947805872 0 1.4768343214356517e-05 0.034933133229921615 0 5.8748888208836213e-05 0.034953214947805872 0 2.0596886728570613e-05 0.034976670977999939 0 1.4768343214356517e-05 0.034933133229921615 0 7.4910593588165104e-06 0.034974294928712325 0 2.0596886728570613e-05 0.034976670977999939 0 7.4910593588165104e-06 0.034974294928712325 0 -3.2955725314693328e-09 0.034999959641540769 0 5.5383759280002619e-06 0.034992477830319078 0 9.0619333376361907e-09 0.035000017646692742 0 -3.2955725314693328e-09 0.034999959641540769 0 5.5383759280002619e-06 0.034992477830319078 0 1.5887031710358876e-05 0.034994546530890097 0 5.5383759280002619e-06 0.034992477830319078 0 2.0596886728570613e-05 0.034976670977999939 0 7.4910593588165104e-06 0.034974294928712325 0 5.5383759280002619e-06 0.034992477830319078 0 2.0596886728570613e-05 0.034976670977999939 0 0.0019656653647031281 0.00082872093680011417 0 0.002147842521621438 7.9791786145809538e-05 0 0.0010464234717641205 0.0011224718602154272 0 -0.0015484103213668434 0.0070881105316784737 0 -0.0037368160092866066 0.0086886252772447794 0 0.0019656653647031281 0.00082872093680011417 0 0.0010464234717641205 0.0011224718602154272 0 0.0017646136531505572 0.00160764134412301 0 0.0019656653647031281 0.00082872093680011417 0 0.0023805042173775225 0.00099621745837768583 0 0.002141629567519746 0.0013927393004049935 0 0.0019656653647031281 0.00082872093680011417 0 0.0023805042173775225 0.00099621745837768583 0 0.0023285746267651735 0.00068900958478722502 0 0.0019656653647031281 0.00082872093680011417 0 0.0023285746267651735 0.00068900958478722502 0 0.0022753573784912999 0.00063198575863940266 0 0.0024051172006952799 0.00074477516982306472 0 0.0023285746267651735 0.00068900958478722502 0 0.0022753573784912999 0.00063198575863940266 0 -0.012257097885589612 0.019339305454150132 0 -0.010807843060891876 0.019755056686199056 0 -0.010224663923466534 0.016620610004593136 0 -0.012257097885589612 0.019339305454150132 0 -0.010807843060891876 0.019755056686199056 0 -0.011171894094138062 0.021436637115259349 0 -0.00096797896351372376 0.0051679224451061578 0 -0.0015484103213668434 0.0070881105316784737 0 -0.010807843060891876 0.019755056686199056 0 -0.0094681217560036706 0.019322934455690804 0 -0.010224663923466534 0.016620610004593136 0 -0.010807843060891876 0.019755056686199056 0 -0.0094681217560036706 0.019322934455690804 0 -0.0096800438595497397 0.020981005282429719 0 -0.0094681217560036706 0.019322934455690804 0 -0.0079052711003848707 0.020492059220612202 0 -0.0096800438595497397 0.020981005282429719 0 -0.0081480652936110759 0.018626043532675478 0 -0.0079052711003848707 0.020492059220612202 0 -0.0059965449482135549 0.019585349482487462 0 -0.0094681217560036706 0.019322934455690804 0 -0.0081480652936110759 0.018626043532675478 0 -0.0079052711003848707 0.020492059220612202 0 -0.0078079514857324608 0.017096116017226392 0 -0.010224663923466534 0.016620610004593136 0 -0.0072114713719090735 0.015414970940707042 0 -0.0081480652936110759 0.018626043532675478 0 -0.0078079514857324608 0.017096116017226392 0 -0.010224663923466534 0.016620610004593136 0 -0.0081480652936110759 0.018626043532675478 0 -0.0078079514857324608 0.017096116017226392 0 -0.0062047768435814473 0.017564098119842528 0 -0.0078079514857324608 0.017096116017226392 0 -0.0072114713719090735 0.015414970940707042 0 -0.0062047768435814473 0.017564098119842528 0 -0.0094681217560036706 0.019322934455690804 0 -0.0081480652936110759 0.018626043532675478 0 -0.010224663923466534 0.016620610004593136 0 0.0010464234717641205 0.0011224718602154272 0 0.0011111565645847154 0.0022068644284536382 0 -0.00034698020789647964 0.0028861205393001309 0 -0.0037368160092866066 0.0086886252772447794 0 -0.0036545770965965099 0.0082528463103130577 0 0.0010464234717641205 0.0011224718602154272 0 0.0011111565645847154 0.0022068644284536382 0 0.0017646136531505572 0.00160764134412301 0 -0.010224663923466534 0.016620610004593136 0 -0.0072114713719090735 0.015414970940707042 0 -0.0079487483499345955 0.013421334838802028 0 -0.00034698020789647964 0.0028861205393001309 0 0.0012980978949430307 0.0031504808868725643 0 -0.0004643487058433677 0.004640051455917997 0 0.0011111565645847154 0.0022068644284536382 0 -0.00034698020789647964 0.0028861205393001309 0 0.0012980978949430307 0.0031504808868725643 0 0.0011111565645847154 0.0022068644284536382 0 0.0012980978949430307 0.0031504808868725643 0 0.0016854339300511165 0.0021825793190942528 0 0.00046620499170303069 0.0040385292513037433 0 0.0011951120032241602 0.0034857722080895819 0 0.0010218263388414683 0.0041216241247269405 0 0.0012980978949430307 0.0031504808868725643 0 0.0016854339300511165 0.0021825793190942528 0 0.0023456419075658813 0.0017993930793502901 0 0.00046620499170303069 0.0040385292513037433 0 0.0013067723822709767 0.0026463519796598449 0 0.0011951120032241602 0.0034857722080895819 0 0.00077497208469677462 0.0032474957465944317 0 0.0017817891356837528 0.0024916409408073355 0 0.0011111565645847154 0.0022068644284536382 0 0.0016854339300511165 0.0021825793190942528 0 0.0017646136531505572 0.00160764134412301 0 0.0016854339300511165 0.0021825793190942528 0 0.00197383274067077 0.0017777690908439203 0 0.0023456419075658813 0.0017993930793502901 0 0.0019656653647031281 0.00082872093680011417 0 0.0017646136531505572 0.00160764134412301 0 0.002141629567519746 0.0013927393004049935 0 0.0016854339300511165 0.0021825793190942528 0 0.00197383274067077 0.0017777690908439203 0 0.0017646136531505572 0.00160764134412301 0 0.00197383274067077 0.0017777690908439203 0 0.0017646136531505572 0.00160764134412301 0 0.002141629567519746 0.0013927393004049935 0 0.0023805042173775225 0.00099621745837768583 0 0.002141629567519746 0.0013927393004049935 0 0.0023456419075658813 0.0017993930793502901 0 0.0015243415311961971 0.0027524751535740045 0 0.0013067723822709767 0.0026463519796598449 0 0.0025596285772089304 0.00096600089304347983 0 0.00197383274067077 0.0017777690908439203 0 0.002141629567519746 0.0013927393004049935 0 0.0023456419075658813 0.0017993930793502901 0 0.0015243415311961971 0.0027524751535740045 0 0.0013067723822709767 0.0026463519796598449 0 0.0011951120032241602 0.0034857722080895819 0 0.0011951120032241602 0.0034857722080895819 0 0.0014577312937227699 0.0039857896044757221 0 0.0010218263388414683 0.0041216241247269405 0 0.0015243415311961971 0.0027524751535740045 0 0.0011951120032241602 0.0034857722080895819 0 0.0015252665611094295 0.0034840868533608394 0 0.0011951120032241602 0.0034857722080895819 0 0.0015252665611094295 0.0034840868533608394 0 0.0014577312937227699 0.0039857896044757221 0 0.0015243415311961971 0.0027524751535740045 0 0.0015252665611094295 0.0034840868533608394 0 0.0020277267717339763 0.0037138986715224529 0 0.0015252665611094295 0.0034840868533608394 0 0.0020277267717339763 0.0037138986715224529 0 0.0014577312937227699 0.0039857896044757221 0 0.0015243415311961971 0.0027524751535740045 0 0.0020277267717339763 0.0037138986715224529 0 0.0037909160751172814 0.0036222738583666305 0 0.0015243415311961971 0.0027524751535740045 0 0.0027426098237349262 0.0012636413325489296 0 0.0025596285772089304 0.00096600089304347983 0 0.0021246445491589711 0.0019983997815699061 0 0.0028790715300406884 0.001942869419689451 0 0.0027426098237349262 0.0012636413325489296 0 0.0028057354404150479 0.00074286436864069803 0 0.0029191391183017866 0.00059733499076269512 0 0.0027426098237349262 0.0012636413325489296 0 0.0028057354404150479 0.00074286436864069803 0 0.0025596285772089304 0.00096600089304347983 0 0.0028057354404150479 0.00074286436864069803 0 0.0025596285772089304 0.00096600089304347983 0 0.0028423671288173844 0.00031610406632788833 0 0.0017817891356837528 0.0024916409408073355 0 0.002304468860432814 0.0020761714613589878 0 0.0023805042173775225 0.00099621745837768583 0 0.0023456419075658813 0.0017993930793502901 0 0.0025596285772089304 0.00096600089304347983 0 0.0029191391183017866 0.00059733499076269512 0 0.0029940282530769458 0.00021527730856234968 0 0.0029932541963960742 0.00035882626616210014 0 0.0029940282530769458 0.00021527730856234968 0 0.0029932541963960742 0.00035882626616210014 0 0.0030334093449360944 -4.5065855438686172e-05 0 0.0029940282530769458 0.00021527730856234968 0 0.0030334093449360944 -4.5065855438686172e-05 0 0.0030251513345885698 -7.6858315059434056e-05 0 0.0027426098237349262 0.0012636413325489296 0 0.0029191391183017866 0.00059733499076269512 0 0.0029932541963960742 0.00035882626616210014 0 0.0028790715300406884 0.001942869419689451 0 0.0031390844628706904 0.0014306831896045756 0 0.0028057354404150479 0.00074286436864069803 0 0.0029337017788884185 0.00040160409248685223 0 0.0028423671288173844 0.00031610406632788833 0 0.0028057354404150479 0.00074286436864069803 0 0.0029191391183017866 0.00059733499076269512 0 0.0029337017788884185 0.00040160409248685223 0 0.0029191391183017866 0.00059733499076269512 0 0.0029337017788884185 0.00040160409248685223 0 0.0029940282530769458 0.00021527730856234968 0 0.0029940282530769458 0.00021527730856234968 0 0.0029797885105478984 4.5737305578250068e-05 0 0.0030251513345885698 -7.6858315059434056e-05 0 0.0029337017788884185 0.00040160409248685223 0 0.0029940282530769458 0.00021527730856234968 0 0.0029797885105478984 4.5737305578250068e-05 0 0.0029797885105478984 4.5737305578250068e-05 0 0.0028423671288173844 0.00031610406632788833 0 0.0029044993253812437 -0.00011502745227271802 0 0.0029337017788884185 0.00040160409248685223 0 0.0029797885105478984 4.5737305578250068e-05 0 0.0028423671288173844 0.00031610406632788833 0 0.0028423671288173844 0.00031610406632788833 0 0.0023758247416187403 0.00046499004599667579 0 0.0028046458724302723 -1.9572809302301615e-05 0 0.0023805042173775225 0.00099621745837768583 0 0.0023285746267651735 0.00068900958478722502 0 0.0023758247416187403 0.00046499004599667579 0 0.0023805042173775225 0.00099621745837768583 0 0.0025596285772089304 0.00096600089304347983 0 0.0023758247416187403 0.00046499004599667579 0 0.0025596285772089304 0.00096600089304347983 0 0.0028423671288173844 0.00031610406632788833 0 0.0023758247416187403 0.00046499004599667579 0 0.0024051172006952799 0.00074477516982306472 0 0.0023285746267651735 0.00068900958478722502 0 0.0023758247416187403 0.00046499004599667579 0 0.0024051172006952799 0.00074477516982306472 0 0.0023758247416187403 0.00046499004599667579 0 0.0025059066321869205 0.0010998384837376798 0 0.0023758247416187403 0.00046499004599667579 0 0.0025059066321869205 0.0010998384837376798 0 0.0015310648470799012 0.0010907879533454375 0 0.0016083048458369205 0.0002352856121537309 0 0.0012753427643682469 0.00026667818036288414 0 0.0015310648470799012 0.0010907879533454375 0 0.0018034641223192631 0.0018078264792075278 0 0.00065667969360228234 0.0020856957103114224 0 0.0025059066321869205 0.0010998384837376798 0 0.0015310648470799012 0.0010907879533454375 0 0.0018034641223192631 0.0018078264792075278 0 0.0025059066321869205 0.0010998384837376798 0 0.0018034641223192631 0.0018078264792075278 0 0.0025080412398892625 0.0018110211738961951 0 0.0028423671288173844 0.00031610406632788833 0 0.0028046458724302723 -1.9572809302301615e-05 0 0.0029044993253812437 -0.00011502745227271802 0 0.0012753427643682469 0.00026667818036288414 0 0.00010733290901893976 0.00035808853312291241 0 0.0028046458724302723 -1.9572809302301615e-05 0 0.0029044993253812437 -0.00011502745227271802 0 0.0030024808015904243 0.00010728137527631547 0 0.0029044993253812437 -0.00011502745227271802 0 0.0030024808015904243 0.00010728137527631547 0 0.002818140370205684 0.00016757486088393012 0 0.00010733290901893976 0.00035808853312291241 0 -0.002780852560218529 0.00062121359357138607 0 0.0030024808015904243 0.00010728137527631547 0 0.0028476261089676095 0.00057475986534022265 0 0.002818140370205684 0.00016757486088393012 0 0.00065667969360228234 0.0020856957103114224 0 0.00065491892515698118 0.0029154251099002401 0 0.0015155606848629712 0.0026960683359746446 0 0.00065491892515698118 0.0029154251099002401 0 0.0015155606848629712 0.0026960683359746446 0 0.0012582382821546064 0.0033795834671698382 0 0.00065667969360228234 0.0020856957103114224 0 0.00065491892515698118 0.0029154251099002401 0 -0.00013984805130927289 0.0031788778159295246 0 0.0030024808015904243 0.00010728137527631547 0 0.0029197483015806335 0.00066638929619014541 0 0.0028476261089676095 0.00057475986534022265 0 -0.002780852560218529 0.00062121359357138607 0 -0.0024978933528832757 0.00080471069492485717 0 0.0025080412398892625 0.0018110211738961951 0 0.0022539198073453916 0.0024310988980305055 0 0.0029564013602075027 0.0026679479394072841 0 0.0018034641223192631 0.0018078264792075278 0 0.0025080412398892625 0.0018110211738961951 0 0.0022539198073453916 0.0024310988980305055 0 0.0018034641223192631 0.0018078264792075278 0 0.00065667969360228234 0.0020856957103114224 0 0.0015155606848629712 0.0026960683359746446 0 0.0018034641223192631 0.0018078264792075278 0 0.0022539198073453916 0.0024310988980305055 0 0.0015155606848629712 0.0026960683359746446 0 0.0015155606848629712 0.0026960683359746446 0 0.0017836669195686809 0.0033270700443276606 0 0.002150513927547274 0.0029784632439071629 0 0.0015155606848629712 0.0026960683359746446 0 0.0012582382821546064 0.0033795834671698382 0 0.0017836669195686809 0.0033270700443276606 0 0.0017836669195686809 0.0033270700443276606 0 0.0021794100207460864 0.003373049619195918 0 0.002150513927547274 0.0029784632439071629 0 0.0022539198073453916 0.0024310988980305055 0 0.0015155606848629712 0.0026960683359746446 0 0.002150513927547274 0.0029784632439071629 0 0.0022539198073453916 0.0024310988980305055 0 0.002150513927547274 0.0029784632439071629 0 0.0025590860672486011 0.0029016114597556586 0 0.0022539198073453916 0.0024310988980305055 0 0.0025590860672486011 0.0029016114597556586 0 0.0029564013602075027 0.0026679479394072841 0 0.002150513927547274 0.0029784632439071629 0 0.0025590860672486011 0.0029016114597556586 0 0.0025359375659372149 0.0032047483250490405 0 0.0021794100207460864 0.003373049619195918 0 0.002150513927547274 0.0029784632439071629 0 0.0025359375659372149 0.0032047483250490405 0 0.0024778811652860409 0.0036422486737613486 0 0.0021794100207460864 0.003373049619195918 0 0.0025359375659372149 0.0032047483250490405 0 0.0029816670392798471 0.0036009978385116363 0 0.0025359375659372149 0.0032047483250490405 0 0.003446534146507902 0.0030731462279653 0 -8.5391937016008102e-05 0.0129356576672452 0 -0.00032556422416833562 0.01314132189300102 0 0.0025590860672486011 0.0029016114597556586 0 0.0025359375659372149 0.0032047483250490405 0 0.0028458327282110886 0.0032258237670834931 0 -0.00032556422416833562 0.01314132189300102 0 -0.0020469764041423245 0.014578450329665848 0 0.003683034739389733 0.0036302999693316588 0 0.003446534146507902 0.0030731462279653 0 0.0046333785797599454 0.0030790064989015338 0 -0.0022382823863327985 0.014863601481598735 0 -0.001223613319252606 0.014901871580891478 0 -0.0019403637189069375 0.013374791007241855 0 -0.012667665914571746 0.027165355413183694 0 -0.01335714818112289 0.025701061872808319 0 -0.011594162108085008 0.025824166466937155 0 -0.0020469764041423245 0.014578450329665848 0 -0.0012321610614220008 0.012442081054476688 0 0.0025590860672486011 0.0029016114597556586 0 0.0028458327282110886 0.0032258237670834931 0 0.0029564013602075027 0.0026679479394072841 0 -0.00032556422416833562 0.01314132189300102 0 -0.0012321610614220008 0.012442081054476688 0 -0.012667665914571746 0.027165355413183694 0 -0.011594162108085008 0.025824166466937155 0 -0.010040639636912074 0.027282674589864487 0 -0.0020469764041423245 0.014578450329665848 0 -0.0055625186937263539 0.019419840649108299 0 -0.011594162108085008 0.025824166466937155 0 -0.010922301129234934 0.024511795281575238 0 -0.010042770671241 0.025624140403302929 0 -0.011594162108085008 0.025824166466937155 0 -0.012063419006637677 0.024395769165929664 0 -0.010922301129234934 0.024511795281575238 0 -0.01335714818112289 0.025701061872808319 0 -0.011594162108085008 0.025824166466937155 0 -0.012063419006637677 0.024395769165929664 0 -0.012063419006637677 0.024395769165929664 0 -0.010922301129234934 0.024511795281575238 0 -0.011395749424564032 0.023156008919063987 0 0.0025080412398892625 0.0018110211738961951 0 0.0028805634707638372 0.0026340672003431881 0 0.0030891394633079778 0.0013958008065976374 0 -0.01335714818112289 0.025701061872808319 0 -0.012063419006637677 0.024395769165929664 0 -0.012774578200999831 0.022553201510352137 0 -0.001668200501453588 0.0087870586052183116 0 -0.0012321610614220008 0.012442081054476688 0 -0.0012321610614220008 0.012442081054476688 0 -0.0025224792262036203 0.011512407748521827 0 0.0025059066321869205 0.0010998384837376798 0 0.0025080412398892625 0.0018110211738961951 0 0.0030891394633079778 0.0013958008065976374 0 -0.012063419006637677 0.024395769165929664 0 -0.012774578200999831 0.022553201510352137 0 -0.011395749424564032 0.023156008919063987 0 -0.010922301129234934 0.024511795281575238 0 -0.011395749424564032 0.023156008919063987 0 -0.010036841288462254 0.022870882790854353 0 -0.011395749424564032 0.023156008919063987 0 -0.011171894094138062 0.021436637115259349 0 -0.010036841288462254 0.022870882790854353 0 -0.012774578200999831 0.022553201510352137 0 -0.011395749424564032 0.023156008919063987 0 -0.011171894094138062 0.021436637115259349 0 -0.012257097885589612 0.019339305454150132 0 -0.012774578200999831 0.022553201510352137 0 -0.011171894094138062 0.021436637115259349 0 -0.0015484103213668434 0.0070881105316784737 0 -0.0025224792262036203 0.011512407748521827 0 0.0032898645099370032 0.00021601328545919017 0 0.0025059066321869205 0.0010998384837376798 0 0.0030891394633079778 0.0013958008065976374 0 -0.0015484103213668434 0.0070881105316784737 0 0.001551348271421688 0.0031460474644987107 0 0.0024051172006952799 0.00074477516982306472 0 0.0022753573784912999 0.00063198575863940266 0 0.0025059066321869205 0.0010998384837376798 0 -0.0086760732059796095 0.021953849175362094 0 -0.0079052711003848707 0.020492059220612202 0 -0.0072255415763050144 0.022434665662875278 0 -0.0079052711003848707 0.020492059220612202 0 -0.0072255415763050144 0.022434665662875278 0 -0.0060803401664528706 0.021549228528974475 0 -0.0086760732059796095 0.021953849175362094 0 -0.0079052711003848707 0.020492059220612202 0 -0.0096800438595497397 0.020981005282429719 0 -0.011171894094138062 0.021436637115259349 0 -0.0096800438595497397 0.020981005282429719 0 -0.010036841288462254 0.022870882790854353 0 -0.0086760732059796095 0.021953849175362094 0 -0.0096800438595497397 0.020981005282429719 0 -0.010036841288462254 0.022870882790854353 0 -0.010807843060891876 0.019755056686199056 0 -0.011171894094138062 0.021436637115259349 0 -0.0096800438595497397 0.020981005282429719 0 -0.0086760732059796095 0.021953849175362094 0 -0.010036841288462254 0.022870882790854353 0 -0.0083967366526472853 0.023196486259289897 0 -0.010036841288462254 0.022870882790854353 0 -0.0083967366526472853 0.023196486259289897 0 -0.0090490165626162852 0.024503540956062737 0 -0.0086760732059796095 0.021953849175362094 0 -0.0083967366526472853 0.023196486259289897 0 -0.0072255415763050144 0.022434665662875278 0 -0.0083967366526472853 0.023196486259289897 0 -0.0072255415763050144 0.022434665662875278 0 -0.0073068939837497363 0.023935528800129134 0 -0.0073068939837497363 0.023935528800129134 0 -0.007569151534074183 0.025209782118276503 0 -0.0090490165626162852 0.024503540956062737 0 -0.0083967366526472853 0.023196486259289897 0 -0.0073068939837497363 0.023935528800129134 0 -0.0090490165626162852 0.024503540956062737 0 -0.007569151534074183 0.025209782118276503 0 -0.0090490165626162852 0.024503540956062737 0 -0.0085989733678467923 0.02600136746567153 0 -0.010922301129234934 0.024511795281575238 0 -0.0090490165626162852 0.024503540956062737 0 -0.010042770671241 0.025624140403302929 0 -0.010922301129234934 0.024511795281575238 0 -0.010036841288462254 0.022870882790854353 0 -0.0090490165626162852 0.024503540956062737 0 -0.0090490165626162852 0.024503540956062737 0 -0.010042770671241 0.025624140403302929 0 -0.0085989733678467923 0.02600136746567153 0 -0.0055625186937263539 0.019419840649108299 0 -0.0055636107010035383 0.021475513487635295 0 -0.0099891348292821345 0.027258916933861444 0 -0.0085989733678467923 0.02600136746567153 0 -0.0080289615630747563 0.027347989717504569 0 -0.011594162108085008 0.025824166466937155 0 -0.010042770671241 0.025624140403302929 0 -0.010040639636912074 0.027282674589864487 0 -0.010042770671241 0.025624140403302929 0 -0.010040639636912074 0.027282674589864487 0 -0.0085989733678467923 0.02600136746567153 0 -0.0055625186937263539 0.019419840649108299 0 -0.0072096167218992637 0.021301511167664659 0 -0.0055636107010035383 0.021475513487635295 0 -0.0055653365833627727 0.022923673038431621 0 -0.0071649346621853694 0.026280962284147204 0 -0.0080289615630747563 0.027347989717504569 0 -0.0060250497238374242 0.027430048890043721 0 -0.007569151534074183 0.025209782118276503 0 -0.0071649346621853694 0.026280962284147204 0 -0.0085989733678467923 0.02600136746567153 0 -0.0071649346621853694 0.026280962284147204 0 -0.0085989733678467923 0.02600136746567153 0 -0.0080289615630747563 0.027347989717504569 0 -0.007569151534074183 0.025209782118276503 0 -0.0071649346621853694 0.026280962284147204 0 -0.0054432482990886258 0.025509651191233017 0 -0.0071649346621853694 0.026280962284147204 0 -0.0060250497238374242 0.027430048890043721 0 -0.0054432482990886258 0.025509651191233017 0 -0.0055653365833627727 0.022923673038431621 0 -0.005581646041285135 0.023810984024652756 0 -0.0049958616450201066 0.024771406826430954 0 -0.004874328431421493 0.024131792600061451 0 -0.0046367601101057416 0.024533351968989137 0 -0.0047061957288607736 0.024786089828047721 0 -0.0049958616450201066 0.024771406826430954 0 -0.0046367601101057416 0.024533351968989137 0 -0.0055011548681744267 0.02296233467080239 0 -0.0055653365833627727 0.022923673038431621 0 -0.005581646041285135 0.023810984024652756 0 -0.0055021089853267077 0.023791469421095446 0 -0.0054432482990886258 0.025509651191233017 0 -0.0060710210536430746 0.023225040579487311 0 -0.0048400417510078095 0.023495691034604416 0 -0.0073068939837497363 0.023935528800129134 0 -0.007569151534074183 0.025209782118276503 0 -0.0054432482990886258 0.025509651191233017 0 -0.0073068939837497363 0.023935528800129134 0 -0.0054432482990886258 0.025509651191233017 0 -0.0060710210536430746 0.023225040579487311 0 -0.004874328431421493 0.024131792600061451 0 -0.0041940736486117697 0.023803431176157575 0 -0.0042777565861370813 0.024374685433802983 0 -0.004874328431421493 0.024131792600061451 0 -0.0041940736486117697 0.023803431176157575 0 -0.0048400417510078095 0.023495691034604416 0 -0.004874328431421493 0.024131792600061451 0 -0.0042777565861370813 0.024374685433802983 0 -0.0046367601101057416 0.024533351968989137 0 -0.0043535199556683189 0.024776752842475009 0 -0.0047061957288607736 0.024786089828047721 0 -0.0046367601101057416 0.024533351968989137 0 -0.0039539152143386255 0.024876908038963121 0 -0.0043535199556683189 0.024776752842475009 0 -0.0042777565861370813 0.024374685433802983 0 -0.0043535199556683189 0.024776752842475009 0 -0.0042777565861370813 0.024374685433802983 0 -0.0046367601101057416 0.024533351968989137 0 -0.0039539152143386255 0.024876908038963121 0 -0.0034359007520892047 0.024607310511183152 0 -0.0036261597369906711 0.02407578407341587 0 -0.0039539152143386255 0.024876908038963121 0 -0.0042777565861370813 0.024374685433802983 0 -0.0036261597369906711 0.02407578407341587 0 -0.0030072082360303289 0.024926822826008613 0 -0.0034359007520892047 0.024607310511183152 0 -0.0029948601126938553 0.024007161027434089 0 -0.0034359007520892047 0.024607310511183152 0 -0.0029948601126938553 0.024007161027434089 0 -0.0036261597369906711 0.02407578407341587 0 -0.0030728147015587595 0.023529844912009948 0 -0.0036261597369906711 0.02407578407341587 0 -0.0033611529118307928 0.02322640533947911 0 -0.0029948601126938553 0.024007161027434089 0 -0.0030728147015587595 0.023529844912009948 0 -0.0036261597369906711 0.02407578407341587 0 -0.0041940736486117697 0.023803431176157575 0 -0.0042777565861370813 0.024374685433802983 0 -0.0036261597369906711 0.02407578407341587 0 -0.0041940736486117697 0.023803431176157575 0 -0.0036261597369906711 0.02407578407341587 0 -0.0033611529118307928 0.02322640533947911 0 -0.0041940736486117697 0.023803431176157575 0 -0.0033611529118307928 0.02322640533947911 0 -0.0038377372643108869 0.022865755016144435 0 -0.0033611529118307928 0.02322640533947911 0 -0.0033273163084648551 0.02276120407740298 0 -0.0038377372643108869 0.022865755016144435 0 -0.0033273163084648551 0.02276120407740298 0 -0.0038377372643108869 0.022865755016144435 0 -0.0033407398140982932 0.02230040684095419 0 -0.0033611529118307928 0.02322640533947911 0 -0.0027974692252505456 0.023100372429367848 0 -0.0030103992309964494 0.022657277486685761 0 -0.0030728147015587595 0.023529844912009948 0 -0.0033611529118307928 0.02322640533947911 0 -0.0027974692252505456 0.023100372429367848 0 -0.0033611529118307928 0.02322640533947911 0 -0.0033273163084648551 0.02276120407740298 0 -0.0030103992309964494 0.022657277486685761 0 -0.0027974692252505456 0.023100372429367848 0 -0.0030103992309964494 0.022657277486685761 0 -0.0026084031551400536 0.022693118413778919 0 -0.0030103992309964494 0.022657277486685761 0 -0.0027872245900922368 0.022421764678724147 0 -0.0026084031551400536 0.022693118413778919 0 -0.0030103992309964494 0.022657277486685761 0 -0.0030566455529785082 0.02232412632235713 0 -0.0033407398140982932 0.02230040684095419 0 -0.0030103992309964494 0.022657277486685761 0 -0.0030566455529785082 0.02232412632235713 0 -0.0027872245900922368 0.022421764678724147 0 -0.0033407398140982932 0.02230040684095419 0 -0.0037776629646685479 0.021859032465601048 0 -0.0031048438024444949 0.020887205471222334 0 -0.0038377372643108869 0.022865755016144435 0 -0.0033407398140982932 0.02230040684095419 0 -0.0037776629646685479 0.021859032465601048 0 -0.0033273163084648551 0.02276120407740298 0 -0.0030103992309964494 0.022657277486685761 0 -0.0033407398140982932 0.02230040684095419 0 -0.0038377372643108869 0.022865755016144435 0 -0.0037776629646685479 0.021859032465601048 0 -0.0048044424614501575 0.022382955775426611 0 -0.0037776629646685479 0.021859032465601048 0 -0.0049243445735197636 0.021060680984292778 0 -0.0048044424614501575 0.022382955775426611 0 -0.0037776629646685479 0.021859032465601048 0 -0.0049243445735197636 0.021060680984292778 0 -0.0043308935156431503 0.019616561904047536 0 -0.0049243445735197636 0.021060680984292778 0 -0.0060803401664528706 0.021549228528974475 0 -0.0059965449482135549 0.019585349482487462 0 -0.0079052711003848707 0.020492059220612202 0 -0.0060803401664528706 0.021549228528974475 0 -0.0059965449482135549 0.019585349482487462 0 -0.0049243445735197636 0.021060680984292778 0 -0.0060803401664528706 0.021549228528974475 0 -0.0048044424614501575 0.022382955775426611 0 -0.0072255415763050144 0.022434665662875278 0 -0.0060803401664528706 0.021549228528974475 0 -0.0060710210536430746 0.023225040579487311 0 -0.0060803401664528706 0.021549228528974475 0 -0.0060710210536430746 0.023225040579487311 0 -0.0048044424614501575 0.022382955775426611 0 -0.0072255415763050144 0.022434665662875278 0 -0.0073068939837497363 0.023935528800129134 0 -0.0060710210536430746 0.023225040579487311 0 -0.0060710210536430746 0.023225040579487311 0 -0.0048400417510078095 0.023495691034604416 0 -0.0048044424614501575 0.022382955775426611 0 -0.0041940736486117697 0.023803431176157575 0 -0.0038377372643108869 0.022865755016144435 0 -0.0048400417510078095 0.023495691034604416 0 -0.0038377372643108869 0.022865755016144435 0 -0.0048400417510078095 0.023495691034604416 0 -0.0048044424614501575 0.022382955775426611 0 0.0034156959009855217 0.028617160391509716 0 0.0031785080055560669 0.029286515774125398 0 0.0025002574624807977 0.028660193158796511 0 -0.0011403850084873246 0.023719292411940873 0 -0.0015237231871631481 0.023546233297334438 0 -0.0015187495790765766 0.023118519328891557 0 0.0013472553173664065 0.025968188675376105 0 0.00054556010245816169 0.025527504455096717 0 0.00085066778701775115 0.026347921050878853 0 0.00091864785342627407 0.026207612216692735 0 0.00071562231142030053 0.026266854543452577 0 -0.0011403850084873246 0.023719292411940873 0 -0.0017765532251882684 0.02391172269400264 0 -0.0015237231871631481 0.023546233297334438 0 0.0013472553173664065 0.025968188675376105 0 -0.0011644536084599217 0.025113396994271741 0 -0.0011644536084599217 0.025113396994271741 0 -0.0017169698289754528 0.025037789341607795 0 -0.0011644536084599217 0.025113396994271741 0 -0.0017383542010264727 0.02364603805034763 0 -0.0017765532251882684 0.02391172269400264 0 -0.0015237231871631481 0.023546233297334438 0 -0.0020048889505624593 0.023245685034099295 0 -0.0015237231871631481 0.023546233297334438 0 -0.0020048889505624593 0.023245685034099295 0 -0.0015187495790765766 0.023118519328891557 0 -0.0014686132801011956 0.024389223360705078 0 -0.0018109997503110876 0.023429408167840126 0 -0.0022670039921614225 0.023949919146211848 0 -0.0018109997503110876 0.023429408167840126 0 -0.0022670039921614225 0.023949919146211848 0 -0.0025282882048127371 0.023516691689799227 0 -0.0030072082360303289 0.024926822826008613 0 -0.0022670039921614225 0.023949919146211848 0 -0.0017349529668670204 0.02462118687188028 0 -0.0014686132801011956 0.024389223360705078 0 -0.0022670039921614225 0.023949919146211848 0 -0.0018282187136804294 0.024493368406673013 0 -0.0019199742609740567 0.024738021707112087 0 -0.0017169698289754528 0.025037789341607795 0 -0.0030072082360303289 0.024926822826008613 0 -0.0029948601126938553 0.024007161027434089 0 -0.0022670039921614225 0.023949919146211848 0 -0.0029948601126938553 0.024007161027434089 0 -0.0022670039921614225 0.023949919146211848 0 -0.0025282882048127371 0.023516691689799227 0 -0.0030728147015587595 0.023529844912009948 0 -0.0027974692252505456 0.023100372429367848 0 -0.0025282882048127371 0.023516691689799227 0 -0.0029948601126938553 0.024007161027434089 0 -0.0030728147015587595 0.023529844912009948 0 -0.0025282882048127371 0.023516691689799227 0 -0.0027974692252505456 0.023100372429367848 0 -0.0025282882048127371 0.023516691689799227 0 -0.0023833939823748743 0.023058183332234222 0 -0.0027974692252505456 0.023100372429367848 0 -0.0023833939823748743 0.023058183332234222 0 -0.0026084031551400536 0.022693118413778919 0 -0.0027872245900922368 0.022421764678724147 0 -0.0026084031551400536 0.022693118413778919 0 -0.0024827757939068803 0.022419097881096289 0 -0.0026084031551400536 0.022693118413778919 0 -0.0024827757939068803 0.022419097881096289 0 -0.0022074799144815396 0.02260228903200413 0 -0.0023833939823748743 0.023058183332234222 0 -0.0026084031551400536 0.022693118413778919 0 -0.0022074799144815396 0.02260228903200413 0 -0.0017383542010264727 0.02364603805034763 0 -0.0019301006844929327 0.023156166165382911 0 -0.0020048889505624593 0.023245685034099295 0 -0.0022074799144815396 0.02260228903200413 0 -0.0019005637585528779 0.022539333467169135 0 -0.0018109997503110876 0.023429408167840126 0 -0.0025282882048127371 0.023516691689799227 0 -0.0023833939823748743 0.023058183332234222 0 -0.0018109997503110876 0.023429408167840126 0 -0.0023833939823748743 0.023058183332234222 0 -0.0022074799144815396 0.02260228903200413 0 -0.00032548605256207442 0.024670542161880027 0 0.00054556010245816169 0.025527504455096717 0 -0.0020048889505624593 0.023245685034099295 0 -0.0019005637585528779 0.022539333467169135 0 -0.0015187495790765766 0.023118519328891557 0 0.0011003639445831838 0.027520499241734227 0 0.00306273441707348 0.027731684162472958 0 0.0025002574624807977 0.028660193158796511 0 0.0011003639445831838 0.027520499241734227 0 0.00306273441707348 0.027731684162472958 0 0.002141660113445468 0.026694522147045277 0 0.0034156959009855217 0.028617160391509716 0 0.00306273441707348 0.027731684162472958 0 0.0025002574624807977 0.028660193158796511 0 0.0038245938677637574 0.023531944141294146 0 0.0024814828226117497 0.023637280226862643 0 0.0034081082509420735 0.025238024991690169 0 0.0024814828226117497 0.023637280226862643 0 0.0022296212165377268 0.025285591105324176 0 0.0034081082509420735 0.025238024991690169 0 0.0022296212165377268 0.025285591105324176 0 0.0034081082509420735 0.025238024991690169 0 0.0031028208842686835 0.026726176649131253 0 0.0043093647035790175 0.027382475773796225 0 0.00306273441707348 0.027731684162472958 0 0.0031028208842686835 0.026726176649131253 0 0.00306273441707348 0.027731684162472958 0 0.0031028208842686835 0.026726176649131253 0 0.002141660113445468 0.026694522147045277 0 0.0022296212165377268 0.025285591105324176 0 0.0031028208842686835 0.026726176649131253 0 0.002141660113445468 0.026694522147045277 0 0.0022296212165377268 0.025285591105324176 0 0.002141660113445468 0.026694522147045277 0 0.0011723794720861348 0.025745167227194873 0 0.0011003639445831838 0.027520499241734227 0 0.002141660113445468 0.026694522147045277 0 0.0011723794720861348 0.025745167227194873 0 0.0022296212165377268 0.025285591105324176 0 0.0011723794720861348 0.025745167227194873 0 0.0010781638819597917 0.023923190636424008 0 0.0024814828226117497 0.023637280226862643 0 0.0022296212165377268 0.025285591105324176 0 0.0010781638819597917 0.023923190636424008 0 0.0011723794720861348 0.025745167227194873 0 0.0010781638819597917 0.023923190636424008 0 -0.0007856118806073058 0.025053845902977202 0 0.0010781638819597917 0.023923190636424008 0 -0.0007856118806073058 0.025053845902977202 0 -0.00014656410316879259 0.022127198680273262 0 -0.0007856118806073058 0.025053845902977202 0 -0.0023027890632413657 0.02176055068713716 0 -0.00014656410316879259 0.022127198680273262 0 0.0011003639445831838 0.027520499241734227 0 0.0011723794720861348 0.025745167227194873 0 -0.0007856118806073058 0.025053845902977202 0 -0.0024827757939068803 0.022419097881096289 0 -0.0022074799144815396 0.02260228903200413 0 -0.0022724067645526393 0.022111213925323923 0 -0.0022074799144815396 0.02260228903200413 0 -0.0019005637585528779 0.022539333467169135 0 -0.0022724067645526393 0.022111213925323923 0 -0.00032548605256207442 0.024670542161880027 0 -0.001196617357013659 0.023546616732946425 0 -0.0022724067645526393 0.022111213925323923 0 -0.0026346445705312162 0.022263798048927783 0 -0.0025964821148448344 0.022088790108705826 0 -0.0024827757939068803 0.022419097881096289 0 -0.0022724067645526393 0.022111213925323923 0 -0.0026346445705312162 0.022263798048927783 0 -0.0027872245900922368 0.022421764678724147 0 -0.0024827757939068803 0.022419097881096289 0 -0.0026346445705312162 0.022263798048927783 0 -0.0022724067645526393 0.022111213925323923 0 -0.0025964821148448344 0.022088790108705826 0 -0.0023027890632413657 0.02176055068713716 0 -0.001196617357013659 0.023546616732946425 0 -0.0016726009404573687 0.022817373623628148 0 -0.0025964821148448344 0.022088790108705826 0 -0.0023027890632413657 0.02176055068713716 0 -0.0031056971618322131 0.021372142792843496 0 -0.0023027890632413657 0.02176055068713716 0 -0.0010411108156028815 0.021037323887227611 0 -0.00014656410316879259 0.022127198680273262 0 -0.0023027890632413657 0.02176055068713716 0 -0.0018109037017625361 0.020463464501739467 0 -0.0010411108156028815 0.021037323887227611 0 -0.0023027890632413657 0.02176055068713716 0 -0.0018109037017625361 0.020463464501739467 0 -0.0031056971618322131 0.021372142792843496 0 -0.0018109037017625361 0.020463464501739467 0 -0.0031056971618322131 0.021372142792843496 0 -0.0021528002866754029 0.017968543013748343 0 -0.0018109037017625361 0.020463464501739467 0 -0.00033575456851398135 0.01990587001245616 0 -0.0021528002866754029 0.017968543013748343 0 -0.0018109037017625361 0.020463464501739467 0 -0.00033575456851398135 0.01990587001245616 0 -0.0010411108156028815 0.021037323887227611 0 -0.00033575456851398135 0.01990587001245616 0 0.00050623428378982784 0.020925607353685465 0 -0.0010411108156028815 0.021037323887227611 0 -0.00033575456851398135 0.01990587001245616 0 0.00050623428378982784 0.020925607353685465 0 0.0014692864235623089 0.019599330218013307 0 0.00050623428378982784 0.020925607353685465 0 -0.0010411108156028815 0.021037323887227611 0 -0.00014656410316879259 0.022127198680273262 0 0.0024814828226117497 0.023637280226862643 0 0.0010781638819597917 0.023923190636424008 0 0.0015977579331581402 0.021795271025940165 0 0.00050623428378982784 0.020925607353685465 0 -0.00014656410316879259 0.022127198680273262 0 0.0015977579331581402 0.021795271025940165 0 0.0010781638819597917 0.023923190636424008 0 -0.00014656410316879259 0.022127198680273262 0 0.0015977579331581402 0.021795271025940165 0 0.00050623428378982784 0.020925607353685465 0 0.0015977579331581402 0.021795271025940165 0 0.0014692864235623089 0.019599330218013307 0 0.0015977579331581402 0.021795271025940165 0 0.0014692864235623089 0.019599330218013307 0 0.0026289982018330941 0.020556087820412933 0 0.0014692864235623089 0.019599330218013307 0 0.0026289982018330941 0.020556087820412933 0 0.0028978454892139897 0.019348893559487958 0 0.0026289982018330941 0.020556087820412933 0 0.0039599210998286279 0.019904776519040046 0 0.0028978454892139897 0.019348893559487958 0 0.0026289982018330941 0.020556087820412933 0 0.0039599210998286279 0.019904776519040046 0 0.0038219588050841641 0.021108241529740331 0 0.0026289982018330941 0.020556087820412933 0 0.0038219588050841641 0.021108241529740331 0 0.0030411983338606867 0.022140554004349378 0 0.0042676107456612235 0.022431251208368256 0 0.0038219588050841641 0.021108241529740331 0 0.0030411983338606867 0.022140554004349378 0 0.0015977579331581402 0.021795271025940165 0 0.0026289982018330941 0.020556087820412933 0 0.0030411983338606867 0.022140554004349378 0 0.0024814828226117497 0.023637280226862643 0 0.0015977579331581402 0.021795271025940165 0 0.0030411983338606867 0.022140554004349378 0 0.0038245938677637574 0.023531944141294146 0 0.0024814828226117497 0.023637280226862643 0 0.0030411983338606867 0.022140554004349378 0 0.0038245938677637574 0.023531944141294146 0 0.0042676107456612235 0.022431251208368256 0 0.0030411983338606867 0.022140554004349378 0 -0.0045364423341262847 0.017672964133061613 0 -0.0043308935156431503 0.019616561904047536 0 -0.0024752609085116218 0.017705304443629472 0 -0.0045364423341262847 0.017672964133061613 0 -0.0024752609085116218 0.017705304443629472 0 -0.0037135065098391797 0.01561167535553777 0 -0.0045364423341262847 0.017672964133061613 0 -0.0037135065098391797 0.01561167535553777 0 -0.0054529266955054313 0.015921537044409975 0 -0.0045364423341262847 0.017672964133061613 0 -0.0062047768435814473 0.017564098119842528 0 -0.0054529266955054313 0.015921537044409975 0 -0.0072114713719090735 0.015414970940707042 0 -0.0062047768435814473 0.017564098119842528 0 -0.0054529266955054313 0.015921537044409975 0 -0.0045364423341262847 0.017672964133061613 0 -0.0062047768435814473 0.017564098119842528 0 -0.0059965449482135549 0.019585349482487462 0 -0.0081480652936110759 0.018626043532675478 0 -0.0062047768435814473 0.017564098119842528 0 -0.0059965449482135549 0.019585349482487462 0 -0.0049243445735197636 0.021060680984292778 0 -0.0059965449482135549 0.019585349482487462 0 -0.0043308935156431503 0.019616561904047536 0 -0.0037776629646685479 0.021859032465601048 0 -0.0043308935156431503 0.019616561904047536 0 -0.0024752609085116218 0.017705304443629472 0 -0.0045364423341262847 0.017672964133061613 0 -0.0059965449482135549 0.019585349482487462 0 -0.0043308935156431503 0.019616561904047536 0 -0.0033528275679426431 0.020200349766603655 0 -0.0031548972384729782 0.018756028013841283 0 -0.0037776629646685479 0.021859032465601048 0 -0.0031048438024444949 0.020887205471222334 0 -0.0037575548844426513 0.020662210851276903 0 -0.00321993667321768 0.021909053138305688 0 -0.0030754479031734551 0.021365659957623039 0 -0.0030566455529785082 0.02232412632235713 0 -0.0033407398140982932 0.02230040684095419 0 -0.0030167402383653175 0.022171483164653134 0 -0.0030566455529785082 0.02232412632235713 0 -0.002857232497313485 0.022253232230310092 0 -0.0030167402383653175 0.022171483164653134 0 -0.0025964821148448344 0.022088790108705826 0 -0.002857232497313485 0.022253232230310092 0 -0.0030167402383653175 0.022171483164653134 0 -0.0030566455529785082 0.02232412632235713 0 -0.0027872245900922368 0.022421764678724147 0 -0.002857232497313485 0.022253232230310092 0 -0.0027872245900922368 0.022421764678724147 0 -0.0026346445705312162 0.022263798048927783 0 -0.002857232497313485 0.022253232230310092 0 -0.0026346445705312162 0.022263798048927783 0 -0.0025964821148448344 0.022088790108705826 0 -0.002857232497313485 0.022253232230310092 0 -0.0031048438024444949 0.020887205471222334 0 -0.0033198599210886555 0.020122435725201775 0 -0.0027276164068161047 0.019573377260396645 0 -0.0025964821148448344 0.022088790108705826 0 -0.0030167402383653175 0.022171483164653134 0 -0.0031056971618322131 0.021372142792843496 0 -0.0030754479031734551 0.021365659957623039 0 -0.0027845791877366514 0.020218393925997665 0 -0.0031048438024444949 0.020887205471222334 0 -0.0037575548844426513 0.020662210851276903 0 -0.0033198599210886555 0.020122435725201775 0 -0.0037575548844426513 0.020662210851276903 0 -0.0033198599210886555 0.020122435725201775 0 -0.0038135189141695483 0.019254641495833402 0 -0.0033198599210886555 0.020122435725201775 0 -0.0027276164068161047 0.019573377260396645 0 -0.0038135189141695483 0.019254641495833402 0 -0.0031548972384729782 0.018756028013841283 0 -0.0028568045098752307 0.016135042138871583 0 -0.0027276164068161047 0.019573377260396645 0 -0.0030661919247476997 0.018581187727922457 0 -0.0021528002866754029 0.017968543013748343 0 -0.0027845791877366514 0.020218393925997665 0 -0.0025084468551939275 0.019195997638271088 0 -0.0027276164068161047 0.019573377260396645 0 -0.0030661919247476997 0.018581187727922457 0 -0.0038135189141695483 0.019254641495833402 0 -0.0017108311443143026 0.013341503558145978 0 -0.00511064562684857 0.012998761649524 0 -0.0031603480396657389 0.011153772548901151 0 -0.0017108311443143026 0.013341503558145978 0 -0.0037135065098391797 0.01561167535553777 0 -0.00511064562684857 0.012998761649524 0 -0.0037135065098391797 0.01561167535553777 0 -0.0054529266955054313 0.015921537044409975 0 -0.00511064562684857 0.012998761649524 0 -0.0024752609085116218 0.017705304443629472 0 -0.0017108311443143026 0.013341503558145978 0 -0.0037135065098391797 0.01561167535553777 0 -0.0072114713719090735 0.015414970940707042 0 -0.0054529266955054313 0.015921537044409975 0 -0.00511064562684857 0.012998761649524 0 -0.0072114713719090735 0.015414970940707042 0 -0.0079487483499345955 0.013421334838802028 0 -0.00511064562684857 0.012998761649524 0 -0.0079487483499345955 0.013421334838802028 0 -0.00511064562684857 0.012998761649524 0 -0.0050599933360906037 0.0099671580467450491 0 -0.0036545770965965099 0.0082528463103130577 0 -0.0031081682376543174 0.0076911297330610664 0 -0.00034698020789647964 0.0028861205393001309 0 -0.0014933830056749959 0.005257473710778315 0 -0.0004643487058433677 0.004640051455917997 0 -0.0014933830056749959 0.005257473710778315 0 -0.00066507041127608841 0.0058457937718741047 0 -0.0004643487058433677 0.004640051455917997 0 -0.0014933830056749959 0.005257473710778315 0 -0.00066507041127608841 0.0058457937718741047 0 -0.0011449877833801041 0.0067624607229737109 0 -0.00066507041127608841 0.0058457937718741047 0 -0.0011449877833801041 0.0067624607229737109 0 -0.00046656444216670097 0.0066948157618429895 0 -0.0031081682376543174 0.0076911297330610664 0 -0.0027260700007400488 0.0074141151292436988 0 -0.0014933830056749959 0.005257473710778315 0 -0.0011449877833801041 0.0067624607229737109 0 -0.0020139446573360833 0.0074751759304526261 0 -0.0050599933360906037 0.0099671580467450491 0 -0.0013067972339711428 0.008748220684534333 0 -0.0020139446573360833 0.0074751759304526261 0 -0.00511064562684857 0.012998761649524 0 -0.0050599933360906037 0.0099671580467450491 0 -0.0031603480396657389 0.011153772548901151 0 -0.0050599933360906037 0.0099671580467450491 0 -0.0031603480396657389 0.011153772548901151 0 -0.0013067972339711428 0.008748220684534333 0 -0.0028568045098752307 0.016135042138871583 0 -0.0026095966922559831 0.013444693420089389 0 -0.0017108311443143026 0.013341503558145978 0 -0.0031603480396657389 0.011153772548901151 0 -0.0013067972339711428 0.008748220684534333 0 -0.0030661919247476997 0.018581187727922457 0 -0.0038135189141695483 0.019254641495833402 0 -0.0038615031812943169 0.017248155986835201 0 -0.0030661919247476997 0.018581187727922457 0 -0.0038615031812943169 0.017248155986835201 0 -0.0021528002866754029 0.017968543013748343 0 -0.0024121022006251356 0.015843574990425293 0 -0.0038615031812943169 0.017248155986835201 0 -0.0021528002866754029 0.017968543013748343 0 -0.0013067972339711428 0.008748220684534333 0 -0.0019807245306315744 0.0074043218008888823 0 -0.0020139446573360833 0.0074751759304526261 0 -0.0024121022006251356 0.015843574990425293 0 -0.0038615031812943169 0.017248155986835201 0 -0.0034257010832314393 0.014278020122044885 0 -0.0019807245306315744 0.0074043218008888823 0 -0.0020139446573360833 0.0074751759304526261 0 -0.0014389620636617443 0.0075035644605046881 0 -0.0026095966922559831 0.013444693420089389 0 -0.0024130547040124542 0.011621967420165415 0 -0.0024121022006251356 0.015843574990425293 0 -0.0034257010832314393 0.014278020122044885 0 -0.0018627989761259177 0.013523050589275597 0 -0.0024121022006251356 0.015843574990425293 0 -0.0018627989761259177 0.013523050589275597 0 -0.0011439808134988002 0.014307329451924491 0 -0.0034257010832314393 0.014278020122044885 0 -0.0018627989761259177 0.013523050589275597 0 -0.0015644530928078785 0.010706747460328708 0 -0.0018627989761259177 0.013523050589275597 0 -0.0011439808134988002 0.014307329451924491 0 -0.00091177361052207587 0.012618725759541862 0 -0.0024130547040124542 0.011621967420165415 0 -0.0022524740808670864 0.01109234711657984 0 -0.0019807245306315744 0.0074043218008888823 0 -0.00122510476191079 0.0088955292998003001 0 -0.00094795675834027536 0.0081381805651451668 0 -0.0019807245306315744 0.0074043218008888823 0 -0.00122510476191079 0.0088955292998003001 0 -0.0015644530928078785 0.010706747460328708 0 -0.00122510476191079 0.0088955292998003001 0 -0.00094795675834027536 0.0081381805651451668 0 -0.0005387442774811036 0.008824702035990421 0 -0.00094795675834027536 0.0081381805651451668 0 -0.00023571520792168513 0.0080676873978883391 0 -0.00075195356436193737 0.0075152992746112457 0 -0.00094795675834027536 0.0081381805651451668 0 -0.00023571520792168513 0.0080676873978883391 0 -0.0005387442774811036 0.008824702035990421 0 -0.00023571520792168513 0.0080676873978883391 0 -0.00075195356436193737 0.0075152992746112457 0 -0.00023171727167397858 0.0073600975119127781 0 -0.00075195356436193737 0.0075152992746112457 0 -0.00023171727167397858 0.0073600975119127781 0 -0.00046656444216670097 0.0066948157618429895 0 -0.0011449877833801041 0.0067624607229737109 0 -0.00075195356436193737 0.0075152992746112457 0 -0.00046656444216670097 0.0066948157618429895 0 -0.0011449877833801041 0.0067624607229737109 0 -0.00075195356436193737 0.0075152992746112457 0 -0.0014389620636617443 0.0075035644605046881 0 -0.0019807245306315744 0.0074043218008888823 0 -0.00094795675834027536 0.0081381805651451668 0 -0.0014389620636617443 0.0075035644605046881 0 -0.0011449877833801041 0.0067624607229737109 0 -0.0020139446573360833 0.0074751759304526261 0 -0.0014389620636617443 0.0075035644605046881 0 -0.00094795675834027536 0.0081381805651451668 0 -0.00075195356436193737 0.0075152992746112457 0 -0.0014389620636617443 0.0075035644605046881 0 0.0031287058382506853 0.01744904246082157 0 0.0018149054565594765 0.016149214741972565 0 0.0034146242917109473 0.015568276970451241 0 0.0047131384348009196 0.018702340300774032 0 0.0031287058382506853 0.01744904246082157 0 0.0034146242917109473 0.015568276970451241 0 0.0047131384348009196 0.018702340300774032 0 0.0031287058382506853 0.01744904246082157 0 0.0034833516835699723 0.018728454500827545 0 0.0039599210998286279 0.019904776519040046 0 0.0034833516835699723 0.018728454500827545 0 0.0028978454892139897 0.019348893559487958 0 0.0014692864235623089 0.019599330218013307 0 0.0028978454892139897 0.019348893559487958 0 0.0027509056163437275 0.018287375763348931 0 0.0034833516835699723 0.018728454500827545 0 0.0028978454892139897 0.019348893559487958 0 0.0027509056163437275 0.018287375763348931 0 0.0031287058382506853 0.01744904246082157 0 0.0034833516835699723 0.018728454500827545 0 0.0027509056163437275 0.018287375763348931 0 0.0031287058382506853 0.01744904246082157 0 0.0027509056163437275 0.018287375763348931 0 0.0016827714147861952 0.017794454026972804 0 0.0014692864235623089 0.019599330218013307 0 0.0027509056163437275 0.018287375763348931 0 0.0016827714147861952 0.017794454026972804 0 0.0014692864235623089 0.019599330218013307 0 0.0016827714147861952 0.017794454026972804 0 0.00014942614414735188 0.018250371125558461 0 0.0016827714147861952 0.017794454026972804 0 0.00081295989207562304 0.016818302601144853 0 0.00014942614414735188 0.018250371125558461 0 0.0016827714147861952 0.017794454026972804 0 0.00081295989207562304 0.016818302601144853 0 0.0018149054565594765 0.016149214741972565 0 0.0031287058382506853 0.01744904246082157 0 0.0016827714147861952 0.017794454026972804 0 0.0018149054565594765 0.016149214741972565 0 0.00081295989207562304 0.016818302601144853 0 0.0018149054565594765 0.016149214741972565 0 0.00054382054330501543 0.015337384038855284 0 -0.00035889550876750889 0.016849374822738558 0 -0.0011866194865467292 0.015878878547540585 0 0.00054382054330501543 0.015337384038855284 0 0.00081295989207562304 0.016818302601144853 0 -0.00035889550876750889 0.016849374822738558 0 0.00054382054330501543 0.015337384038855284 0 0.00081295989207562304 0.016818302601144853 0 -0.00035889550876750889 0.016849374822738558 0 0.00014942614414735188 0.018250371125558461 0 -0.00033575456851398135 0.01990587001245616 0 0.0014692864235623089 0.019599330218013307 0 0.00014942614414735188 0.018250371125558461 0 -0.00033575456851398135 0.01990587001245616 0 0.00014942614414735188 0.018250371125558461 0 -0.0021528002866754029 0.017968543013748343 0 -0.00035889550876750889 0.016849374822738558 0 0.00014942614414735188 0.018250371125558461 0 -0.0021528002866754029 0.017968543013748343 0 -0.00035889550876750889 0.016849374822738558 0 -0.0021528002866754029 0.017968543013748343 0 -0.0011866194865467292 0.015878878547540585 0 -0.0024121022006251356 0.015843574990425293 0 -0.0021528002866754029 0.017968543013748343 0 -0.0011866194865467292 0.015878878547540585 0 -0.0011866194865467292 0.015878878547540585 0 -0.0011439808134988002 0.014307329451924491 0 -8.2621128350617319e-05 0.013971495138555166 0 -0.0024121022006251356 0.015843574990425293 0 -0.0011866194865467292 0.015878878547540585 0 -0.0011439808134988002 0.014307329451924491 0 -0.0011439808134988002 0.014307329451924491 0 -8.2621128350617319e-05 0.013971495138555166 0 -0.00091177361052207587 0.012618725759541862 0 -8.2621128350617319e-05 0.013971495138555166 0 -7.4973578681401946e-06 0.012644182679078009 0 -0.00091177361052207587 0.012618725759541862 0 -8.2621128350617319e-05 0.013971495138555166 0 0.00078505784448988961 0.013540262950379732 0 -7.4973578681401946e-06 0.012644182679078009 0 -8.2621128350617319e-05 0.013971495138555166 0 0.00054382054330501543 0.015337384038855284 0 0.00078505784448988961 0.013540262950379732 0 -0.0011866194865467292 0.015878878547540585 0 -8.2621128350617319e-05 0.013971495138555166 0 0.00054382054330501543 0.015337384038855284 0 0.00054382054330501543 0.015337384038855284 0 0.0016607784917016344 0.014685969609402433 0 0.00078505784448988961 0.013540262950379732 0 0.0018149054565594765 0.016149214741972565 0 0.00054382054330501543 0.015337384038855284 0 0.0016607784917016344 0.014685969609402433 0 0.00078505784448988961 0.013540262950379732 0 0.0018689243985532712 0.013044769517809394 0 0.0005066261823746754 0.012546229432653265 0 0.0016607784917016344 0.014685969609402433 0 0.00078505784448988961 0.013540262950379732 0 0.0018689243985532712 0.013044769517809394 0 0.00087213832124056687 0.014171106118156378 0 0.0019673304190086509 0.014502150142210429 0 0.0021184475987505768 0.016272190498650432 0 0.0014768560559382784 0.01416478977106826 0 0.0026383106637534065 0.016142955398156637 0 0.0016607784917016344 0.014685969609402433 0 0.0018689243985532712 0.013044769517809394 0 0.0034146242917109473 0.015568276970451241 0 0.0027888194974460328 0.015606556959261735 0 0.0019673304190086509 0.014502150142210429 0 0.0021184475987505768 0.016272190498650432 0 0.0018149054565594765 0.016149214741972565 0 0.0016607784917016344 0.014685969609402433 0 0.0034146242917109473 0.015568276970451241 0 0.00042175853309190753 0.018681755888391417 0 -0.00028168413398163274 0.018474834166551837 0 0.00017072426719857707 0.017122992817816988 0 0.0002068219760553532 0.019213209633827975 0 9.715931159956082e-05 0.018214468170042859 0 9.4463666355540008e-05 0.016919628048585624 0 -3.3085732331129067e-05 0.015940871028067821 0 0.00042175853309190753 0.018681755888391417 0 -2.3768576883366621e-05 0.020333324425466801 0 -0.00028168413398163274 0.018474834166551837 0 0.00087213832124056687 0.014171106118156378 0 0.0019673304190086509 0.014502150142210429 0 0.00070805710416344848 0.013392354329137535 0 0.0004140526104965519 0.019069461016109322 0 9.4463666355540008e-05 0.016919628048585624 0 0.0014768560559382784 0.01416478977106826 0 0.00069303551317063798 0.01330495895676777 0 0.0018689243985532712 0.013044769517809394 0 0.0005066261823746754 0.012546229432653265 0 7.7311098237467239e-05 0.012002556843174228 0 0.00087213832124056687 0.014171106118156378 0 0.00070805710416344848 0.013392354329137535 0 3.9705563313903939e-05 0.013216068507225658 0 0.0005066261823746754 0.012546229432653265 0 7.7311098237467239e-05 0.012002556843174228 0 2.8413010284483847e-05 0.012122587398248341 0 0.00070805710416344848 0.013392354329137535 0 3.9705563313903939e-05 0.013216068507225658 0 -0.00026916775893744572 0.013467503221978979 0 7.7311098237467239e-05 0.012002556843174228 0 2.8413010284483847e-05 0.012122587398248341 0 7.750644505895944e-05 0.012567591488355854 0 2.8413010284483847e-05 0.012122587398248341 0 -0.00016447677333497813 0.012065123625060077 0 7.750644505895944e-05 0.012567591488355854 0 0.0005066261823746754 0.012546229432653265 0 2.8413010284483847e-05 0.012122587398248341 0 -7.4973578681401946e-06 0.012644182679078009 0 0.00078505784448988961 0.013540262950379732 0 0.0005066261823746754 0.012546229432653265 0 -7.4973578681401946e-06 0.012644182679078009 0 2.8413010284483847e-05 0.012122587398248341 0 -7.4973578681401946e-06 0.012644182679078009 0 -0.00049937864906978737 0.011980417729914586 0 -7.4973578681401946e-06 0.012644182679078009 0 -0.00091177361052207587 0.012618725759541862 0 -0.00049937864906978737 0.011980417729914586 0 2.8413010284483847e-05 0.012122587398248341 0 -0.00049937864906978737 0.011980417729914586 0 -0.00016447677333497813 0.012065123625060077 0 -0.00049937864906978737 0.011980417729914586 0 -0.00016447677333497813 0.012065123625060077 0 -0.0015644530928078785 0.010706747460328708 0 -0.00016447677333497813 0.012065123625060077 0 -2.2003249476983081e-05 0.012890307599286962 0 -0.00034824552246315885 0.011569873678488916 0 -0.00016447677333497813 0.012065123625060077 0 -2.2003249476983081e-05 0.012890307599286962 0 7.750644505895944e-05 0.012567591488355854 0 -2.2003249476983081e-05 0.012890307599286962 0 7.8234737342461943e-07 0.013609324821915963 0 -0.00034824552246315885 0.011569873678488916 0 -2.2003249476983081e-05 0.012890307599286962 0 7.8234737342461943e-07 0.013609324821915963 0 -8.190984336407283e-06 0.01420656329183723 0 7.8234737342461943e-07 0.013609324821915963 0 -8.190984336407283e-06 0.01420656329183723 0 -2.2969994859227669e-06 0.015501015258647858 0 -2.2003249476983081e-05 0.012890307599286962 0 -8.190984336407283e-06 0.01420656329183723 0 7.750644505895944e-05 0.012567591488355854 0 7.7311098237467239e-05 0.012002556843174228 0 -8.190984336407283e-06 0.01420656329183723 0 7.750644505895944e-05 0.012567591488355854 0 0.00069303551317063798 0.01330495895676777 0 0.00054615142097671359 0.013519497901948353 0 3.9705563313903939e-05 0.013216068507225658 0 -8.190984336407283e-06 0.01420656329183723 0 -0.00026916775893744572 0.013467503221978979 0 -0.00027291448975935202 0.017017647820422196 0 -1.3921075769287809e-06 0.01551090334096362 0 1.1666156281052376e-06 0.016740211960822149 0 -8.190984336407283e-06 0.01420656329183723 0 -0.00026916775893744572 0.013467503221978979 0 -2.2969994859227669e-06 0.015501015258647858 0 -3.3085732331129067e-05 0.015940871028067821 0 -1.7640464521584602e-07 0.015506399204802969 0 -1.2122076355921987e-07 0.016746978993737151 0 9.715931159956082e-05 0.018214468170042859 0 6.757800372300069e-05 0.019253922244434649 0 -2.4127940731780035e-06 0.016748354795437251 0 -0.00060405986309615921 0.019581803690116775 0 -0.00027291448975935202 0.017017647820422196 0 1.1666156281052376e-06 0.016740211960822149 0 0.00017072426719857707 0.017122992817816988 0 -0.00028168413398163274 0.018474834166551837 0 -0.00027291448975935202 0.017017647820422196 0 0.00017072426719857707 0.017122992817816988 0 -0.00030712147884313121 0.0094223611697685384 0 -0.0015644530928078785 0.010706747460328708 0 -0.00030881434605163882 0.010388039368652213 0 -0.00030712147884313121 0.0094223611697685384 0 1.136720493563634e-05 0.0086710501674056462 0 8.1609420496402659e-06 0.0084188115242961343 0 -0.00030712147884313121 0.0094223611697685384 0 -0.0005387442774811036 0.008824702035990421 0 8.1609420496402659e-06 0.0084188115242961343 0 -0.00023571520792168513 0.0080676873978883391 0 -0.0005387442774811036 0.008824702035990421 0 8.1609420496402659e-06 0.0084188115242961343 0 -0.00030712147884313121 0.0094223611697685384 0 -0.0005387442774811036 0.008824702035990421 0 -0.0015644530928078785 0.010706747460328708 0 -0.00122510476191079 0.0088955292998003001 0 -0.0005387442774811036 0.008824702035990421 0 -0.0015644530928078785 0.010706747460328708 0 -0.0018627989761259177 0.013523050589275597 0 -0.00091177361052207587 0.012618725759541862 0 -0.0015644530928078785 0.010706747460328708 0 -0.00091177361052207587 0.012618725759541862 0 -0.00049937864906978737 0.011980417729914586 0 -0.0015644530928078785 0.010706747460328708 0 -0.00016447677333497813 0.012065123625060077 0 -0.0015644530928078785 0.010706747460328708 0 -0.00034824552246315885 0.011569873678488916 0 -0.0015644530928078785 0.010706747460328708 0 -0.00034824552246315885 0.011569873678488916 0 -0.00030881434605163882 0.010388039368652213 0 7.8234737342461943e-07 0.013609324821915963 0 -0.00034824552246315885 0.011569873678488916 0 -5.7515423836505821e-07 0.011712648464524189 0 -0.00034824552246315885 0.011569873678488916 0 -5.7515423836505821e-07 0.011712648464524189 0 -0.00030881434605163882 0.010388039368652213 0 -5.7515423836505821e-07 0.011712648464524189 0 -0.00030881434605163882 0.010388039368652213 0 -7.3895482822471376e-08 0.0098169963741482642 0 -0.00030712147884313121 0.0094223611697685384 0 -0.00030881434605163882 0.010388039368652213 0 1.136720493563634e-05 0.0086710501674056462 0 -7.3895482822471376e-08 0.0098169963741482642 0 2.0221686830172935e-07 0.0079207734984253382 0 1.136720493563634e-05 0.0086710501674056462 0 -0.00030881434605163882 0.010388039368652213 0 -7.3895482822471376e-08 0.0098169963741482642 0 1.136720493563634e-05 0.0086710501674056462 0 2.0221686830172935e-07 0.0079207734984253382 0 0.00015528168129115951 0.0072114235142475194 0 1.136720493563634e-05 0.0086710501674056462 0 2.0221686830172935e-07 0.0079207734984253382 0 0.00015528168129115951 0.0072114235142475194 0 4.5976049588687206e-07 0.0060249340895550613 0 0.00015528168129115951 0.0072114235142475194 0 0.0004177324227978689 0.0066741053507752496 0 4.4425195644996483e-05 0.0076670144469329158 0 0.00015528168129115951 0.0072114235142475194 0 1.136720493563634e-05 0.0086710501674056462 0 4.4425195644996483e-05 0.0076670144469329158 0 4.5976049588687206e-07 0.0060249340895550613 0 0.00028411041122327788 0.0057744156297891884 0 6.1011250177984473e-07 0.0041284404029075586 0 0.00015528168129115951 0.0072114235142475194 0 4.5976049588687206e-07 0.0060249340895550613 0 0.00028411041122327788 0.0057744156297891884 0 0.00015528168129115951 0.0072114235142475194 0 0.00028411041122327788 0.0057744156297891884 0 0.0004177324227978689 0.0066741053507752496 0 0.00028411041122327788 0.0057744156297891884 0 0.00038006738510981653 0.0062785574961319252 0 0.0004177324227978689 0.0066741053507752496 0 0.00072857945808655006 0.0043460849354869059 0 0.00074591110490503348 0.004550629404456134 0 0.00038006738510981653 0.0062785574961319252 0 0.0004177324227978689 0.0066741053507752496 0 0.00083091961552623605 0.0055009364682668625 0 0.0004177324227978689 0.0066741053507752496 0 0.00083091961552623605 0.0055009364682668625 0 4.4425195644996483e-05 0.0076670144469329158 0 0.00083091961552623605 0.0055009364682668625 0 4.4425195644996483e-05 0.0076670144469329158 0 0.00044418994207927272 0.0051121621605570615 0 0.00083091961552623605 0.0055009364682668625 0 0.00044418994207927272 0.0051121621605570615 0 0.00092973467297052586 0.0049546943800566901 0 0.00083091961552623605 0.0055009364682668625 0 0.00092973467297052586 0.0049546943800566901 0 0.00099792936357499828 0.0047186225617553822 0 0.0011976273624052765 0.0040010180174086798 0 0.00083091961552623605 0.0055009364682668625 0 0.00099792936357499828 0.0047186225617553822 0 1.136720493563634e-05 0.0086710501674056462 0 4.4425195644996483e-05 0.0076670144469329158 0 8.1609420496402659e-06 0.0084188115242961343 0 0.00049032682606076376 0.0067220148368716051 0 0.00075475054257030433 0.0062642588403145332 0 4.4425195644996483e-05 0.0076670144469329158 0 0.00022342938682742036 0.0080084109339568464 0 0.00050274267129731866 0.0078761297631513311 0 4.4425195644996483e-05 0.0076670144469329158 0 0.00050274267129731866 0.0078761297631513311 0 0.00083801570145271872 0.007953176345331955 0 -0.00023571520792168513 0.0080676873978883391 0 8.1609420496402659e-06 0.0084188115242961343 0 0.00022342938682742036 0.0080084109339568464 0 4.4425195644996483e-05 0.0076670144469329158 0 8.1609420496402659e-06 0.0084188115242961343 0 0.00022342938682742036 0.0080084109339568464 0 -0.00023571520792168513 0.0080676873978883391 0 0.00022342938682742036 0.0080084109339568464 0 0.00016663525980496128 0.0075946001054535122 0 -0.00023571520792168513 0.0080676873978883391 0 0.00016663525980496128 0.0075946001054535122 0 -0.00023171727167397858 0.0073600975119127781 0 0.00016663525980496128 0.0075946001054535122 0 -0.00023171727167397858 0.0073600975119127781 0 0.00014351144768604115 0.0068623339334599742 0 -0.00023171727167397858 0.0073600975119127781 0 0.00014351144768604115 0.0068623339334599742 0 -0.00046656444216670097 0.0066948157618429895 0 0.00014351144768604115 0.0068623339334599742 0 0.00062771402862715352 0.0071566594930404688 0 0.00061900690917318939 0.0061605326329032791 0 0.00062771402862715352 0.0071566594930404688 0 0.0011631426097168389 0.0067461622576023943 0 0.00061900690917318939 0.0061605326329032791 0 0.00016663525980496128 0.0075946001054535122 0 0.00014351144768604115 0.0068623339334599742 0 0.00062771402862715352 0.0071566594930404688 0 0.00062771402862715352 0.0071566594930404688 0 0.00050274267129731866 0.0078761297631513311 0 0.0010373538399572862 0.0073148683256365251 0 0.00016663525980496128 0.0075946001054535122 0 0.00062771402862715352 0.0071566594930404688 0 0.00050274267129731866 0.0078761297631513311 0 0.00022342938682742036 0.0080084109339568464 0 0.00016663525980496128 0.0075946001054535122 0 0.00050274267129731866 0.0078761297631513311 0 0.00083801570145271872 0.007953176345331955 0 0.0010373538399572862 0.0073148683256365251 0 0.0021323139760377505 0.0068239079565218337 0 0.00075475054257030433 0.0062642588403145332 0 0.0011216200739326918 0.0054772007197906956 0 0.00050274267129731866 0.0078761297631513311 0 0.00083801570145271872 0.007953176345331955 0 0.0010373538399572862 0.0073148683256365251 0 0.00092973467297052586 0.0049546943800566901 0 0.00092331723591353772 0.0045926018916194354 0 0.00097912921204390893 0.0048571787061740795 0 0.00044418994207927272 0.0051121621605570615 0 0.00092973467297052586 0.0049546943800566901 0 0.00092331723591353772 0.0045926018916194354 0 0.0010373538399572862 0.0073148683256365251 0 0.0021323139760377505 0.0068239079565218337 0 0.0011631426097168389 0.0067461622576023943 0 0.0021323139760377505 0.0068239079565218337 0 0.0011631426097168389 0.0067461622576023943 0 0.0015232286389397934 0.0060424586648383603 0 0.00062771402862715352 0.0071566594930404688 0 0.0010373538399572862 0.0073148683256365251 0 0.0011631426097168389 0.0067461622576023943 0 0.0011631426097168389 0.0067461622576023943 0 0.0015232286389397934 0.0060424586648383603 0 0.00061900690917318939 0.0061605326329032791 0 0.0015232286389397934 0.0060424586648383603 0 0.00070236037420754241 0.0049558851512892538 0 0.00061900690917318939 0.0061605326329032791 0 0.001088863741541089 0.0054159443336277459 0 0.00096825242939011544 0.0052884912148381587 0 0.0013883585305083151 0.0052388987478239179 0 0.0013740667056871716 0.0049097819720750396 0 0.0015538993963779718 0.0048352294118501442 0 0.0011216200739326918 0.0054772007197906956 0 0.0012853673480141207 0.0052445481417041917 0 0.0011216200739326918 0.0054772007197906956 0 0.001088863741541089 0.0054159443336277459 0 0.0013883585305083151 0.0052388987478239179 0 0.0010546735278043479 0.0050145614467467479 0 0.0013740667056871716 0.0049097819720750396 0 0.0010546735278043479 0.0050145614467467479 0 0.0013740667056871716 0.0049097819720750396 0 0.0012524963521602372 0.0046030026071577938 0 0.0013740667056871716 0.0049097819720750396 0 0.0018601156078721359 0.0046445618001127471 0 0.0015538993963779718 0.0048352294118501442 0 0.0013740667056871716 0.0049097819720750396 0 0.0012524963521602372 0.0046030026071577938 0 0.0018601156078721359 0.0046445618001127471 0 0.0012524963521602372 0.0046030026071577938 0 0.0014577312937227699 0.0039857896044757221 0 0.0010218263388414683 0.0041216241247269405 0 0.0020277267717339763 0.0037138986715224529 0 0.0014577312937227699 0.0039857896044757221 0 0.0018601156078721359 0.0046445618001127471 0 0.0012524963521602372 0.0046030026071577938 0 0.0014577312937227699 0.0039857896044757221 0 0.0018601156078721359 0.0046445618001127471 0 0.0010546735278043479 0.0050145614467467479 0 0.00091419858315251094 0.0046300231764455409 0 0.00070236037420754241 0.0049558851512892538 0 0.0010546735278043479 0.0050145614467467479 0 0.0012524963521602372 0.0046030026071577938 0 0.00091419858315251094 0.0046300231764455409 0 0.00046620499170303069 0.0040385292513037433 0 0.00091419858315251094 0.0046300231764455409 0 0.00070236037420754241 0.0049558851512892538 0 0.0012524963521602372 0.0046030026071577938 0 0.00091419858315251094 0.0046300231764455409 0 0.0010218263388414683 0.0041216241247269405 0 0.00046620499170303069 0.0040385292513037433 0 0.00091419858315251094 0.0046300231764455409 0 0.0010218263388414683 0.0041216241247269405 0 0.00077497208469677462 0.0032474957465944317 0 9.4005746654613726e-05 0.0036863627099853846 0 0.00046620499170303069 0.0040385292513037433 0 0.00070236037420754241 0.0049558851512892538 0 0.0001366946178684933 0.0052114274972084648 0 0.00046620499170303069 0.0040385292513037433 0 0.0001366946178684933 0.0052114274972084648 0 -0.0004643487058433677 0.004640051455917997 0 -0.00066507041127608841 0.0058457937718741047 0 0.0001366946178684933 0.0052114274972084648 0 -0.0004643487058433677 0.004640051455917997 0 -0.00066507041127608841 0.0058457937718741047 0 0.0001366946178684933 0.0052114274972084648 0 -4.7549711684571493e-05 0.0060934538323618812 0 -0.00066507041127608841 0.0058457937718741047 0 -0.00046656444216670097 0.0066948157618429895 0 -4.7549711684571493e-05 0.0060934538323618812 0 0.00014351144768604115 0.0068623339334599742 0 -0.00046656444216670097 0.0066948157618429895 0 -4.7549711684571493e-05 0.0060934538323618812 0 0.00014351144768604115 0.0068623339334599742 0 -4.7549711684571493e-05 0.0060934538323618812 0 0.00061900690917318939 0.0061605326329032791 0 0.00070236037420754241 0.0049558851512892538 0 0.0001366946178684933 0.0052114274972084648 0 0.00061900690917318939 0.0061605326329032791 0 0.0001366946178684933 0.0052114274972084648 0 -4.7549711684571493e-05 0.0060934538323618812 0 0.00061900690917318939 0.0061605326329032791 0 0.00058463708626008896 0.0050257460853881672 0 0.00051479621004658297 0.0047473069221258043 0 0.00022550909601900664 0.0049527822885388536 0 0.00058463708626008896 0.0050257460853881672 0 0.00051479621004658297 0.0047473069221258043 0 0.00078673752442343613 0.0048338751068987568 0 0.00051479621004658297 0.0047473069221258043 0 0.00078673752442343613 0.0048338751068987568 0 0.00083044017088099924 0.0046574153118981903 0 0.00051479621004658297 0.0047473069221258043 0 0.00022550909601900664 0.0049527822885388536 0 0.00020383082320287862 0.0046798827732699279 0 -4.0120227060368048e-05 0.0048391246664353906 0 0.00022550909601900664 0.0049527822885388536 0 0.00020383082320287862 0.0046798827732699279 0 -4.0120227060368048e-05 0.0048391246664353906 0 -7.3079836762535315e-05 0.0046034781194671803 0 -0.00028472833966942268 0.0047421747711092026 0 -4.0120227060368048e-05 0.0048391246664353906 0 -7.3079836762535315e-05 0.0046034781194671803 0 0.00020383082320287862 0.0046798827732699279 0 -4.0120227060368048e-05 0.0048391246664353906 0 -5.0619326815061807e-05 0.0051021139476374834 0 -0.00025853522411878387 0.0049772754577204412 0 -4.0120227060368048e-05 0.0048391246664353906 0 0.00022550909601900664 0.0049527822885388536 0 -5.0619326815061807e-05 0.0051021139476374834 0 0.0031390844628706904 0.0014306831896045756 0 0.0026170670092292899 0.0005491841072513355 0 0.00019198818576080797 0.0054147019576842757 0 -5.0619326815061807e-05 0.0051021139476374834 0 -0.00034924467782976955 0.0052815195314711624 0 0.00022550909601900664 0.0049527822885388536 0 0.00019198818576080797 0.0054147019576842757 0 -5.0619326815061807e-05 0.0051021139476374834 0 0.00058463708626008896 0.0050257460853881672 0 0.00019198818576080797 0.0054147019576842757 0 0.00093583592712929509 0.0053214979358837565 0 0.0031390844628706904 0.0014306831896045756 0 0.0024507376637401745 0.0028613646329673512 0 0.0037909160751172814 0.0036222738583666305 0 0.0063231344484208814 0.0042612079602422966 0 0.0041507540215289969 0.0044670001153986017 0 0.00058463708626008896 0.0050257460853881672 0 0.00022550909601900664 0.0049527822885388536 0 0.00019198818576080797 0.0054147019576842757 0 0.0037909160751172814 0.0036222738583666305 0 0.0041507540215289969 0.0044670001153986017 0 0.0018601156078721359 0.0046445618001127471 0 0.00058463708626008896 0.0050257460853881672 0 0.00093583592712929509 0.0053214979358837565 0 0.00091654715517065408 0.0049812545202711032 0 0.00093583592712929509 0.0053214979358837565 0 0.0012342950162612385 0.0049594261429963087 0 0.00091654715517065408 0.0049812545202711032 0 0.0012342950162612385 0.0049594261429963087 0 0.0018601156078721359 0.0046445618001127471 0 0.001447787107223888 0.0048303662391610078 0 0.0020277267717339763 0.0037138986715224529 0 0.0037909160751172814 0.0036222738583666305 0 0.0018601156078721359 0.0046445618001127471 0 0.00093583592712929509 0.0053214979358837565 0 0.0012342950162612385 0.0049594261429963087 0 0.0018601156078721359 0.0046445618001127471 0 0.0024507376637401745 0.0028613646329673512 0 0.0020982978206179853 0.0032615129247032591 0 0.0018601156078721359 0.0046445618001127471 0 0.0015538993963779718 0.0048352294118501442 0 0.001447787107223888 0.0048303662391610078 0 0.0016295765075286144 0.0045424035578981196 0 0.0015538993963779718 0.0048352294118501442 0 0.0012160055692136463 0.0045967542638646912 0 0.0015538993963779718 0.0048352294118501442 0 0.001447787107223888 0.0048303662391610078 0 0.0011459034567292599 0.0048104287584119611 0 0.0015538993963779718 0.0048352294118501442 0 0.0011459034567292599 0.0048104287584119611 0 0.0012160055692136463 0.0045967542638646912 0 0.00091654715517065408 0.0049812545202711032 0 0.00078673752442343613 0.0048338751068987568 0 0.0011459034567292599 0.0048104287584119611 0 0.00058463708626008896 0.0050257460853881672 0 0.00091654715517065408 0.0049812545202711032 0 0.00078673752442343613 0.0048338751068987568 0 0.0012342950162612385 0.0049594261429963087 0 0.00091654715517065408 0.0049812545202711032 0 0.0011459034567292599 0.0048104287584119611 0 0.0012342950162612385 0.0049594261429963087 0 0.001447787107223888 0.0048303662391610078 0 0.0011459034567292599 0.0048104287584119611 0 0.0011459034567292599 0.0048104287584119611 0 0.00083044017088099924 0.0046574153118981903 0 0.0012160055692136463 0.0045967542638646912 0 0.00078673752442343613 0.0048338751068987568 0 0.0011459034567292599 0.0048104287584119611 0 0.00083044017088099924 0.0046574153118981903 0 0.00083044017088099924 0.0046574153118981903 0 0.0009003024926635796 0.0044693522294142665 0 0.00046039497288237984 0.0045062955426925407 0 0.0009003024926635796 0.0044693522294142665 0 0.00063006263734889548 0.004316150315244298 0 0.00046039497288237984 0.0045062955426925407 0 0.00083044017088099924 0.0046574153118981903 0 0.0009003024926635796 0.0044693522294142665 0 0.0012160055692136463 0.0045967542638646912 0 0.0016295765075286144 0.0045424035578981196 0 0.0012160055692136463 0.0045967542638646912 0 0.0011705004788850316 0.0042773173793220947 0 0.0009003024926635796 0.0044693522294142665 0 0.0012160055692136463 0.0045967542638646912 0 0.0011705004788850316 0.0042773173793220947 0 0.0011216200739326918 0.0054772007197906956 0 0.00092127244804899482 0.0049704953753603757 0 0.00092973467297052586 0.0049546943800566901 0 0.00097912921204390893 0.0048571787061740795 0 0.00099792936357499828 0.0047186225617553822 0 0.0009003024926635796 0.0044693522294142665 0 0.0011705004788850316 0.0042773173793220947 0 0.00063006263734889548 0.004316150315244298 0 0.0011705004788850316 0.0042773173793220947 0 0.00063006263734889548 0.004316150315244298 0 0.00065768907438700354 0.0042473895236310715 0 0.00092127244804899482 0.0049704953753603757 0 0.00083324235495869773 0.004802021443760034 0 0.00063006263734889548 0.004316150315244298 0 0.00036876323558687144 0.0041808267698033282 0 0.00065768907438700354 0.0042473895236310715 0 0.00063006263734889548 0.004316150315244298 0 0.00046039497288237984 0.0045062955426925407 0 0.00016019235343489805 0.0043100167697075484 0 0.00036876323558687144 0.0041808267698033282 0 0.00016019235343489805 0.0043100167697075484 0 9.7122656519741724e-05 0.0039409557288017649 0 0.00063006263734889548 0.004316150315244298 0 0.00036876323558687144 0.0041808267698033282 0 0.00016019235343489805 0.0043100167697075484 0 0.00046039497288237984 0.0045062955426925407 0 0.0001168072597148057 0.0044902124087213011 0 0.00016019235343489805 0.0043100167697075484 0 0.00046039497288237984 0.0045062955426925407 0 0.00020383082320287862 0.0046798827732699279 0 0.0001168072597148057 0.0044902124087213011 0 0.00051479621004658297 0.0047473069221258043 0 0.00046039497288237984 0.0045062955426925407 0 0.00020383082320287862 0.0046798827732699279 0 0.00051479621004658297 0.0047473069221258043 0 0.00083044017088099924 0.0046574153118981903 0 0.00046039497288237984 0.0045062955426925407 0 -7.3079836762535315e-05 0.0046034781194671803 0 0.00020383082320287862 0.0046798827732699279 0 0.0001168072597148057 0.0044902124087213011 0 0.0001168072597148057 0.0044902124087213011 0 -0.00016532263705497512 0.0043602102367492051 0 0.00016019235343489805 0.0043100167697075484 0 -7.3079836762535315e-05 0.0046034781194671803 0 0.0001168072597148057 0.0044902124087213011 0 -0.00016532263705497512 0.0043602102367492051 0 -0.00016532263705497512 0.0043602102367492051 0 0.00016019235343489805 0.0043100167697075484 0 -0.00032848854199723186 0.0040358417121471712 0 0.00016019235343489805 0.0043100167697075484 0 9.7122656519741724e-05 0.0039409557288017649 0 -0.00032848854199723186 0.0040358417121471712 0 -0.00026363536159521028 0.0037537987083670976 0 9.7122656519741724e-05 0.0039409557288017649 0 -0.00032848854199723186 0.0040358417121471712 0 -0.00026363536159521028 0.0037537987083670976 0 9.7122656519741724e-05 0.0039409557288017649 0 8.461977985396649e-05 0.0036036885889684702 0 0.00036876323558687144 0.0041808267698033282 0 0.00036581888938188938 0.0038908688583350914 0 9.7122656519741724e-05 0.0039409557288017649 0 0.00036876323558687144 0.0041808267698033282 0 0.00036581888938188938 0.0038908688583350914 0 0.00065768907438700354 0.0042473895236310715 0 0.00036581888938188938 0.0038908688583350914 0 9.7122656519741724e-05 0.0039409557288017649 0 8.461977985396649e-05 0.0036036885889684702 0 0.00036581888938188938 0.0038908688583350914 0 8.461977985396649e-05 0.0036036885889684702 0 0.00028404099316949201 0.0033927650549765527 0 8.461977985396649e-05 0.0036036885889684702 0 0.00028404099316949201 0.0033927650549765527 0 -2.4345485106995611e-05 0.003084996158729821 0 8.461977985396649e-05 0.0036036885889684702 0 -0.00025437193085117872 0.0034174612497254323 0 -2.4345485106995611e-05 0.003084996158729821 0 -0.00025437193085117872 0.0034174612497254323 0 -0.00036760067014466485 0.0030308393086884268 0 -0.00060208757664681977 0.0036461515172964759 0 -0.00025437193085117872 0.0034174612497254323 0 -0.00036760067014466485 0.0030308393086884268 0 -2.4345485106995611e-05 0.003084996158729821 0 -0.00026363536159521028 0.0037537987083670976 0 -0.00025437193085117872 0.0034174612497254323 0 -0.00060208757664681977 0.0036461515172964759 0 -0.00026363536159521028 0.0037537987083670976 0 8.461977985396649e-05 0.0036036885889684702 0 -0.00025437193085117872 0.0034174612497254323 0 0.00097912921204390893 0.0048571787061740795 0 0.00099792936357499828 0.0047186225617553822 0 0.00065768907438700354 0.0042473895236310715 0 0.00099792936357499828 0.0047186225617553822 0 0.00065768907438700354 0.0042473895236310715 0 0.00068529819590093034 0.0037923963589259098 0 0.00036581888938188938 0.0038908688583350914 0 0.00065768907438700354 0.0042473895236310715 0 0.00068529819590093034 0.0037923963589259098 0 0.00036581888938188938 0.0038908688583350914 0 0.00028404099316949201 0.0033927650549765527 0 0.00068529819590093034 0.0037923963589259098 0 0.00028404099316949201 0.0033927650549765527 0 0.00068529819590093034 0.0037923963589259098 0 0.00044284260289891117 0.002962191005275333 0 0.0011976273624052765 0.0040010180174086798 0 0.00099792936357499828 0.0047186225617553822 0 0.00068529819590093034 0.0037923963589259098 0 0.00028411041122327788 0.0057744156297891884 0 0.00038006738510981653 0.0062785574961319252 0 -0.00028074289794148094 0.0049149012615118809 0 0.0011976273624052765 0.0040010180174086798 0 0.00068529819590093034 0.0037923963589259098 0 0.0008307003295035853 0.0028601893380431286 0 0.00072857945808655006 0.0043460849354869059 0 0.00054454759156950154 0.0036173142249708622 0 0.00068529819590093034 0.0037923963589259098 0 0.0008307003295035853 0.0028601893380431286 0 0.00044284260289891117 0.002962191005275333 0 0.00054454759156950154 0.0036173142249708622 0 4.9878887658607595e-07 0.0022340130785953728 0 -0.00028074289794148094 0.0049149012615118809 0 -1.7685241304623872e-06 0.002234253035459122 0 6.1011250177984473e-07 0.0041284404029075586 0 0.0008307003295035853 0.0028601893380431286 0 0.00044284260289891117 0.002962191005275333 0 3.0149629256506319e-06 0.0022284178402822165 0 0.00028411041122327788 0.0057744156297891884 0 -0.00028074289794148094 0.0049149012615118809 0 6.1011250177984473e-07 0.0041284404029075586 0 -0.00063430570880795162 0.0026476664600268594 0 -0.00036760067014466485 0.0030308393086884268 0 -0.00060208757664681977 0.0036461515172964759 0 -8.4691070841228425e-05 0.002585821669208926 0 -0.00051743195112387925 0.0026406999262989731 0 -0.00036760067014466485 0.0030308393086884268 0 -0.00051743195112387925 0.0026406999262989731 0 -0.00089937877290183275 0.0025724982841012407 0 6.0079116039736094e-05 0.0018852969630830893 0 -8.4691070841228425e-05 0.002585821669208926 0 -0.00051743195112387925 0.0026406999262989731 0 6.0079116039736094e-05 0.0018852969630830893 0 -0.00051743195112387925 0.0026406999262989731 0 -0.00063430570880795162 0.0026476664600268594 0 -0.00036760067014466485 0.0030308393086884268 0 0.00032274718441770649 -0.00076540308149704035 0 0.00033371784110407634 -0.00078956321508405112 0 -8.4691070841228425e-05 0.002585821669208926 0 -0.00036760067014466485 0.0030308393086884268 0 -2.4345485106995611e-05 0.003084996158729821 0 0.00028404099316949201 0.0033927650549765527 0 -2.4345485106995611e-05 0.003084996158729821 0 0.00018786859662177713 0.0025960621180979582 0 0.00028404099316949201 0.0033927650549765527 0 0.00044284260289891117 0.002962191005275333 0 0.00018786859662177713 0.0025960621180979582 0 -8.4691070841228425e-05 0.002585821669208926 0 -2.4345485106995611e-05 0.003084996158729821 0 0.00018786859662177713 0.0025960621180979582 0 -8.4691070841228425e-05 0.002585821669208926 0 0.00018786859662177713 0.0025960621180979582 0 6.0079116039736094e-05 0.0018852969630830893 0 3.0149629256506319e-06 0.0022284178402822165 0 -2.7008408893477117e-06 0.00067612096073058861 0 6.0079116039736094e-05 0.0018852969630830893 0 0.00044284260289891117 0.002962191005275333 0 3.0149629256506319e-06 0.0022284178402822165 0 0.00018786859662177713 0.0025960621180979582 0 3.0149629256506319e-06 0.0022284178402822165 0 0.00018786859662177713 0.0025960621180979582 0 6.0079116039736094e-05 0.0018852969630830893 0 -0.00089937877290183275 0.0025724982841012407 0 -2.7008408893477117e-06 0.00067612096073058861 0 6.0079116039736094e-05 0.0018852969630830893 0 0.00033371784110407634 -0.00078956321508405112 0 -7.9818404775555397e-09 0.00067017343326334332 0 -2.9879494846888814e-05 -0.00052572907784651836 0 -8.7173592510848696e-07 0.00066897010066844598 0 6.1907174248612906e-07 -0.001087020332366843 0 -2.9879494846888814e-05 -0.00052572907784651836 0 6.1907174248612906e-07 -0.001087020332366843 0 4.504106164376786e-05 -0.0015462756204157847 0 0.00033371784110407634 -0.00078956321508405112 0 0.00091515073623782775 -0.0023965148086949675 0 0.0028943635918061692 -0.0049286969702461332 0 0.0019932575537384063 -0.004479213133800064 0 0.0025174654026337614 -0.0039470699085655432 0 0.0028943635918061692 -0.0049286969702461332 0 0.0019932575537384063 -0.004479213133800064 0 0.0018839305912009758 -0.0051403043213883639 0 0.0019932575537384063 -0.004479213133800064 0 0.0018839305912009758 -0.0051403043213883639 0 0.0013236534345959219 -0.0046290126496552784 0 6.1907174248612906e-07 -0.001087020332366843 0 4.504106164376786e-05 -0.0015462756204157847 0 -8.7464758344208665e-08 -0.0028468091830635466 0 0.0018839305912009758 -0.0051403043213883639 0 0.00089884106602041314 -0.005346667346911675 0 0.00096104088408728995 -0.0049031385499755551 0 0.00091515073623782775 -0.0023965148086949675 0 0.0007307367271678387 -0.0034562694014272531 0 4.504106164376786e-05 -0.0015462756204157847 0 -8.7464758344208665e-08 -0.0028468091830635466 0 -2.4599919470541049e-05 -0.0034072447030305299 0 -8.7464758344208665e-08 -0.0028468091830635466 0 -2.4599919470541049e-05 -0.0034072447030305299 0 -5.2431509090945161e-08 -0.0046067269433366182 0 0.00089884106602041314 -0.005346667346911675 0 0.00054574338801933304 -0.0050459530720063572 0 0.00096104088408728995 -0.0049031385499755551 0 0.00096104088408728995 -0.0049031385499755551 0 0.00059977485395709077 -0.0045582937411218051 0 0.0013236534345959219 -0.0046290126496552784 0 9.7086033888188095e-06 -0.0044046410110682313 0 0.00051669009023127567 -0.0044808942222457756 0 0.00054574338801933304 -0.0050459530720063572 0 0.00096104088408728995 -0.0049031385499755551 0 0.00059977485395709077 -0.0045582937411218051 0 0.0018839305912009758 -0.0051403043213883639 0 0.00096104088408728995 -0.0049031385499755551 0 0.0013236534345959219 -0.0046290126496552784 0 0.0019932575537384063 -0.004479213133800064 0 0.0013236534345959219 -0.0046290126496552784 0 0.0013411333182715261 -0.0037354109671913441 0 0.00053924753003406186 -0.0045233795509351899 0 0.0013236534345959219 -0.0046290126496552784 0 0.0013411333182715261 -0.0037354109671913441 0 9.7086033888188095e-06 -0.0044046410110682313 0 0.00060285788435623325 -0.00099135244368559958 0 -0.0019009793359258216 0.0025845825680009802 0 -0.0017315213568223442 0.0036210113073129407 0 -0.0012110254058253194 0.0032926062362191918 0 -0.0017315213568223442 0.0036210113073129407 0 -0.0012110254058253194 0.0032926062362191918 0 -0.0013217709338880779 0.0041400377094125132 0 0.0019932575537384063 -0.004479213133800064 0 0.0013411333182715261 -0.0037354109671913441 0 0.0025174654026337614 -0.0039470699085655432 0 0.00060285788435623325 -0.00099135244368559958 0 0.0011641208319357048 0.0013647472302069682 0 0.0013411333182715261 -0.0037354109671913441 0 0.0025174654026337614 -0.0039470699085655432 0 0.0021320913586517247 -0.0029499080776615645 0 0.00089858021790621039 -8.1972155085081462e-05 0 0.0011641208319357048 0.0013647472302069682 0 -0.00026363536159521028 0.0037537987083670976 0 -0.00032848854199723186 0.0040358417121471712 0 -0.00060208757664681977 0.0036461515172964759 0 -0.00032848854199723186 0.0040358417121471712 0 -0.00060208757664681977 0.0036461515172964759 0 -0.00062252813894154784 0.0042140027660321454 0 0.00033371784110407634 -0.00078956321508405112 0 0.00089858021790621039 -8.1972155085081462e-05 0 0.00031722518507939254 -0.0084796026831880141 0 0.0002998201704312389 -0.0083990411604307168 0 0.0002636187094834695 -0.00843630622239884 0 0.0002998201704312389 -0.0083990411604307168 0 0.0002636187094834695 -0.00843630622239884 0 0.00020615199254367408 -0.0081690828601084006 0 0.0002636187094834695 -0.00843630622239884 0 0.00018264270345266692 -0.0081694513374712206 0 0.00020615199254367408 -0.0081690828601084006 0 9.7373631555678441e-07 -0.0078550081615300551 0 0.00018264270345266692 -0.0081694513374712206 0 5.2873046663190245e-07 -0.0093452424135026853 0 0.0002636187094834695 -0.00843630622239884 0 0.00018264270345266692 -0.0081694513374712206 0 5.2873046663190245e-07 -0.0093452424135026853 0 9.7373631555678441e-07 -0.0078550081615300551 0 0.00018264270345266692 -0.0081694513374712206 0 0.00010260107888332068 -0.007549290719424122 0 0.00018264270345266692 -0.0081694513374712206 0 0.00010260107888332068 -0.007549290719424122 0 0.00020615199254367408 -0.0081690828601084006 0 9.7373631555678441e-07 -0.0078550081615300551 0 0.00010260107888332068 -0.007549290719424122 0 -1.7233929602783225e-06 -0.0063687292061865896 0 -0.00026130817202076447 -0.008177486903760748 0 -0.00040896440537837545 -0.0084609777261517947 0 0.00010044803121059724 -0.0085273464159380374 0 0.00010260107888332068 -0.007549290719424122 0 0.00020615199254367408 -0.0081690828601084006 0 -0.00026130817202076447 -0.008177486903760748 0 0.0002998201704312389 -0.0083990411604307168 0 0.00020615199254367408 -0.0081690828601084006 0 0.00010044803121059724 -0.0085273464159380374 0 0.00020615199254367408 -0.0081690828601084006 0 -0.00026130817202076447 -0.008177486903760748 0 0.00010044803121059724 -0.0085273464159380374 0 0.00010260107888332068 -0.007549290719424122 0 -0.00026130817202076447 -0.008177486903760748 0 -0.0012420967344332402 -0.007641993342893949 0 -0.00026130817202076447 -0.008177486903760748 0 -0.0012420967344332402 -0.007641993342893949 0 -0.00057170439771956391 -0.0087663989283156343 0 -0.0013703831853451491 -0.0048459308603431023 0 -0.0012342996931169999 -0.0043183690579881983 0 -9.3496834532770926e-08 -0.006364783298655044 0 6.2298495747443451e-06 -0.0055829224918157519 0 -5.2431509090945161e-08 -0.0046067269433366182 0 0.00010260107888332068 -0.007549290719424122 0 -1.7233929602783225e-06 -0.0063687292061865896 0 -0.0012420967344332402 -0.007641993342893949 0 -8.0972463392226223e-07 -0.00636470640395742 0 -0.00028721716051911795 -0.005749915442062826 0 -9.3496834532770926e-08 -0.006364783298655044 0 6.2298495747443451e-06 -0.0055829224918157519 0 6.5374069810636345e-05 -0.0051032809430282926 0 0.0007307367271678387 -0.0034562694014272531 0 0.00051793771983583688 -0.003909513290831783 0 0.00054574338801933304 -0.0050459530720063572 0 6.2298495747443451e-06 -0.0055829224918157519 0 6.5374069810636345e-05 -0.0051032809430282926 0 0.00089884106602041314 -0.005346667346911675 0 0.00054574338801933304 -0.0050459530720063572 0 6.2298495747443451e-06 -0.0055829224918157519 0 -2.4599919470541049e-05 -0.0034072447030305299 0 6.2298495747443451e-06 -0.0055829224918157519 0 -5.2431509090945161e-08 -0.0046067269433366182 0 9.7086033888188095e-06 -0.0044046410110682313 0 -0.00028721716051911795 -0.005749915442062826 0 -0.0021668238656473086 -0.0085425705587545402 0 -0.0012420967344332402 -0.007641993342893949 0 -0.00057170439771956391 -0.0087663989283156343 0 0.00054574338801933304 -0.0050459530720063572 0 0.00059977485395709077 -0.0045582937411218051 0 6.5374069810636345e-05 -0.0051032809430282926 0 9.7086033888188095e-06 -0.0044046410110682313 0 -0.0012342996931169999 -0.0043183690579881983 0 -0.0019009793359258216 0.0025845825680009802 0 -0.0023499028208715427 0.0035167233567977001 0 -0.0027714402624702122 0.0026914116663543778 0 -0.0019009793359258216 0.0025845825680009802 0 -0.0017315213568223442 0.0036210113073129407 0 -0.0023499028208715427 0.0035167233567977001 0 0.00097733076659486657 -0.008521503360231315 0 0.00083687765580616358 -0.0086996718502245947 0 0.00079083077519580595 -0.0085795739462002901 0 0.00097733076659486657 -0.008521503360231315 0 0.00079083077519580595 -0.0085795739462002901 0 0.00077524865206532261 -0.0084159107281854707 0 -0.00030628696825898586 -0.0029414821883199127 0 -0.0012342996931169999 -0.0043183690579881983 0 0.00083687765580616358 -0.0086996718502245947 0 0.00068332686924865986 -0.0086524425427345238 0 0.00079083077519580595 -0.0085795739462002901 0 -0.0012342996931169999 -0.0043183690579881983 0 -9.4299896904130487e-05 -0.0055156039971898047 0 0.00068332686924865986 -0.0086524425427345238 0 0.00079083077519580595 -0.0085795739462002901 0 0.00068956924860881237 -0.008583708369713814 0 0.00079083077519580595 -0.0085795739462002901 0 0.00068956924860881237 -0.008583708369713814 0 0.00077524865206532261 -0.0084159107281854707 0 0.00068956924860881237 -0.008583708369713814 0 0.00066206615841617243 -0.0092823422586767075 0 0.00057028555796903037 -0.0089578294479954468 0 0.00068956924860881237 -0.008583708369713814 0 0.00057845414330847072 -0.0084560400966390715 0 0.00053317310774807236 -0.0087230429617597086 0 0.00068956924860881237 -0.008583708369713814 0 0.00057028555796903037 -0.0089578294479954468 0 0.00053317310774807236 -0.0087230429617597086 0 0.00068956924860881237 -0.008583708369713814 0 0.00041294867362863855 -0.008518990589223379 0 0.0003405885762495366 -0.0084651671704789808 0 -9.4299896904130487e-05 -0.0055156039971898047 0 0.00018572461665025485 -0.0058723611607624342 0 0.00068332686924865986 -0.0086524425427345238 0 0.00068956924860881237 -0.008583708369713814 0 0.00041294867362863855 -0.008518990589223379 0 0.00060298092562551583 -0.0091071873591647059 0 0.00052857115701704415 -0.0092990227597573045 0 0.0002998201704312389 -0.0083990411604307168 0 0.00010044803121059724 -0.0085273464159380374 0 0.00041294867362863855 -0.008518990589223379 0 0.00031722518507939254 -0.0084796026831880141 0 0.00041294867362863855 -0.008518990589223379 0 0.0003405885762495366 -0.0084651671704789808 0 0.00031722518507939254 -0.0084796026831880141 0 0.0002998201704312389 -0.0083990411604307168 0 0.00041294867362863855 -0.008518990589223379 0 0.00068956924860881237 -0.008583708369713814 0 0.00057845414330847072 -0.0084560400966390715 0 0.00077524865206532261 -0.0084159107281854707 0 0.0005800769565745559 -0.0082111575758450264 0 0.00057845414330847072 -0.0084560400966390715 0 0.00077524865206532261 -0.0084159107281854707 0 0.00046721563064082352 -0.0063056276324146903 0 0.00063936900129225361 -0.0056093423697910439 0 0.0005800769565745559 -0.0082111575758450264 0 0.00077524865206532261 -0.0084159107281854707 0 0.00080193159344462328 -0.0081734061741365865 0 0.00077524865206532261 -0.0084159107281854707 0 0.00094123940185675194 -0.0083065710354024557 0 0.00080193159344462328 -0.0081734061741365865 0 0.00094123940185675194 -0.0083065710354024557 0 0.0010227496277839562 -0.0081043563860785008 0 0.00080193159344462328 -0.0081734061741365865 0 0.00097733076659486657 -0.008521503360231315 0 0.00077524865206532261 -0.0084159107281854707 0 0.00094123940185675194 -0.0083065710354024557 0 -0.00030628696825898586 -0.0029414821883199127 0 0.0005248107865975279 -0.0025346401299925162 0 -0.0017315213568223442 0.0036210113073129407 0 -0.0023499028208715427 0.0035167233567977001 0 -0.0019143827373726871 0.0043223579081479906 0 0.00097733076659486657 -0.008521503360231315 0 0.00094123940185675194 -0.0083065710354024557 0 0.0011302344660298832 -0.0082919422502652062 0 0.00094123940185675194 -0.0083065710354024557 0 0.0010227496277839562 -0.0081043563860785008 0 0.0011302344660298832 -0.0082919422502652062 0 0.0015617450356372753 -0.0036880557271726654 0 0.0022186241498800465 -0.0027656740758310577 0 0.0017879255190759119 -0.0022083168047354789 0 0.0015617450356372753 -0.0036880557271726654 0 0.00086714445951002631 -0.0029266459841216451 0 0.0017879255190759119 -0.0022083168047354789 0 0.0015617450356372753 -0.0036880557271726654 0 0.00086714445951002631 -0.0029266459841216451 0 0.00050986114983554275 -0.0043004881489408014 0 0.0010766190777537256 -0.0045433133401751383 0 0.00063936900129225361 -0.0056093423697910439 0 0.00050986114983554275 -0.0043004881489408014 0 0.00014544857584858974 -0.0038739274776135582 0 -9.649041310730713e-05 -0.0043211872124446727 0 0.00086714445951002631 -0.0029266459841216451 0 0.00050986114983554275 -0.0043004881489408014 0 0.00014544857584858974 -0.0038739274776135582 0 0.00086714445951002631 -0.0029266459841216451 0 0.00014544857584858974 -0.0038739274776135582 0 0.00020016827190366888 -0.0032247942768183139 0 0.00014544857584858974 -0.0038739274776135582 0 0.00020016827190366888 -0.0032247942768183139 0 -0.00028060118560950092 -0.0038474465177307385 0 0.00014544857584858974 -0.0038739274776135582 0 -0.00028060118560950092 -0.0038474465177307385 0 -0.0002334526152554097 -0.004561680018203341 0 0.00014544857584858974 -0.0038739274776135582 0 -9.649041310730713e-05 -0.0043211872124446727 0 -0.0002334526152554097 -0.004561680018203341 0 -0.0001096314013200486 -0.0043933168138754865 0 -9.649041310730713e-05 -0.0043211872124446727 0 0.00016760308018956579 -0.004534401862897987 0 -0.0001096314013200486 -0.0043933168138754865 0 0.00050986114983554275 -0.0043004881489408014 0 -9.649041310730713e-05 -0.0043211872124446727 0 -0.0006751706010716754 0.0043211412892006276 0 -0.00088428495234611803 0.0044784914608680081 0 -0.00061148778188073189 0.0045075944639427924 0 -0.0006751706010716754 0.0043211412892006276 0 -0.00061148778188073189 0.0045075944639427924 0 -0.00054943231819519261 0.0043758584742036571 0 -0.0006751706010716754 0.0043211412892006276 0 -0.00054943231819519261 0.0043758584742036571 0 -0.00053986152394847736 0.0042694288945497507 0 -0.0006751706010716754 0.0043211412892006276 0 -0.00088428495234611803 0.0044784914608680081 0 -0.00092809833131619695 0.0040500420361245966 0 -0.00088428495234611803 0.0044784914608680081 0 -0.00066055264052561672 0.0047233507405868343 0 -0.00091185166547023033 0.0048519717335577372 0 -0.00088428495234611803 0.0044784914608680081 0 -0.00061148778188073189 0.0045075944639427924 0 -0.00066055264052561672 0.0047233507405868343 0 -0.00061148778188073189 0.0045075944639427924 0 -0.00047265081391314611 0.0046527485852505207 0 -0.00066055264052561672 0.0047233507405868343 0 -0.00047265081391314611 0.0046527485852505207 0 -0.00030904598945404119 0.0045328690769821673 0 -0.00046530339996639505 0.0044855987474868991 0 -0.00061148778188073189 0.0045075944639427924 0 -0.00047265081391314611 0.0046527485852505207 0 -0.00046530339996639505 0.0044855987474868991 0 -7.3079836762535315e-05 0.0046034781194671803 0 -0.00030904598945404119 0.0045328690769821673 0 -0.00028472833966942268 0.0047421747711092026 0 -0.00047265081391314611 0.0046527485852505207 0 -0.00030904598945404119 0.0045328690769821673 0 -0.00028472833966942268 0.0047421747711092026 0 -7.3079836762535315e-05 0.0046034781194671803 0 -0.00016532263705497512 0.0043602102367492051 0 -0.00030904598945404119 0.0045328690769821673 0 -0.00016532263705497512 0.0043602102367492051 0 -0.00030904598945404119 0.0045328690769821673 0 -0.00040020975807211691 0.0043632968168325912 0 -0.00061148778188073189 0.0045075944639427924 0 -0.00046530339996639505 0.0044855987474868991 0 -0.00054943231819519261 0.0043758584742036571 0 -0.00030904598945404119 0.0045328690769821673 0 -0.00046530339996639505 0.0044855987474868991 0 -0.00040020975807211691 0.0043632968168325912 0 -0.00046530339996639505 0.0044855987474868991 0 -0.00040020975807211691 0.0043632968168325912 0 -0.00054943231819519261 0.0043758584742036571 0 -0.00053986152394847736 0.0042694288945497507 0 -0.00041334505655221248 0.0042281245097237014 0 -0.00062252813894154784 0.0042140027660321454 0 -0.00032848854199723186 0.0040358417121471712 0 -0.00041334505655221248 0.0042281245097237014 0 -0.00062252813894154784 0.0042140027660321454 0 -0.00040020975807211691 0.0043632968168325912 0 -0.00054943231819519261 0.0043758584742036571 0 -0.00053986152394847736 0.0042694288945497507 0 -0.00016532263705497512 0.0043602102367492051 0 -0.00032848854199723186 0.0040358417121471712 0 -0.00041334505655221248 0.0042281245097237014 0 -0.00040020975807211691 0.0043632968168325912 0 -0.00053986152394847736 0.0042694288945497507 0 -0.00041334505655221248 0.0042281245097237014 0 -0.00016532263705497512 0.0043602102367492051 0 -0.00040020975807211691 0.0043632968168325912 0 -0.00041334505655221248 0.0042281245097237014 0 -0.0012110254058253194 0.0032926062362191918 0 -0.00054024979633961775 0.0040003879855026554 0 -0.00092809833131619695 0.0040500420361245966 0 -0.0006751706010716754 0.0043211412892006276 0 -0.00054024979633961775 0.0040003879855026554 0 -0.00092809833131619695 0.0040500420361245966 0 -0.0006751706010716754 0.0043211412892006276 0 -0.00053986152394847736 0.0042694288945497507 0 -0.00059979532388097735 0.004208226670297883 0 0.00097777128699742398 0.0017781585870752701 0 0.0011641208319357048 0.0013647472302069682 0 0.0011622373178655856 0.0014125761095508805 0 0.0011641208319357048 0.0013647472302069682 0 -0.0012110254058253194 0.0032926062362191918 0 -0.00092809833131619695 0.0040500420361245966 0 -0.0013217709338880779 0.0041400377094125132 0 -0.00088428495234611803 0.0044784914608680081 0 -0.00092809833131619695 0.0040500420361245966 0 -0.0013217709338880779 0.0041400377094125132 0 -0.0017315213568223442 0.0036210113073129407 0 -0.0013217709338880779 0.0041400377094125132 0 -0.0019143827373726871 0.0043223579081479906 0 -0.0019143827373726871 0.0043223579081479906 0 -0.0014719575716487872 0.0045403247906155471 0 -0.0014894901666258355 0.0050515417067285026 0 -0.0013217709338880779 0.0041400377094125132 0 -0.0019143827373726871 0.0043223579081479906 0 -0.0014719575716487872 0.0045403247906155471 0 -0.00088428495234611803 0.0044784914608680081 0 -0.0013217709338880779 0.0041400377094125132 0 -0.0011597910881094376 0.0046354990402288458 0 -0.0013217709338880779 0.0041400377094125132 0 -0.0014719575716487872 0.0045403247906155471 0 -0.0011597910881094376 0.0046354990402288458 0 -0.00088428495234611803 0.0044784914608680081 0 -0.0011597910881094376 0.0046354990402288458 0 -0.00091185166547023033 0.0048519717335577372 0 -0.0014719575716487872 0.0045403247906155471 0 -0.0011597910881094376 0.0046354990402288458 0 -0.0014894901666258355 0.0050515417067285026 0 -0.0011597910881094376 0.0046354990402288458 0 -0.0014894901666258355 0.0050515417067285026 0 -0.00091185166547023033 0.0048519717335577372 0 0.0018791319952472943 -0.0026686372738781031 0 0.002060659535229712 -0.00071043457291386622 0 -0.0014894901666258355 0.0050515417067285026 0 -0.00088930845548265908 0.0051715826737175324 0 -0.00091185166547023033 0.0048519717335577372 0 0.0015617450356372753 -0.0036880557271726654 0 0.0026239022779110163 -0.0030628970266470671 0 0.0022186241498800465 -0.0027656740758310577 0 0.0005248107865975279 -0.0025346401299925162 0 0.0018791319952472943 -0.0026686372738781031 0 0.0010766190777537256 -0.0045433133401751383 0 0.0018791319952472943 -0.0026686372738781031 0 0.0010227496277839562 -0.0081043563860785008 0 0.0011302344660298832 -0.0082919422502652062 0 0.0012700708841228675 -0.0080295341936525346 0 0.0018791319952472943 -0.0026686372738781031 0 0.0018906208569730947 -0.0026670962582351371 0 0.0022186241498800465 -0.0027656740758310577 0 0.0024943458319893097 -0.0021498945775536003 0 0.0017879255190759119 -0.0022083168047354789 0 0.0022186241498800465 -0.0027656740758310577 0 0.0024943458319893097 -0.0021498945775536003 0 0.0027263636064785179 -0.0027690839621446139 0 0.0026239022779110163 -0.0030628970266470671 0 0.0022186241498800465 -0.0027656740758310577 0 0.0027263636064785179 -0.0027690839621446139 0 0.0025692880151716806 -0.0030805009445899318 0 0.0027263636064785179 -0.0027690839621446139 0 0.0038502512321059615 -0.0026884546987389593 0 0.0032342960413443058 -0.0023442157202925073 0 0.0027263636064785179 -0.0027690839621446139 0 0.0038502512321059615 -0.0026884546987389593 0 0.0024943458319893097 -0.0021498945775536003 0 0.0032342960413443058 -0.0023442157202925073 0 0.0027263636064785179 -0.0027690839621446139 0 0.0024943458319893097 -0.0021498945775536003 0 0.0032342960413443058 -0.0023442157202925073 0 0.0029469234864860526 -0.0015643730202556363 0 0.002060659535229712 -0.00071043457291386622 0 0.0026170670092292899 0.0005491841072513355 0 0.0032342960413443058 -0.0023442157202925073 0 0.0048611580470310015 -0.0017946208641090135 0 0.0029469234864860526 -0.0015643730202556363 0 0.0032342960413443058 -0.0023442157202925073 0 0.0038502512321059615 -0.0026884546987389593 0 0.0048611580470310015 -0.0017946208641090135 0 0.0038502512321059615 -0.0026884546987389593 0 0.0048611580470310015 -0.0017946208641090135 0 0.0052814403442303448 -0.0023076933818814223 0 -0.00088930845548265908 0.0051715826737175324 0 -0.00051993005673538033 0.0049492548515065512 0 -0.00034924467782976955 0.0052815195314711624 0 -0.00088930845548265908 0.0051715826737175324 0 -0.00091185166547023033 0.0048519717335577372 0 -0.00051993005673538033 0.0049492548515065512 0 -0.00066055264052561672 0.0047233507405868343 0 -0.00091185166547023033 0.0048519717335577372 0 -0.00051993005673538033 0.0049492548515065512 0 -0.00047265081391314611 0.0046527485852505207 0 -0.00066055264052561672 0.0047233507405868343 0 -0.00051993005673538033 0.0049492548515065512 0 -4.0120227060368048e-05 0.0048391246664353906 0 -0.00028472833966942268 0.0047421747711092026 0 -0.00025853522411878387 0.0049772754577204412 0 -0.00047265081391314611 0.0046527485852505207 0 -0.00028472833966942268 0.0047421747711092026 0 -0.00051993005673538033 0.0049492548515065512 0 -0.00028472833966942268 0.0047421747711092026 0 -0.00051993005673538033 0.0049492548515065512 0 -0.00025853522411878387 0.0049772754577204412 0 -0.00051993005673538033 0.0049492548515065512 0 -0.00025853522411878387 0.0049772754577204412 0 -0.00034924467782976955 0.0052815195314711624 0 -5.0619326815061807e-05 0.0051021139476374834 0 -0.00025853522411878387 0.0049772754577204412 0 -0.00034924467782976955 0.0052815195314711624 0 0.0031390844628706904 0.0014306831896045756 0 0.0035943930415017226 0.00019013449698577353 0 0.0066464311728176538 -0.0019563668879718026 0 0.0048611580470310015 -0.0017946208641090135 0 0.0052814403442303448 -0.0023076933818814223 0 0.0030724571791925968 -0.00036071887805085647 0 0.0030334093449360944 -4.5065855438686172e-05 0 0.0030430626045162444 -0.00034553143547841136 0 0.0029932541963960742 0.00035882626616210014 0 0.0030724571791925968 -0.00036071887805085647 0 0.0030334093449360944 -4.5065855438686172e-05 0 0.0030334093449360944 -4.5065855438686172e-05 0 0.0030251513345885698 -7.6858315059434056e-05 0 0.0030430626045162444 -0.00034553143547841136 0 0.0035943930415017226 0.00019013449698577353 0 0.0032631193770621806 -0.00017048823453175927 0 0.0030724571791925968 -0.00036071887805085647 0 0.003025779102458266 -0.00075787133649915907 0 0.0030430626045162444 -0.00034553143547841136 0 0.0030724571791925968 -0.00036071887805085647 0 0.003025779102458266 -0.00075787133649915907 0 0.0029469234864860526 -0.0015643730202556363 0 0.0029453138176108776 -0.00046899623758112145 0 0.0030430626045162444 -0.00034553143547841136 0 0.002983495706883047 -0.00019743310638208254 0 0.003025779102458266 -0.00075787133649915907 0 0.0029453138176108776 -0.00046899623758112145 0 0.0030430626045162444 -0.00034553143547841136 0 0.003025779102458266 -0.00075787133649915907 0 0.0029453138176108776 -0.00046899623758112145 0 0.0028369320704321214 -0.00099241322371103943 0 0.0029797885105478984 4.5737305578250068e-05 0 0.0030251513345885698 -7.6858315059434056e-05 0 0.002983495706883047 -0.00019743310638208254 0 0.0030251513345885698 -7.6858315059434056e-05 0 0.0030430626045162444 -0.00034553143547841136 0 0.002983495706883047 -0.00019743310638208254 0 0.0029797885105478984 4.5737305578250068e-05 0 0.002983495706883047 -0.00019743310638208254 0 0.0028685931365369779 -0.00018218119509662097 0 0.0029797885105478984 4.5737305578250068e-05 0 0.0029044993253812437 -0.00011502745227271802 0 0.0028685931365369779 -0.00018218119509662097 0 0.0029453138176108776 -0.00046899623758112145 0 0.002983495706883047 -0.00019743310638208254 0 0.0028685931365369779 -0.00018218119509662097 0 0.0029453138176108776 -0.00046899623758112145 0 0.0028685931365369779 -0.00018218119509662097 0 0.0026655935566415791 -0.00040221675014181206 0 0.0014879100337880501 -0.0021347340895012507 0 -0.0001847263415878453 -0.0035629440526754341 0 0.00021073057507955633 -0.0020351468465579369 0 0.001749454750480542 -0.0012762043849182535 0 0.0010479311467832346 -0.0018253490197868854 0 0.0026927611566038962 -0.00014956495032193221 0 0.0026655935566415791 -0.00040221675014181206 0 0.0021276730061800132 -0.00027159036394877606 0 0.0028685931365369779 -0.00018218119509662097 0 0.0026927611566038962 -0.00014956495032193221 0 0.0026655935566415791 -0.00040221675014181206 0 0.0026655935566415791 -0.00040221675014181206 0 0.0021662750259438556 -0.00074898885066251495 0 0.0025717137433743549 -0.00084810653354525068 0 0.0026655935566415791 -0.00040221675014181206 0 0.0021662750259438556 -0.00074898885066251495 0 0.0021276730061800132 -0.00027159036394877606 0 0.0025717137433743549 -0.00084810653354525068 0 0.0024004638015320099 -0.0015152301012588123 0 0.0019335439623186096 -0.001363252260928466 0 0.0021662750259438556 -0.00074898885066251495 0 0.0025717137433743549 -0.00084810653354525068 0 0.0019335439623186096 -0.001363252260928466 0 0.0025717137433743549 -0.00084810653354525068 0 0.0028369320704321214 -0.00099241322371103943 0 0.0024004638015320099 -0.0015152301012588123 0 0.0029453138176108776 -0.00046899623758112145 0 0.0026655935566415791 -0.00040221675014181206 0 0.0025717137433743549 -0.00084810653354525068 0 0.0029453138176108776 -0.00046899623758112145 0 0.0025717137433743549 -0.00084810653354525068 0 0.0028369320704321214 -0.00099241322371103943 0 0.003025779102458266 -0.00075787133649915907 0 0.0028369320704321214 -0.00099241322371103943 0 0.0029469234864860526 -0.0015643730202556363 0 0.0028369320704321214 -0.00099241322371103943 0 0.0029469234864860526 -0.0015643730202556363 0 0.0024004638015320099 -0.0015152301012588123 0 0.0024943458319893097 -0.0021498945775536003 0 0.0024004638015320099 -0.0015152301012588123 0 0.0017879255190759119 -0.0022083168047354789 0 0.0024943458319893097 -0.0021498945775536003 0 0.0029469234864860526 -0.0015643730202556363 0 0.0024004638015320099 -0.0015152301012588123 0 0.0024004638015320099 -0.0015152301012588123 0 0.0017879255190759119 -0.0022083168047354789 0 0.0019335439623186096 -0.001363252260928466 0 0.0017879255190759119 -0.0022083168047354789 0 0.0012109431579792535 -0.001939355170281759 0 0.0019335439623186096 -0.001363252260928466 0 0.00086714445951002631 -0.0029266459841216451 0 0.0017879255190759119 -0.0022083168047354789 0 0.0012109431579792535 -0.001939355170281759 0 0.00086714445951002631 -0.0029266459841216451 0 0.0012109431579792535 -0.001939355170281759 0 0.00021224852678421491 -0.0021999810835455569 0 0.00042326930120185571 -0.002317219062503257 0 2.5601902477806544e-05 -0.0027444509779343002 0 0.0012109431579792535 -0.001939355170281759 0 0.0011697850253412122 -0.00096001875369197361 0 0.00021224852678421491 -0.0021999810835455569 0 0.0021662750259438556 -0.00074898885066251495 0 0.0011697850253412122 -0.00096001875369197361 0 0.0019335439623186096 -0.001363252260928466 0 0.0012109431579792535 -0.001939355170281759 0 0.0011697850253412122 -0.00096001875369197361 0 0.0019335439623186096 -0.001363252260928466 0 -0.00028060118560950092 -0.0038474465177307385 0 -0.00045122877867345159 -0.0032524959166148272 0 -0.00043534445425521325 -0.0032419482940402016 0 0.00020016827190366888 -0.0032247942768183139 0 -0.00028060118560950092 -0.0038474465177307385 0 0.00021224852678421491 -0.0021999810835455569 0 -0.00018110339557091763 -0.0030274826371639628 0 2.5601902477806544e-05 -0.0027444509779343002 0 0.00086714445951002631 -0.0029266459841216451 0 0.00020016827190366888 -0.0032247942768183139 0 0.00021224852678421491 -0.0021999810835455569 0 -0.00099731938790595062 -0.0035859476023098009 0 -0.00043534445425521325 -0.0032419482940402016 0 -0.00067189152369486577 -0.0035451829396557543 0 -0.00043534445425521325 -0.0032419482940402016 0 -0.00040841300154519257 -0.0033635391064819431 0 -0.00067189152369486577 -0.0035451829396557543 0 -0.00014832040275675575 -0.0048654739130321806 0 -8.5473297381933951e-05 -0.0051474983898436525 0 -0.00045122877867345159 -0.0032524959166148272 0 -0.00040841300154519257 -0.0033635391064819431 0 -0.00014936184116885206 -0.0035614482167293762 0 -0.00045122877867345159 -0.0032524959166148272 0 -0.00043534445425521325 -0.0032419482940402016 0 -0.00040841300154519257 -0.0033635391064819431 0 -0.00040841300154519257 -0.0033635391064819431 0 -0.00014936184116885206 -0.0035614482167293762 0 -0.00067189152369486577 -0.0035451829396557543 0 -0.00014936184116885206 -0.0035614482167293762 0 -0.00067189152369486577 -0.0035451829396557543 0 -0.00064265000136956043 -0.0039776029450411601 0 -0.00067189152369486577 -0.0035451829396557543 0 -0.00064265000136956043 -0.0039776029450411601 0 -0.0011688586256707303 -0.0034888578600760934 0 -0.00014936184116885206 -0.0035614482167293762 0 -0.00064265000136956043 -0.0039776029450411601 0 8.706770887921707e-05 -0.0044370318828837281 0 -8.5473297381933951e-05 -0.0051474983898436525 0 -3.7694686772933609e-05 -0.0054895771867694869 0 -0.00099731938790595062 -0.0035859476023098009 0 -0.0001847263415878453 -0.0035629440526754341 0 -0.0011688586256707303 -0.0034888578600760934 0 0.00042326930120185571 -0.002317219062503257 0 0.0010479311467832346 -0.0018253490197868854 0 0.0021662750259438556 -0.00074898885066251495 0 0.0011697850253412122 -0.00096001875369197361 0 0.0021276730061800132 -0.00027159036394877606 0 -0.00099731938790595062 -0.0035859476023098009 0 -0.00067189152369486577 -0.0035451829396557543 0 -0.0011688586256707303 -0.0034888578600760934 0 -0.00064265000136956043 -0.0039776029450411601 0 -0.0011688586256707303 -0.0034888578600760934 0 -0.0011214633418261525 -0.0042868251367214737 0 -0.0013754200480537869 -0.0034399581488584142 0 -0.0014093175789901219 -0.0034651271306600584 0 -0.0011688586256707303 -0.0034888578600760934 0 -0.0018954430338409861 -0.0048088177202258425 0 -0.0011214633418261525 -0.0042868251367214737 0 -0.0001847263415878453 -0.0035629440526754341 0 -0.0011688586256707303 -0.0034888578600760934 0 0.00021073057507955633 -0.0020351468465579369 0 -0.0011688586256707303 -0.0034888578600760934 0 -0.00085975080994206421 -0.001441818987857298 0 0.00021073057507955633 -0.0020351468465579369 0 -0.00085975080994206421 -0.001441818987857298 0 0.00021073057507955633 -0.0020351468465579369 0 0.00030592438518023542 -0.00068702861844087144 0 -0.0011214633418261525 -0.0042868251367214737 0 -0.0012237599839369634 -0.0052372080504388303 0 -0.00069719446883827804 -0.004768702731316592 0 -0.0018954430338409861 -0.0048088177202258425 0 -0.0011214633418261525 -0.0042868251367214737 0 -0.0012237599839369634 -0.0052372080504388303 0 -0.0012237599839369634 -0.0052372080504388303 0 -0.0017772920255937307 -0.0056113229274392254 0 -0.0012815780316792944 -0.0061090791929474357 0 -0.0018954430338409861 -0.0048088177202258425 0 -0.0012237599839369634 -0.0052372080504388303 0 -0.0017772920255937307 -0.0056113229274392254 0 -0.00085975080994206421 -0.001441818987857298 0 -0.00027892724890828357 0.00015233196091007272 0 0.00030592438518023542 -0.00068702861844087144 0 -0.0014093175789901219 -0.0034651271306600584 0 -0.0015830261846526241 -0.0040798639673281 0 -0.0018954430338409861 -0.0048088177202258425 0 -0.0017772920255937307 -0.0056113229274392254 0 -0.0022308247538386245 -0.0060133640372049373 0 -0.0017772920255937307 -0.0056113229274392254 0 -0.0022293374822861325 -0.0059950895463762076 0 -0.0018035305491885087 -0.0060587841229051472 0 -0.0017335189283087962 -0.0042842605831147889 0 -0.0015830261846526241 -0.0040798639673281 0 -0.00027892724890828357 0.00015233196091007272 0 0.00072143102643622411 0.00013341403677738956 0 0.00030592438518023542 -0.00068702861844087144 0 -0.00064265000136956043 -0.0039776029450411601 0 8.706770887921707e-05 -0.0044370318828837281 0 -0.00069719446883827804 -0.004768702731316592 0 8.706770887921707e-05 -0.0044370318828837281 0 -0.00069719446883827804 -0.004768702731316592 0 -0.00061181561142407048 -0.0056079221138375986 0 -0.00064265000136956043 -0.0039776029450411601 0 -0.0011214633418261525 -0.0042868251367214737 0 -0.00069719446883827804 -0.004768702731316592 0 -0.00061181561142407048 -0.0056079221138375986 0 -4.7476694299173352e-06 -0.0061046585962662124 0 -0.00056746076808380315 -0.0063823320376163685 0 -0.0012237599839369634 -0.0052372080504388303 0 -0.00061181561142407048 -0.0056079221138375986 0 -0.0012815780316792944 -0.0061090791929474357 0 -0.0012237599839369634 -0.0052372080504388303 0 -0.00069719446883827804 -0.004768702731316592 0 -0.00061181561142407048 -0.0056079221138375986 0 -3.7694686772933609e-05 -0.0054895771867694869 0 -3.9124816753719555e-05 -0.0057623789110044865 0 8.706770887921707e-05 -0.0044370318828837281 0 -0.00061181561142407048 -0.0056079221138375986 0 -4.7476694299173352e-06 -0.0061046585962662124 0 9.7455499908763509e-05 -0.006367609205681894 0 -4.7476694299173352e-06 -0.0061046585962662124 0 3.0121610833338017e-05 -0.006235994074758929 0 -4.7476694299173352e-06 -0.0061046585962662124 0 5.1842522102352491e-05 -0.0065264844477384695 0 3.0121610833338017e-05 -0.006235994074758929 0 -4.7476694299173352e-06 -0.0061046585962662124 0 5.1842522102352491e-05 -0.0065264844477384695 0 -0.00056746076808380315 -0.0063823320376163685 0 5.1842522102352491e-05 -0.0065264844477384695 0 -0.00056746076808380315 -0.0063823320376163685 0 -0.00035730795955347055 -0.0068898742042844833 0 -0.00061181561142407048 -0.0056079221138375986 0 -0.00056746076808380315 -0.0063823320376163685 0 -0.0012815780316792944 -0.0061090791929474357 0 -0.00056746076808380315 -0.0063823320376163685 0 -0.0012815780316792944 -0.0061090791929474357 0 -0.0011787466214266892 -0.006814422411310265 0 -0.00085839730420265515 -0.0070340101679418291 0 -0.00035730795955347055 -0.0068898742042844833 0 -3.7338676731845082e-05 -0.0077026723656457054 0 -0.00056746076808380315 -0.0063823320376163685 0 -0.00085839730420265515 -0.0070340101679418291 0 -0.0011787466214266892 -0.006814422411310265 0 -0.00085839730420265515 -0.0070340101679418291 0 -0.0012993723292200252 -0.0072706559611634162 0 -0.0010069603865396329 -0.007783284268718816 0 -0.00085839730420265515 -0.0070340101679418291 0 -0.0011787466214266892 -0.006814422411310265 0 -0.0012993723292200252 -0.0072706559611634162 0 -0.00056746076808380315 -0.0063823320376163685 0 -0.00085839730420265515 -0.0070340101679418291 0 -0.00035730795955347055 -0.0068898742042844833 0 5.1842522102352491e-05 -0.0065264844477384695 0 1.7071380998673372e-05 -0.0065657124311317948 0 4.0651583190063381e-05 -0.006536669356599553 0 -0.00036621274537175345 -0.0073543524551793471 0 -0.00064851552917497164 -0.0082618838095787125 0 5.1842522102352491e-05 -0.0065264844477384695 0 -0.00035730795955347055 -0.0068898742042844833 0 -3.7338676731845082e-05 -0.0077026723656457054 0 -0.0022539111683910437 -0.0048359014910270481 0 -0.0025919060584843304 -0.0063492445500395855 0 -0.0034951737832642437 -0.005980455539449309 0 -0.0015830261846526241 -0.0040798639673281 0 -0.0022672611119929674 -0.0063169911391482755 0 -0.0019323411007323257 -0.0065120269750389139 0 -0.0022293374822861325 -0.0059950895463762076 0 -0.0025172027057831559 -0.0070308010519528367 0 -0.0019323411007323257 -0.0065120269750389139 0 -0.0022293374822861325 -0.0059950895463762076 0 -0.0018035305491885087 -0.0060587841229051472 0 -0.0019323411007323257 -0.0065120269750389139 0 -0.0018035305491885087 -0.0060587841229051472 0 -0.0012815780316792944 -0.0061090791929474357 0 -0.0019323411007323257 -0.0065120269750389139 0 -0.0012815780316792944 -0.0061090791929474357 0 -0.0018913733664019106 -0.0073355000578960881 0 -0.0017772920255937307 -0.0056113229274392254 0 -0.0018035305491885087 -0.0060587841229051472 0 -0.0012815780316792944 -0.0061090791929474357 0 -0.0012815780316792944 -0.0061090791929474357 0 -0.0011787466214266892 -0.006814422411310265 0 -0.0019464278081632355 -0.0073078164332966572 0 -0.0016949245105481222 -0.006818004830426206 0 -0.0020089735867533805 -0.0074700026182886719 0 -0.0011787466214266892 -0.006814422411310265 0 -0.0012993723292200252 -0.0072706559611634162 0 -0.0019464278081632355 -0.0073078164332966572 0 -0.0012993723292200252 -0.0072706559611634162 0 -0.0019464278081632355 -0.0073078164332966572 0 -0.0015105154882379898 -0.0076187651426056933 0 -0.0019323411007323257 -0.0065120269750389139 0 -0.0018913733664019106 -0.0073355000578960881 0 -0.0025172027057831559 -0.0070308010519528367 0 -0.0025919060584843304 -0.0063492445500395855 0 -0.0034951737832642437 -0.005980455539449309 0 -0.0035322419010050399 -0.0070179680227024661 0 -0.0034951737832642437 -0.005980455539449309 0 -0.0035322419010050399 -0.0070179680227024661 0 -0.0047179034227125575 -0.0071217868268278499 0 -0.00027892724890828357 0.00015233196091007272 0 0.00098024560366021581 0.00085955444633159246 0 0.00072143102643622411 0.00013341403677738956 0 -0.0015830261846526241 -0.0040798639673281 0 -0.0012276546877249413 -0.0033339665842722576 0 0.00098024560366021581 0.00085955444633159246 0 0.00072143102643622411 0.00013341403677738956 0 0.001432901761047937 0.00038019917723782967 0 0.00072143102643622411 0.00013341403677738956 0 0.001432901761047937 0.00038019917723782967 0 0.001059345318885117 -0.00021130883600587247 0 0.00098024560366021581 0.00085955444633159246 0 0.001432901761047937 0.00038019917723782967 0 0.0017486244548667997 0.00073113180704131799 0 0.001432901761047937 0.00038019917723782967 0 0.0021500917354338729 0.00036969187123385194 0 0.0019724712594714881 -8.4609858574657471e-05 0 0.001432901761047937 0.00038019917723782967 0 0.0017486244548667997 0.00073113180704131799 0 0.0021500917354338729 0.00036969187123385194 0 0.001432901761047937 0.00038019917723782967 0 0.001059345318885117 -0.00021130883600587247 0 0.0019724712594714881 -8.4609858574657471e-05 0 0.0017486244548667997 0.00073113180704131799 0 0.0022833105452764553 0.00076444714988608338 0 0.0017825527271877273 0.0012275271966052537 0 -0.0012276546877249413 -0.0033339665842722576 0 -0.0013901827297332311 -0.0034527515709710395 0 0.00098024560366021581 0.00085955444633159246 0 0.0017486244548667997 0.00073113180704131799 0 0.0017825527271877273 0.0012275271966052537 0 0.0022833105452764553 0.00076444714988608338 0 0.0017825527271877273 0.0012275271966052537 0 0.0022829659367756029 0.0011316753373983074 0 0.0022833105452764553 0.00076444714988608338 0 0.0026590585768556537 0.00082973973807134809 0 0.0022829659367756029 0.0011316753373983074 0 0.0017486244548667997 0.00073113180704131799 0 0.0022833105452764553 0.00076444714988608338 0 0.0021500917354338729 0.00036969187123385194 0 0.0028147797052403573 0.00082030976864262467 0 0.0026590585768556537 0.00082973973807134809 0 0.0027410330057820484 0.0011286410636350049 0 0.0028147797052403573 0.00082030976864262467 0 0.0026590585768556537 0.00082973973807134809 0 0.0028476261089676095 0.00057475986534022265 0 0.002999438476179752 0.00080993437873286115 0 0.0028147797052403573 0.00082030976864262467 0 0.0028476261089676095 0.00057475986534022265 0 0.0022833105452764553 0.00076444714988608338 0 0.0026590585768556537 0.00082973973807134809 0 0.0026641142745966288 0.00051298341322126293 0 0.0022833105452764553 0.00076444714988608338 0 0.0026641142745966288 0.00051298341322126293 0 0.0025841528607434203 0.00033630055381945177 0 0.0026590585768556537 0.00082973973807134809 0 0.0026641142745966288 0.00051298341322126293 0 0.0028476261089676095 0.00057475986534022265 0 0.0026641142745966288 0.00051298341322126293 0 0.0028476261089676095 0.00057475986534022265 0 0.002818140370205684 0.00016757486088393012 0 0.0026641142745966288 0.00051298341322126293 0 0.0025841528607434203 0.00033630055381945177 0 0.002818140370205684 0.00016757486088393012 0 0.0025841528607434203 0.00033630055381945177 0 0.002818140370205684 0.00016757486088393012 0 0.0026583774867530246 -2.5314500318992462e-05 0 0.0021500917354338729 0.00036969187123385194 0 0.0026583774867530246 -2.5314500318992462e-05 0 0.0019724712594714881 -8.4609858574657471e-05 0 0.0022833105452764553 0.00076444714988608338 0 0.0025841528607434203 0.00033630055381945177 0 0.0021500917354338729 0.00036969187123385194 0 0.0025841528607434203 0.00033630055381945177 0 0.0021500917354338729 0.00036969187123385194 0 0.0026583774867530246 -2.5314500318992462e-05 0 0.0026583774867530246 -2.5314500318992462e-05 0 0.0026174708457774518 -0.00037536920545004149 0 0.0019724712594714881 -8.4609858574657471e-05 0 0.0029044993253812437 -0.00011502745227271802 0 0.0026583774867530246 -2.5314500318992462e-05 0 0.0026174708457774518 -0.00037536920545004149 0 0.0029044993253812437 -0.00011502745227271802 0 0.002818140370205684 0.00016757486088393012 0 0.0026583774867530246 -2.5314500318992462e-05 0 0.0029044993253812437 -0.00011502745227271802 0 0.0028685931365369779 -0.00018218119509662097 0 0.0026174708457774518 -0.00037536920545004149 0 0.0028685931365369779 -0.00018218119509662097 0 0.0026927611566038962 -0.00014956495032193221 0 0.0026174708457774518 -0.00037536920545004149 0 0.0014879100337880501 -0.0021347340895012507 0 0.0026174708457774518 -0.00037536920545004149 0 0.0013214351020615046 -0.00086410408452339185 0 0.001749454750480542 -0.0012762043849182535 0 0.002098446418800368 -0.00097561538576635624 0 0.0014879100337880501 -0.0021347340895012507 0 0.0013214351020615046 -0.00086410408452339185 0 0.00021073057507955633 -0.0020351468465579369 0 0.0013214351020615046 -0.00086410408452339185 0 0.00021073057507955633 -0.0020351468465579369 0 0.00030592438518023542 -0.00068702861844087144 0 0.0013214351020615046 -0.00086410408452339185 0 0.00030592438518023542 -0.00068702861844087144 0 0.001059345318885117 -0.00021130883600587247 0 0.00072143102643622411 0.00013341403677738956 0 0.00030592438518023542 -0.00068702861844087144 0 0.001059345318885117 -0.00021130883600587247 0 0.0013214351020615046 -0.00086410408452339185 0 0.001059345318885117 -0.00021130883600587247 0 0.0019724712594714881 -8.4609858574657471e-05 0 0.0026174708457774518 -0.00037536920545004149 0 0.0013214351020615046 -0.00086410408452339185 0 0.0019724712594714881 -8.4609858574657471e-05 0 0.0029869095102578545 -0.0058113344674986783 0 0.0046573864163154868 -0.0052749132822688775 0 0.0043838506929634417 -0.0069152421443816501 0 0.0029869095102578545 -0.0058113344674986783 0 0.0043838506929634417 -0.0069152421443816501 0 0.0031136825145232296 -0.0069968703818609722 0 0.0029869095102578545 -0.0058113344674986783 0 0.0031136825145232296 -0.0069968703818609722 0 0.0021307169649528333 -0.0068198200047671527 0 -8.9600809353601076e-05 -0.0063631920572912604 0 -0.00012645075668962419 -0.0064306172339903545 0 -2.4032921566933127e-05 -0.0064163589574685606 0 0.0017433037843807269 -0.0070804935909603555 0 0.0028127673183341055 -0.0082033491177949912 0 -0.00012645075668962419 -0.0064306172339903545 0 -0.00021337677013545992 -0.0064175147069707615 0 -0.00017627790373860293 -0.006479246305776289 0 -8.9600809353601076e-05 -0.0063631920572912604 0 -0.00012645075668962419 -0.0064306172339903545 0 -0.00021337677013545992 -0.0064175147069707615 0 0.0032251434471293758 -0.010002318457253984 0 0.0034298805474472708 -0.0099069264331228379 0 0.0034485602747854577 -0.01000868211329663 0 0.0046573864163154868 -0.0052749132822688775 0 0.0053124652885295203 -0.0057976229069148831 0 0.0062236143014494814 -0.0047558244399705735 0 0.0028127673183341055 -0.0082033491177949912 0 0.0033997579753120991 -0.011599146425750464 0 0.0042966576260463516 -0.009130999055421635 0 0.0033997579753120991 -0.011599146425750464 0 0.0032251434471293758 -0.010002318457253984 0 0.0034485602747854577 -0.01000868211329663 0 0.0034965388932594564 -0.01014670856025718 0 0.0032251434471293758 -0.010002318457253984 0 0.0032394475813553674 -0.010227936769542336 0 0.0034965388932594564 -0.01014670856025718 0 0.0046573864163154868 -0.0052749132822688775 0 0.0053124652885295203 -0.0057976229069148831 0 0.0043838506929634417 -0.0069152421443816501 0 0.0032251434471293758 -0.010002318457253984 0 0.0032394475813553674 -0.010227936769542336 0 0.0028966088942817651 -0.010193843878577974 0 0.0042966576260463516 -0.009130999055421635 0 0.0037733664125061211 -0.0090109892290038181 0 0.0031769340044871582 -0.010420057309268082 0 0.0032394475813553674 -0.010227936769542336 0 0.0028966088942817651 -0.010193843878577974 0 0.0031769340044871582 -0.010420057309268082 0 0.0029499206674676801 -0.010543967078439657 0 0.0028966088942817651 -0.010193843878577974 0 0.0032394475813553674 -0.010227936769542336 0 0.0034965388932594564 -0.01014670856025718 0 0.0034828984030110702 -0.01044982201327882 0 0.0031769340044871582 -0.010420057309268082 0 0.0032394475813553674 -0.010227936769542336 0 0.0034828984030110702 -0.01044982201327882 0 0.0031769340044871582 -0.010420057309268082 0 0.0033224921337043252 -0.01071854183823513 0 0.0034828984030110702 -0.01044982201327882 0 0.0033224921337043252 -0.01071854183823513 0 0.0029499206674676801 -0.010543967078439657 0 0.0030605137436625395 -0.010788714896667828 0 0.0031769340044871582 -0.010420057309268082 0 0.0033224921337043252 -0.01071854183823513 0 0.0029499206674676801 -0.010543967078439657 0 0.0029499206674676801 -0.010543967078439657 0 0.0028966088942817651 -0.010193843878577974 0 0.0024766442031715487 -0.010426267359137516 0 0.0029499206674676801 -0.010543967078439657 0 0.0024766442031715487 -0.010426267359137516 0 0.0027447075300983358 -0.010843646322759658 0 0.0037733664125061211 -0.0090109892290038181 0 0.0030176965055089414 -0.0095026509275308139 0 0.0043838506929634417 -0.0069152421443816501 0 0.0031136825145232296 -0.0069968703818609722 0 0.0034308193549925882 -0.0081149725331295178 0 0.0031136825145232296 -0.0069968703818609722 0 0.0034308193549925882 -0.0081149725331295178 0 0.0021659824967402638 -0.0076586965234165284 0 0.0034308193549925882 -0.0081149725331295178 0 0.0021659824967402638 -0.0076586965234165284 0 0.0024326291212979322 -0.0094426695776665924 0 0.0021659824967402638 -0.0076586965234165284 0 0.0010313070525145062 -0.0083794985008939123 0 0.0024326291212979322 -0.0094426695776665924 0 0.0021659824967402638 -0.0076586965234165284 0 0.0010313070525145062 -0.0083794985008939123 0 0.0011316697816558155 -0.007252966569713225 0 0.0010313070525145062 -0.0083794985008939123 0 0.0011316697816558155 -0.007252966569713225 0 0.00031994959190168569 -0.0077346144994403431 0 0.0011316697816558155 -0.007252966569713225 0 0.0021307169649528333 -0.0068198200047671527 0 0.0011187809363860995 -0.0064363756457283539 0 0.0011316697816558155 -0.007252966569713225 0 0.00055288383307484587 -0.0064945337056546591 0 0.0011187809363860995 -0.0064363756457283539 0 0.0021659824967402638 -0.0076586965234165284 0 0.0011316697816558155 -0.007252966569713225 0 0.0021307169649528333 -0.0068198200047671527 0 0.0031136825145232296 -0.0069968703818609722 0 0.0021659824967402638 -0.0076586965234165284 0 0.0021307169649528333 -0.0068198200047671527 0 -0.0010099304236612706 -0.007894444327487914 0 -0.0022145334603402055 -0.0091871633770298951 0 -0.00031470085635361086 -0.0087693623316411617 0 -0.00022545833101335295 -0.0075001636107191313 0 -0.00064851552917497164 -0.0082618838095787125 0 0.0010313070525145062 -0.0083794985008939123 0 0.00031994959190168569 -0.0077346144994403431 0 -0.00031470085635361086 -0.0087693623316411617 0 -0.0010099304236612706 -0.007894444327487914 0 0.00031994959190168569 -0.0077346144994403431 0 -0.00031470085635361086 -0.0087693623316411617 0 0.0011316697816558155 -0.007252966569713225 0 0.00031994959190168569 -0.0077346144994403431 0 0.00055288383307484587 -0.0064945337056546591 0 0.00039984064727940384 -0.0067766914632258306 0 0.00081429763206309963 -0.0068036139971262063 0 1.7071380998673372e-05 -0.0065657124311317948 0 0.00055288383307484587 -0.0064945337056546591 0 5.8721916842260162e-05 -0.0064245231619309544 0 0.00055288383307484587 -0.0064945337056546591 0 5.8721916842260162e-05 -0.0064245231619309544 0 0.0011187809363860995 -0.0064363756457283539 0 -0.0010099304236612706 -0.007894444327487914 0 0.00031994959190168569 -0.0077346144994403431 0 0.00055288383307484587 -0.0064945337056546591 0 -0.00022545833101335295 -0.0075001636107191313 0 0.00011734319113808479 -0.00708395954516957 0 5.1842522102352491e-05 -0.0065264844477384695 0 5.8721916842260162e-05 -0.0064245231619309544 0 3.0121610833338017e-05 -0.006235994074758929 0 5.1842522102352491e-05 -0.0065264844477384695 0 1.7071380998673372e-05 -0.0065657124311317948 0 5.8721916842260162e-05 -0.0064245231619309544 0 5.8721916842260162e-05 -0.0064245231619309544 0 3.0121610833338017e-05 -0.006235994074758929 0 3.5391848036079409e-05 -0.0063324864200625967 0 3.0121610833338017e-05 -0.006235994074758929 0 3.5391848036079409e-05 -0.0063324864200625967 0 2.4363204135882423e-05 -0.0063288448288290776 0 3.5391848036079409e-05 -0.0063324864200625967 0 2.4363204135882423e-05 -0.0063288448288290776 0 8.4546112288019869e-06 -0.0063544305649377462 0 5.8721916842260162e-05 -0.0064245231619309544 0 3.5391848036079409e-05 -0.0063324864200625967 0 1.3246515821940239e-05 -0.0063257725810077934 0 7.4676790139081816e-06 -0.0063875943776871974 0 2.4363204135882423e-05 -0.0063288448288290776 0 8.4546112288019869e-06 -0.0063544305649377462 0 7.4676790139081816e-06 -0.0063875943776871974 0 8.4546112288019869e-06 -0.0063544305649377462 0 -1.9452375838761357e-05 -0.0064126252036726204 0 7.4676790139081816e-06 -0.0063875943776871974 0 2.4363204135882423e-05 -0.0063288448288290776 0 3.7812695808239425e-05 -0.0064323624978579047 0 9.7455499908763509e-05 -0.006367609205681894 0 3.0121610833338017e-05 -0.006235994074758929 0 2.4363204135882423e-05 -0.0063288448288290776 0 9.7455499908763509e-05 -0.006367609205681894 0 2.4363204135882423e-05 -0.0063288448288290776 0 3.7812695808239425e-05 -0.0064323624978579047 0 0.0029869095102578545 -0.0058113344674986783 0 0.0021307169649528333 -0.0068198200047671527 0 0.0011187809363860995 -0.0064363756457283539 0 0.0017433037843807269 -0.0070804935909603555 0 0.00081429763206309963 -0.0068036139971262063 0 -8.9600809353601076e-05 -0.0063631920572912604 0 1.3246515821940239e-05 -0.0063257725810077934 0 -1.2531750626365913e-05 -0.0063670750455308844 0 3.5391848036079409e-05 -0.0063324864200625967 0 1.3246515821940239e-05 -0.0063257725810077934 0 8.4546112288019869e-06 -0.0063544305649377462 0 1.3246515821940239e-05 -0.0063257725810077934 0 8.4546112288019869e-06 -0.0063544305649377462 0 -1.2531750626365913e-05 -0.0063670750455308844 0 8.4546112288019869e-06 -0.0063544305649377462 0 -7.6259704726591918e-05 -0.0064085652530943334 0 -1.9452375838761357e-05 -0.0064126252036726204 0 8.4546112288019869e-06 -0.0063544305649377462 0 -2.4032921566933127e-05 -0.0064163589574685606 0 -1.2531750626365913e-05 -0.0063670750455308844 0 -3.7622223272840727e-05 -0.0064078843741609461 0 -6.5470174974818456e-05 -0.0064302184856766132 0 -8.9600809353601076e-05 -0.0063631920572912604 0 -2.4032921566933127e-05 -0.0064163589574685606 0 -1.2531750626365913e-05 -0.0063670750455308844 0 -7.6259704726591918e-05 -0.0064085652530943334 0 -4.020012588263256e-05 -0.006484281412150703 0 -0.00010630709994002649 -0.0065215720974317144 0 -6.5470174974818456e-05 -0.0064302184856766132 0 -0.00012099889052417505 -0.0064746000072385323 0 -1.9452375838761357e-05 -0.0064126252036726204 0 -4.020012588263256e-05 -0.006484281412150703 0 -2.3762943191759371e-06 -0.0064469921078302442 0 -7.6259704726591918e-05 -0.0064085652530943334 0 -1.9452375838761357e-05 -0.0064126252036726204 0 -4.020012588263256e-05 -0.006484281412150703 0 -4.020012588263256e-05 -0.006484281412150703 0 1.2141893288713127e-06 -0.006526368250326541 0 -5.1888115195296338e-05 -0.0065525729138327885 0 -4.020012588263256e-05 -0.006484281412150703 0 -5.1888115195296338e-05 -0.0065525729138327885 0 -0.00010630709994002649 -0.0065215720974317144 0 5.8801367085829549e-05 -0.0065144283755094552 0 9.7455499908763509e-05 -0.006367609205681894 0 3.7812695808239425e-05 -0.0064323624978579047 0 7.4676790139081816e-06 -0.0063875943776871974 0 3.7812695808239425e-05 -0.0064323624978579047 0 -2.3762943191759371e-06 -0.0064469921078302442 0 7.4676790139081816e-06 -0.0063875943776871974 0 -1.9452375838761357e-05 -0.0064126252036726204 0 -2.3762943191759371e-06 -0.0064469921078302442 0 -4.020012588263256e-05 -0.006484281412150703 0 -2.3762943191759371e-06 -0.0064469921078302442 0 1.2141893288713127e-06 -0.006526368250326541 0 3.7812695808239425e-05 -0.0064323624978579047 0 -2.3762943191759371e-06 -0.0064469921078302442 0 1.2141893288713127e-06 -0.006526368250326541 0 5.8801367085829549e-05 -0.0065144283755094552 0 3.7812695808239425e-05 -0.0064323624978579047 0 1.2141893288713127e-06 -0.006526368250326541 0 -0.00014531645471252262 -0.0066289120081446115 0 5.8801367085829549e-05 -0.0065144283755094552 0 1.129090686204506e-05 -0.0065573766451154491 0 5.8801367085829549e-05 -0.0065144283755094552 0 1.2141893288713127e-06 -0.006526368250326541 0 1.129090686204506e-05 -0.0065573766451154491 0 1.2141893288713127e-06 -0.006526368250326541 0 1.129090686204506e-05 -0.0065573766451154491 0 9.6838490747294219e-06 -0.0065762617991250317 0 1.129090686204506e-05 -0.0065573766451154491 0 3.8158984160393909e-05 -0.0063966488314575074 0 9.6838490747294219e-06 -0.0065762617991250317 0 0.00038026451277221244 -0.0067572834869392816 0 0.00057857287002995592 -0.0068663853309748344 0 3.8158984160393909e-05 -0.0063966488314575074 0 0.0016579886572093984 -0.0062851775765510737 0 0.00081285998218100534 -0.0057525635676346411 0 3.8158984160393909e-05 -0.0063966488314575074 0 9.0295385675258577e-05 -0.0055366527364624375 0 0.00081285998218100534 -0.0057525635676346411 0 -0.00014531645471252262 -0.0066289120081446115 0 3.8158984160393909e-05 -0.0063966488314575074 0 9.0295385675258577e-05 -0.0055366527364624375 0 -0.00014531645471252262 -0.0066289120081446115 0 1.129090686204506e-05 -0.0065573766451154491 0 3.8158984160393909e-05 -0.0063966488314575074 0 -5.1888115195296338e-05 -0.0065525729138327885 0 -8.7777999719507979e-05 -0.0066312052658961543 0 -0.00013623394790351779 -0.006591672387168377 0 -5.1888115195296338e-05 -0.0065525729138327885 0 -0.00013623394790351779 -0.006591672387168377 0 -0.00010630709994002649 -0.0065215720974317144 0 1.2141893288713127e-06 -0.006526368250326541 0 -5.1888115195296338e-05 -0.0065525729138327885 0 9.6838490747294219e-06 -0.0065762617991250317 0 0.00057857287002995592 -0.0068663853309748344 0 0.00044204071355087799 -0.0073086769443076001 0 -5.1888115195296338e-05 -0.0065525729138327885 0 9.6838490747294219e-06 -0.0065762617991250317 0 -8.7777999719507979e-05 -0.0066312052658961543 0 0.0016579886572093984 -0.0062851775765510737 0 0.0014063129902522394 -0.0061370777096816809 0 0.0016274634200385072 -0.0065054942376986634 0 0.0014063129902522394 -0.0061370777096816809 0 -0.00039437929143682225 -0.0063658391414941097 0 0.00013669177090213424 -0.0068864928773396828 0 0.00044204071355087799 -0.0073086769443076001 0 -0.00022979384182310588 -0.008409593583163847 0 -8.7777999719507979e-05 -0.0066312052658961543 0 -0.00019187561357097315 -0.0066757921069716605 0 -0.00013623394790351779 -0.006591672387168377 0 -0.00019187561357097315 -0.0066757921069716605 0 -0.00020787160023428913 -0.0066124724111209102 0 -0.00013623394790351779 -0.006591672387168377 0 -0.00020787160023428913 -0.0066124724111209102 0 -0.00013623394790351779 -0.006591672387168377 0 -0.00020242212564793336 -0.0065232578126313808 0 -0.00013623394790351779 -0.006591672387168377 0 -0.00010630709994002649 -0.0065215720974317144 0 -0.00020242212564793336 -0.0065232578126313808 0 -0.00010630709994002649 -0.0065215720974317144 0 -0.00020242212564793336 -0.0065232578126313808 0 -0.00013474415702517212 -0.0064618876943652115 0 -0.00018079163155817115 -0.0065211880425646617 0 -0.00012099889052417505 -0.0064746000072385323 0 -0.00018525281712642494 -0.0065514623297928077 0 -0.00017627790373860293 -0.006479246305776289 0 -9.9869700700046138e-05 -0.0064871855074714402 0 -0.00012645075668962419 -0.0064306172339903545 0 -0.00017627790373860293 -0.006479246305776289 0 -9.9869700700046138e-05 -0.0064871855074714402 0 -7.6259704726591918e-05 -0.0064085652530943334 0 -0.00010630709994002649 -0.0065215720974317144 0 -0.00013474415702517212 -0.0064618876943652115 0 -0.00012645075668962419 -0.0064306172339903545 0 -2.4032921566933127e-05 -0.0064163589574685606 0 -9.9869700700046138e-05 -0.0064871855074714402 0 -0.00025579157440441439 -0.0065099227894147085 0 -0.00032452111398157616 -0.006558022182542614 0 -0.00033701321735140689 -0.0064759554461213138 0 -0.00021337677013545992 -0.0064175147069707615 0 -0.00025579157440441439 -0.0065099227894147085 0 -0.00033701321735140689 -0.0064759554461213138 0 -0.00021337677013545992 -0.0064175147069707615 0 -0.00017627790373860293 -0.006479246305776289 0 -0.00025579157440441439 -0.0065099227894147085 0 -0.00018525281712642494 -0.0065514623297928077 0 -0.00017627790373860293 -0.006479246305776289 0 -0.00025579157440441439 -0.0065099227894147085 0 -0.00018525281712642494 -0.0065514623297928077 0 -0.00025579157440441439 -0.0065099227894147085 0 -0.00027218326547742418 -0.0066033346870351482 0 -0.00018079163155817115 -0.0065211880425646617 0 -0.00021416646365454868 -0.0065465853616760933 0 -0.00025579157440441439 -0.0065099227894147085 0 -0.00032452111398157616 -0.006558022182542614 0 -0.00027218326547742418 -0.0066033346870351482 0 -0.00032452111398157616 -0.006558022182542614 0 -0.00027218326547742418 -0.0066033346870351482 0 -0.00035576274486170311 -0.0066335296918707577 0 -0.00027218326547742418 -0.0066033346870351482 0 -0.00030792453363609007 -0.0066605043148976577 0 -0.00035576274486170311 -0.0066335296918707577 0 -0.00027218326547742418 -0.0066033346870351482 0 -0.00025396960356522026 -0.0066546091990773402 0 -0.00030792453363609007 -0.0066605043148976577 0 -0.00020787160023428913 -0.0066124724111209102 0 -0.00027218326547742418 -0.0066033346870351482 0 -0.00025396960356522026 -0.0066546091990773402 0 -0.00020787160023428913 -0.0066124724111209102 0 -0.00020242212564793336 -0.0065232578126313808 0 -0.00027218326547742418 -0.0066033346870351482 0 -0.00019187561357097315 -0.0066757921069716605 0 -0.00020787160023428913 -0.0066124724111209102 0 -0.00025396960356522026 -0.0066546091990773402 0 -0.00039437929143682225 -0.0063658391414941097 0 -0.0023947024903934345 -0.0066116639568439871 0 -0.0010901118898656687 -0.0066075980119670481 0 -0.00022979384182310588 -0.008409593583163847 0 -0.0011142178167223562 -0.010846745098867499 0 -0.00019187561357097315 -0.0066757921069716605 0 -0.00025396960356522026 -0.0066546091990773402 0 -0.00030170697231504738 -0.00672016081226321 0 -0.00030792453363609007 -0.0066605043148976577 0 -0.00030170697231504738 -0.00672016081226321 0 -0.0003593026976721775 -0.0066934833058702424 0 -0.00025396960356522026 -0.0066546091990773402 0 -0.00030792453363609007 -0.0066605043148976577 0 -0.00030170697231504738 -0.00672016081226321 0 -0.0023947024903934345 -0.0066116639568439871 0 -0.0020330636432383093 -0.0080158191413244092 0 -0.0032260455179764086 -0.007579630030561087 0 -0.0019227422475843398 -0.0079237696610240348 0 -0.0026811440971808644 -0.0092933890378109202 0 -0.0017394835434673313 -0.0089876972999006315 0 -0.00099489518044198469 -0.0092822278437276681 0 -0.0013387071948296188 -0.01130621355584187 0 -0.0020330636432383093 -0.0080158191413244092 0 -0.0032260455179764086 -0.007579630030561087 0 -0.003201963857545263 -0.0082830703665584728 0 -0.0020330636432383093 -0.0080158191413244092 0 -0.0030378606639048008 -0.00940704884608763 0 -0.003201963857545263 -0.0082830703665584728 0 -0.0010921825453938509 -0.0087968461087158268 0 -0.0010643569164588878 -0.0079425091992311857 0 -0.00054338664112640997 -0.0086513444508604653 0 -0.0010921825453938509 -0.0087968461087158268 0 -0.0010643569164588878 -0.0079425091992311857 0 -0.0017394835434673313 -0.0089876972999006315 0 -0.0019227422475843398 -0.0079237696610240348 0 -0.0010643569164588878 -0.0079425091992311857 0 -0.0017394835434673313 -0.0089876972999006315 0 -0.0023947024903934345 -0.0066116639568439871 0 -0.0020330636432383093 -0.0080158191413244092 0 -0.0010901118898656687 -0.0066075980119670481 0 -0.0010643569164588878 -0.0079425091992311857 0 -0.0010901118898656687 -0.0066075980119670481 0 -0.00056148077766516929 -0.0070882970243998072 0 -0.00099489518044198469 -0.0092822278437276681 0 -0.00074386159762241159 -0.0084750010061125525 0 -0.0019227422475843398 -0.0079237696610240348 0 -0.0010643569164588878 -0.0079425091992311857 0 -0.0010901118898656687 -0.0066075980119670481 0 -0.00039437929143682225 -0.0063658391414941097 0 -0.0010901118898656687 -0.0066075980119670481 0 -0.00056148077766516929 -0.0070882970243998072 0 -0.00039437929143682225 -0.0063658391414941097 0 0.00013669177090213424 -0.0068864928773396828 0 -0.00056148077766516929 -0.0070882970243998072 0 0.00013669177090213424 -0.0068864928773396828 0 0.00058882970231741833 -0.0073532693173675541 0 -0.00040243888630582081 -0.0076321355885387706 0 0.00013669177090213424 -0.0068864928773396828 0 -0.00056148077766516929 -0.0070882970243998072 0 -0.00040243888630582081 -0.0076321355885387706 0 -0.0010643569164588878 -0.0079425091992311857 0 -0.00056148077766516929 -0.0070882970243998072 0 -0.00040243888630582081 -0.0076321355885387706 0 0.0014063129902522394 -0.0061370777096816809 0 0.00013669177090213424 -0.0068864928773396828 0 0.00058882970231741833 -0.0073532693173675541 0 0.00058882970231741833 -0.0073532693173675541 0 0.00083679557534617553 -0.0084218310068828288 0 0.0013050700465842785 -0.0073863165100440361 0 0.00058882970231741833 -0.0073532693173675541 0 0.00026572272898601611 -0.0085243438307916579 0 -3.4370185815774014e-05 -0.0080485926795828919 0 0.00058882970231741833 -0.0073532693173675541 0 0.00026572272898601611 -0.0085243438307916579 0 0.00083679557534617553 -0.0084218310068828288 0 0.00058882970231741833 -0.0073532693173675541 0 -0.00040243888630582081 -0.0076321355885387706 0 -3.4370185815774014e-05 -0.0080485926795828919 0 -0.00040243888630582081 -0.0076321355885387706 0 -3.4370185815774014e-05 -0.0080485926795828919 0 -0.00054338664112640997 -0.0086513444508604653 0 -0.0010643569164588878 -0.0079425091992311857 0 -0.00040243888630582081 -0.0076321355885387706 0 -0.00054338664112640997 -0.0086513444508604653 0 0.00026572272898601611 -0.0085243438307916579 0 -3.4370185815774014e-05 -0.0080485926795828919 0 -0.00054338664112640997 -0.0086513444508604653 0 -0.00054338664112640997 -0.0086513444508604653 0 -0.00017639420355012643 -0.0096577308330008625 0 -0.0010287457401526505 -0.0096271888609534371 0 0.00026572272898601611 -0.0085243438307916579 0 -0.00054338664112640997 -0.0086513444508604653 0 -0.00017639420355012643 -0.0096577308330008625 0 -0.00017639420355012643 -0.0096577308330008625 0 -0.0006169509110697599 -0.010173440758242277 0 -0.0010287457401526505 -0.0096271888609534371 0 0.00083679557534617553 -0.0084218310068828288 0 0.00041410717993482077 -0.0094174412697843168 0 0.0010643503658502949 -0.0093385499464248237 0 0.00026572272898601611 -0.0085243438307916579 0 -0.00017639420355012643 -0.0096577308330008625 0 0.00041410717993482077 -0.0094174412697843168 0 0.00026572272898601611 -0.0085243438307916579 0 0.00083679557534617553 -0.0084218310068828288 0 0.00041410717993482077 -0.0094174412697843168 0 -0.00017639420355012643 -0.0096577308330008625 0 0.00041410717993482077 -0.0094174412697843168 0 0.0004741330603161367 -0.010461069354145019 0 0.00041410717993482077 -0.0094174412697843168 0 0.00074661144084216019 -0.0098980271503115395 0 0.0004741330603161367 -0.010461069354145019 0 0.00074661144084216019 -0.0098980271503115395 0 0.0010643503658502949 -0.0093385499464248237 0 0.001061337925393382 -0.010357986755375385 0 0.00041410717993482077 -0.0094174412697843168 0 0.00074661144084216019 -0.0098980271503115395 0 0.0010643503658502949 -0.0093385499464248237 0 0.0004741330603161367 -0.010461069354145019 0 0.00099670994561920417 -0.011357313539771473 0 0.0001587350637397212 -0.011722892861666459 0 0.00074661144084216019 -0.0098980271503115395 0 0.0004741330603161367 -0.010461069354145019 0 0.001061337925393382 -0.010357986755375385 0 0.0004741330603161367 -0.010461069354145019 0 0.001061337925393382 -0.010357986755375385 0 0.00099670994561920417 -0.011357313539771473 0 0.0004741330603161367 -0.010461069354145019 0 -0.00026090323788000177 -0.010703850717303724 0 0.0001587350637397212 -0.011722892861666459 0 -0.00017639420355012643 -0.0096577308330008625 0 -0.0006169509110697599 -0.010173440758242277 0 -0.00026090323788000177 -0.010703850717303724 0 -0.0006169509110697599 -0.010173440758242277 0 -0.00026090323788000177 -0.010703850717303724 0 -0.00098498393922792572 -0.010694961719038073 0 -0.00017639420355012643 -0.0096577308330008625 0 0.0004741330603161367 -0.010461069354145019 0 -0.00026090323788000177 -0.010703850717303724 0 -0.00026090323788000177 -0.010703850717303724 0 -0.00098498393922792572 -0.010694961719038073 0 -0.00047914814334173376 -0.011471103374257588 0 -0.0006169509110697599 -0.010173440758242277 0 -0.00098498393922792572 -0.010694961719038073 0 -0.0010287457401526505 -0.0096271888609534371 0 -0.00098498393922792572 -0.010694961719038073 0 -0.001835127209122802 -0.011056557832944347 0 -0.0017609340881148924 -0.010067954033270156 0 -0.00098498393922792572 -0.010694961719038073 0 -0.0017609340881148924 -0.010067954033270156 0 -0.0010287457401526505 -0.0096271888609534371 0 -0.00098498393922792572 -0.010694961719038073 0 -0.001835127209122802 -0.011056557832944347 0 -0.0010938967716257674 -0.011787090139334003 0 -0.001835127209122802 -0.011056557832944347 0 -0.0024954781823360713 -0.010449956226339664 0 -0.0026349730649464888 -0.011254664847364131 0 -0.001835127209122802 -0.011056557832944347 0 -0.0024954781823360713 -0.010449956226339664 0 -0.0017609340881148924 -0.010067954033270156 0 -0.0024954781823360713 -0.010449956226339664 0 -0.0017609340881148924 -0.010067954033270156 0 -0.0026811440971808644 -0.0092933890378109202 0 -0.0017609340881148924 -0.010067954033270156 0 -0.0026811440971808644 -0.0092933890378109202 0 -0.0017394835434673313 -0.0089876972999006315 0 -0.0010921825453938509 -0.0087968461087158268 0 -0.0017394835434673313 -0.0089876972999006315 0 -0.0010287457401526505 -0.0096271888609534371 0 -0.0010921825453938509 -0.0087968461087158268 0 -0.00054338664112640997 -0.0086513444508604653 0 -0.0010287457401526505 -0.0096271888609534371 0 -0.0017609340881148924 -0.010067954033270156 0 -0.0017394835434673313 -0.0089876972999006315 0 -0.0010287457401526505 -0.0096271888609534371 0 -9.649041310730713e-05 -0.0043211872124446727 0 0.00016760308018956579 -0.004534401862897987 0 -0.0002334526152554097 -0.004561680018203341 0 0.00016760308018956579 -0.004534401862897987 0 -0.0002334526152554097 -0.004561680018203341 0 0.00051895252082894425 -0.005055267501997255 0 -0.0002334526152554097 -0.004561680018203341 0 9.0295385675258577e-05 -0.0055366527364624375 0 0.00051895252082894425 -0.005055267501997255 0 -0.00028060118560950092 -0.0038474465177307385 0 -0.00045122877867345159 -0.0032524959166148272 0 -0.0002334526152554097 -0.004561680018203341 0 -0.00014531645471252262 -0.0066289120081446115 0 -0.0002334526152554097 -0.004561680018203341 0 9.0295385675258577e-05 -0.0055366527364624375 0 -0.00014832040275675575 -0.0048654739130321806 0 -0.00015868119278937976 -0.0046607863297383288 0 9.0295385675258577e-05 -0.0055366527364624375 0 0.00051895252082894425 -0.005055267501997255 0 0.00081285998218100534 -0.0057525635676346411 0 0.0016579886572093984 -0.0062851775765510737 0 0.00081285998218100534 -0.0057525635676346411 0 0.0013069946234392027 -0.0057921763777882005 0 0.00051895252082894425 -0.005055267501997255 0 0.00081285998218100534 -0.0057525635676346411 0 0.0013069946234392027 -0.0057921763777882005 0 0.00016760308018956579 -0.004534401862897987 0 0.00098626448467377154 -0.0050590265814417475 0 0.000531501915165254 -0.0040180767126305845 0 0.00016760308018956579 -0.004534401862897987 0 0.00051895252082894425 -0.005055267501997255 0 0.00098626448467377154 -0.0050590265814417475 0 0.00051895252082894425 -0.005055267501997255 0 0.0013069946234392027 -0.0057921763777882005 0 0.00098626448467377154 -0.0050590265814417475 0 0.00098626448467377154 -0.0050590265814417475 0 0.0020681912388172026 -0.0063013967362133558 0 0.0020523052429492362 -0.0046856153815527032 0 0.0011553993137789159 -0.0070776642200787139 0 0.0010560705275074645 -0.00730376780365372 0 0.0013069946234392027 -0.0057921763777882005 0 0.00098626448467377154 -0.0050590265814417475 0 0.0020681912388172026 -0.0063013967362133558 0 0.0020681912388172026 -0.0063013967362133558 0 0.0015928608669108959 -0.0082228384831118228 0 0.0027211776175006734 -0.0084572153489810512 0 0.0016579886572093984 -0.0062851775765510737 0 0.0013069946234392027 -0.0057921763777882005 0 0.0020681912388172026 -0.0063013967362133558 0 0.0016579886572093984 -0.0062851775765510737 0 0.0020681912388172026 -0.0063013967362133558 0 0.0016274634200385072 -0.0065054942376986634 0 0.0020681912388172026 -0.0063013967362133558 0 0.0016274634200385072 -0.0065054942376986634 0 0.0013050700465842785 -0.0073863165100440361 0 0.00058882970231741833 -0.0073532693173675541 0 0.0016274634200385072 -0.0065054942376986634 0 0.0013050700465842785 -0.0073863165100440361 0 0.0014063129902522394 -0.0061370777096816809 0 0.00058882970231741833 -0.0073532693173675541 0 0.0016274634200385072 -0.0065054942376986634 0 0.0020681912388172026 -0.0063013967362133558 0 0.0013050700465842785 -0.0073863165100440361 0 0.0015928608669108959 -0.0082228384831118228 0 0.00083679557534617553 -0.0084218310068828288 0 0.0013050700465842785 -0.0073863165100440361 0 0.0015928608669108959 -0.0082228384831118228 0 0.00083679557534617553 -0.0084218310068828288 0 0.0015928608669108959 -0.0082228384831118228 0 0.0010643503658502949 -0.0093385499464248237 0 0.0015928608669108959 -0.0082228384831118228 0 0.0018459191681335764 -0.0093190316631643622 0 0.0010643503658502949 -0.0093385499464248237 0 0.0015928608669108959 -0.0082228384831118228 0 0.0018459191681335764 -0.0093190316631643622 0 0.0027211776175006734 -0.0084572153489810512 0 0.0018459191681335764 -0.0093190316631643622 0 0.0018414536003258971 -0.010429916787508077 0 0.0028007714008064398 -0.010187650166644925 0 0.0018459191681335764 -0.0093190316631643622 0 0.0014604270812440484 -0.0099600317043154855 0 0.0018414536003258971 -0.010429916787508077 0 0.0018459191681335764 -0.0093190316631643622 0 0.0014604270812440484 -0.0099600317043154855 0 0.0010643503658502949 -0.0093385499464248237 0 0.0014604270812440484 -0.0099600317043154855 0 0.0010643503658502949 -0.0093385499464248237 0 0.001061337925393382 -0.010357986755375385 0 0.0014014351241075551 -0.010895185830491564 0 0.0018414536003258971 -0.010429916787508077 0 0.0017633994435868165 -0.012066891112717774 0 0.0014604270812440484 -0.0099600317043154855 0 0.001061337925393382 -0.010357986755375385 0 0.0014014351241075551 -0.010895185830491564 0 0.001061337925393382 -0.010357986755375385 0 0.0014014351241075551 -0.010895185830491564 0 0.00099670994561920417 -0.011357313539771473 0 0.0014604270812440484 -0.0099600317043154855 0 0.0014014351241075551 -0.010895185830491564 0 0.0018414536003258971 -0.010429916787508077 0 0.0018414536003258971 -0.010429916787508077 0 0.0022842684048859129 -0.010323654711933286 0 0.0017633994435868165 -0.012066891112717774 0 -0.00040225762382536012 -0.0083124232733190213 0 -3.5852875723382409e-05 -0.0085577257220433994 0 -0.00042159607136436152 -0.0089531224345341543 0 0.00070855573368257361 -0.0080832992649710403 0 0.00053472994126813663 -0.0099544584038036826 0 0.0008064478277856386 -0.0081338881328720004 0 0.00070855573368257361 -0.0080832992649710403 0 0.0019871382301960669 -0.0036812530056376039 0 0.0020523052429492362 -0.0046856153815527032 0 0.000531501915165254 -0.0040180767126305845 0 0.0018459191681335764 -0.0093190316631643622 0 0.0028007714008064398 -0.010187650166644925 0 0.0027211776175006734 -0.0084572153489810512 0 0.00070855573368257361 -0.0080832992649710403 0 0.0010560705275074645 -0.00730376780365372 0 0.00070855573368257361 -0.0080832992649710403 0 0.00058423653109939842 -0.0069702433542015267 0 0.00098626448467377154 -0.0050590265814417475 0 0.0020523052429492362 -0.0046856153815527032 0 0.000531501915165254 -0.0040180767126305845 0 0.00017651879852357137 -0.0082281049265265707 0 -3.5852875723382409e-05 -0.0085577257220433994 0 0.00032224343106266207 -0.0086326985865528665 0 -0.00040225762382536012 -0.0083124232733190213 0 0.00017651879852357137 -0.0082281049265265707 0 -3.5852875723382409e-05 -0.0085577257220433994 0 0.00057845414330847072 -0.0084560400966390715 0 0.00017651879852357137 -0.0082281049265265707 0 0.00032224343106266207 -0.0086326985865528665 0 0.00057845414330847072 -0.0084560400966390715 0 0.00053317310774807236 -0.0087230429617597086 0 0.00032224343106266207 -0.0086326985865528665 0 0.0005800769565745559 -0.0082111575758450264 0 0.00057845414330847072 -0.0084560400966390715 0 0.00017651879852357137 -0.0082281049265265707 0 -0.0001096314013200486 -0.0043933168138754865 0 0.00016760308018956579 -0.004534401862897987 0 0.000531501915165254 -0.0040180767126305845 0 0.00046721563064082352 -0.0063056276324146903 0 0.00058423653109939842 -0.0069702433542015267 0 0.00066206615841617243 -0.0092823422586767075 0 0.00038636357961775107 -0.0093856749880734738 0 0.0004980092490631206 -0.0091798206934223664 0 0.00038636357961775107 -0.0093856749880734738 0 0.0004980092490631206 -0.0091798206934223664 0 0.00038588219818415067 -0.0090137926266517857 0 0.00038636357961775107 -0.0093856749880734738 0 0.00038588219818415067 -0.0090137926266517857 0 9.7881157990099241e-05 -0.0093390638498955895 0 0.00066206615841617243 -0.0092823422586767075 0 0.0004980092490631206 -0.0091798206934223664 0 0.00057028555796903037 -0.0089578294479954468 0 0.0004980092490631206 -0.0091798206934223664 0 0.00057028555796903037 -0.0089578294479954468 0 0.00038588219818415067 -0.0090137926266517857 0 0.00057028555796903037 -0.0089578294479954468 0 0.00053317310774807236 -0.0087230429617597086 0 0.00038588219818415067 -0.0090137926266517857 0 0.00053317310774807236 -0.0087230429617597086 0 0.00032224343106266207 -0.0086326985865528665 0 0.00038588219818415067 -0.0090137926266517857 0 0.00032224343106266207 -0.0086326985865528665 0 0.00038588219818415067 -0.0090137926266517857 0 8.0673293964915268e-05 -0.0088870974264434084 0 -3.5852875723382409e-05 -0.0085577257220433994 0 8.0673293964915268e-05 -0.0088870974264434084 0 -0.00042159607136436152 -0.0089531224345341543 0 8.0673293964915268e-05 -0.0088870974264434084 0 9.7881157990099241e-05 -0.0093390638498955895 0 -0.00042159607136436152 -0.0089531224345341543 0 -3.5852875723382409e-05 -0.0085577257220433994 0 0.00032224343106266207 -0.0086326985865528665 0 8.0673293964915268e-05 -0.0088870974264434084 0 0.00038588219818415067 -0.0090137926266517857 0 8.0673293964915268e-05 -0.0088870974264434084 0 9.7881157990099241e-05 -0.0093390638498955895 0 9.7881157990099241e-05 -0.0093390638498955895 0 -0.00042159607136436152 -0.0089531224345341543 0 -0.00038256999033124862 -0.009867643258204226 0 0.0017633994435868165 -0.012066891112717774 0 0.00081901786918452135 -0.012856876877132816 0 0.00068114299034008536 -0.012914491993790012 0 0.00053472994126813663 -0.0099544584038036826 0 0.00026080579885190056 -0.010845721993427308 0 0.0014014351241075551 -0.010895185830491564 0 0.0017633994435868165 -0.012066891112717774 0 0.00099670994561920417 -0.011357313539771473 0 0.0017633994435868165 -0.012066891112717774 0 0.00099670994561920417 -0.011357313539771473 0 0.00067277647788019444 -0.012399436540785897 0 0.0017633994435868165 -0.012066891112717774 0 0.00081901786918452135 -0.012856876877132816 0 0.00067277647788019444 -0.012399436540785897 0 0.00081901786918452135 -0.012856876877132816 0 0.00054513649222437031 -0.012841631027275393 0 0.00068114299034008536 -0.012914491993790012 0 0.00081901786918452135 -0.012856876877132816 0 0.00054513649222437031 -0.012841631027275393 0 0.00040172329459044599 -0.013471166002143766 0 0.00054513649222437031 -0.012841631027275393 0 4.8890725680271548e-08 -0.011293698826040963 0 1.0588132661242385e-06 -0.013341051698681612 0 -2.4023857068121654e-06 -0.011284725747927686 0 -0.00038256999033124862 -0.009867643258204226 0 2.1688888351728722e-06 -0.010839712492877887 0 0.00054513649222437031 -0.012841631027275393 0 4.8890725680271548e-08 -0.011293698826040963 0 0.00068114299034008536 -0.012914491993790012 0 5.0690792663504402e-07 -0.011289913572467326 0 0.00026080579885190056 -0.010845721993427308 0 9.7881157990099241e-05 -0.0093390638498955895 0 -0.00038256999033124862 -0.009867643258204226 0 0.0003790560310452109 -0.010052588570117645 0 0.00038636357961775107 -0.0093856749880734738 0 9.7881157990099241e-05 -0.0093390638498955895 0 0.0003790560310452109 -0.010052588570117645 0 2.613394140959434e-07 -0.010832766155256607 0 0.00036370259445837292 -0.0098249742461119852 0 -1.0319156691171334e-06 -0.010831949592520193 0 5.2873046663190245e-07 -0.0093452424135026853 0 -4.6612719095913769e-05 -0.0088085024797656449 0 -0.00038256999033124862 -0.009867643258204226 0 2.1688888351728722e-06 -0.010839712492877887 0 0.0003790560310452109 -0.010052588570117645 0 0.0002636187094834695 -0.00843630622239884 0 5.2873046663190245e-07 -0.0093452424135026853 0 -4.6612719095913769e-05 -0.0088085024797656449 0 0.00052857115701704415 -0.0092990227597573045 0 0.00036370259445837292 -0.0098249742461119852 0 0.00066206615841617243 -0.0092823422586767075 0 0.00038636357961775107 -0.0093856749880734738 0 0.0003790560310452109 -0.010052588570117645 0 0.00031722518507939254 -0.0084796026831880141 0 0.0002636187094834695 -0.00843630622239884 0 -4.6612719095913769e-05 -0.0088085024797656449 0 0.00031722518507939254 -0.0084796026831880141 0 0.0003405885762495366 -0.0084651671704789808 0 -4.6612719095913769e-05 -0.0088085024797656449 0 -0.00089798412875547395 -0.013019968547055486 0 -0.00044694638821383552 -0.012257944216249147 0 6.7759589973163977e-05 -0.012921406898084046 0 -0.00089798412875547395 -0.013019968547055486 0 6.7759589973163977e-05 -0.012921406898084046 0 -0.00018088378176873946 -0.014486889669831355 0 -0.00089798412875547395 -0.013019968547055486 0 -0.0019177919485190299 -0.012143069546036344 0 -0.00218841028108169 -0.014293954672463886 0 -0.00089798412875547395 -0.013019968547055486 0 -0.0019177919485190299 -0.012143069546036344 0 -0.0010938967716257674 -0.011787090139334003 0 -0.001835127209122802 -0.011056557832944347 0 -0.0019177919485190299 -0.012143069546036344 0 -0.0026349730649464888 -0.011254664847364131 0 -0.001835127209122802 -0.011056557832944347 0 -0.0019177919485190299 -0.012143069546036344 0 -0.0010938967716257674 -0.011787090139334003 0 -0.00089798412875547395 -0.013019968547055486 0 -0.0010938967716257674 -0.011787090139334003 0 -0.00044694638821383552 -0.012257944216249147 0 -0.0010938967716257674 -0.011787090139334003 0 -0.00044694638821383552 -0.012257944216249147 0 -0.00047914814334173376 -0.011471103374257588 0 -0.00098498393922792572 -0.010694961719038073 0 -0.0010938967716257674 -0.011787090139334003 0 -0.00047914814334173376 -0.011471103374257588 0 -0.00044694638821383552 -0.012257944216249147 0 0.0001587350637397212 -0.011722892861666459 0 6.7759589973163977e-05 -0.012921406898084046 0 -0.00026090323788000177 -0.010703850717303724 0 -0.00047914814334173376 -0.011471103374257588 0 0.0001587350637397212 -0.011722892861666459 0 -0.00044694638821383552 -0.012257944216249147 0 -0.00047914814334173376 -0.011471103374257588 0 0.0001587350637397212 -0.011722892861666459 0 0.00099670994561920417 -0.011357313539771473 0 0.0001587350637397212 -0.011722892861666459 0 0.00067277647788019444 -0.012399436540785897 0 0.00081901786918452135 -0.012856876877132816 0 0.00067277647788019444 -0.012399436540785897 0 0.00040172329459044599 -0.013471166002143766 0 0.0001587350637397212 -0.011722892861666459 0 0.00067277647788019444 -0.012399436540785897 0 6.7759589973163977e-05 -0.012921406898084046 0 0.00067277647788019444 -0.012399436540785897 0 6.7759589973163977e-05 -0.012921406898084046 0 0.00040172329459044599 -0.013471166002143766 0 6.7759589973163977e-05 -0.012921406898084046 0 0.00040172329459044599 -0.013471166002143766 0 -0.00018088378176873946 -0.014486889669831355 0 0.00054513649222437031 -0.012841631027275393 0 0.00040172329459044599 -0.013471166002143766 0 1.0588132661242385e-06 -0.013341051698681612 0 0.00040172329459044599 -0.013471166002143766 0 1.0588132661242385e-06 -0.013341051698681612 0 1.2698727253101099e-06 -0.015393242706250566 0 0.00040172329459044599 -0.013471166002143766 0 1.2698727253101099e-06 -0.015393242706250566 0 -0.00018088378176873946 -0.014486889669831355 0 1.2698727253101099e-06 -0.015393242706250566 0 -0.00018088378176873946 -0.014486889669831355 0 -5.0839295419916944e-06 -0.017440151511583145 0 -0.00089798412875547395 -0.013019968547055486 0 -0.00018088378176873946 -0.014486889669831355 0 -0.00218841028108169 -0.014293954672463886 0 -0.00018088378176873946 -0.014486889669831355 0 -5.0839295419916944e-06 -0.017440151511583145 0 -0.00218841028108169 -0.014293954672463886 0 -2.1940776551311387e-06 -0.017447325285683844 0 -7.7649699766606912e-05 -0.018609954104740339 0 7.3769310160365223e-07 -0.019019316709259437 0 -2.1940776551311387e-06 -0.017447325285683844 0 -7.7649699766606912e-05 -0.018609954104740339 0 -0.00067677595901263863 -0.020462889777290102 0 -1.5987915123675943e-06 -0.017444338262741155 0 -0.00082664604916339395 -0.017312853015516775 0 -7.7649699766606912e-05 -0.018609954104740339 0 3.8287183289963469e-05 -0.019853978255226234 0 -0.00014293480898567513 -0.019763178868606769 0 -7.7649699766606912e-05 -0.018609954104740339 0 7.3769310160365223e-07 -0.019019316709259437 0 3.8287183289963469e-05 -0.019853978255226234 0 7.3769310160365223e-07 -0.019019316709259437 0 3.8287183289963469e-05 -0.019853978255226234 0 0.00012097187048744045 -0.020197977820925077 0 3.8287183289963469e-05 -0.019853978255226234 0 0.00017641654966407593 -0.02064201213817279 0 0.00012097187048744045 -0.020197977820925077 0 3.8287183289963469e-05 -0.019853978255226234 0 -0.00012009802885684661 -0.020184783262408738 0 -0.00014293480898567513 -0.019763178868606769 0 3.8287183289963469e-05 -0.019853978255226234 0 -0.00012009802885684661 -0.020184783262408738 0 5.2151343380844134e-05 -0.020493415538599888 0 -0.00012009802885684661 -0.020184783262408738 0 5.2151343380844134e-05 -0.020493415538599888 0 -0.0001401658116254881 -0.02068934535324906 0 3.8287183289963469e-05 -0.019853978255226234 0 5.2151343380844134e-05 -0.020493415538599888 0 0.00017641654966407593 -0.02064201213817279 0 -0.00074031597899767152 -0.01943981347490692 0 -0.00084688097443946298 -0.019505346574367921 0 -7.7649699766606912e-05 -0.018609954104740339 0 -0.00067677595901263863 -0.020462889777290102 0 -0.00039012773178516576 -0.020877495914433462 0 -7.7649699766606912e-05 -0.018609954104740339 0 -0.00014293480898567513 -0.019763178868606769 0 -0.00055047873065186049 -0.02047347139366314 0 -0.00012009802885684661 -0.020184783262408738 0 -0.00014293480898567513 -0.019763178868606769 0 -0.00055047873065186049 -0.02047347139366314 0 -0.00012009802885684661 -0.020184783262408738 0 -0.00055047873065186049 -0.02047347139366314 0 -0.0001401658116254881 -0.02068934535324906 0 -0.00055047873065186049 -0.02047347139366314 0 -0.0001401658116254881 -0.02068934535324906 0 -0.00036868128174300988 -0.021132612130612898 0 -0.0019177919485190299 -0.012143069546036344 0 -0.00218841028108169 -0.014293954672463886 0 -0.0032364488526818096 -0.012082231892724836 0 -0.00082664604916339395 -0.017312853015516775 0 -0.0013375922837667972 -0.01733088952362483 0 -0.00084688097443946298 -0.019505346574367921 0 -0.0013375922837667972 -0.01733088952362483 0 -0.00067677595901263863 -0.020462889777290102 0 -0.00039012773178516576 -0.020877495914433462 0 -0.00027624699475410121 -0.022943276980332696 0 5.2151343380844134e-05 -0.020493415538599888 0 0.0001954300968330502 -0.020943579968317808 0 0.00017641654966407593 -0.02064201213817279 0 5.2151343380844134e-05 -0.020493415538599888 0 -0.0001401658116254881 -0.02068934535324906 0 0.0001954300968330502 -0.020943579968317808 0 -0.0001401658116254881 -0.02068934535324906 0 -0.00036868128174300988 -0.021132612130612898 0 0.0001954300968330502 -0.020943579968317808 0 -0.0019948643574686929 -0.018429609333264506 0 -0.0018204557709166143 -0.016160427467447717 0 0.0001954300968330502 -0.020943579968317808 0 0.00028807984756460298 -0.020831809507495885 0 0.00020084126123813553 -0.020860977760450584 0 -0.00036868128174300988 -0.021132612130612898 0 0.0001954300968330502 -0.020943579968317808 0 -0.00027004164028383685 -0.021576648240045588 0 -0.0013375922837667972 -0.01733088952362483 0 -0.0017615274579357966 -0.015104560249205243 0 -0.0019177919485190299 -0.012143069546036344 0 -0.0032364488526818096 -0.012082231892724836 0 -0.0026349730649464888 -0.011254664847364131 0 -0.0032364488526818096 -0.012082231892724836 0 -0.0034950747046364984 -0.010606347798363391 0 -0.0026349730649464888 -0.011254664847364131 0 -0.0013375922837667972 -0.01733088952362483 0 -0.0018204557709166143 -0.016160427467447717 0 0.00011218378243583169 -0.020940386363765415 0 2.779049203036591e-05 -0.020911877654006459 0 8.0589459748294973e-05 -0.020841208515024474 0 0.00011218378243583169 -0.020940386363765415 0 0.00015051646270316005 -0.020882690597124887 0 8.0589459748294973e-05 -0.020841208515024474 0 0.00015051646270316005 -0.020882690597124887 0 0.0001954300968330502 -0.020943579968317808 0 0.00020084126123813553 -0.020860977760450584 0 0.00011218378243583169 -0.020940386363765415 0 0.00015051646270316005 -0.020882690597124887 0 0.0001954300968330502 -0.020943579968317808 0 0.0001954300968330502 -0.020943579968317808 0 0.00016378981343824592 -0.021087268582462911 0 0.00017641654966407593 -0.02064201213817279 0 0.00011218378243583169 -0.020940386363765415 0 0.0001954300968330502 -0.020943579968317808 0 0.00016378981343824592 -0.021087268582462911 0 0.00019619997262480885 -0.021700851101297412 0 0.0001606513448180635 -0.02178209037667922 0 0.00011218378243583169 -0.020940386363765415 0 0.00016378981343824592 -0.021087268582462911 0 -6.52414316469592e-06 -0.021021237381583104 0 0.00016378981343824592 -0.021087268582462911 0 0.00013804426445860227 -0.021289888285605539 0 5.9057462433376287e-05 -0.021962070038277281 0 0.00016378981343824592 -0.021087268582462911 0 0.00013804426445860227 -0.021289888285605539 0 0.00017641654966407593 -0.02064201213817279 0 0.00013804426445860227 -0.021289888285605539 0 0.00017641654966407593 -0.02064201213817279 0 0.00012097187048744045 -0.020197977820925077 0 0.00013804426445860227 -0.021289888285605539 0 3.3087447199135091e-07 -0.02059576449860831 0 0.00012097187048744045 -0.020197977820925077 0 7.3769310160365223e-07 -0.019019316709259437 0 3.3087447199135091e-07 -0.02059576449860831 0 0.00012097187048744045 -0.020197977820925077 0 0.00013804426445860227 -0.021289888285605539 0 3.3087447199135091e-07 -0.02059576449860831 0 9.5646411319902034e-08 -0.022167023898269522 0 0.00013804426445860227 -0.021289888285605539 0 9.5646411319902034e-08 -0.022167023898269522 0 1.9126473824674239e-05 -0.021902829140840858 0 4.834716619194618e-07 -0.02217141701951221 0 0.00028156122933767168 -0.022865086350723179 0 9.5646411319902034e-08 -0.022167023898269522 0 1.9126473824674239e-05 -0.021902829140840858 0 9.5920050448495997e-05 -0.021984108209236922 0 -3.3189660505106758e-07 -0.02217081913909337 0 -4.4267318922734436e-08 -0.024048725002752722 0 -5.4508573727617769e-05 -0.024102105352950355 0 1.9126473824674239e-05 -0.021902829140840858 0 9.5920050448495997e-05 -0.021984108209236922 0 0.00011837790891053094 -0.022136244009059329 0 1.9126473824674239e-05 -0.021902829140840858 0 0.00011837790891053094 -0.022136244009059329 0 7.8790215186514003e-05 -0.021925623032854818 0 0.00011837790891053094 -0.022136244009059329 0 0.00021572451391780817 -0.022368861682832843 0 7.8790215186514003e-05 -0.021925623032854818 0 0.00013804426445860227 -0.021289888285605539 0 1.9126473824674239e-05 -0.021902829140840858 0 7.8790215186514003e-05 -0.021925623032854818 0 0.00013804426445860227 -0.021289888285605539 0 7.8790215186514003e-05 -0.021925623032854818 0 5.9057462433376287e-05 -0.021962070038277281 0 1.8034724007350421e-06 -0.02592644494032624 0 0.00016010221775049921 -0.025382370269479527 0 0.00038297081597297235 -0.02521373858456186 0 -4.4267318922734436e-08 -0.024048725002752722 0 -5.4508573727617769e-05 -0.024102105352950355 0 0.00038297081597297235 -0.02521373858456186 0 9.5920050448495997e-05 -0.021984108209236922 0 0.00011837790891053094 -0.022136244009059329 0 0.0004354396540849439 -0.022777268203663253 0 -4.4267318922734436e-08 -0.024048725002752722 0 1.8034724007350421e-06 -0.02592644494032624 0 0.00038297081597297235 -0.02521373858456186 0 0.00028156122933767168 -0.022865086350723179 0 0.0001686368811613091 -0.023266907746485915 0 0.00011837790891053094 -0.022136244009059329 0 0.00021572451391780817 -0.022368861682832843 0 0.0004354396540849439 -0.022777268203663253 0 0.00021572451391780817 -0.022368861682832843 0 0.0004354396540849439 -0.022777268203663253 0 0.00040334099528402346 -0.022873983803583527 0 0.0001686368811613091 -0.023266907746485915 0 -2.1977326995264064e-05 -0.023365308246150102 0 0.0004354396540849439 -0.022777268203663253 0 0.00029189843751688819 -0.023470559813952463 0 5.7142503555422223e-05 -0.024283106233901036 0 0.00016010221775049921 -0.025382370269479527 0 0.00038297081597297235 -0.02521373858456186 0 5.7142503555422223e-05 -0.024283106233901036 0 0.0004354396540849439 -0.022777268203663253 0 0.00029189843751688819 -0.023470559813952463 0 0.00040334099528402346 -0.022873983803583527 0 0.00027078599784019828 -0.022958557470013203 0 0.00040334099528402346 -0.022873983803583527 0 0.00036193905357804459 -0.022810628507124765 0 0.00027078599784019828 -0.022958557470013203 0 0.00029189843751688819 -0.023470559813952463 0 0.00040334099528402346 -0.022873983803583527 0 0.00021572451391780817 -0.022368861682832843 0 0.00040334099528402346 -0.022873983803583527 0 0.00027694664418874762 -0.02263972572674287 0 -0.00016953970931492371 -0.02090001995280568 0 -0.00025420145398829901 -0.020926466778583654 0 -0.00013074744310593938 -0.020970636507541454 0 -1.159872022585198e-05 -0.022210773908757184 0 9.0493713446687608e-05 -0.021962735267054719 0 0.00040334099528402346 -0.022873983803583527 0 0.00036193905357804459 -0.022810628507124765 0 0.00027694664418874762 -0.02263972572674287 0 -0.00019880977058518205 -0.02259344403245523 0 -0.00013016788125667572 -0.0227393933370027 0 -5.9235118604788457e-05 -0.022702596556292361 0 0.00021100968659589135 -0.023313679870035214 0 0.00052446176211759575 -0.022872120306562646 0 -8.0582153119741165e-05 -0.022986650936917714 0 -1.159872022585198e-05 -0.022210773908757184 0 3.45238268587066e-05 -0.022279438523820156 0 0.00052446176211759575 -0.022872120306562646 0 -5.9235118604788457e-05 -0.022702596556292361 0 -8.0582153119741165e-05 -0.022986650936917714 0 -0.00011008161219030946 -0.022662103876280277 0 -1.159872022585198e-05 -0.022210773908757184 0 0.00021572451391780817 -0.022368861682832843 0 5.9057462433376287e-05 -0.021962070038277281 0 0.00027694664418874762 -0.02263972572674287 0 0.0001606513448180635 -0.02178209037667922 0 9.0493713446687608e-05 -0.021962735267054719 0 0.00021572451391780817 -0.022368861682832843 0 7.8790215186514003e-05 -0.021925623032854818 0 5.9057462433376287e-05 -0.021962070038277281 0 -0.00016953970931492371 -0.02090001995280568 0 -0.00013074744310593938 -0.020970636507541454 0 -9.5789874418772687e-05 -0.02087481745000325 0 -0.00013074744310593938 -0.020970636507541454 0 -4.0945691307640292e-05 -0.020929391491047909 0 -9.5789874418772687e-05 -0.02087481745000325 0 -6.52414316469592e-06 -0.021021237381583104 0 -0.00013074744310593938 -0.020970636507541454 0 -4.0945691307640292e-05 -0.020929391491047909 0 -6.52414316469592e-06 -0.021021237381583104 0 -4.0945691307640292e-05 -0.020929391491047909 0 2.779049203036591e-05 -0.020911877654006459 0 -4.0945691307640292e-05 -0.020929391491047909 0 2.779049203036591e-05 -0.020911877654006459 0 -1.0018898234923381e-05 -0.020841609163079547 0 0.00011218378243583169 -0.020940386363765415 0 -6.52414316469592e-06 -0.021021237381583104 0 2.779049203036591e-05 -0.020911877654006459 0 2.779049203036591e-05 -0.020911877654006459 0 -1.0018898234923381e-05 -0.020841609163079547 0 8.0589459748294973e-05 -0.020841208515024474 0 -1.0018898234923381e-05 -0.020841609163079547 0 3.0376193617286685e-05 -0.020776592959692624 0 -1.6930274381450942e-05 -0.020767398004632641 0 -1.0018898234923381e-05 -0.020841609163079547 0 3.0376193617286685e-05 -0.020776592959692624 0 8.0589459748294973e-05 -0.020841208515024474 0 -1.0018898234923381e-05 -0.020841609163079547 0 -6.1470017364472239e-05 -0.020785895877873366 0 -1.6930274381450942e-05 -0.020767398004632641 0 -4.0945691307640292e-05 -0.020929391491047909 0 -1.0018898234923381e-05 -0.020841609163079547 0 -9.5789874418772687e-05 -0.02087481745000325 0 -9.5789874418772687e-05 -0.02087481745000325 0 -6.1470017364472239e-05 -0.020785895877873366 0 -0.00015631184653753534 -0.020813076215491576 0 -0.00016953970931492371 -0.02090001995280568 0 -9.5789874418772687e-05 -0.02087481745000325 0 -0.00015631184653753534 -0.020813076215491576 0 -1.0018898234923381e-05 -0.020841609163079547 0 -9.5789874418772687e-05 -0.02087481745000325 0 -6.1470017364472239e-05 -0.020785895877873366 0 -0.0008396864978823447 -0.023297718784548355 0 -0.00051778127633209689 -0.022903251523806911 0 -0.0005429324990971836 -0.023210905069951465 0 -6.1470017364472239e-05 -0.020785895877873366 0 -5.8422558680260471e-05 -0.02070507102086673 0 -0.00015631184653753534 -0.020813076215491576 0 -0.00056581362329389325 -0.023192013503513732 0 -0.00014954835144665872 -0.022351629303032375 0 -6.1470017364472239e-05 -0.020785895877873366 0 -5.8422558680260471e-05 -0.02070507102086673 0 -3.165080829174141e-05 -0.020715236091191871 0 -0.00056581362329389325 -0.023192013503513732 0 -0.00057095094566879129 -0.023164864096398341 0 -5.6524136877643066e-05 -0.02070680140268431 0 -3.165080829174141e-05 -0.020715236091191871 0 -1.287783749002626e-06 -0.020702865024825583 0 -3.165080829174141e-05 -0.020715236091191871 0 4.5236431235159566e-06 -0.020736502245382159 0 -1.6930274381450942e-05 -0.020767398004632641 0 -3.165080829174141e-05 -0.020715236091191871 0 4.5236431235159566e-06 -0.020736502245382159 0 -1.287783749002626e-06 -0.020702865024825583 0 4.5236431235159566e-06 -0.020736502245382159 0 3.0376193617286685e-05 -0.020776592959692624 0 4.21053208247407e-05 -0.020721223923618033 0 4.5236431235159566e-06 -0.020736502245382159 0 -1.287783749002626e-06 -0.020702865024825583 0 4.21053208247407e-05 -0.020721223923618033 0 4.5236431235159566e-06 -0.020736502245382159 0 3.0376193617286685e-05 -0.020776592959692624 0 -1.6930274381450942e-05 -0.020767398004632641 0 -6.1470017364472239e-05 -0.020785895877873366 0 -3.165080829174141e-05 -0.020715236091191871 0 -1.6930274381450942e-05 -0.020767398004632641 0 -0.00019880977058518205 -0.02259344403245523 0 -0.00013016788125667572 -0.0227393933370027 0 -0.00024962089651165608 -0.02284951785780031 0 -4.0875415358049269e-05 -0.022849315462916759 0 -0.00013016788125667572 -0.0227393933370027 0 -5.9235118604788457e-05 -0.022702596556292361 0 -4.0875415358049269e-05 -0.022849315462916759 0 -0.00013016788125667572 -0.0227393933370027 0 -0.00024962089651165608 -0.02284951785780031 0 -1.159872022585198e-05 -0.022210773908757184 0 -0.00014954835144665872 -0.022351629303032375 0 -0.00016953970931492371 -0.02090001995280568 0 -0.00025420145398829901 -0.020926466778583654 0 -0.00015631184653753534 -0.020813076215491576 0 -0.00019880977058518205 -0.02259344403245523 0 -0.00024962089651165608 -0.02284951785780031 0 -0.00051778127633209689 -0.022903251523806911 0 -0.00024962089651165608 -0.02284951785780031 0 -0.00051778127633209689 -0.022903251523806911 0 -0.00031400247082429288 -0.023227178928682226 0 -0.00051778127633209689 -0.022903251523806911 0 -0.0005429324990971836 -0.023210905069951465 0 -0.00031400247082429288 -0.023227178928682226 0 -0.0005429324990971836 -0.023210905069951465 0 -0.00031400247082429288 -0.023227178928682226 0 -0.000512781636881685 -0.023404008219169829 0 -4.0875415358049269e-05 -0.022849315462916759 0 -0.00024962089651165608 -0.02284951785780031 0 -0.00031400247082429288 -0.023227178928682226 0 -0.0001325530521624272 -0.023141558757990507 0 -0.00031400247082429288 -0.023227178928682226 0 -0.00013350094074534539 -0.023309408334860612 0 0.00031267733163308994 -0.023897619662666406 0 0.00024512270778848523 -0.023772843978746152 0 -0.00012581829282568387 -0.023452707352699866 0 -0.00024300628679507284 -0.023472994250032051 0 -1.2541366572660921e-05 -0.023566282210309548 0 -0.00031400247082429288 -0.023227178928682226 0 -0.00013350094074534539 -0.023309408334860612 0 -0.00025121978420417101 -0.023482088305313727 0 -0.00013350094074534539 -0.023309408334860612 0 -0.00012581829282568387 -0.023452707352699866 0 -0.00025121978420417101 -0.023482088305313727 0 -8.9788612141229729e-05 -0.025667028877950776 0 -0.00012952845915488548 -0.025779113572052138 0 -0.00042197122327098063 -0.0246255195534976 0 -0.00048753920381439813 -0.024598370488142861 0 -0.00052404782180890026 -0.024639450706018511 0 -0.00012952845915488548 -0.025779113572052138 0 -0.0006126657150446965 -0.025815556662185331 0 -0.00012952845915488548 -0.025779113572052138 0 -0.00044273672027731495 -0.02440238736788616 0 -0.00031400247082429288 -0.023227178928682226 0 -0.00025121978420417101 -0.023482088305313727 0 -0.000512781636881685 -0.023404008219169829 0 -9.6270192037831571e-05 -0.035221922133838263 0 0.00033470065141507174 -0.035153913499779602 0 0.00011383169277844548 -0.034891224040304217 0 -0.00012952845915488548 -0.025779113572052138 0 0.00043471504827337549 -0.027884787273588375 0 -9.6270192037831571e-05 -0.035221922133838263 0 -0.00043610018772560722 -0.035091236281614931 0 -0.00028711520229185119 -0.034833248350696754 0 -9.6270192037831571e-05 -0.035221922133838263 0 -0.00028711520229185119 -0.034833248350696754 0 0.00011383169277844548 -0.034891224040304217 0 -5.6524136877643066e-05 -0.02070680140268431 0 -1.287783749002626e-06 -0.020702865024825583 0 3.8013007785296947e-05 -0.02066180858205675 0 -0.00055215405267990873 -0.024572485652793553 0 -0.00052404782180890026 -0.024639450706018511 0 -0.00062412205840078623 -0.024654202672663758 0 -0.00056581362329389325 -0.023192013503513732 0 -0.00094565241938733243 -0.023448225346161262 0 -5.6524136877643066e-05 -0.02070680140268431 0 4.1868301935779784e-05 -0.020593632829466815 0 3.8013007785296947e-05 -0.02066180858205675 0 -1.287783749002626e-06 -0.020702865024825583 0 3.8013007785296947e-05 -0.02066180858205675 0 4.21053208247407e-05 -0.020721223923618033 0 -0.00055215405267990873 -0.024572485652793553 0 -0.00048753920381439813 -0.024598370488142861 0 -0.00052404782180890026 -0.024639450706018511 0 -0.00056581362329389325 -0.023192013503513732 0 -0.00044273672027731495 -0.02440238736788616 0 -0.0008396864978823447 -0.023297718784548355 0 -0.0005429324990971836 -0.023210905069951465 0 -0.000512781636881685 -0.023404008219169829 0 0.00033470065141507174 -0.035153913499779602 0 0.00049386686791502666 -0.034803388030592658 0 0.00011383169277844548 -0.034891224040304217 0 0.00033470065141507174 -0.035153913499779602 0 0.00078409035700348481 -0.035072105544136201 0 0.00049386686791502666 -0.034803388030592658 0 -0.0006126657150446965 -0.025815556662185331 0 -0.00094565241938733243 -0.023448225346161262 0 -0.0013170928146430637 -0.021289356693049741 0 -0.00065635168942181283 -0.021173509779948533 0 -0.00084570676265624273 -0.0207460308125667 0 -0.00094565241938733243 -0.023448225346161262 0 -0.00074745356045030859 -0.020525974840757161 0 -0.00094565241938733243 -0.023448225346161262 0 -0.001102974881808333 -0.024591119604375548 0 4.1868301935779784e-05 -0.020593632829466815 0 0.00014019858395510494 -0.020646532525311071 0 0.00013702652187044847 -0.020574827828804623 0 3.8013007785296947e-05 -0.02066180858205675 0 9.5670087397992527e-05 -0.020701537162793961 0 0.00014019858395510494 -0.020646532525311071 0 4.1868301935779784e-05 -0.020593632829466815 0 3.8013007785296947e-05 -0.02066180858205675 0 0.00014019858395510494 -0.020646532525311071 0 3.8013007785296947e-05 -0.02066180858205675 0 9.5670087397992527e-05 -0.020701537162793961 0 4.21053208247407e-05 -0.020721223923618033 0 0.00014019858395510494 -0.020646532525311071 0 0.00026250129159688466 -0.020695235049039282 0 0.0001619935235638002 -0.020733073512338631 0 9.5670087397992527e-05 -0.020701537162793961 0 0.00014019858395510494 -0.020646532525311071 0 0.0001619935235638002 -0.020733073512338631 0 -0.00074745356045030859 -0.020525974840757161 0 -0.0010759307985421407 -0.017579212039447671 0 0.00014019858395510494 -0.020646532525311071 0 0.00013702652187044847 -0.020574827828804623 0 0.00023069468285792568 -0.020555386572436947 0 -0.00065635168942181283 -0.021173509779948533 0 -0.00030100139945681242 -0.021001937761380211 0 -1.7965928403860361e-06 -0.021054320956079915 0 -0.00054707103292221193 -0.020901199901896726 0 -0.00065635168942181283 -0.021173509779948533 0 -0.00084570676265624273 -0.0207460308125667 0 -0.00054707103292221193 -0.020901199901896726 0 -0.00065635168942181283 -0.021173509779948533 0 -0.00030100139945681242 -0.021001937761380211 0 -0.00030100139945681242 -0.021001937761380211 0 -1.7965928403860361e-06 -0.021054320956079915 0 -1.8906660302585001e-05 -0.020977524072797852 0 -0.0011302942020837425 -0.018051816594942299 0 -0.00074037089812330214 -0.018021747193921935 0 -0.001183124570876446 -0.017811265491400202 0 -0.00030100139945681242 -0.021001937761380211 0 -1.7445195538338471e-05 -0.020979694071359967 0 -5.5830329295515978e-05 -0.020806692839833364 0 -0.0050588236256823363 -0.0070044420118072145 0 -0.0043591286082468594 -0.0076300553120246658 0 -0.0046165244454610347 -0.008295721669509145 0 -0.0010759307985421407 -0.017579212039447671 0 -0.002251193186934473 -0.013999898809273539 0 -0.00097978838781725974 -0.017565733558512635 0 -0.0010352274678914085 -0.017488612413891939 0 -0.0010352274678914085 -0.017488612413891939 0 -0.00098797971958197793 -0.018729078514589718 0 -0.0050588236256823363 -0.0070044420118072145 0 -0.0050927637001472415 -0.0068493309158407772 0 -0.004520662519102164 -0.0068039289184172727 0 -0.0010759307985421407 -0.017579212039447671 0 -0.0010352274678914085 -0.017488612413891939 0 -0.0050588236256823363 -0.0070044420118072145 0 -0.0044182449521177891 -0.0069233206034626229 0 -0.0042292210149096812 -0.0072553814395363561 0 -0.0050588236256823363 -0.0070044420118072145 0 -0.004520662519102164 -0.0068039289184172727 0 -0.0044182449521177891 -0.0069233206034626229 0 -0.0010352274678914085 -0.017488612413891939 0 -0.0020897432037670681 -0.01622270385578314 0 -0.0020897432037670681 -0.01622270385578314 0 -0.0021231330696042296 -0.0161718657222856 0 -0.0050588236256823363 -0.0070044420118072145 0 -0.0043591286082468594 -0.0076300553120246658 0 -0.0042292210149096812 -0.0072553814395363561 0 -0.0023947024903934345 -0.0066116639568439871 0 -0.0045213915364201692 -0.0068038132363524642 0 -0.0037987682455725728 -0.0071151002106093902 0 -0.0011142178167223562 -0.010846745098867499 0 -0.0020897432037670681 -0.01622270385578314 0 -0.0023947024903934345 -0.0066116639568439871 0 -0.0037987682455725728 -0.0071151002106093902 0 -0.0032260455179764086 -0.007579630030561087 0 -0.0044182449521177891 -0.0069233206034626229 0 -0.0037987682455725728 -0.0071151002106093902 0 -0.0042292210149096812 -0.0072553814395363561 0 -0.0045213915364201692 -0.0068038132363524642 0 -0.0044182449521177891 -0.0069233206034626229 0 -0.0037987682455725728 -0.0071151002106093902 0 -0.0037987682455725728 -0.0071151002106093902 0 -0.0040019119059395893 -0.007518183968294621 0 -0.0042292210149096812 -0.0072553814395363561 0 -0.0043591286082468594 -0.0076300553120246658 0 -0.0040019119059395893 -0.007518183968294621 0 -0.0042292210149096812 -0.0072553814395363561 0 -0.0043591286082468594 -0.0076300553120246658 0 -0.0040794789552507519 -0.0077669108664043356 0 -0.0041887490497049661 -0.0080293815184401072 0 -0.0043591286082468594 -0.0076300553120246658 0 -0.0040019119059395893 -0.007518183968294621 0 -0.0040794789552507519 -0.0077669108664043356 0 -0.0040019119059395893 -0.007518183968294621 0 -0.0040794789552507519 -0.0077669108664043356 0 -0.0037694884459134087 -0.0078895798296090003 0 -0.0040019119059395893 -0.007518183968294621 0 -0.0032260455179764086 -0.007579630030561087 0 -0.0037694884459134087 -0.0078895798296090003 0 -0.0037987682455725728 -0.0071151002106093902 0 -0.0040019119059395893 -0.007518183968294621 0 -0.0032260455179764086 -0.007579630030561087 0 -0.0040007243229710724 -0.0088146790862900729 0 -0.0043137144734476064 -0.0083521216076587728 0 -0.0041881550538773165 -0.0096089513241753213 0 -0.0028294681163432258 -0.011301701523561317 0 -0.0025576572969731592 -0.012622595822390498 0 -0.0032260455179764086 -0.007579630030561087 0 -0.003201963857545263 -0.0082830703665584728 0 -0.0037694884459134087 -0.0078895798296090003 0 -0.003201963857545263 -0.0082830703665584728 0 -0.0038590883827600768 -0.0083403814059019952 0 -0.0037694884459134087 -0.0078895798296090003 0 -0.0038590883827600768 -0.0083403814059019952 0 -0.0037694884459134087 -0.0078895798296090003 0 -0.0041887490497049661 -0.0080293815184401072 0 -0.0040794789552507519 -0.0077669108664043356 0 -0.0037694884459134087 -0.0078895798296090003 0 -0.0041887490497049661 -0.0080293815184401072 0 -0.0038590883827600768 -0.0083403814059019952 0 -0.0041887490497049661 -0.0080293815184401072 0 -0.0043137144734476064 -0.0083521216076587728 0 -0.0038590883827600768 -0.0083403814059019952 0 -0.0040007243229710724 -0.0088146790862900729 0 -0.0043137144734476064 -0.0083521216076587728 0 -0.0040007243229710724 -0.0088146790862900729 0 -0.0036216584449018183 -0.0087665081960029926 0 -0.0037757400420819361 -0.0093398317981780044 0 -0.0038590883827600768 -0.0083403814059019952 0 -0.0040007243229710724 -0.0088146790862900729 0 -0.0036216584449018183 -0.0087665081960029926 0 -0.003201963857545263 -0.0082830703665584728 0 -0.0038590883827600768 -0.0083403814059019952 0 -0.0036216584449018183 -0.0087665081960029926 0 -0.0030378606639048008 -0.00940704884608763 0 -0.003201963857545263 -0.0082830703665584728 0 -0.0036216584449018183 -0.0087665081960029926 0 -0.0016056877813954676 -0.015644623921590727 0 -0.0016152698430419933 -0.016057434660663148 0 -0.0018891185060444912 -0.015252017777180082 0 -0.0013090858871064681 -0.016857887339235232 0 -0.0016056877813954676 -0.015644623921590727 0 -0.0016152698430419933 -0.016057434660663148 0 -0.0043137144734476064 -0.0083521216076587728 0 -0.0046165244454610347 -0.008295721669509145 0 -0.0041756428238085355 -0.0097486458110054453 0 -0.0010759307985421407 -0.017579212039447671 0 -0.0011406167918601479 -0.017742695721109942 0 -0.002251193186934473 -0.013999898809273539 0 -0.0025576572969731592 -0.012622595822390498 0 0.00014019858395510494 -0.020646532525311071 0 0.00023069468285792568 -0.020555386572436947 0 0.00026250129159688466 -0.020695235049039282 0 -0.0043591286082468594 -0.0076300553120246658 0 -0.0041887490497049661 -0.0080293815184401072 0 -0.0046165244454610347 -0.008295721669509145 0 -0.0041887490497049661 -0.0080293815184401072 0 -0.0043137144734476064 -0.0083521216076587728 0 -0.0046165244454610347 -0.008295721669509145 0 -0.0016056877813954676 -0.015644623921590727 0 -0.0018891185060444912 -0.015252017777180082 0 -0.0018955270412107515 -0.014432414141711182 0 -0.0011406167918601479 -0.017742695721109942 0 -0.0018204557709166143 -0.016160427467447717 0 0.00026250129159688466 -0.020695235049039282 0 0.00021184708317866589 -0.020786215994686507 0 0.0001619935235638002 -0.020733073512338631 0 0.00026250129159688466 -0.020695235049039282 0 0.00021184708317866589 -0.020786215994686507 0 0.00028807984756460298 -0.020831809507495885 0 -0.0030378606639048008 -0.00940704884608763 0 -0.0040280583424202954 -0.010109564138781224 0 -0.0040612191312660202 -0.010785693586528686 0 -0.0013387071948296188 -0.01130621355584187 0 -0.0017615274579357966 -0.015104560249205243 0 -0.0030378606639048008 -0.00940704884608763 0 -0.0036216584449018183 -0.0087665081960029926 0 -0.0037757400420819361 -0.0093398317981780044 0 -0.0030378606639048008 -0.00940704884608763 0 -0.0037757400420819361 -0.0093398317981780044 0 -0.0040280583424202954 -0.010109564138781224 0 -0.0040007243229710724 -0.0088146790862900729 0 -0.0037757400420819361 -0.0093398317981780044 0 -0.0041881550538773165 -0.0096089513241753213 0 -0.0041861510846814328 -0.0096132892662155051 0 -0.0040280583424202954 -0.010109564138781224 0 -0.0040612191312660202 -0.010785693586528686 0 -0.0037757400420819361 -0.0093398317981780044 0 -0.0041881550538773165 -0.0096089513241753213 0 -0.0040280583424202954 -0.010109564138781224 0 -0.0025576572969731592 -0.012622595822390498 0 -0.0017615274579357966 -0.015104560249205243 0 -0.0025576572969731592 -0.012622595822390498 0 -0.0026315574393546049 -0.012428390853677742 0 -0.0024954781823360713 -0.010449956226339664 0 -0.0026811440971808644 -0.0092933890378109202 0 -0.0034950747046364984 -0.010606347798363391 0 -0.0017245152256434588 -0.016844640892980194 0 -0.0017753344500446118 -0.016335925246749344 0 -0.0018209186895161036 -0.016396395795995097 0 -0.0018891185060444912 -0.015252017777180082 0 -0.0019755669203195478 -0.014540104390878723 0 -0.0018955270412107515 -0.014432414141711182 0 -0.0017615274579357966 -0.015104560249205243 0 -0.0018204557709166143 -0.016160427467447717 0 -0.0024954781823360713 -0.010449956226339664 0 -0.0034950747046364984 -0.010606347798363391 0 -0.0026349730649464888 -0.011254664847364131 0 0.00021184708317866589 -0.020786215994686507 0 0.00028807984756460298 -0.020831809507495885 0 0.00020084126123813553 -0.020860977760450584 0 0.00021184708317866589 -0.020786215994686507 0 0.00020084126123813553 -0.020860977760450584 0 0.00014561200031402985 -0.020807103665117097 0 0.00015051646270316005 -0.020882690597124887 0 0.00020084126123813553 -0.020860977760450584 0 0.00014561200031402985 -0.020807103665117097 0 0.00015051646270316005 -0.020882690597124887 0 0.00014561200031402985 -0.020807103665117097 0 8.0589459748294973e-05 -0.020841208515024474 0 3.0376193617286685e-05 -0.020776592959692624 0 8.0589459748294973e-05 -0.020841208515024474 0 9.3165143978418997e-05 -0.020763366671448943 0 0.00014561200031402985 -0.020807103665117097 0 8.0589459748294973e-05 -0.020841208515024474 0 9.3165143978418997e-05 -0.020763366671448943 0 3.0376193617286685e-05 -0.020776592959692624 0 9.3165143978418997e-05 -0.020763366671448943 0 4.21053208247407e-05 -0.020721223923618033 0 9.5670087397992527e-05 -0.020701537162793961 0 9.3165143978418997e-05 -0.020763366671448943 0 4.21053208247407e-05 -0.020721223923618033 0 9.5670087397992527e-05 -0.020701537162793961 0 9.3165143978418997e-05 -0.020763366671448943 0 0.0001619935235638002 -0.020733073512338631 0 0.00021184708317866589 -0.020786215994686507 0 0.00014561200031402985 -0.020807103665117097 0 0.0001619935235638002 -0.020733073512338631 0 0.00014561200031402985 -0.020807103665117097 0 9.3165143978418997e-05 -0.020763366671448943 0 0.0001619935235638002 -0.020733073512338631 0 1.4565834854094727e-06 -0.034996033668453171 0 0.00017987851947528347 -0.034210023444071473 0 9.2242765910843837e-05 -0.034778242216056555 0 1.4565834854094727e-06 -0.034996033668453171 0 -4.5435601053143269e-07 -0.035000615304626073 0 9.2242765910843837e-05 -0.034778242216056555 0 0.00017987851947528347 -0.034210023444071473 0 -2.2791525733664996e-05 -0.034547277750819054 0 9.2242765910843837e-05 -0.034778242216056555 0 -0.00018974138170693887 -0.034570475712789227 0 -6.2534701628220632e-05 -0.03479579523191622 0 1.4565834854094727e-06 -0.034996033668453171 0 0.00017987851947528347 -0.034210023444071473 0 -2.2181560318298416e-06 -0.031256778748201548 0 0.00017987851947528347 -0.034210023444071473 0 -0.00027219249759212504 -0.033322957854136345 0 -0.00038415436157840236 -0.034083621052849809 0 0.00017987851947528347 -0.034210023444071473 0 -2.2181560318298416e-06 -0.031256778748201548 0 -0.00027219249759212504 -0.033322957854136345 0 -6.1200830967988962e-07 -0.031248898519507903 0 -0.00043251788718262293 -0.031103649688512199 0 -2.2181560318298416e-06 -0.031256778748201548 0 -0.00027219249759212504 -0.033322957854136345 0 -0.0011947174510323025 -0.0334242295707275 0 -0.00027219249759212504 -0.033322957854136345 0 -0.00038415436157840236 -0.034083621052849809 0 -0.0011947174510323025 -0.0334242295707275 0 -0.00038415436157840236 -0.034083621052849809 0 -0.0005167127440673738 -0.034469426863450177 0 -0.00086604258576049298 -0.034181316553191184 0 -0.00029425176180818325 -0.034430832058580572 0 -0.00018974138170693887 -0.034570475712789227 0 0.00017987851947528347 -0.034210023444071473 0 -0.00038415436157840236 -0.034083621052849809 0 -2.2791525733664996e-05 -0.034547277750819054 0 -0.00018736741366885093 -0.034453679232567896 0 -0.0005167127440673738 -0.034469426863450177 0 -0.00025387768304800277 -0.034731165853345507 0 -0.00038415436157840236 -0.034083621052849809 0 -0.00018736741366885093 -0.034453679232567896 0 -0.0005167127440673738 -0.034469426863450177 0 -0.0005167127440673738 -0.034469426863450177 0 -0.0010108812198822796 -0.034407908616531827 0 -0.00086604258576049298 -0.034181316553191184 0 -0.0005167127440673738 -0.034469426863450177 0 -0.0010108812198822796 -0.034407908616531827 0 -0.00055813531232181595 -0.034789746790928999 0 -0.0010108812198822796 -0.034407908616531827 0 -0.0011688618825135316 -0.034203572012974519 0 -0.00086604258576049298 -0.034181316553191184 0 -0.00076037881163130224 -0.030642541041550158 0 -3.6498429297406097e-05 -0.027850751477037621 0 -0.0010108812198822796 -0.034407908616531827 0 -0.0011688618825135316 -0.034203572012974519 0 -0.001138358702730987 -0.034465910400442494 0 3.5917431345259724e-05 -0.029380264529195579 0 3.9310323787894521e-05 -0.029385662811675498 0 4.4744173559032533e-05 -0.029382839890800011 0 3.5917431345259724e-05 -0.029380264529195579 0 3.9310323787894521e-05 -0.029385662811675498 0 6.649702273206769e-05 -0.029368708470137648 0 -0.00038415436157840236 -0.034083621052849809 0 -0.00086604258576049298 -0.034181316553191184 0 -0.0011947174510323025 -0.0334242295707275 0 -0.0011688618825135316 -0.034203572012974519 0 -0.00086604258576049298 -0.034181316553191184 0 -0.0011947174510323025 -0.0334242295707275 0 -0.00076037881163130224 -0.030642541041550158 0 -0.00043251788718262293 -0.031103649688512199 0 -1.1145540903640071e-06 -0.031246906709514386 0 4.4744173559032533e-05 -0.029382839890800011 0 1.0951134568543799e-06 -0.029527207011102445 0 1.0951134568543799e-06 -0.029527207011102445 0 0.00012269633687779773 -0.029104022162746171 0 -1.075657810601639e-06 -0.02780729746008621 0 4.4744173559032533e-05 -0.029382839890800011 0 1.0951134568543799e-06 -0.029527207011102445 0 0.00012269633687779773 -0.029104022162746171 0 3.9310323787894521e-05 -0.029385662811675498 0 4.4744173559032533e-05 -0.029382839890800011 0 0.00012269633687779773 -0.029104022162746171 0 3.9310323787894521e-05 -0.029385662811675498 0 0.00012269633687779773 -0.029104022162746171 0 -0.00023844208917038292 -0.029227398845310743 0 -0.0012391942934730288 -0.024713086605706733 0 -0.00011013874589723804 -0.025052723935956499 0 -0.00048691174752627387 -0.023967963779372201 0 -0.0012391942934730288 -0.024713086605706733 0 -3.2479696350665198e-06 -0.027801648716007345 0 -4.5243133572217096e-05 -0.02603403139194798 0 0.00012269633687779773 -0.029104022162746171 0 -0.00023844208917038292 -0.029227398845310743 0 -1.075657810601639e-06 -0.02780729746008621 0 -0.00019714482302508226 -0.027005655299743431 0 -4.7131178538759695e-07 -0.027803818724944973 0 1.8034724007350421e-06 -0.02592644494032624 0 -3.2479696350665198e-06 -0.027801648716007345 0 -4.5243133572217096e-05 -0.02603403139194798 0 1.8034724007350421e-06 -0.02592644494032624 0 0.00016010221775049921 -0.025382370269479527 0 -4.5243133572217096e-05 -0.02603403139194798 0 0.00016010221775049921 -0.025382370269479527 0 -0.00011013874589723804 -0.025052723935956499 0 5.7142503555422223e-05 -0.024283106233901036 0 0.00016010221775049921 -0.025382370269479527 0 -4.5243133572217096e-05 -0.02603403139194798 0 -0.00011013874589723804 -0.025052723935956499 0 -0.0012391942934730288 -0.024713086605706733 0 -4.5243133572217096e-05 -0.02603403139194798 0 -0.00011013874589723804 -0.025052723935956499 0 -0.00011013874589723804 -0.025052723935956499 0 5.7142503555422223e-05 -0.024283106233901036 0 -0.00048691174752627387 -0.023967963779372201 0 -0.00011737733953111893 -0.023946809316439045 0 5.7142503555422223e-05 -0.024283106233901036 0 -0.00048691174752627387 -0.023967963779372201 0 0.00029189843751688819 -0.023470559813952463 0 -0.00011737733953111893 -0.023946809316439045 0 5.7142503555422223e-05 -0.024283106233901036 0 0.00027078599784019828 -0.022958557470013203 0 0.00029189843751688819 -0.023470559813952463 0 -0.00011737733953111893 -0.023946809316439045 0 -0.00011008161219030946 -0.022662103876280277 0 -0.0001920577643725295 -0.022876190507470601 0 0.00021100968659589135 -0.023313679870035214 0 -0.00031138334890778356 -0.023301649116674598 0 -8.0582153119741165e-05 -0.022986650936917714 0 0.00021100968659589135 -0.023313679870035214 0 -0.00011737733953111893 -0.023946809316439045 0 -0.00031138334890778356 -0.023301649116674598 0 -0.00011737733953111893 -0.023946809316439045 0 -0.00031138334890778356 -0.023301649116674598 0 -0.00048691174752627387 -0.023967963779372201 0 3.9310323787894521e-05 -0.029385662811675498 0 -0.00023844208917038292 -0.029227398845310743 0 -0.00016403949735657424 -0.029580277357652257 0 -0.00019714482302508226 -0.027005655299743431 0 -0.00019578966040000243 -0.026425813312617254 0 -0.0012391942934730288 -0.024713086605706733 0 -0.00048691174752627387 -0.023967963779372201 0 -0.0010364094624127685 -0.023110815215776181 0 -0.0004931898273827244 -0.02702902482434854 0 -0.00019578966040000243 -0.026425813312617254 0 -0.00031138334890778356 -0.023301649116674598 0 -0.00048691174752627387 -0.023967963779372201 0 -0.0010364094624127685 -0.023110815215776181 0 3.5917431345259724e-05 -0.029380264529195579 0 6.649702273206769e-05 -0.029368708470137648 0 6.6747280801706665e-05 -0.029330357015213263 0 -0.00019578966040000243 -0.026425813312617254 0 -3.6498429297406097e-05 -0.027850751477037621 0 9.9701282375871193e-05 -0.022961788167132645 0 -5.6265415033789028e-07 -0.02305139698896691 0 0.00011089343948271511 -0.023079333187154914 0 -0.00019578966040000243 -0.026425813312617254 0 0.00031452805284826028 -0.024545446276817446 0 -0.00031138334890778356 -0.023301649116674598 0 -0.00018370607356678228 -0.022655087911423739 0 -8.0582153119741165e-05 -0.022986650936917714 0 -0.00031138334890778356 -0.023301649116674598 0 -0.0010364094624127685 -0.023110815215776181 0 -0.00018370607356678228 -0.022655087911423739 0 -0.00018370607356678228 -0.022655087911423739 0 -5.9235118604788457e-05 -0.022702596556292361 0 -8.0582153119741165e-05 -0.022986650936917714 0 -3.2561696924043143e-06 -0.023135185893936844 0 0.00011089343948271511 -0.023079333187154914 0 -2.2157874056578727e-06 -0.023273906407967084 0 -0.0001325530521624272 -0.023141558757990507 0 -5.6265415033789028e-07 -0.02305139698896691 0 -3.2561696924043143e-06 -0.023135185893936844 0 -4.0875415358049269e-05 -0.022849315462916759 0 -0.00018370607356678228 -0.022655087911423739 0 -5.9235118604788457e-05 -0.022702596556292361 0 0.00031267733163308994 -0.023897619662666406 0 0.00031452805284826028 -0.024545446276817446 0 -5.6265415033789028e-07 -0.02305139698896691 0 -3.2561696924043143e-06 -0.023135185893936844 0 0.00011089343948271511 -0.023079333187154914 0 -3.6498429297406097e-05 -0.027850751477037621 0 0.00094377434215977814 -0.025236547113113669 0 -3.6498429297406097e-05 -0.027850751477037621 0 0.00040855603368363132 -0.028859459226485158 0 0.00016959832336221648 -0.023055626316495086 0 0.00019488508980841955 -0.023338160740295523 0 -2.2157874056578727e-06 -0.023273906407967084 0 -0.0001325530521624272 -0.023141558757990507 0 -3.2561696924043143e-06 -0.023135185893936844 0 -2.2157874056578727e-06 -0.023273906407967084 0 -0.0001325530521624272 -0.023141558757990507 0 -0.00013350094074534539 -0.023309408334860612 0 -2.2157874056578727e-06 -0.023273906407967084 0 -0.00013350094074534539 -0.023309408334860612 0 -0.00012581829282568387 -0.023452707352699866 0 1.1180360563047025e-05 -0.023419310102382622 0 0.00019488508980841955 -0.023338160740295523 0 -2.2157874056578727e-06 -0.023273906407967084 0 1.1180360563047025e-05 -0.023419310102382622 0 -0.00013350094074534539 -0.023309408334860612 0 -2.2157874056578727e-06 -0.023273906407967084 0 1.1180360563047025e-05 -0.023419310102382622 0 -0.00012581829282568387 -0.023452707352699866 0 1.1180360563047025e-05 -0.023419310102382622 0 -1.2541366572660921e-05 -0.023566282210309548 0 1.1180360563047025e-05 -0.023419310102382622 0 -1.2541366572660921e-05 -0.023566282210309548 0 0.00022316010200452711 -0.023664477568832887 0 0.00043471504827337549 -0.027884787273588375 0 0.0014430824751813852 -0.029419828323230552 0 -0.00043610018772560722 -0.035091236281614931 0 -0.00074149678242432825 -0.034954733970763319 0 -0.00063034249469789841 -0.034835507525772358 0 0.0014430824751813852 -0.029419828323230552 0 0.0014208626173237541 -0.029465234728649328 0 -0.00074496439959402668 -0.034948461311234316 0 -0.00074576707949113616 -0.03490945605656269 0 -0.00082105631024116134 -0.034898395524468814 0 0.0014430824751813852 -0.029419828323230552 0 0.0014383553295735968 -0.029494307998494392 0 0.00019488508980841955 -0.023338160740295523 0 1.1180360563047025e-05 -0.023419310102382622 0 0.00022316010200452711 -0.023664477568832887 0 0.00040855603368363132 -0.028859459226485158 0 0.0014430824751813852 -0.029419828323230552 0 -0.0010172257165233509 -0.034689409851514148 0 -0.00082389350154072174 -0.03484406877870428 0 -0.00081918597417769722 -0.034704054675099592 0 -0.0010172257165233509 -0.034689409851514148 0 -0.00086660595326412096 -0.034883754369342712 0 -0.00082389350154072174 -0.03484406877870428 0 -0.00082389350154072174 -0.03484406877870428 0 -0.00077563715598702465 -0.034899415430129269 0 -0.00080007969614112834 -0.034878075184242567 0 -0.00082389350154072174 -0.03484406877870428 0 -0.00082105631024116134 -0.034898395524468814 0 -0.00080007969614112834 -0.034878075184242567 0 -0.00086660595326412096 -0.034883754369342712 0 -0.00082389350154072174 -0.03484406877870428 0 -0.00082105631024116134 -0.034898395524468814 0 -0.00082389350154072174 -0.03484406877870428 0 -0.00070924231629187465 -0.03483899992435676 0 -0.00077563715598702465 -0.034899415430129269 0 -0.00082389350154072174 -0.03484406877870428 0 -0.00081918597417769722 -0.034704054675099592 0 -0.00070924231629187465 -0.03483899992435676 0 -0.00081918597417769722 -0.034704054675099592 0 -0.00095049878896084471 -0.034556552741445597 0 -0.00070472479440221122 -0.034511047827688102 0 -0.001138358702730987 -0.034465910400442494 0 -0.0010172257165233509 -0.034689409851514148 0 -0.00095049878896084471 -0.034556552741445597 0 -0.0010172257165233509 -0.034689409851514148 0 -0.00081918597417769722 -0.034704054675099592 0 -0.00095049878896084471 -0.034556552741445597 0 -0.0010108812198822796 -0.034407908616531827 0 -0.001138358702730987 -0.034465910400442494 0 -0.00095049878896084471 -0.034556552741445597 0 -0.00076159673042972107 -0.034536287565136395 0 -0.00060884595333010833 -0.034640485003835188 0 -0.0010108812198822796 -0.034407908616531827 0 -0.00095049878896084471 -0.034556552741445597 0 -0.00070472479440221122 -0.034511047827688102 0 -0.0005167127440673738 -0.034469426863450177 0 -0.00055813531232181595 -0.034789746790928999 0 -0.00025387768304800277 -0.034731165853345507 0 -0.00055813531232181595 -0.034789746790928999 0 -0.00025387768304800277 -0.034731165853345507 0 -0.00020396062313853531 -0.034955520836861834 0 -0.00060884595333010833 -0.034640485003835188 0 -0.00039024615858243371 -0.034782533319615977 0 -0.00070472479440221122 -0.034511047827688102 0 -0.00044551537331072842 -0.034641449477574832 0 -0.00064139646654889839 -0.034713306042712951 0 -0.00081918597417769722 -0.034704054675099592 0 -0.00070472479440221122 -0.034511047827688102 0 -0.00064139646654889839 -0.034713306042712951 0 -0.00081918597417769722 -0.034704054675099592 0 -0.00064139646654889839 -0.034713306042712951 0 -0.00070924231629187465 -0.03483899992435676 0 -0.00064139646654889839 -0.034713306042712951 0 -0.00070924231629187465 -0.03483899992435676 0 -0.00048708680478859256 -0.034878496736737104 0 -0.00070924231629187465 -0.03483899992435676 0 -0.00061073408799404102 -0.034942599506790323 0 -0.00077563715598702465 -0.034899415430129269 0 -0.00070924231629187465 -0.03483899992435676 0 -0.00048708680478859256 -0.034878496736737104 0 -0.00061073408799404102 -0.034942599506790323 0 -0.00048708680478859256 -0.034878496736737104 0 -0.0003125062555817811 -0.035083584258459651 0 -0.00061073408799404102 -0.034942599506790323 0 -0.00044551537331072842 -0.034641449477574832 0 -0.00064139646654889839 -0.034713306042712951 0 -0.00048708680478859256 -0.034878496736737104 0 -0.00039024615858243371 -0.034782533319615977 0 -0.00027778434738527739 -0.034857365549818671 0 -0.00044551537331072842 -0.034641449477574832 0 -0.00048708680478859256 -0.034878496736737104 0 -0.00011434797858451668 -0.034934016212271796 0 -0.00048708680478859256 -0.034878496736737104 0 -0.00011434797858451668 -0.034934016212271796 0 -0.0003125062555817811 -0.035083584258459651 0 -2.9689335815464118e-08 -0.035000215791205214 0 -0.00011434797858451668 -0.034934016212271796 0 -0.0003125062555817811 -0.035083584258459651 0 -2.9689335815464118e-08 -0.035000215791205214 0 -1.3786299943547988e-07 -0.034999894878153977 0 -0.00011434797858451668 -0.034934016212271796 0 -1.3786299943547988e-07 -0.034999894878153977 0 -0.00011434797858451668 -0.034934016212271796 0 9.9471085986993239e-08 -0.034999646701789129 0 -0.00020396062313853531 -0.034955520836861834 0 9.9471085986993239e-08 -0.034999646701789129 0 -6.3101437394971714e-05 -0.034769105003720428 0 -0.00020396062313853531 -0.034955520836861834 0 -0.00011434797858451668 -0.034934016212271796 0 9.9471085986993239e-08 -0.034999646701789129 0 -0.00025387768304800277 -0.034731165853345507 0 -0.00020396062313853531 -0.034955520836861834 0 -6.3101437394971714e-05 -0.034769105003720428 0 -0.00018736741366885093 -0.034453679232567896 0 -0.00025387768304800277 -0.034731165853345507 0 -6.3101437394971714e-05 -0.034769105003720428 0 4.6769573110444799e-08 -0.034999703137667669 0 -6.2534701628220632e-05 -0.03479579523191622 0 -2.7742760063457186e-09 -0.034999985843353981 0 -5.0060629041063191e-06 -0.034988443477832358 0 -2.4055365177086853e-06 -0.034988391026397489 0 -5.0060629041063191e-06 -0.034988443477832358 0 -5.7790160376980988e-06 -0.034976784602289632 0 -2.4055365177086853e-06 -0.034988391026397489 0 -2.7742760063457186e-09 -0.034999985843353981 0 -5.0060629041063191e-06 -0.034988443477832358 0 -4.4281846271405711e-09 -0.034999988866042948 0 5.0074631940747663e-11 -0.034999994916920713 0 -4.4281846271405711e-09 -0.034999988866042948 0 -4.2718268052518746e-06 -0.034992292718673955 0 -1.6645635857735777e-07 -0.034999905335336472 0 -0.00015023240979469366 -0.034963249448860402 0 -5.0060629041063191e-06 -0.034988443477832358 0 -4.4281846271405711e-09 -0.034999988866042948 0 -4.2718268052518746e-06 -0.034992292718673955 0 -5.0060629041063191e-06 -0.034988443477832358 0 -4.2718268052518746e-06 -0.034992292718673955 0 -7.9155298335416758e-06 -0.034983611806497172 0 -0.00015023240979469366 -0.034963249448860402 0 -0.00027944867010286129 -0.034879338910014282 0 -0.0003125062555817811 -0.035083584258459651 0 -0.00061073408799404102 -0.034942599506790323 0 -0.00065736322280453784 -0.035013943737201153 0 -0.00061073408799404102 -0.034942599506790323 0 -0.00065736322280453784 -0.035013943737201153 0 -0.00077563715598702465 -0.034899415430129269 0 -7.9155298335416758e-06 -0.034983611806497172 0 -8.6136937039429306e-06 -0.034977710317527444 0 -9.4781199108747288e-06 -0.034983007136075057 0 -5.0060629041063191e-06 -0.034988443477832358 0 -7.9155298335416758e-06 -0.034983611806497172 0 -8.6136937039429306e-06 -0.034977710317527444 0 -5.0060629041063191e-06 -0.034988443477832358 0 -8.6136937039429306e-06 -0.034977710317527444 0 -5.7790160376980988e-06 -0.034976784602289632 0 -8.6136937039429306e-06 -0.034977710317527444 0 -5.7790160376980988e-06 -0.034976784602289632 0 -7.3906976313921091e-06 -0.034958638612615937 0 -5.7790160376980988e-06 -0.034976784602289632 0 -7.3906976313921091e-06 -0.034958638612615937 0 -3.9525066204401824e-06 -0.034960805763361934 0 -7.3906976313921091e-06 -0.034958638612615937 0 -3.4298420395242015e-06 -0.034933315028473098 0 2.5797290056263166e-06 -0.034922947908642706 0 -3.4298420395242015e-06 -0.034933315028473098 0 -9.4781199108747288e-06 -0.034983007136075057 0 2.5423508082437712e-05 -0.034999435145633473 0 -0.00034204637474049941 -0.034706756423481873 0 -0.00030241421563556836 -0.034390491458779121 0 -8.6136937039429306e-06 -0.034977710317527444 0 -7.3906976313921091e-06 -0.034958638612615937 0 -9.4781199108747288e-06 -0.034983007136075057 0 -7.3906976313921091e-06 -0.034958638612615937 0 -3.4298420395242015e-06 -0.034933315028473098 0 -9.4781199108747288e-06 -0.034983007136075057 0 -0.00065736322280453784 -0.035013943737201153 0 -0.00081680550903662815 -0.034786025988967399 0 -0.00077563715598702465 -0.034899415430129269 0 -0.00027944867010286129 -0.034879338910014282 0 -0.00034204637474049941 -0.034706756423481873 0 -0.00077563715598702465 -0.034899415430129269 0 -0.00080007969614112834 -0.034878075184242567 0 -0.00077731248534475001 -0.034813720443991572 0 -0.00077986855014163024 -0.034863768739514224 0 -0.00080007969614112834 -0.034878075184242567 0 -0.00077731248534475001 -0.034813720443991572 0 -0.00082105631024116134 -0.034898395524468814 0 -0.00077986855014163024 -0.034863768739514224 0 -0.00080007969614112834 -0.034878075184242567 0 -0.00074576707949113616 -0.03490945605656269 0 -0.00082105631024116134 -0.034898395524468814 0 -0.00077986855014163024 -0.034863768739514224 0 -0.00077986855014163024 -0.034863768739514224 0 -0.00077731248534475001 -0.034813720443991572 0 -0.00073390848593920502 -0.034853294357723878 0 -0.00081680550903662815 -0.034786025988967399 0 -0.00077731248534475001 -0.034813720443991572 0 -0.0006758233348442246 -0.034673932583826353 0 -0.00081680550903662815 -0.034786025988967399 0 -0.00077563715598702465 -0.034899415430129269 0 -0.00077731248534475001 -0.034813720443991572 0 -0.00081680550903662815 -0.034786025988967399 0 -0.0006758233348442246 -0.034673932583826353 0 -0.00065289796214273142 -0.034433547932988709 0 -0.0006758233348442246 -0.034673932583826353 0 -0.00051706809010739776 -0.034644479244524351 0 -0.00065289796214273142 -0.034433547932988709 0 -0.0006758233348442246 -0.034673932583826353 0 -0.00063034249469789841 -0.034835507525772358 0 -0.00051706809010739776 -0.034644479244524351 0 -0.00077731248534475001 -0.034813720443991572 0 -0.00063034249469789841 -0.034835507525772358 0 -0.00073390848593920502 -0.034853294357723878 0 -0.00077731248534475001 -0.034813720443991572 0 -0.0006758233348442246 -0.034673932583826353 0 -0.00063034249469789841 -0.034835507525772358 0 -0.00074576707949113616 -0.03490945605656269 0 -0.00063034249469789841 -0.034835507525772358 0 -0.00073390848593920502 -0.034853294357723878 0 -0.00074149678242432825 -0.034954733970763319 0 -0.00074576707949113616 -0.03490945605656269 0 -0.00063034249469789841 -0.034835507525772358 0 -0.00074576707949113616 -0.03490945605656269 0 -0.00077986855014163024 -0.034863768739514224 0 -0.00073390848593920502 -0.034853294357723878 0 -0.00043610018772560722 -0.035091236281614931 0 -0.00063034249469789841 -0.034835507525772358 0 -0.00028711520229185119 -0.034833248350696754 0 -0.00063034249469789841 -0.034835507525772358 0 -0.00051706809010739776 -0.034644479244524351 0 -0.00028711520229185119 -0.034833248350696754 0 -0.00051706809010739776 -0.034644479244524351 0 -0.00065289796214273142 -0.034433547932988709 0 -0.00028254459871428998 -0.034462982033724041 0 -0.00051706809010739776 -0.034644479244524351 0 -0.00028711520229185119 -0.034833248350696754 0 -0.00028254459871428998 -0.034462982033724041 0 -0.00030241421563556836 -0.034390491458779121 0 -0.00018102223411137168 -0.033814640416320575 0 -0.00065289796214273142 -0.034433547932988709 0 -0.00028254459871428998 -0.034462982033724041 0 -0.00027025254163823108 -0.034116103399224627 0 -3.4298420395242015e-06 -0.034933315028473098 0 2.5423508082437712e-05 -0.034999435145633473 0 1.9071770440738209e-05 -0.034828745685227029 0 2.5423508082437712e-05 -0.034999435145633473 0 1.9071770440738209e-05 -0.034828745685227029 0 0.00022236634923548427 -0.034998192197124224 0 1.9071770440738209e-05 -0.034828745685227029 0 0.00022236634923548427 -0.034998192197124224 0 0.00025220863442405362 -0.034739194631226815 0 1.9071770440738209e-05 -0.034828745685227029 0 0.00017035200577018408 -0.034404726106848228 0 0.00025220863442405362 -0.034739194631226815 0 -3.4298420395242015e-06 -0.034933315028473098 0 1.9071770440738209e-05 -0.034828745685227029 0 2.5797290056263166e-06 -0.034922947908642706 0 1.9071770440738209e-05 -0.034828745685227029 0 9.57499052305419e-06 -0.034895794251058723 0 2.5797290056263166e-06 -0.034922947908642706 0 9.57499052305419e-06 -0.034895794251058723 0 -5.723770616531016e-07 -0.034925684690898164 0 5.8154330714844872e-06 -0.034922124339053819 0 9.57499052305419e-06 -0.034895794251058723 0 -3.5243899516393677e-05 -0.034896633667274427 0 -1.3410873881184806e-05 -0.03491577176604227 0 1.9071770440738209e-05 -0.034828745685227029 0 9.57499052305419e-06 -0.034895794251058723 0 -3.5243899516393677e-05 -0.034896633667274427 0 -8.4272251689844417e-05 -0.034327166801584014 0 6.6977088157912047e-06 -0.034081493057522179 0 -3.5243899516393677e-05 -0.034896633667274427 0 -2.8305050886679593e-05 -0.034921359014711356 0 -1.3410873881184806e-05 -0.03491577176604227 0 -2.8305050886679593e-05 -0.034921359014711356 0 -1.3410873881184806e-05 -0.03491577176604227 0 -1.4462945395745534e-05 -0.034930486846399662 0 -2.8305050886679593e-05 -0.034921359014711356 0 -1.4462945395745534e-05 -0.034930486846399662 0 -2.5579280628065701e-05 -0.034935511855289404 0 -1.4462945395745534e-05 -0.034930486846399662 0 -2.5579280628065701e-05 -0.034935511855289404 0 -1.3452277246453057e-05 -0.0349450700895707 0 -2.5579280628065701e-05 -0.034935511855289404 0 -1.3452277246453057e-05 -0.0349450700895707 0 -2.5376111246142864e-05 -0.034951145716544861 0 -5.7844051499668186e-06 -0.034951157089448369 0 -3.7366446125793332e-06 -0.034939924336754538 0 9.7395559380660943e-07 -0.034951061848679452 0 -1.3452277246453057e-05 -0.0349450700895707 0 -5.7844051499668186e-06 -0.034951157089448369 0 -9.7281475708967331e-06 -0.034955317680100288 0 -1.3452277246453057e-05 -0.0349450700895707 0 -5.7844051499668186e-06 -0.034951157089448369 0 -3.7366446125793332e-06 -0.034939924336754538 0 -1.4462945395745534e-05 -0.034930486846399662 0 -1.3452277246453057e-05 -0.0349450700895707 0 -3.7366446125793332e-06 -0.034939924336754538 0 -3.7366446125793332e-06 -0.034939924336754538 0 -5.723770616531016e-07 -0.034925684690898164 0 2.6212324827370096e-06 -0.034936954507013528 0 -1.4462945395745534e-05 -0.034930486846399662 0 -3.7366446125793332e-06 -0.034939924336754538 0 -5.723770616531016e-07 -0.034925684690898164 0 9.57499052305419e-06 -0.034895794251058723 0 -1.3410873881184806e-05 -0.03491577176604227 0 -5.723770616531016e-07 -0.034925684690898164 0 -1.3410873881184806e-05 -0.03491577176604227 0 -1.4462945395745534e-05 -0.034930486846399662 0 -5.723770616531016e-07 -0.034925684690898164 0 -5.723770616531016e-07 -0.034925684690898164 0 2.6212324827370096e-06 -0.034936954507013528 0 5.8154330714844872e-06 -0.034922124339053819 0 2.6212324827370096e-06 -0.034936954507013528 0 9.7395559380660943e-07 -0.034951061848679452 0 4.280967641285528e-06 -0.034944322134606812 0 2.6212324827370096e-06 -0.034936954507013528 0 4.280967641285528e-06 -0.034944322134606812 0 5.8154330714844872e-06 -0.034922124339053819 0 -3.7366446125793332e-06 -0.034939924336754538 0 2.6212324827370096e-06 -0.034936954507013528 0 9.7395559380660943e-07 -0.034951061848679452 0 -5.7844051499668186e-06 -0.034951157089448369 0 9.7395559380660943e-07 -0.034951061848679452 0 -2.2994523766289086e-06 -0.034956084207529478 0 9.7395559380660943e-07 -0.034951061848679452 0 3.5009085085455343e-06 -0.034960482286491255 0 1.1691044707207631e-06 -0.034960062099965529 0 9.7395559380660943e-07 -0.034951061848679452 0 3.5009085085455343e-06 -0.034960482286491255 0 4.280967641285528e-06 -0.034944322134606812 0 3.5009085085455343e-06 -0.034960482286491255 0 4.280967641285528e-06 -0.034944322134606812 0 3.0176875503896291e-06 -0.034964792903331189 0 4.280967641285528e-06 -0.034944322134606812 0 2.5797290056263166e-06 -0.034922947908642706 0 1.4527001290335406e-06 -0.034955712118550857 0 2.5797290056263166e-06 -0.034922947908642706 0 -3.9525066204401824e-06 -0.034960805763361934 0 1.4527001290335406e-06 -0.034955712118550857 0 9.57499052305419e-06 -0.034895794251058723 0 5.8154330714844872e-06 -0.034922124339053819 0 2.5797290056263166e-06 -0.034922947908642706 0 4.280967641285528e-06 -0.034944322134606812 0 5.8154330714844872e-06 -0.034922124339053819 0 2.5797290056263166e-06 -0.034922947908642706 0 -7.3906976313921091e-06 -0.034958638612615937 0 2.5797290056263166e-06 -0.034922947908642706 0 -3.9525066204401824e-06 -0.034960805763361934 0 -5.7790160376980988e-06 -0.034976784602289632 0 -3.9525066204401824e-06 -0.034960805763361934 0 -8.647372428276604e-07 -0.034975570037376731 0 -3.9525066204401824e-06 -0.034960805763361934 0 -8.647372428276604e-07 -0.034975570037376731 0 1.4527001290335406e-06 -0.034955712118550857 0 4.280967641285528e-06 -0.034944322134606812 0 1.4527001290335406e-06 -0.034955712118550857 0 3.0176875503896291e-06 -0.034964792903331189 0 -8.647372428276604e-07 -0.034975570037376731 0 1.4527001290335406e-06 -0.034955712118550857 0 3.0176875503896291e-06 -0.034964792903331189 0 3.5009085085455343e-06 -0.034960482286491255 0 3.0176875503896291e-06 -0.034964792903331189 0 3.1932470024682515e-06 -0.034973693251871871 0 3.0176875503896291e-06 -0.034964792903331189 0 2.1181570910838052e-06 -0.034979713761923069 0 3.1932470024682515e-06 -0.034973693251871871 0 -8.647372428276604e-07 -0.034975570037376731 0 3.0176875503896291e-06 -0.034964792903331189 0 2.1181570910838052e-06 -0.034979713761923069 0 -8.647372428276604e-07 -0.034975570037376731 0 2.1181570910838052e-06 -0.034979713761923069 0 7.6944748503065082e-07 -0.034987523577816752 0 2.1181570910838052e-06 -0.034979713761923069 0 7.6944748503065082e-07 -0.034987523577816752 0 1.3665152569733339e-06 -0.034991182184323601 0 2.1181570910838052e-06 -0.034979713761923069 0 1.3665152569733339e-06 -0.034991182184323601 0 1.7921326398552605e-06 -0.034987231080373743 0 1.3665152569733339e-06 -0.034991182184323601 0 1.6443793529714086e-09 -0.034999983039018009 0 1.7383693162575083e-09 -0.034999985625952378 0 7.6944748503065082e-07 -0.034987523577816752 0 1.3665152569733339e-06 -0.034991182184323601 0 1.6443793529714086e-09 -0.034999983039018009 0 7.6944748503065082e-07 -0.034987523577816752 0 1.6443793529714086e-09 -0.034999983039018009 0 -1.7188202815405938e-09 -0.034999982396406379 0 -8.647372428276604e-07 -0.034975570037376731 0 7.6944748503065082e-07 -0.034987523577816752 0 -1.7188202815405938e-09 -0.034999982396406379 0 -8.647372428276604e-07 -0.034975570037376731 0 -1.7188202815405938e-09 -0.034999982396406379 0 -2.4055365177086853e-06 -0.034988391026397489 0 -5.7790160376980988e-06 -0.034976784602289632 0 -8.647372428276604e-07 -0.034975570037376731 0 -2.4055365177086853e-06 -0.034988391026397489 0 -2.7742760063457186e-09 -0.034999985843353981 0 -1.7188202815405938e-09 -0.034999982396406379 0 -2.4055365177086853e-06 -0.034988391026397489 0 -0.00094875751279860604 -0.032490716555613634 0 3.5078156380468488e-06 -0.032517616805088259 0 -0.0011816783840773956 -0.031031204718091121 0 -0.00094875751279860604 -0.032490716555613634 0 -0.0011419451902426969 -0.032957270808916306 0 -0.0016118844899518144 -0.031005496628282333 0 0.0003909287651404746 -0.020886608326741361 0 7.3902738484777464e-05 -0.021089644231637793 0 0.0003909287651404746 -0.020886608326741361 0 -0.00021375412589166073 -0.021616574157323685 0 -0.00094875751279860604 -0.032490716555613634 0 -0.0011419451902426969 -0.032957270808916306 0 -0.0004349361992017106 -0.0326472234415498 0 -0.00086896143322914116 -0.032827564845185307 0 -0.0004349361992017106 -0.0326472234415498 0 -0.00040388532819200828 -0.033109453552952604 0 0.00091744908122416181 -0.034173436117590057 0 0.00094507671336216555 -0.034411699016480675 0 0.00070129233636595002 -0.034369719457485286 0 3.5078156380468488e-06 -0.032517616805088259 0 -0.0004349361992017106 -0.0326472234415498 0 -3.913069719132787e-05 -0.033067673482285814 0 -0.00094875751279860604 -0.032490716555613634 0 3.5078156380468488e-06 -0.032517616805088259 0 -0.0004349361992017106 -0.0326472234415498 0 -0.00040388532819200828 -0.033109453552952604 0 -3.913069719132787e-05 -0.033067673482285814 0 -7.5255881156353676e-06 -0.033390754063012104 0 -3.913069719132787e-05 -0.033067673482285814 0 -7.5255881156353676e-06 -0.033390754063012104 0 0.00054594471689458431 -0.033748085814366786 0 3.5078156380468488e-06 -0.032517616805088259 0 -3.913069719132787e-05 -0.033067673482285814 0 0.00054594471689458431 -0.033748085814366786 0 -0.0004349361992017106 -0.0326472234415498 0 -0.00040388532819200828 -0.033109453552952604 0 -3.913069719132787e-05 -0.033067673482285814 0 -7.5255881156353676e-06 -0.033390754063012104 0 -0.0006556125242582969 -0.033580466426986026 0 -4.3665947779119269e-05 -0.033737413546618168 0 -0.00040388532819200828 -0.033109453552952604 0 -7.5255881156353676e-06 -0.033390754063012104 0 -0.0006556125242582969 -0.033580466426986026 0 0.0036417864128382472 -0.0098989554325889829 0 0.0036087123021979043 -0.0099565066647444647 0 0.0036681429988912823 -0.0099868900274915698 0 -0.00086896143322914116 -0.032827564845185307 0 -0.00040388532819200828 -0.033109453552952604 0 -0.0006556125242582969 -0.033580466426986026 0 0.0003909287651404746 -0.020886608326741361 0 0.0014012912648033887 -0.022229365910260961 0 0.0003909287651404746 -0.020886608326741361 0 0.0024537282208067185 -0.015616620876989918 0 0.0036417864128382472 -0.0098989554325889829 0 0.0036087123021979043 -0.0099565066647444647 0 0.0035471018650699029 -0.0099106519183351192 0 0.0036087123021979043 -0.0099565066647444647 0 0.0035471018650699029 -0.0099106519183351192 0 0.0035749558916846136 -0.0099998583938075824 0 0.0035471018650699029 -0.0099106519183351192 0 0.0035092093693728566 -0.0099675165257606287 0 0.0035749558916846136 -0.0099998583938075824 0 0.0024537282208067185 -0.015616620876989918 0 0.0033997579753120991 -0.011599146425750464 0 0.0035471018650699029 -0.0099106519183351192 0 0.0034298805474472708 -0.0099069264331228379 0 0.0035092093693728566 -0.0099675165257606287 0 0.0015205840058939446 -0.015809461201706822 0 0.0036765480795554182 -0.015032102158203444 0 0.0018218852076685216 -0.0171747718237177 0 0.0033997579753120991 -0.011599146425750464 0 0.0021876351448688589 -0.014708825144977251 0 -0.00032452111398157616 -0.006558022182542614 0 -0.00040668436347770191 -0.0065639491382580486 0 -0.00035576274486170311 -0.0066335296918707577 0 -0.00032452111398157616 -0.006558022182542614 0 -0.00033701321735140689 -0.0064759554461213138 0 -0.00040668436347770191 -0.0065639491382580486 0 -0.00063073016930917565 -0.016584829441610442 0 0.0015205840058939446 -0.015809461201706822 0 0.0018218852076685216 -0.0171747718237177 0 0.0021876351448688589 -0.014708825144977251 0 7.3902738484777464e-05 -0.021089644231637793 0 -0.00063073016930917565 -0.016584829441610442 0 0.0018218852076685216 -0.0171747718237177 0 -2.9053217495859977e-05 -0.019310386133179147 0 -0.00040668436347770191 -0.0065639491382580486 0 -0.00042060847668951674 -0.0066445266896846362 0 -0.00047880539691469545 -0.006656983318431656 0 -0.00042060847668951674 -0.0066445266896846362 0 -0.00046709922359579559 -0.0067101988286305406 0 -0.00047880539691469545 -0.006656983318431656 0 -0.0010351785315100013 -0.019442773183953568 0 7.3902738484777464e-05 -0.021089644231637793 0 -0.00040668436347770191 -0.0065639491382580486 0 -0.00042060847668951674 -0.0066445266896846362 0 -0.00035576274486170311 -0.0066335296918707577 0 -0.00042060847668951674 -0.0066445266896846362 0 -0.00035576274486170311 -0.0066335296918707577 0 -0.00041077671958723335 -0.0066987540514294132 0 -0.00030170697231504738 -0.00672016081226321 0 -0.00042188532897018789 -0.0067581453703028484 0 -0.0003593026976721775 -0.0066934833058702424 0 -0.00030792453363609007 -0.0066605043148976577 0 -0.00035576274486170311 -0.0066335296918707577 0 -0.0003593026976721775 -0.0066934833058702424 0 -0.00035576274486170311 -0.0066335296918707577 0 -0.0003593026976721775 -0.0066934833058702424 0 -0.00041077671958723335 -0.0066987540514294132 0 -0.00042188532897018789 -0.0067581453703028484 0 -0.0003593026976721775 -0.0066934833058702424 0 -0.00041077671958723335 -0.0066987540514294132 0 -0.00091430549091331621 -0.020283473878608491 0 -0.00068526802190136793 -0.020552920318677427 0 -0.00040782226526150359 -0.022546668270222232 0 -0.0011127527909237606 -0.019257503972371654 0 -0.0011132013990874695 -0.019256130585094993 0 -0.0011147219811271194 -0.019265110037436313 0 -0.0010351785315100013 -0.019442773183953568 0 -0.00081310873610704727 -0.020278866192993329 0 -0.00042060847668951674 -0.0066445266896846362 0 -0.00046709922359579559 -0.0067101988286305406 0 -0.00041077671958723335 -0.0066987540514294132 0 -0.00042188532897018789 -0.0067581453703028484 0 -0.00046709922359579559 -0.0067101988286305406 0 -0.00041077671958723335 -0.0066987540514294132 0 -0.0010351785315100013 -0.019442773183953568 0 -0.00098797971958197793 -0.018729078514589718 0 -0.00074037089812330214 -0.018021747193921935 0 -0.0012752364156428091 -0.017391633157140412 0 -0.001183124570876446 -0.017811265491400202 0 -0.0020897432037670681 -0.01622270385578314 0 -0.0010351785315100013 -0.019442773183953568 0 -0.00081310873610704727 -0.020278866192993329 0 -0.00098797971958197793 -0.018729078514589718 0 -0.00030100139945681242 -0.021001937761380211 0 -5.5830329295515978e-05 -0.020806692839833364 0 -0.00038647325056827026 -0.020683182520308527 0 0.0012352188879194046 -0.034549271712731179 0 0.00092151797967766566 -0.034554241013287267 0 0.0010114074144766025 -0.034813332855959306 0 -0.00016970138838172703 -0.020448890607471695 0 -5.5830329295515978e-05 -0.020806692839833364 0 -0.00038647325056827026 -0.020683182520308527 0 -0.00054707103292221193 -0.020901199901896726 0 -0.00030100139945681242 -0.021001937761380211 0 -0.00038647325056827026 -0.020683182520308527 0 -0.00054707103292221193 -0.020901199901896726 0 -0.00038647325056827026 -0.020683182520308527 0 -0.00084570676265624273 -0.0207460308125667 0 -0.00038647325056827026 -0.020683182520308527 0 -0.00037522273324448594 -0.020207396726481461 0 -0.00084570676265624273 -0.0207460308125667 0 -0.00039984810662057734 -0.023342279420911098 0 -0.001102974881808333 -0.024591119604375548 0 -0.00016970138838172703 -0.020448890607471695 0 -0.00038647325056827026 -0.020683182520308527 0 -0.00037522273324448594 -0.020207396726481461 0 -0.00081310873610704727 -0.020278866192993329 0 -0.00039984810662057734 -0.023342279420911098 0 -0.00081310873610704727 -0.020278866192993329 0 -0.00023852728095569582 -0.022251756275862043 0 0.00047133414886318064 -0.026275362571745928 0 -0.00023852728095569582 -0.022251756275862043 0 -0.00094875751279860604 -0.032490716555613634 0 -0.0014852306766448093 -0.030857604599292945 0 -0.0016118844899518144 -0.031005496628282333 0 -0.00068526802190136793 -0.020552920318677427 0 -0.00014288922797729003 -0.022240361402631751 0 -0.00040782226526150359 -0.022546668270222232 0 0.001780676973984586 -0.030436660039590377 0 -0.00039984810662057734 -0.023342279420911098 0 -0.00049137947278079695 -0.022131246529329514 0 -0.00010485264380769347 -0.02333577656431254 0 0.00021609116382422043 -0.022964917950495215 0 -0.00094875751279860604 -0.032490716555613634 0 -0.0013487117616568195 -0.031222809874993238 0 -0.0011816783840773956 -0.031031204718091121 0 -0.00023852728095569582 -0.022251756275862043 0 -0.00039984810662057734 -0.023342279420911098 0 -0.00023852728095569582 -0.022251756275862043 0 7.3902738484777464e-05 -0.021089644231637793 0 0.00092151797967766566 -0.034554241013287267 0 0.00074081167207736139 -0.034695707475084638 0 0.00070129233636595002 -0.034369719457485286 0 0.0012352188879194046 -0.034549271712731179 0 0.00094507671336216555 -0.034411699016480675 0 0.00092151797967766566 -0.034554241013287267 0 0.00091744908122416181 -0.034173436117590057 0 0.0012352188879194046 -0.034549271712731179 0 0.00094507671336216555 -0.034411699016480675 0 0.00094507671336216555 -0.034411699016480675 0 0.00092151797967766566 -0.034554241013287267 0 0.00070129233636595002 -0.034369719457485286 0 0.00078409035700348481 -0.035072105544136201 0 0.0010114074144766025 -0.034813332855959306 0 0.00074081167207736139 -0.034695707475084638 0 0.00092151797967766566 -0.034554241013287267 0 0.0010114074144766025 -0.034813332855959306 0 0.00074081167207736139 -0.034695707475084638 0 0.00078409035700348481 -0.035072105544136201 0 0.00074081167207736139 -0.034695707475084638 0 0.00049386686791502666 -0.034803388030592658 0 0.00074081167207736139 -0.034695707475084638 0 0.00049386686791502666 -0.034803388030592658 0 0.00053463260114206804 -0.034555708757075351 0 0.00049386686791502666 -0.034803388030592658 0 0.00025792323908459475 -0.034587689120653138 0 0.00053463260114206804 -0.034555708757075351 0 0.00049386686791502666 -0.034803388030592658 0 0.00025792323908459475 -0.034587689120653138 0 0.00011383169277844548 -0.034891224040304217 0 0.00025792323908459475 -0.034587689120653138 0 9.5487837211313692e-05 -0.034288024638460833 0 0.00041889795208532534 -0.034296898559504532 0 0.00025792323908459475 -0.034587689120653138 0 0.00053463260114206804 -0.034555708757075351 0 0.00041889795208532534 -0.034296898559504532 0 0.00070129233636595002 -0.034369719457485286 0 0.00053463260114206804 -0.034555708757075351 0 0.00041889795208532534 -0.034296898559504532 0 0.00074081167207736139 -0.034695707475084638 0 0.00070129233636595002 -0.034369719457485286 0 0.00053463260114206804 -0.034555708757075351 0 -0.00028711520229185119 -0.034833248350696754 0 0.00011383169277844548 -0.034891224040304217 0 -3.4297836012066222e-05 -0.034633938107740167 0 0.00025792323908459475 -0.034587689120653138 0 0.00011383169277844548 -0.034891224040304217 0 -3.4297836012066222e-05 -0.034633938107740167 0 0.00025792323908459475 -0.034587689120653138 0 -3.4297836012066222e-05 -0.034633938107740167 0 9.5487837211313692e-05 -0.034288024638460833 0 -3.4297836012066222e-05 -0.034633938107740167 0 -0.00028254459871428998 -0.034462982033724041 0 9.5487837211313692e-05 -0.034288024638460833 0 -0.00028711520229185119 -0.034833248350696754 0 -3.4297836012066222e-05 -0.034633938107740167 0 -0.00028254459871428998 -0.034462982033724041 0 -0.00028254459871428998 -0.034462982033724041 0 9.5487837211313692e-05 -0.034288024638460833 0 -0.00027025254163823108 -0.034116103399224627 0 0.00070855709729292162 -0.034916787737986302 0 0.00022236634923548427 -0.034998192197124224 0 0.00046144187865271882 -0.034776367503973678 0 -6.6656305426842299e-05 -0.032690246300692137 0 -0.00018102223411137168 -0.033814640416320575 0 9.5487837211313692e-05 -0.034288024638460833 0 0.00020837242551124122 -0.033834517103127459 0 -0.00027025254163823108 -0.034116103399224627 0 0.00022236634923548427 -0.034998192197124224 0 0.00025220863442405362 -0.034739194631226815 0 0.00046144187865271882 -0.034776367503973678 0 0.00070129233636595002 -0.034369719457485286 0 0.0005887648922387734 -0.034109306865353052 0 0.00041889795208532534 -0.034296898559504532 0 0.00091744908122416181 -0.034173436117590057 0 0.00070129233636595002 -0.034369719457485286 0 0.0005887648922387734 -0.034109306865353052 0 9.5487837211313692e-05 -0.034288024638460833 0 0.00041889795208532534 -0.034296898559504532 0 0.00037516490249751459 -0.034033970845319561 0 0.0005887648922387734 -0.034109306865353052 0 0.00041889795208532534 -0.034296898559504532 0 0.00037516490249751459 -0.034033970845319561 0 0.00020837242551124122 -0.033834517103127459 0 0.00037516490249751459 -0.034033970845319561 0 0.00054594471689458431 -0.033748085814366786 0 9.5487837211313692e-05 -0.034288024638460833 0 0.00020837242551124122 -0.033834517103127459 0 0.00037516490249751459 -0.034033970845319561 0 0.0005887648922387734 -0.034109306865353052 0 0.00037516490249751459 -0.034033970845319561 0 0.00054594471689458431 -0.033748085814366786 0 0.001780676973984586 -0.030436660039590377 0 0.0018524901952562082 -0.031765817684241845 0 -7.5255881156353676e-06 -0.033390754063012104 0 0.00054594471689458431 -0.033748085814366786 0 0.00027627026755483176 -0.033663424365365083 0 0.00091744908122416181 -0.034173436117590057 0 0.0005887648922387734 -0.034109306865353052 0 0.00054594471689458431 -0.033748085814366786 0 0.00054594471689458431 -0.033748085814366786 0 0.00054194991858721932 -0.033772834346017487 0 0.00027627026755483176 -0.033663424365365083 0 0.00054194991858721932 -0.033772834346017487 0 0.00027627026755483176 -0.033663424365365083 0 -4.3665947779119269e-05 -0.033737413546618168 0 0.00070855709729292162 -0.034916787737986302 0 0.0012406428923382113 -0.034693376067076703 0 0.00071176795759091648 -0.034701130256103253 0 0.0012406428923382113 -0.034693376067076703 0 0.0012305793091618551 -0.034520988672491357 0 0.00071176795759091648 -0.034701130256103253 0 0.00020837242551124122 -0.033834517103127459 0 0.00054594471689458431 -0.033748085814366786 0 0.00054194991858721932 -0.033772834346017487 0 0.0014949238616371915 -0.029018939109694147 0 0.00091473228254525057 -0.030417907956464336 0 -6.6656305426842299e-05 -0.032690246300692137 0 9.0051140820112944e-05 -0.030264396007854407 0 0.003231713587292327 -0.034314421839659472 0 0.0019570636198529869 -0.033940474596032118 0 0.00071176795759091648 -0.034701130256103253 0 0.0019570636198529869 -0.033940474596032118 0 0.0011611671128697709 -0.034083474468615489 0 0.00071176795759091648 -0.034701130256103253 0 0.0019570636198529869 -0.033940474596032118 0 0.0011611671128697709 -0.034083474468615489 0 0.001063609414910831 -0.033353967299370707 0 0.0011611671128697709 -0.034083474468615489 0 0.001063609414910831 -0.033353967299370707 0 0.00071913421781114126 -0.034389427999341193 0 0.0019570636198529869 -0.033940474596032118 0 0.001063609414910831 -0.033353967299370707 0 0.0016626272605556674 -0.032457130236874 0 0.0019570636198529869 -0.033940474596032118 0 0.0028494033363884968 -0.033250106004938183 0 0.0016626272605556674 -0.032457130236874 0 0.0028494033363884968 -0.033250106004938183 0 0.0037078559150480785 -0.03352278093916617 0 0.0042062738033004339 -0.032579893353476018 0 0.003231713587292327 -0.034314421839659472 0 0.0037078559150480785 -0.03352278093916617 0 0.0029336206151397964 -0.033757939306076352 0 0.0019570636198529869 -0.033940474596032118 0 0.0028494033363884968 -0.033250106004938183 0 0.0029336206151397964 -0.033757939306076352 0 0.003231713587292327 -0.034314421839659472 0 0.0019570636198529869 -0.033940474596032118 0 0.0029336206151397964 -0.033757939306076352 0 0.0028494033363884968 -0.033250106004938183 0 0.0037078559150480785 -0.03352278093916617 0 0.0029336206151397964 -0.033757939306076352 0 0.00025220863442405362 -0.034739194631226815 0 0.00043036645503354151 -0.034601766003892906 0 0.00046144187865271882 -0.034776367503973678 0 0.00025220863442405362 -0.034739194631226815 0 0.00043036645503354151 -0.034601766003892906 0 0.00032707277234807832 -0.034516438573845468 0 0.00054388237825085271 -0.034585754960722873 0 0.00046144187865271882 -0.034776367503973678 0 0.00071176795759091648 -0.034701130256103253 0 0.00054388237825085271 -0.034585754960722873 0 0.00071913421781114126 -0.034389427999341193 0 0.00051042852763365557 -0.034429758909858284 0 0.00043036645503354151 -0.034601766003892906 0 0.00054388237825085271 -0.034585754960722873 0 0.00046144187865271882 -0.034776367503973678 0 0.00043036645503354151 -0.034601766003892906 0 0.00054388237825085271 -0.034585754960722873 0 0.00051042852763365557 -0.034429758909858284 0 0.00070855709729292162 -0.034916787737986302 0 0.00046144187865271882 -0.034776367503973678 0 0.00071176795759091648 -0.034701130256103253 0 0.00054388237825085271 -0.034585754960722873 0 0.00071176795759091648 -0.034701130256103253 0 0.00071913421781114126 -0.034389427999341193 0 0.0011611671128697709 -0.034083474468615489 0 0.00071176795759091648 -0.034701130256103253 0 0.00071913421781114126 -0.034389427999341193 0 0.00071913421781114126 -0.034389427999341193 0 0.00051042852763365557 -0.034429758909858284 0 0.00048403424267044515 -0.03429797864776659 0 0.001063609414910831 -0.033353967299370707 0 0.00071913421781114126 -0.034389427999341193 0 -0.0003935982335082487 -0.032627828884104523 0 0.001063609414910831 -0.033353967299370707 0 -0.0003935982335082487 -0.032627828884104523 0 0.0016626272605556674 -0.032457130236874 0 0.00059102596286825866 -0.033319887783595022 0 0.00039365853476440449 -0.032846443019521929 0 0.00051042852763365557 -0.034429758909858284 0 0.00044346748767955783 -0.034362653563814204 0 0.00048403424267044515 -0.03429797864776659 0 0.00035807535428523718 -0.032923978959917943 0 0.00039365853476440449 -0.032846443019521929 0 0.00017035200577018408 -0.034404726106848228 0 0.00025220863442405362 -0.034739194631226815 0 0.00032707277234807832 -0.034516438573845468 0 0.00017035200577018408 -0.034404726106848228 0 0.00044346748767955783 -0.034362653563814204 0 0.00039852331455686186 -0.034068808773823823 0 0.00042796868985864426 -0.034466045051259567 0 0.00044346748767955783 -0.034362653563814204 0 0.00032707277234807832 -0.034516438573845468 0 0.00043036645503354151 -0.034601766003892906 0 0.00042796868985864426 -0.034466045051259567 0 0.00032707277234807832 -0.034516438573845468 0 0.00043036645503354151 -0.034601766003892906 0 0.00051042852763365557 -0.034429758909858284 0 0.00042796868985864426 -0.034466045051259567 0 0.00051042852763365557 -0.034429758909858284 0 0.00042796868985864426 -0.034466045051259567 0 0.00044346748767955783 -0.034362653563814204 0 0.00017035200577018408 -0.034404726106848228 0 0.00044346748767955783 -0.034362653563814204 0 0.00032707277234807832 -0.034516438573845468 0 6.6977088157912047e-06 -0.034081493057522179 0 0.00044591646043918779 -0.033092106722074251 0 -3.5243899516393677e-05 -0.034896633667274427 0 -2.8305050886679593e-05 -0.034921359014711356 0 -4.8503114069924608e-05 -0.03492646501330883 0 0.00044346748767955783 -0.034362653563814204 0 0.00039852331455686186 -0.034068808773823823 0 0.00051762464676400623 -0.034263168910505515 0 -2.8305050886679593e-05 -0.034921359014711356 0 -2.5579280628065701e-05 -0.034935511855289404 0 -4.8503114069924608e-05 -0.03492646501330883 0 0.00044591646043918779 -0.033092106722074251 0 0.00039365853476440449 -0.032846443019521929 0 0.00039365853476440449 -0.032846443019521929 0 0.00070934287062662056 -0.030805251754036707 0 0.00067056469329526344 -0.031460746362167197 0 0.00059401461890016269 -0.031337898275409413 0 0.0004206856874263189 -0.031565168560923382 0 -0.0003935982335082487 -0.032627828884104523 0 0.0016626272605556674 -0.032457130236874 0 0.0011434458520031411 -0.030538141502805812 0 0.00044591646043918779 -0.033092106722074251 0 0.00072072221874108409 -0.032175968508374092 0 0.00067056469329526344 -0.031460746362167197 0 0.00051182888619004244 -0.031680810874533082 0 0.0004206856874263189 -0.031565168560923382 0 0.00079511808742836808 -0.031294611785634988 0 0.0005643804423108653 -0.031609033541325361 0 0.00077884816364341724 -0.031698593176817232 0 -2.5579280628065701e-05 -0.034935511855289404 0 -4.8503114069924608e-05 -0.03492646501330883 0 -2.5376111246142864e-05 -0.034951145716544861 0 0.00079511808742836808 -0.031294611785634988 0 0.00077884816364341724 -0.031698593176817232 0 0.0010024273680456148 -0.03162133074377161 0 0.00044591646043918779 -0.033092106722074251 0 0.00048020923329890374 -0.03329971466772344 0 0.0028494033363884968 -0.033250106004938183 0 0.0032351191412877713 -0.03105962313536316 0 0.0016626272605556674 -0.032457130236874 0 0.0028494033363884968 -0.033250106004938183 0 0.0032351191412877713 -0.03105962313536316 0 0.0042062738033004339 -0.032579893353476018 0 0.0032351191412877713 -0.03105962313536316 0 0.0016626272605556674 -0.032457130236874 0 0.0011434458520031411 -0.030538141502805812 0 0.00070934287062662056 -0.030805251754036707 0 0.0012182693618809106 -0.028310311500144087 0 0.0032351191412877713 -0.03105962313536316 0 0.0011434458520031411 -0.030538141502805812 0 0.002683774613288684 -0.028439708620473611 0 0.00051182888619004244 -0.031680810874533082 0 0.0004206856874263189 -0.031565168560923382 0 0.00023380690929927683 -0.031806914897988418 0 0.0032351191412877713 -0.03105962313536316 0 0.0047854654976122362 -0.028824544250113694 0 0.002683774613288684 -0.028439708620473611 0 0.0033110758019379415 -0.021721190887331016 0 0.0035769986995778224 -0.020822065741805645 0 0.0041926726816191723 -0.010747547866072515 0 0.0044032381469078195 -0.010461055743308285 0 0.0045250205848472004 -0.010928410630168986 0 0.0032351191412877713 -0.03105962313536316 0 0.0053181175154673587 -0.031299539998996047 0 0.0047854654976122362 -0.028824544250113694 0 0.0041926726816191723 -0.010747547866072515 0 0.0040748151755008915 -0.010516426839305201 0 0.0044032381469078195 -0.010461055743308285 0 0.0041926726816191723 -0.010747547866072515 0 0.0040748151755008915 -0.010516426839305201 0 0.0039604611937435561 -0.010780432388544797 0 0.0040748151755008915 -0.010516426839305201 0 0.0041202043616128097 -0.010275911496684604 0 0.0044032381469078195 -0.010461055743308285 0 0.0041202043616128097 -0.010275911496684604 0 0.0044032381469078195 -0.010461055743308285 0 0.0042914597989345757 -0.010014154781812454 0 0.0040748151755008915 -0.010516426839305201 0 0.0041202043616128097 -0.010275911496684604 0 0.0039116122262115045 -0.010354684216077716 0 0.0032351191412877713 -0.03105962313536316 0 0.0053181175154673587 -0.031299539998996047 0 0.0042062738033004339 -0.032579893353476018 0 0.0053181175154673587 -0.031299539998996047 0 0.0042062738033004339 -0.032579893353476018 0 0.0058593538924067799 -0.033763985759451096 0 0.0033110758019379415 -0.021721190887331016 0 0.002462961414660801 -0.024202852522685701 0 0.0014949238616371915 -0.029018939109694147 0 0.002462961414660801 -0.024202852522685701 0 0.0037078559150480785 -0.03352278093916617 0 0.0042062738033004339 -0.032579893353476018 0 0.0058593538924067799 -0.033763985759451096 0 0.003231713587292327 -0.034314421839659472 0 0.0037078559150480785 -0.03352278093916617 0 0.0058593538924067799 -0.033763985759451096 0 0.0012305793091618551 -0.034520988672491357 0 0.001860368344735359 -0.034343426525448681 0 0.0018740609644239028 -0.034406939758109087 0 0.0041202043616128097 -0.010275911496684604 0 0.0040671982190102875 -0.010049958720712618 0 0.0042914597989345757 -0.010014154781812454 0 0.0041202043616128097 -0.010275911496684604 0 0.0040671982190102875 -0.010049958720712618 0 0.0039124381173233158 -0.010073031745341935 0 0.003612984437086048 -0.022142012074315605 0 0.0024693166956470279 -0.024059703334196617 0 0.0036302141882970907 -0.010109904932946816 0 0.0036929511017087615 -0.010089380199332918 0 0.0036283118866076614 -0.010032436207871351 0 0.0032545039135004664 -0.022954232629397404 0 0.0022513292951209557 -0.023160102027114684 0 0.0022983929647617768 -0.023372713679365605 0 0.003612984437086048 -0.022142012074315605 0 0.002462961414660801 -0.024202852522685701 0 0.002462961414660801 -0.024202852522685701 0 0.0024693166956470279 -0.024059703334196617 0 0.0024693166956470279 -0.024059703334196617 0 0.0014012912648033887 -0.022229365910260961 0 0.0036929511017087615 -0.010089380199332918 0 0.0036283118866076614 -0.010032436207871351 0 0.0036681429988912823 -0.0099868900274915698 0 -0.00046162372136238837 -0.034268405207725519 0 -0.0006556125242582969 -0.033580466426986026 0 -4.3665947779119269e-05 -0.033737413546618168 0 0.0036087123021979043 -0.0099565066647444647 0 0.0036283118866076614 -0.010032436207871351 0 0.0036681429988912823 -0.0099868900274915698 0 0.00054194991858721932 -0.033772834346017487 0 -0.00046162372136238837 -0.034268405207725519 0 -4.3665947779119269e-05 -0.033737413546618168 0 0.0012406428923382113 -0.034693376067076703 0 0.0012305793091618551 -0.034520988672491357 0 0.0018740609644239028 -0.034406939758109087 0 9.0051140820112944e-05 -0.030264396007854407 0 0.0024693166956470279 -0.024059703334196617 0 -7.5255881156353676e-06 -0.033390754063012104 0 0.00027627026755483176 -0.033663424365365083 0 -4.3665947779119269e-05 -0.033737413546618168 0 0.0035350954757930766 -0.01004918732690223 0 0.0034485602747854577 -0.01000868211329663 0 0.0035092093693728566 -0.0099675165257606287 0 0.0034298805474472708 -0.0099069264331228379 0 0.0034485602747854577 -0.01000868211329663 0 0.0035092093693728566 -0.0099675165257606287 0 0.0035350954757930766 -0.01004918732690223 0 0.0035092093693728566 -0.0099675165257606287 0 0.0035749558916846136 -0.0099998583938075824 0 0.0036087123021979043 -0.0099565066647444647 0 0.0036283118866076614 -0.010032436207871351 0 0.0035749558916846136 -0.0099998583938075824 0 0.0036302141882970907 -0.010109904932946816 0 0.0036283118866076614 -0.010032436207871351 0 0.0035915697631522941 -0.010060838658903764 0 0.0036283118866076614 -0.010032436207871351 0 0.0035749558916846136 -0.0099998583938075824 0 0.0035915697631522941 -0.010060838658903764 0 0.0035350954757930766 -0.01004918732690223 0 0.0035749558916846136 -0.0099998583938075824 0 0.0035915697631522941 -0.010060838658903764 0 0.0035350954757930766 -0.01004918732690223 0 0.0035915697631522941 -0.010060838658903764 0 0.0035890712685439862 -0.010113750952373334 0 0.003612984437086048 -0.022142012074315605 0 0.0041423293545757829 -0.020447644433446158 0 0.0036302141882970907 -0.010109904932946816 0 0.0035915697631522941 -0.010060838658903764 0 0.0035890712685439862 -0.010113750952373334 0 0.0041423293545757829 -0.020447644433446158 0 0.0045149762689349138 -0.018810149071131512 0 0.0035350954757930766 -0.01004918732690223 0 0.0035890712685439862 -0.010113750952373334 0 0.0034965388932594564 -0.01014670856025718 0 0.0035350954757930766 -0.01004918732690223 0 0.0034485602747854577 -0.01000868211329663 0 0.0034965388932594564 -0.01014670856025718 0 0.0039124381173233158 -0.010073031745341935 0 0.0034965388932594564 -0.01014670856025718 0 0.0036676611318511307 -0.01036808403531894 0 0.0034965388932594564 -0.01014670856025718 0 0.0036676611318511307 -0.01036808403531894 0 0.0034828984030110702 -0.01044982201327882 0 0.0036676611318511307 -0.01036808403531894 0 0.0034828984030110702 -0.01044982201327882 0 0.0037710243381168739 -0.010540595225858323 0 0.0040748151755008915 -0.010516426839305201 0 0.0039116122262115045 -0.010354684216077716 0 0.0037710243381168739 -0.010540595225858323 0 0.0039124381173233158 -0.010073031745341935 0 0.0036676611318511307 -0.01036808403531894 0 0.0039116122262115045 -0.010354684216077716 0 0.0041202043616128097 -0.010275911496684604 0 0.0039124381173233158 -0.010073031745341935 0 0.0039116122262115045 -0.010354684216077716 0 0.0036676611318511307 -0.01036808403531894 0 0.0039116122262115045 -0.010354684216077716 0 0.0037710243381168739 -0.010540595225858323 0 0.0040748151755008915 -0.010516426839305201 0 0.0037710243381168739 -0.010540595225858323 0 0.0039604611937435561 -0.010780432388544797 0 0.0037710243381168739 -0.010540595225858323 0 0.0039604611937435561 -0.010780432388544797 0 0.0036561529752267299 -0.01083225095568608 0 0.0033224921337043252 -0.01071854183823513 0 0.0034828984030110702 -0.01044982201327882 0 0.0036561529752267299 -0.01083225095568608 0 0.0034828984030110702 -0.01044982201327882 0 0.0037710243381168739 -0.010540595225858323 0 0.0036561529752267299 -0.01083225095568608 0 0.0033224921337043252 -0.01071854183823513 0 0.0036561529752267299 -0.01083225095568608 0 0.0034793785220327321 -0.011060749354894064 0 0.0036561529752267299 -0.01083225095568608 0 0.0037263234503287761 -0.01120701537848099 0 0.0034793785220327321 -0.011060749354894064 0 0.0036561529752267299 -0.01083225095568608 0 0.0039285109317420911 -0.011053037429842769 0 0.0037263234503287761 -0.01120701537848099 0 0.0039604611937435561 -0.010780432388544797 0 0.0036561529752267299 -0.01083225095568608 0 0.0039285109317420911 -0.011053037429842769 0 0.0039604611937435561 -0.010780432388544797 0 0.0039285109317420911 -0.011053037429842769 0 0.0041556974083004185 -0.010991522150198043 0 0.0039620360299728102 -0.011264682222328997 0 0.0037575604603492579 -0.011417017826930996 0 0.0041486224171586126 -0.01142493964025589 0 0.0039285109317420911 -0.011053037429842769 0 0.0039620360299728102 -0.011264682222328997 0 0.0037263234503287761 -0.01120701537848099 0 0.0039620360299728102 -0.011264682222328997 0 0.0037263234503287761 -0.01120701537848099 0 0.0037575604603492579 -0.011417017826930996 0 0.0037263234503287761 -0.01120701537848099 0 0.0035468954877076113 -0.011271829589777752 0 0.0034793785220327321 -0.011060749354894064 0 0.0037263234503287761 -0.01120701537848099 0 0.0035468954877076113 -0.011271829589777752 0 0.0037575604603492579 -0.011417017826930996 0 0.0037148076318743147 -0.011681685437622377 0 0.0039849709603284348 -0.011514906678818208 0 0.0039498747834159778 -0.01199171191472315 0 0.0040032694348342539 -0.014969835400764383 0 0.0038000744329095 -0.014360605397392982 0 0.0035468954877076113 -0.011271829589777752 0 0.0037575604603492579 -0.011417017826930996 0 0.0033709006483511081 -0.011445125427053211 0 0.0037148076318743147 -0.011681685437622377 0 0.0039849709603284348 -0.011514906678818208 0 0.0034851889178693913 -0.011499823385747399 0 0.0039849709603284348 -0.011514906678818208 0 0.0034851889178693913 -0.011499823385747399 0 0.0033709006483511081 -0.011445125427053211 0 0.0037148076318743147 -0.011681685437622377 0 0.0039498747834159778 -0.01199171191472315 0 0.00334868179035391 -0.011674258082480838 0 0.0032037683828901723 -0.016442042930937106 0 0.0027307436822994829 -0.014033158972567581 0 0.0040032694348342539 -0.014969835400764383 0 0.0042643824574293962 -0.017063125013588035 0 0.0039849709603284348 -0.011514906678818208 0 0.0044123606261897734 -0.011732594284960049 0 0.0045768338797816657 -0.011533879333718125 0 0.0039849709603284348 -0.011514906678818208 0 0.0044123606261897734 -0.011732594284960049 0 0.0043253284152799292 -0.011930678002479574 0 0.0039849709603284348 -0.011514906678818208 0 0.0043253284152799292 -0.011930678002479574 0 0.0039498747834159778 -0.01199171191472315 0 0.0032037683828901723 -0.016442042930937106 0 0.004355174304186471 -0.020173731983215825 0 0.0032271927942896508 -0.016930913701060334 0 0.0035577382475266697 -0.017090151961000905 0 0.0032721114889941753 -0.01714884424025976 0 0.0043253284152799292 -0.011930678002479574 0 0.0039498747834159778 -0.01199171191472315 0 0.004509031437898727 -0.012277611171418809 0 0.0032271927942896508 -0.016930913701060334 0 0.0028952613945367909 -0.016771657974969059 0 0.0030085461151215928 -0.017018382186443838 0 0.0032271927942896508 -0.016930913701060334 0 0.0031336076764108024 -0.017106869474155868 0 0.0032721114889941753 -0.01714884424025976 0 0.0032271927942896508 -0.016930913701060334 0 0.0031336076764108024 -0.017106869474155868 0 0.0030085461151215928 -0.017018382186443838 0 0.0031336076764108024 -0.017106869474155868 0 0.0030085461151215928 -0.017018382186443838 0 0.0030120147406255157 -0.017153431407547576 0 0.0055633827073605698 -0.025816299919746398 0 0.0064567500130416457 -0.026261111896229237 0 0.0058847060522635632 -0.02653620895938856 0 0.0055633827073605698 -0.025816299919746398 0 0.0058847060522635632 -0.02653620895938856 0 0.0053476558324090148 -0.026599369953038521 0 0.0055633827073605698 -0.025816299919746398 0 0.0064567500130416457 -0.026261111896229237 0 0.006473121640545974 -0.025331492379276951 0 0.0064567500130416457 -0.026261111896229237 0 0.006473121640545974 -0.025331492379276951 0 0.0070987608509255678 -0.025789149551777212 0 0.0064567500130416457 -0.026261111896229237 0 0.0063197840078496456 -0.026950663292943617 0 0.0073954194098737828 -0.02713923815997947 0 0.0064567500130416457 -0.026261111896229237 0 0.0063197840078496456 -0.026950663292943617 0 0.0058847060522635632 -0.02653620895938856 0 0.0063197840078496456 -0.026950663292943617 0 0.0058847060522635632 -0.02653620895938856 0 0.0057584768782415604 -0.027137441874772482 0 0.0058847060522635632 -0.02653620895938856 0 0.0053999534515395834 -0.02685814589807935 0 0.0053476558324090148 -0.026599369953038521 0 0.0057584768782415604 -0.027137441874772482 0 0.0053999534515395834 -0.02685814589807935 0 0.0052949136196846882 -0.027202737285183333 0 0.0058847060522635632 -0.02653620895938856 0 0.0057584768782415604 -0.027137441874772482 0 0.0053999534515395834 -0.02685814589807935 0 0.004889864479881067 -0.020458181250985145 0 0.0048350378845939757 -0.021116978244792965 0 0.0055633827073605698 -0.025816299919746398 0 0.0053476558324090148 -0.026599369953038521 0 0.00454032719024779 -0.027186515221486577 0 0.0053999534515395834 -0.02685814589807935 0 0.0053476558324090148 -0.026599369953038521 0 0.00454032719024779 -0.027186515221486577 0 0.0053999534515395834 -0.02685814589807935 0 0.00454032719024779 -0.027186515221486577 0 0.0052949136196846882 -0.027202737285183333 0 0.004355174304186471 -0.020173731983215825 0 0.0049207165843685539 -0.019017614054313046 0 0.004509031437898727 -0.012277611171418809 0 0.0045121880490046591 -0.012042348920489018 0 0.0046907593163079582 -0.012037191535867084 0 0.004496689474010834 -0.012312849842291819 0 0.0046907593163079582 -0.012037191535867084 0 0.0045616378646271081 -0.012341848548520261 0 0.004355174304186471 -0.020173731983215825 0 0.0048350378845939757 -0.021116978244792965 0 0.0043253284152799292 -0.011930678002479574 0 0.004509031437898727 -0.012277611171418809 0 0.0045121880490046591 -0.012042348920489018 0 0.0045226233571318084 -0.011923397083196447 0 0.0046907593163079582 -0.012037191535867084 0 0.00464474308813993 -0.011809289536575734 0 0.0045121880490046591 -0.012042348920489018 0 0.0045226233571318084 -0.011923397083196447 0 0.0046907593163079582 -0.012037191535867084 0 0.0043253284152799292 -0.011930678002479574 0 0.0045121880490046591 -0.012042348920489018 0 0.0045226233571318084 -0.011923397083196447 0 0.0048652647918988852 -0.011905139101179293 0 0.0046907593163079582 -0.012037191535867084 0 0.0045616378646271081 -0.012341848548520261 0 0.0048652647918988852 -0.011905139101179293 0 0.0046907593163079582 -0.012037191535867084 0 0.00464474308813993 -0.011809289536575734 0 0.0048652647918988852 -0.011905139101179293 0 0.00464474308813993 -0.011809289536575734 0 0.0047563709709571083 -0.011734315824072996 0 0.00464474308813993 -0.011809289536575734 0 0.0047563709709571083 -0.011734315824072996 0 0.0045768338797816657 -0.011533879333718125 0 0.0048652647918988852 -0.011905139101179293 0 0.0047563709709571083 -0.011734315824072996 0 0.0048641764569456328 -0.011652810980206414 0 0.0044123606261897734 -0.011732594284960049 0 0.00464474308813993 -0.011809289536575734 0 0.0045768338797816657 -0.011533879333718125 0 0.0044123606261897734 -0.011732594284960049 0 0.0045226233571318084 -0.011923397083196447 0 0.00464474308813993 -0.011809289536575734 0 0.0044123606261897734 -0.011732594284960049 0 0.0043253284152799292 -0.011930678002479574 0 0.0045226233571318084 -0.011923397083196447 0 0.0047563709709571083 -0.011734315824072996 0 0.0045768338797816657 -0.011533879333718125 0 0.0048641764569456328 -0.011652810980206414 0 0.0042643824574293962 -0.017063125013588035 0 0.0038957003540615628 -0.021547408892929977 0 0.0045768338797816657 -0.011533879333718125 0 0.0048641764569456328 -0.011652810980206414 0 0.0051458581952698867 -0.011532061765091828 0 0.0048652647918988852 -0.011905139101179293 0 0.0048641764569456328 -0.011652810980206414 0 0.0051458581952698867 -0.011532061765091828 0 0.004889864479881067 -0.020458181250985145 0 0.0038957003540615628 -0.021547408892929977 0 0.006473121640545974 -0.025331492379276951 0 0.0067966410991547694 -0.024437228170474858 0 0.0070987608509255678 -0.025789149551777212 0 0.0055633827073605698 -0.025816299919746398 0 0.006473121640545974 -0.025331492379276951 0 0.0065753384660206726 -0.024447152496395123 0 0.006473121640545974 -0.025331492379276951 0 0.0065753384660206726 -0.024447152496395123 0 0.0067966410991547694 -0.024437228170474858 0 0.0038957003540615628 -0.021547408892929977 0 0.0036210213298953908 -0.022284891040334917 0 0.0016726368889601955 -0.02233897768263279 0 0.002895199289690641 -0.022285087670658531 0 0.0026196414146685615 -0.021090802991295923 0 0.0036242030338385516 -0.022053054730552107 0 0.0035769986995778224 -0.020822065741805645 0 0.0045543939122258828 -0.011433200144015528 0 0.0045891055114766245 -0.011389099271734619 0 0.0042575089928249188 -0.011218390516486208 0 0.0036242030338385516 -0.022053054730552107 0 0.0025762833865074376 -0.017998366499795092 0 0.0046433173921628006 -0.011440080089266693 0 0.0042688375648911982 -0.011252064899948242 0 0.0045250205848472004 -0.010928410630168986 0 0.0036210213298953908 -0.022284891040334917 0 0.0036242030338385516 -0.022053054730552107 0 0.0038957003540615628 -0.021547408892929977 0 0.0036242030338385516 -0.022053054730552107 0 0.0023785174012643734 -0.016831775083456308 0 0.0025762833865074376 -0.017998366499795092 0 0.0039620360299728102 -0.011264682222328997 0 0.0041486224171586126 -0.01142493964025589 0 0.0042575089928249188 -0.011218390516486208 0 0.0039285109317420911 -0.011053037429842769 0 0.0039620360299728102 -0.011264682222328997 0 0.0042575089928249188 -0.011218390516486208 0 0.0041486224171586126 -0.01142493964025589 0 0.0045543939122258828 -0.011433200144015528 0 0.0042575089928249188 -0.011218390516486208 0 0.0039285109317420911 -0.011053037429842769 0 0.0042688375648911982 -0.011252064899948242 0 0.0041556974083004185 -0.010991522150198043 0 0.0041926726816191723 -0.010747547866072515 0 0.0041556974083004185 -0.010991522150198043 0 0.0045250205848472004 -0.010928410630168986 0 0.0042688375648911982 -0.011252064899948242 0 0.0041556974083004185 -0.010991522150198043 0 0.0045250205848472004 -0.010928410630168986 0 0.0041926726816191723 -0.010747547866072515 0 0.0039604611937435561 -0.010780432388544797 0 0.0041556974083004185 -0.010991522150198043 0 0.0042435861902108372 -0.026331304449355847 0 0.0047854654976122362 -0.028824544250113694 0 0.002683774613288684 -0.028439708620473611 0 0.00072072221874108409 -0.032175968508374092 0 0.00067936728065358181 -0.032078102279036555 0 0.00051182888619004244 -0.031680810874533082 0 0.00023380690929927683 -0.031806914897988418 0 0.00034393172896112525 -0.031920179145467825 0 0.00023380690929927683 -0.031806914897988418 0 0.00034393172896112525 -0.031920179145467825 0 0.00021247814701665205 -0.032010815872668949 0 0.00034393172896112525 -0.031920179145467825 0 0.00046269599212718141 -0.032067369675640896 0 0.00053848201106204176 -0.031967157970037186 0 0.00034393172896112525 -0.031920179145467825 0 0.00046269599212718141 -0.032067369675640896 0 0.0003579186906945264 -0.032082241426324709 0 0.00046269599212718141 -0.032067369675640896 0 0.0003579186906945264 -0.032082241426324709 0 0.00048781505190213299 -0.032186928511361762 0 0.0003579186906945264 -0.032082241426324709 0 0.00021247814701665205 -0.032010815872668949 0 0.00021359931835697633 -0.032100205883933294 0 0.00034393172896112525 -0.031920179145467825 0 0.0003579186906945264 -0.032082241426324709 0 0.00021247814701665205 -0.032010815872668949 0 3.5854312756358314e-05 -0.032064683099049897 0 0.00023380690929927683 -0.031806914897988418 0 0.00021247814701665205 -0.032010815872668949 0 0.0036242030338385516 -0.022053054730552107 0 0.0012182693618809106 -0.028310311500144087 0 0.00021247814701665205 -0.032010815872668949 0 9.7817423548468042e-05 -0.032096013739700044 0 0.00021359931835697633 -0.032100205883933294 0 3.5854312756358314e-05 -0.032064683099049897 0 0.00021247814701665205 -0.032010815872668949 0 9.7817423548468042e-05 -0.032096013739700044 0 0.0036242030338385516 -0.022053054730552107 0 0.0032530214879253963 -0.022938759580558705 0 0.00092601761182656641 -0.031840947487085873 0 0.00077884816364341724 -0.031698593176817232 0 0.0010024273680456148 -0.03162133074377161 0 0.00092601761182656641 -0.031840947487085873 0 0.00077884816364341724 -0.031698593176817232 0 0.00072839183739097861 -0.03192828762616283 0 0.0005643804423108653 -0.031609033541325361 0 0.00034393172896112525 -0.031920179145467825 0 0.00058862208906363127 -0.031824915312218822 0 0.00077884816364341724 -0.031698593176817232 0 0.00058862208906363127 -0.031824915312218822 0 0.00072839183739097861 -0.03192828762616283 0 0.0005643804423108653 -0.031609033541325361 0 0.00077884816364341724 -0.031698593176817232 0 0.00058862208906363127 -0.031824915312218822 0 0.00034393172896112525 -0.031920179145467825 0 0.00058862208906363127 -0.031824915312218822 0 0.00053848201106204176 -0.031967157970037186 0 0.00046269599212718141 -0.032067369675640896 0 0.00061396719524430151 -0.032096314156737464 0 0.00048781505190213299 -0.032186928511361762 0 0.00046269599212718141 -0.032067369675640896 0 0.00053848201106204176 -0.031967157970037186 0 0.00061396719524430151 -0.032096314156737464 0 0.00061396719524430151 -0.032096314156737464 0 0.00079272087172156289 -0.032060960595973916 0 0.00075009133779930181 -0.032183376360498804 0 0.00061396719524430151 -0.032096314156737464 0 0.00072839183739097861 -0.03192828762616283 0 0.00079272087172156289 -0.032060960595973916 0 0.00053848201106204176 -0.031967157970037186 0 0.00061396719524430151 -0.032096314156737464 0 0.00072839183739097861 -0.03192828762616283 0 0.00058862208906363127 -0.031824915312218822 0 0.00053848201106204176 -0.031967157970037186 0 0.00072839183739097861 -0.03192828762616283 0 0.00072839183739097861 -0.03192828762616283 0 0.00079272087172156289 -0.032060960595973916 0 0.00092236906789993408 -0.032004476187539752 0 0.00079272087172156289 -0.032060960595973916 0 0.00092236906789993408 -0.032004476187539752 0 0.00093172643164982744 -0.032181624315841595 0 0.00092236906789993408 -0.032004476187539752 0 0.00093172643164982744 -0.032181624315841595 0 0.001089844602132345 -0.03209537549909524 0 0.00092601761182656641 -0.031840947487085873 0 0.00092236906789993408 -0.032004476187539752 0 0.0010084323942129555 -0.031954397828711428 0 0.00092601761182656641 -0.031840947487085873 0 0.00072839183739097861 -0.03192828762616283 0 0.00092236906789993408 -0.032004476187539752 0 0.00093172643164982744 -0.032181624315841595 0 0.00082828370529543227 -0.032350180836990379 0 0.0010081370858699397 -0.0323788082408758 0 0.00079272087172156289 -0.032060960595973916 0 0.00093172643164982744 -0.032181624315841595 0 0.00075009133779930181 -0.032183376360498804 0 0.00075009133779930181 -0.032183376360498804 0 0.00082828370529543227 -0.032350180836990379 0 0.00062255639917734994 -0.032264108866924587 0 0.00093172643164982744 -0.032181624315841595 0 0.00075009133779930181 -0.032183376360498804 0 0.00082828370529543227 -0.032350180836990379 0 0.0017656911779602052 -0.030100963763436933 0 0.0018748585120115218 -0.028130394336520998 0 0.00062255639917734994 -0.032264108866924587 0 0.00068013418582385347 -0.032473790970763507 0 0.00036752416976393591 -0.032306661286572204 0 0.00082828370529543227 -0.032350180836990379 0 0.00062255639917734994 -0.032264108866924587 0 0.00068013418582385347 -0.032473790970763507 0 0.00061396719524430151 -0.032096314156737464 0 0.00075009133779930181 -0.032183376360498804 0 0.00062255639917734994 -0.032264108866924587 0 0.00062255639917734994 -0.032264108866924587 0 0.00048781505190213299 -0.032186928511361762 0 0.00036752416976393591 -0.032306661286572204 0 0.00061396719524430151 -0.032096314156737464 0 0.00062255639917734994 -0.032264108866924587 0 0.00048781505190213299 -0.032186928511361762 0 0.00090144770397070377 -0.032794635748737325 0 0.0010055150505115437 -0.032773505351839136 0 0.00084328499662306025 -0.032694892185505621 0 0.00090144770397070377 -0.032794635748737325 0 0.00095962261361854533 -0.032877322916448341 0 0.00083342727848427945 -0.032876445989027198 0 0.00090144770397070377 -0.032794635748737325 0 0.00095962261361854533 -0.032877322916448341 0 0.0010055150505115437 -0.032773505351839136 0 0.00082828370529543227 -0.032350180836990379 0 0.0010081370858699397 -0.0323788082408758 0 0.00099175743918829035 -0.032656230045590588 0 0.00095962261361854533 -0.032877322916448341 0 0.0010055150505115437 -0.032773505351839136 0 0.001164530938494281 -0.032834306749763328 0 0.0017656911779602052 -0.030100963763436933 0 0.0017257394219674061 -0.031069412454316516 0 0.00082828370529543227 -0.032350180836990379 0 0.00068013418582385347 -0.032473790970763507 0 0.00099175743918829035 -0.032656230045590588 0 0.0032530214879253963 -0.022938759580558705 0 0.0018748585120115218 -0.028130394336520998 0 0.0034613221890127995 -0.026132251543876942 0 0.0038011435358554775 -0.026291387929233575 0 0.0034467002614789041 -0.026365449223207063 0 9.3821778252333612e-05 -0.032095181111662117 0 0.00021359931835697633 -0.032100205883933294 0 0.00039454410708356796 -0.032262532185463252 0 0.0036210213298953908 -0.022284891040334917 0 0.0034304044326441533 -0.025826124102629057 0 0.0033964271156700517 -0.026134209664529853 0 0.0034613221890127995 -0.026132251543876942 0 0.0034467002614789041 -0.026365449223207063 0 0.0036210213298953908 -0.022284891040334917 0 0.0032530214879253963 -0.022938759580558705 0 0.0037355579994971882 -0.02296969018675208 0 0.0037591748246689045 -0.023071724737750557 0 0.0035525828056861496 -0.022978168523054614 0 0.0032530214879253963 -0.022938759580558705 0 0.0028594552525271454 -0.023235788760082865 0 0.0003579186906945264 -0.032082241426324709 0 0.00021359931835697633 -0.032100205883933294 0 0.00039454410708356796 -0.032262532185463252 0 0.0003579186906945264 -0.032082241426324709 0 0.00048781505190213299 -0.032186928511361762 0 0.00039454410708356796 -0.032262532185463252 0 0.0015537832015381046 -0.028543974499790223 0 0.0018748585120115218 -0.028130394336520998 0 0.00090144770397070377 -0.032794635748737325 0 0.00084328499662306025 -0.032694892185505621 0 0.00083342727848427945 -0.032876445989027198 0 0.0018748585120115218 -0.028130394336520998 0 0.0028003155448069919 -0.028912329883873395 0 0.00084328499662306025 -0.032694892185505621 0 0.00083342727848427945 -0.032876445989027198 0 0.00065846870937507176 -0.03288031010578249 0 0.0038011435358554775 -0.026291387929233575 0 0.0034467002614789041 -0.026365449223207063 0 0.003496965104679946 -0.026595442246439553 0 0.0034304044326441533 -0.025826124102629057 0 0.0028003155448069919 -0.028912329883873395 0 0.0064567500130416457 -0.026261111896229237 0 0.0070987608509255678 -0.025789149551777212 0 0.0073954194098737828 -0.02713923815997947 0 0.00065846870937507176 -0.03288031010578249 0 0.00077041884890302072 -0.032972625094220415 0 0.0007159556804045451 -0.033095219447159062 0 0.00069954443222423207 -0.032994365664979444 0 0.0006709823501667324 -0.033088777962907788 0 0.0007159556804045451 -0.033095219447159062 0 0.0028003155448069919 -0.028912329883873395 0 0.0027239203630116662 -0.030640545089549207 0 0.00083342727848427945 -0.032876445989027198 0 0.00065846870937507176 -0.03288031010578249 0 0.00077041884890302072 -0.032972625094220415 0 0.00086222611420048566 -0.033032475023057312 0 0.00077041884890302072 -0.032972625094220415 0 0.0007159556804045451 -0.033095219447159062 0 0.00095962261361854533 -0.032877322916448341 0 0.00083342727848427945 -0.032876445989027198 0 0.00086222611420048566 -0.033032475023057312 0 0.00083342727848427945 -0.032876445989027198 0 0.00086222611420048566 -0.033032475023057312 0 0.00077041884890302072 -0.032972625094220415 0 0.00086222611420048566 -0.033032475023057312 0 0.00087539279073054052 -0.033179211483349826 0 0.00075103655296443006 -0.033184680011593776 0 0.00086222611420048566 -0.033032475023057312 0 0.0007159556804045451 -0.033095219447159062 0 0.00075103655296443006 -0.033184680011593776 0 0.0007159556804045451 -0.033095219447159062 0 0.00075103655296443006 -0.033184680011593776 0 0.00066295731952252372 -0.033165725023871287 0 0.0006709823501667324 -0.033088777962907788 0 0.0007159556804045451 -0.033095219447159062 0 0.00066295731952252372 -0.033165725023871287 0 0.00095962261361854533 -0.032877322916448341 0 0.0010098756054703205 -0.032976348615927457 0 0.001164530938494281 -0.032834306749763328 0 0.0010098756054703205 -0.032976348615927457 0 0.0011039700129974218 -0.03302636970639615 0 0.001164530938494281 -0.032834306749763328 0 0.0011039700129974218 -0.03302636970639615 0 0.001164530938494281 -0.032834306749763328 0 0.0012071756101070951 -0.032988162722896661 0 0.00095962261361854533 -0.032877322916448341 0 0.00086222611420048566 -0.033032475023057312 0 0.0010098756054703205 -0.032976348615927457 0 0.00086222611420048566 -0.033032475023057312 0 0.0010098756054703205 -0.032976348615927457 0 0.00098031687405176126 -0.033103707561289393 0 0.00086222611420048566 -0.033032475023057312 0 0.00098031687405176126 -0.033103707561289393 0 0.00087539279073054052 -0.033179211483349826 0 0.0010098756054703205 -0.032976348615927457 0 0.00098031687405176126 -0.033103707561289393 0 0.0011039700129974218 -0.03302636970639615 0 0.00098031687405176126 -0.033103707561289393 0 0.0010971141615289742 -0.033150205141436233 0 0.0011039700129974218 -0.03302636970639615 0 0.0010971141615289742 -0.033150205141436233 0 0.0011039700129974218 -0.03302636970639615 0 0.0011829773580792631 -0.033091578961085326 0 0.0010940699093076923 -0.033255425392114076 0 0.00098373123285937138 -0.033277992038628232 0 0.0011409490858676821 -0.033349747427591288 0 0.00098031687405176126 -0.033103707561289393 0 0.0010971141615289742 -0.033150205141436233 0 0.00098373123285937138 -0.033277992038628232 0 0.0010940699093076923 -0.033255425392114076 0 0.0011409490858676821 -0.033349747427591288 0 0.0012155409850523533 -0.033216528686112877 0 0.0010971141615289742 -0.033150205141436233 0 0.0010940699093076923 -0.033255425392114076 0 0.0012155409850523533 -0.033216528686112877 0 0.0010971141615289742 -0.033150205141436233 0 0.0010940699093076923 -0.033255425392114076 0 0.00098373123285937138 -0.033277992038628232 0 0.00087539279073054052 -0.033179211483349826 0 0.00098373123285937138 -0.033277992038628232 0 0.00081226692846444386 -0.033280249165406464 0 0.00098031687405176126 -0.033103707561289393 0 0.00087539279073054052 -0.033179211483349826 0 0.00098373123285937138 -0.033277992038628232 0 0.00089478861012514245 -0.033345856004405684 0 0.0010462157023711986 -0.033415975382650676 0 0.00093187898979794047 -0.033448791477083593 0 0.00098373123285937138 -0.033277992038628232 0 0.00089478861012514245 -0.033345856004405684 0 0.00081226692846444386 -0.033280249165406464 0 0.00098373123285937138 -0.033277992038628232 0 0.00089478861012514245 -0.033345856004405684 0 0.0010462157023711986 -0.033415975382650676 0 0.00089478861012514245 -0.033345856004405684 0 0.00078552812389547869 -0.033370187909083963 0 0.00093187898979794047 -0.033448791477083593 0 0.00098373123285937138 -0.033277992038628232 0 0.0010462157023711986 -0.033415975382650676 0 0.0011409490858676821 -0.033349747427591288 0 0.0010462157023711986 -0.033415975382650676 0 0.0011409490858676821 -0.033349747427591288 0 0.00124388115097729 -0.033436867075199196 0 0.00067478694099416261 -0.033245807998019912 0 0.00075103655296443006 -0.033184680011593776 0 0.00066295731952252372 -0.033165725023871287 0 0.00071890948185428368 -0.033268204924554998 0 0.00067478694099416261 -0.033245807998019912 0 0.00066613469253657049 -0.03330909139890028 0 0.00071890948185428368 -0.033268204924554998 0 0.00067478694099416261 -0.033245807998019912 0 0.00075103655296443006 -0.033184680011593776 0 0.00087539279073054052 -0.033179211483349826 0 0.00075103655296443006 -0.033184680011593776 0 0.00081226692846444386 -0.033280249165406464 0 0.00071890948185428368 -0.033268204924554998 0 0.00075103655296443006 -0.033184680011593776 0 0.00081226692846444386 -0.033280249165406464 0 0.00071890948185428368 -0.033268204924554998 0 0.00081226692846444386 -0.033280249165406464 0 0.00071415644428405743 -0.033348704527401726 0 0.00081226692846444386 -0.033280249165406464 0 0.00078552812389547869 -0.033370187909083963 0 0.00071415644428405743 -0.033348704527401726 0 0.00089478861012514245 -0.033345856004405684 0 0.00081226692846444386 -0.033280249165406464 0 0.00078552812389547869 -0.033370187909083963 0 0.00078552812389547869 -0.033370187909083963 0 0.00071415644428405743 -0.033348704527401726 0 0.0007267547918569121 -0.033393147923732922 0 0.00071890948185428368 -0.033268204924554998 0 0.00071415644428405743 -0.033348704527401726 0 0.00066613469253657049 -0.03330909139890028 0 0.00071415644428405743 -0.033348704527401726 0 0.00065669419814330492 -0.033371730066956679 0 0.0006874790968572766 -0.033399964276548101 0 0.00071415644428405743 -0.033348704527401726 0 0.00066613469253657049 -0.03330909139890028 0 0.00065669419814330492 -0.033371730066956679 0 0.00065669419814330492 -0.033371730066956679 0 0.00061714058303836505 -0.033344962936820245 0 0.00061763058813261963 -0.033400682382967402 0 0.00061714058303836505 -0.033344962936820245 0 0.0005957633783887366 -0.03339188284980351 0 0.00061763058813261963 -0.033400682382967402 0 0.00066613469253657049 -0.03330909139890028 0 0.00065669419814330492 -0.033371730066956679 0 0.00061714058303836505 -0.033344962936820245 0 0.00066613469253657049 -0.03330909139890028 0 0.00061714058303836505 -0.033344962936820245 0 0.00063090037955500992 -0.033261797236641889 0 0.00067478694099416261 -0.033245807998019912 0 0.00066613469253657049 -0.03330909139890028 0 0.00063090037955500992 -0.033261797236641889 0 0.00063090037955500992 -0.033261797236641889 0 0.00060419672992925624 -0.033219056928741636 0 0.00059377558633683743 -0.03329412238020054 0 0.00061714058303836505 -0.033344962936820245 0 0.00063090037955500992 -0.033261797236641889 0 0.00059377558633683743 -0.03329412238020054 0 0.00063090037955500992 -0.033261797236641889 0 0.00060419672992925624 -0.033219056928741636 0 0.00066295731952252372 -0.033165725023871287 0 0.00067478694099416261 -0.033245807998019912 0 0.00063090037955500992 -0.033261797236641889 0 0.00066295731952252372 -0.033165725023871287 0 0.00060419672992925624 -0.033219056928741636 0 0.00053389312657120829 -0.033252554900278203 0 0.00059377558633683743 -0.03329412238020054 0 0.00053389312657120829 -0.033252554900278203 0 0.00059377558633683743 -0.03329412238020054 0 0.00057157897295848829 -0.033340227535886641 0 0.00061714058303836505 -0.033344962936820245 0 0.00059377558633683743 -0.03329412238020054 0 0.00057157897295848829 -0.033340227535886641 0 0.00061714058303836505 -0.033344962936820245 0 0.00057157897295848829 -0.033340227535886641 0 0.0005957633783887366 -0.03339188284980351 0 0.00057157897295848829 -0.033340227535886641 0 0.00057892750562662349 -0.033407521472401322 0 0.0005957633783887366 -0.03339188284980351 0 0.00053389312657120829 -0.033252554900278203 0 0.00057157897295848829 -0.033340227535886641 0 0.00054300159133518025 -0.033383548018822734 0 0.00056611756271651194 -0.03367334931324259 0 0.00058965520662460113 -0.033609477901340598 0 0.00061422312039478898 -0.033631319777402746 0 0.00057157897295848829 -0.033340227535886641 0 0.00054300159133518025 -0.033383548018822734 0 0.00057892750562662349 -0.033407521472401322 0 0.00058965520662460113 -0.033609477901340598 0 0.00061422312039478898 -0.033631319777402746 0 0.00070874142700340001 -0.033563490208806737 0 0.0030002655575817839 -0.03142436045109244 0 0.0021266965260849191 -0.031738747078627304 0 0.0018472184700634949 -0.032534157681338549 0 0.001761421378879595 -0.032239822903708852 0 0.001337534457830682 -0.03277048946160744 0 0.0030002655575817839 -0.03142436045109244 0 0.0021266965260849191 -0.031738747078627304 0 0.0024856184892526659 -0.030932414017444843 0 0.0021266965260849191 -0.031738747078627304 0 0.0017927030645209776 -0.03093937068421234 0 0.0024856184892526659 -0.030932414017444843 0 0.0026139997417053279 -0.02437978557206116 0 0.0031720163136729992 -0.022846578391841722 0 0.0017927030645209776 -0.03093937068421234 0 0.0027489137588440366 -0.030243599279559517 0 0.0030743432028500161 -0.029058230514693136 0 0.0030262051187068791 -0.017807870114723959 0 0.0032885999378217323 -0.017445404644794563 0 0.0030391835420857049 -0.017534094443224849 0 0.0017927030645209776 -0.03093937068421234 0 0.0024856184892526659 -0.030932414017444843 0 0.0027489137588440366 -0.030243599279559517 0 0.0030002655575817839 -0.03142436045109244 0 0.0024856184892526659 -0.030932414017444843 0 0.0027489137588440366 -0.030243599279559517 0 0.0042450020396975546 -0.030188385395122402 0 0.0030002655575817839 -0.03142436045109244 0 0.0027489137588440366 -0.030243599279559517 0 0.0042450020396975546 -0.030188385395122402 0 0.0027489137588440366 -0.030243599279559517 0 0.0032690697952138842 -0.029709809789958883 0 0.0023297501195992539 -0.031432507146696917 0 0.0012471659748639705 -0.033044523358305093 0 0.0023297501195992539 -0.031432507146696917 0 0.001761421378879595 -0.032239822903708852 0 0.0042450020396975546 -0.030188385395122402 0 0.0036703175454428495 -0.029348484114165255 0 0.0043358729961467998 -0.029025253021600542 0 0.0042450020396975546 -0.030188385395122402 0 0.0036703175454428495 -0.029348484114165255 0 0.0032690697952138842 -0.029709809789958883 0 0.0036703175454428495 -0.029348484114165255 0 0.0032690697952138842 -0.029709809789958883 0 0.0030743432028500161 -0.029058230514693136 0 0.0027489137588440366 -0.030243599279559517 0 0.0032690697952138842 -0.029709809789958883 0 0.0030743432028500161 -0.029058230514693136 0 0.0036703175454428495 -0.029348484114165255 0 0.0030743432028500161 -0.029058230514693136 0 0.0035757255445396331 -0.028746413569006743 0 0.0036703175454428495 -0.029348484114165255 0 0.0035757255445396331 -0.028746413569006743 0 0.0043358729961467998 -0.029025253021600542 0 0.0035757255445396331 -0.028746413569006743 0 0.0042063789485944072 -0.028605393959581282 0 0.0043358729961467998 -0.029025253021600542 0 0.0032885999378217323 -0.017445404644794563 0 0.0030391835420857049 -0.017534094443224849 0 0.0031562068823496091 -0.017378616834503847 0 0.0032885999378217323 -0.017445404644794563 0 0.0031562068823496091 -0.017378616834503847 0 0.0032789487859468777 -0.017279166405847986 0 0.0030391835420857049 -0.017534094443224849 0 0.0031562068823496091 -0.017378616834503847 0 0.0030315862970852559 -0.017378323081209662 0 0.003129985964378211 -0.017269776309917117 0 0.0029505384501125227 -0.017275535271736642 0 0.0030120147406255157 -0.017153431407547576 0 0.0030315862970852559 -0.017378323081209662 0 0.003129985964378211 -0.017269776309917117 0 0.0029505384501125227 -0.017275535271736642 0 0.0031562068823496091 -0.017378616834503847 0 0.0030315862970852559 -0.017378323081209662 0 0.003129985964378211 -0.017269776309917117 0 0.0031562068823496091 -0.017378616834503847 0 0.003129985964378211 -0.017269776309917117 0 0.0032789487859468777 -0.017279166405847986 0 0.003129985964378211 -0.017269776309917117 0 0.0032789487859468777 -0.017279166405847986 0 0.0032721114889941753 -0.01714884424025976 0 0.003129985964378211 -0.017269776309917117 0 0.0031336076764108024 -0.017106869474155868 0 0.0032721114889941753 -0.01714884424025976 0 0.003129985964378211 -0.017269776309917117 0 0.0031336076764108024 -0.017106869474155868 0 0.0030120147406255157 -0.017153431407547576 0 0.0035577382475266697 -0.017090151961000905 0 0.0032789487859468777 -0.017279166405847986 0 0.0032721114889941753 -0.01714884424025976 0 0.004355174304186471 -0.020173731983215825 0 0.0031720163136729992 -0.022846578391841722 0 0.0035577382475266697 -0.017090151961000905 0 0.0032885999378217323 -0.017445404644794563 0 0.0032789487859468777 -0.017279166405847986 0 0.0035757255445396331 -0.028746413569006743 0 0.0046493628161706022 -0.027272299096752786 0 0.0043592272506598178 -0.028197228060167549 0 0.0045528505106707676 -0.027004453728258129 0 0.0030743432028500161 -0.029058230514693136 0 0.0035757255445396331 -0.028746413569006743 0 0.0033594370238124362 -0.024176284046634498 0 0.0048350378845939757 -0.021116978244792965 0 0.0035757255445396331 -0.028746413569006743 0 0.0042063789485944072 -0.028605393959581282 0 0.0043592272506598178 -0.028197228060167549 0 0.0046493628161706022 -0.027272299096752786 0 0.0047650262476893589 -0.02781821550709003 0 0.0043592272506598178 -0.028197228060167549 0 0.0045528505106707676 -0.027004453728258129 0 0.0035757255445396331 -0.028746413569006743 0 0.0047534585455151004 -0.027096409192000195 0 0.0046493628161706022 -0.027272299096752786 0 0.0047650262476893589 -0.02781821550709003 0 0.0049914925712581885 -0.027624892043046936 0 0.0045556285481830059 -0.028453314023342214 0 0.0052951854500365722 -0.027984597709117525 0 0.0043358729961467998 -0.029025253021600542 0 0.0047650262476893589 -0.02781821550709003 0 0.0043592272506598178 -0.028197228060167549 0 0.0047739337886556956 -0.028140913751025353 0 0.0043592272506598178 -0.028197228060167549 0 0.0047739337886556956 -0.028140913751025353 0 0.0045556285481830059 -0.028453314023342214 0 0.0042063789485944072 -0.028605393959581282 0 0.0043592272506598178 -0.028197228060167549 0 0.0045556285481830059 -0.028453314023342214 0 0.0047739337886556956 -0.028140913751025353 0 0.0045556285481830059 -0.028453314023342214 0 0.0052951854500365722 -0.027984597709117525 0 0.0047739337886556956 -0.028140913751025353 0 0.0049700309300246461 -0.027947926583186407 0 0.0052951854500365722 -0.027984597709117525 0 0.0047650262476893589 -0.02781821550709003 0 0.0047739337886556956 -0.028140913751025353 0 0.0049700309300246461 -0.027947926583186407 0 0.0049700309300246461 -0.027947926583186407 0 0.0052951854500365722 -0.027984597709117525 0 0.0050769167833620062 -0.027777466521818433 0 0.00454032719024779 -0.027186515221486577 0 0.0052949136196846882 -0.027202737285183333 0 0.0054793164259012888 -0.027628598342984055 0 0.0046493628161706022 -0.027272299096752786 0 0.0049914925712581885 -0.027624892043046936 0 0.0054793164259012888 -0.027628598342984055 0 0.0050769167833620062 -0.027777466521818433 0 0.0049914925712581885 -0.027624892043046936 0 0.0054793164259012888 -0.027628598342984055 0 0.0052951854500365722 -0.027984597709117525 0 0.0050769167833620062 -0.027777466521818433 0 0.0054793164259012888 -0.027628598342984055 0 0.0048350378845939757 -0.021116978244792965 0 0.0052061890251342141 -0.021592447849282222 0 0.0047650262476893589 -0.02781821550709003 0 0.0050769167833620062 -0.027777466521818433 0 0.0049914925712581885 -0.027624892043046936 0 0.0047650262476893589 -0.02781821550709003 0 0.0049700309300246461 -0.027947926583186407 0 0.0050769167833620062 -0.027777466521818433 0 0.0073954194098737828 -0.02713923815997947 0 0.0061572605718095419 -0.027669475729284257 0 0.0057482855124550199 -0.028790660167926183 0 0.0057584768782415604 -0.027137441874772482 0 0.0052949136196846882 -0.027202737285183333 0 0.0054793164259012888 -0.027628598342984055 0 0.0063197840078496456 -0.026950663292943617 0 0.0057584768782415604 -0.027137441874772482 0 0.0061572605718095419 -0.027669475729284257 0 0.00069954443222423207 -0.032994365664979444 0 0.0006709823501667324 -0.033088777962907788 0 0.00060305253994789767 -0.033110365072893638 0 0.0057584768782415604 -0.027137441874772482 0 0.0061572605718095419 -0.027669475729284257 0 0.0054793164259012888 -0.027628598342984055 0 0.0028003155448069919 -0.028912329883873395 0 0.002672143506389803 -0.030379323536576523 0 0.0052951854500365722 -0.027984597709117525 0 0.0054793164259012888 -0.027628598342984055 0 0.0056686313600340151 -0.028016224076390161 0 0.0061572605718095419 -0.027669475729284257 0 0.0054793164259012888 -0.027628598342984055 0 0.0056686313600340151 -0.028016224076390161 0 0.0063197840078496456 -0.026950663292943617 0 0.0073954194098737828 -0.02713923815997947 0 0.0061572605718095419 -0.027669475729284257 0 0.0061572605718095419 -0.027669475729284257 0 0.0056686313600340151 -0.028016224076390161 0 0.0057482855124550199 -0.028790660167926183 0 0.0052951854500365722 -0.027984597709117525 0 0.0056686313600340151 -0.028016224076390161 0 0.0057482855124550199 -0.028790660167926183 0 0.0006709823501667324 -0.033088777962907788 0 0.00060305253994789767 -0.033110365072893638 0 0.00066295731952252372 -0.033165725023871287 0 0.00060419672992925624 -0.033219056928741636 0 0.00060305253994789767 -0.033110365072893638 0 0.00066295731952252372 -0.033165725023871287 0 0.0040429836504316755 -0.030471547729153732 0 0.0052951854500365722 -0.027984597709117525 0 0.0057482855124550199 -0.028790660167926183 0 0.0023297501195992539 -0.031432507146696917 0 0.002672143506389803 -0.030379323536576523 0 0.00060419672992925624 -0.033219056928741636 0 0.00053389312657120829 -0.033252554900278203 0 0.00060305253994789767 -0.033110365072893638 0 0.0023297501195992539 -0.031432507146696917 0 0.0037723546405316185 -0.02925816040869738 0 0.0042450020396975546 -0.030188385395122402 0 0.0052951854500365722 -0.027984597709117525 0 0.0043358729961467998 -0.029025253021600542 0 0.0042063789485944072 -0.028605393959581282 0 0.0045556285481830059 -0.028453314023342214 0 0.0043358729961467998 -0.029025253021600542 0 2.7535414023846339e-09 -0.034999997258427701 0 1.2358478903471371e-06 -0.034998968818116656 0 7.1555506489988281e-10 -0.034999998399051324 0 1.0737225015232133e-06 -0.03499913755461196 0 1.2358478903471371e-06 -0.034998968818116656 0 7.1555506489988281e-10 -0.034999998399051324 0 1.0737225015232133e-06 -0.03499913755461196 0 2.6758304747682856e-06 -0.034998450986048549 0 3.9712594640316146e-06 -0.034998110638079755 0 1.0737225015232133e-06 -0.03499913755461196 0 2.6758304747682856e-06 -0.034998450986048549 0 1.2358478903471371e-06 -0.034998968818116656 0 2.2304657657836489e-06 -0.034997290973222614 0 1.2358478903471371e-06 -0.034998968818116656 0 1.0338467101820786e-06 -0.034995932476251594 0 2.6758304747682856e-06 -0.034998450986048549 0 2.2304657657836489e-06 -0.034997290973222614 0 1.2358478903471371e-06 -0.034998968818116656 0 2.7535414023846339e-09 -0.034999997258427701 0 1.2358478903471371e-06 -0.034998968818116656 0 1.0338467101820786e-06 -0.034995932476251594 0 2.7535414023846339e-09 -0.034999997258427701 0 1.3701120402705966e-06 -0.034994507430079647 0 1.7383693162575083e-09 -0.034999985625952378 0 2.7535414023846339e-09 -0.034999997258427701 0 1.3701120402705966e-06 -0.034994507430079647 0 1.0338467101820786e-06 -0.034995932476251594 0 1.3665152569733339e-06 -0.034991182184323601 0 1.3701120402705966e-06 -0.034994507430079647 0 1.7383693162575083e-09 -0.034999985625952378 0 1.3665152569733339e-06 -0.034991182184323601 0 1.3701120402705966e-06 -0.034994507430079647 0 1.7921326398552605e-06 -0.034987231080373743 0 1.7921326398552605e-06 -0.034987231080373743 0 1.0338467101820786e-06 -0.034995932476251594 0 2.4238952126817872e-06 -0.034981655494189558 0 2.2304657657836489e-06 -0.034997290973222614 0 1.0338467101820786e-06 -0.034995932476251594 0 5.1723299964132805e-06 -0.034998944055689735 0 1.3701120402705966e-06 -0.034994507430079647 0 1.7921326398552605e-06 -0.034987231080373743 0 1.0338467101820786e-06 -0.034995932476251594 0 1.0177026673682403e-05 -0.034973531338444226 0 1.273532504378138e-05 -0.034968535614923989 0 2.2304657657836489e-06 -0.034997290973222614 0 5.1723299964132805e-06 -0.034998944055689735 0 1.0115634384863111e-05 -0.034995915811356582 0 2.1181570910838052e-06 -0.034979713761923069 0 1.7921326398552605e-06 -0.034987231080373743 0 2.3840407685090685e-06 -0.034980617327454361 0 2.4238952126817872e-06 -0.034981655494189558 0 2.3840407685090685e-06 -0.034980617327454361 0 3.1932470024682515e-06 -0.034973693251871871 0 2.1181570910838052e-06 -0.034979713761923069 0 2.3840407685090685e-06 -0.034980617327454361 0 3.1932470024682515e-06 -0.034973693251871871 0 1.7921326398552605e-06 -0.034987231080373743 0 2.4238952126817872e-06 -0.034981655494189558 0 2.3840407685090685e-06 -0.034980617327454361 0 3.1932470024682515e-06 -0.034973693251871871 0 3.1669396297680444e-06 -0.034970782877560357 0 2.8794045582384361e-06 -0.034966131931387409 0 3.5009085085455343e-06 -0.034960482286491255 0 3.1932470024682515e-06 -0.034973693251871871 0 2.8794045582384361e-06 -0.034966131931387409 0 1.273532504378138e-05 -0.034968535614923989 0 2.306345130027405e-05 -0.034953161794194602 0 1.0115634384863111e-05 -0.034995915811356582 0 1.6993997510136216e-05 -0.034992875215781906 0 1.4770081522751456e-05 -0.03499969020283273 0 5.1723299964132805e-06 -0.034998944055689735 0 1.0115634384863111e-05 -0.034995915811356582 0 1.4770081522751456e-05 -0.03499969020283273 0 2.4238952126817872e-06 -0.034981655494189558 0 3.1932470024682515e-06 -0.034973693251871871 0 3.1669396297680444e-06 -0.034970782877560357 0 1.093137598805631e-05 -0.034989762559566227 0 1.0115634384863111e-05 -0.034995915811356582 0 1.6993997510136216e-05 -0.034992875215781906 0 -4.377579280533687e-05 -0.034858263507154895 0 -2.8610465581966591e-05 -0.034787149222858534 0 2.2304657657836489e-06 -0.034997290973222614 0 1.093137598805631e-05 -0.034989762559566227 0 1.0115634384863111e-05 -0.034995915811356582 0 2.6758304747682856e-06 -0.034998450986048549 0 2.2304657657836489e-06 -0.034997290973222614 0 6.7032388289614123e-06 -0.034999580788352504 0 2.6758304747682856e-06 -0.034998450986048549 0 6.7032388289614123e-06 -0.034999580788352504 0 3.9712594640316146e-06 -0.034998110638079755 0 6.7032388289614123e-06 -0.034999580788352504 0 1.1076719249598403e-05 -0.0349961708003955 0 8.5530229664870996e-06 -0.034996658962913214 0 6.7032388289614123e-06 -0.034999580788352504 0 6.3993235420509761e-06 -0.034997401002524658 0 8.5530229664870996e-06 -0.034996658962913214 0 6.7032388289614123e-06 -0.034999580788352504 0 3.9712594640316146e-06 -0.034998110638079755 0 6.3993235420509761e-06 -0.034997401002524658 0 1.093137598805631e-05 -0.034989762559566227 0 2.2857831810347508e-05 -0.034982339315953528 0 1.8693026827996993e-05 -0.034989217285479206 0 -2.8610465581966591e-05 -0.034787149222858534 0 0.00018345059879771206 -0.034439879964331656 0 6.7032388289614123e-06 -0.034999580788352504 0 1.3639266148309313e-05 -0.034997138127046717 0 1.1076719249598403e-05 -0.0349961708003955 0 2.2857831810347508e-05 -0.034982339315953528 0 2.4094320015266998e-05 -0.034991917986194325 0 1.8693026827996993e-05 -0.034989217285479206 0 0.00040168215550313993 -0.034110964096933288 0 0.00051299751935968824 -0.033786695715486634 0 0.00018345059879771206 -0.034439879964331656 0 0.00011665159366063254 -0.034802971871918408 0 -1.5842985783575946e-05 -0.034932678419216358 0 -1.1845904592600703e-05 -0.03493067002951776 0 -1.4213946148880413e-05 -0.034948169905951031 0 -1.1845904592600703e-05 -0.03493067002951776 0 -1.4213946148880413e-05 -0.034948169905951031 0 -4.8210210585846281e-06 -0.034947312157518319 0 0.00018345059879771206 -0.034439879964331656 0 0.00040168215550313993 -0.034110964096933288 0 -1.4213946148880413e-05 -0.034948169905951031 0 -7.8903135320065561e-06 -0.034954717771303816 0 -4.8210210585846281e-06 -0.034947312157518319 0 2.4094320015266998e-05 -0.034991917986194325 0 1.8693026827996993e-05 -0.034989217285479206 0 1.6993997510136216e-05 -0.034992875215781906 0 2.4094320015266998e-05 -0.034991917986194325 0 1.6993997510136216e-05 -0.034992875215781906 0 2.038188586284789e-05 -0.034995911138434761 0 1.093137598805631e-05 -0.034989762559566227 0 1.8693026827996993e-05 -0.034989217285479206 0 1.6993997510136216e-05 -0.034992875215781906 0 1.6993997510136216e-05 -0.034992875215781906 0 2.038188586284789e-05 -0.034995911138434761 0 1.4770081522751456e-05 -0.03499969020283273 0 3.1669396297680444e-06 -0.034970782877560357 0 1.0416311687841029e-06 -0.034964824989906995 0 -2.2346522771835207e-06 -0.034964011110056752 0 2.306345130027405e-05 -0.034953161794194602 0 5.7944380509252517e-05 -0.034923699650274774 0 2.038188586284789e-05 -0.034995911138434761 0 1.4770081522751456e-05 -0.03499969020283273 0 2.5394223971138922e-05 -0.035000728350048485 0 3.1669396297680444e-06 -0.034970782877560357 0 2.8794045582384361e-06 -0.034966131931387409 0 1.0416311687841029e-06 -0.034964824989906995 0 2.8794045582384361e-06 -0.034966131931387409 0 1.0416311687841029e-06 -0.034964824989906995 0 1.1691044707207631e-06 -0.034960062099965529 0 3.5009085085455343e-06 -0.034960482286491255 0 2.8794045582384361e-06 -0.034966131931387409 0 1.1691044707207631e-06 -0.034960062099965529 0 9.7395559380660943e-07 -0.034951061848679452 0 1.1691044707207631e-06 -0.034960062099965529 0 -2.2994523766289086e-06 -0.034956084207529478 0 1.1691044707207631e-06 -0.034960062099965529 0 -2.2994523766289086e-06 -0.034956084207529478 0 -2.8295305528432959e-06 -0.034960558897748066 0 1.0416311687841029e-06 -0.034964824989906995 0 -2.8295305528432959e-06 -0.034960558897748066 0 -2.2346522771835207e-06 -0.034964011110056752 0 1.0416311687841029e-06 -0.034964824989906995 0 1.1691044707207631e-06 -0.034960062099965529 0 -2.8295305528432959e-06 -0.034960558897748066 0 -2.2994523766289086e-06 -0.034956084207529478 0 -2.8295305528432959e-06 -0.034960558897748066 0 -5.8402621969311563e-06 -0.034956490070789041 0 0.00011665159366063254 -0.034802971871918408 0 5.7944380509252517e-05 -0.034923699650274774 0 -2.8295305528432959e-06 -0.034960558897748066 0 -2.9363349679545232e-06 -0.03496164871132508 0 -6.7564750989722199e-06 -0.034959489243740011 0 -1.1735126191638307e-05 -0.034959423901711396 0 -7.8903135320065561e-06 -0.034954717771303816 0 -6.7564750989722199e-06 -0.034959489243740011 0 5.7944380509252517e-05 -0.034923699650274774 0 5.0731913554187809e-05 -0.034924282716757661 0 -1.4213946148880413e-05 -0.034948169905951031 0 -1.1735126191638307e-05 -0.034959423901711396 0 -7.8903135320065561e-06 -0.034954717771303816 0 2.4094320015266998e-05 -0.034991917986194325 0 2.038188586284789e-05 -0.034995911138434761 0 2.5394223971138922e-05 -0.035000728350048485 0 5.7233983771290544e-05 -0.034925390097138728 0 5.7944380509252517e-05 -0.034923699650274774 0 -7.8903135320065561e-06 -0.034954717771303816 0 -8.0636194433687411e-06 -0.034959262515323837 0 -4.8210210585846281e-06 -0.034947312157518319 0 -7.8903135320065561e-06 -0.034954717771303816 0 -6.7564750989722199e-06 -0.034959489243740011 0 -8.0636194433687411e-06 -0.034959262515323837 0 0.00051745333470061539 -0.03352589654250502 0 0.00051299751935968824 -0.033786695715486634 0 -6.7564750989722199e-06 -0.034959489243740011 0 -9.7281475708967331e-06 -0.034955317680100288 0 -5.8402621969311563e-06 -0.034956490070789041 0 -2.8295305528432959e-06 -0.034960558897748066 0 -6.7564750989722199e-06 -0.034959489243740011 0 -5.8402621969311563e-06 -0.034956490070789041 0 -6.7564750989722199e-06 -0.034959489243740011 0 -9.7281475708967331e-06 -0.034955317680100288 0 -8.0636194433687411e-06 -0.034959262515323837 0 -5.7844051499668186e-06 -0.034951157089448369 0 -2.2994523766289086e-06 -0.034956084207529478 0 -5.8402621969311563e-06 -0.034956490070789041 0 -5.7844051499668186e-06 -0.034951157089448369 0 -9.7281475708967331e-06 -0.034955317680100288 0 -5.8402621969311563e-06 -0.034956490070789041 0 0.00048020923329890374 -0.03329971466772344 0 0.00051745333470061539 -0.03352589654250502 0 -9.7281475708967331e-06 -0.034955317680100288 0 -2.5376111246142864e-05 -0.034951145716544861 0 -8.0636194433687411e-06 -0.034959262515323837 0 0.0010024273680456148 -0.03162133074377161 0 0.0010967932011497739 -0.031878773791145773 0 0.0012274410368554331 -0.031977288114438771 0 -1.3452277246453057e-05 -0.0349450700895707 0 -9.7281475708967331e-06 -0.034955317680100288 0 -2.5376111246142864e-05 -0.034951145716544861 0 0.00092601761182656641 -0.031840947487085873 0 0.0010024273680456148 -0.03162133074377161 0 0.0010967932011497739 -0.031878773791145773 0 0.0010967932011497739 -0.031878773791145773 0 0.0010084323942129555 -0.031954397828711428 0 0.001089844602132345 -0.03209537549909524 0 0.0010967932011497739 -0.031878773791145773 0 0.001089844602132345 -0.03209537549909524 0 0.0013341107548950817 -0.032307555733841149 0 0.0010967932011497739 -0.031878773791145773 0 0.0012274410368554331 -0.031977288114438771 0 0.0013114998292711689 -0.032357218016174298 0 0.00092601761182656641 -0.031840947487085873 0 0.0010967932011497739 -0.031878773791145773 0 0.0010084323942129555 -0.031954397828711428 0 0.00081573585988824779 -0.032387577131631304 0 0.00081247060673756539 -0.03276052364269371 0 0.00092236906789993408 -0.032004476187539752 0 0.0010084323942129555 -0.031954397828711428 0 0.001089844602132345 -0.03209537549909524 0 0.00093172643164982744 -0.032181624315841595 0 0.001089844602132345 -0.03209537549909524 0 0.0011100827058375421 -0.032282012682260504 0 0.00093172643164982744 -0.032181624315841595 0 0.0011100827058375421 -0.032282012682260504 0 0.0010081370858699397 -0.0323788082408758 0 0.0011100827058375421 -0.032282012682260504 0 0.0010081370858699397 -0.0323788082408758 0 0.0011934645533559663 -0.032450394694200205 0 0.0011100827058375421 -0.032282012682260504 0 0.0013341107548950817 -0.032307555733841149 0 0.0011934645533559663 -0.032450394694200205 0 0.001089844602132345 -0.03209537549909524 0 0.0011100827058375421 -0.032282012682260504 0 0.0013341107548950817 -0.032307555733841149 0 0.0012274410368554331 -0.031977288114438771 0 0.0014589272215196425 -0.032371282841406633 0 0.0013114998292711689 -0.032357218016174298 0 0.00081247060673756539 -0.03276052364269371 0 0.0006773283098383911 -0.033890563796595261 0 0.0013341107548950817 -0.032307555733841149 0 0.0014680275940020626 -0.032654118405863922 0 0.0011934645533559663 -0.032450394694200205 0 0.0017021863350320198 -0.03277778910150534 0 0.0013114998292711689 -0.032357218016174298 0 0.0015462246730367996 -0.032856746624489605 0 0.0014680275940020626 -0.032654118405863922 0 0.0012225676769419352 -0.032634569116301283 0 0.0011934645533559663 -0.032450394694200205 0 0.0013341107548950817 -0.032307555733841149 0 0.0014680275940020626 -0.032654118405863922 0 0.0015923676209825426 -0.032820524185171562 0 0.0017021863350320198 -0.03277778910150534 0 0.0014589272215196425 -0.032371282841406633 0 0.0013114998292711689 -0.032357218016174298 0 0.0014680275940020626 -0.032654118405863922 0 0.0013414162954515844 -0.032716723699438212 0 0.0012225676769419352 -0.032634569116301283 0 0.0014680275940020626 -0.032654118405863922 0 0.0013414162954515844 -0.032716723699438212 0 0.0014950430452574134 -0.032878382611052151 0 0.0013414162954515844 -0.032716723699438212 0 0.0012225676769419352 -0.032634569116301283 0 0.0013459590044002708 -0.032873647075291647 0 0.0012225676769419352 -0.032634569116301283 0 0.00099175743918829035 -0.032656230045590588 0 0.0013459590044002708 -0.032873647075291647 0 0.0010081370858699397 -0.0323788082408758 0 0.00099175743918829035 -0.032656230045590588 0 0.0011934645533559663 -0.032450394694200205 0 0.0012225676769419352 -0.032634569116301283 0 0.00099175743918829035 -0.032656230045590588 0 0.0011934645533559663 -0.032450394694200205 0 0.001164530938494281 -0.032834306749763328 0 0.0012716696964462069 -0.032938597334899476 0 0.0012071756101070951 -0.032988162722896661 0 0.0017257394219674061 -0.031069412454316516 0 0.0017511300274208681 -0.03137583833155811 0 0.001164530938494281 -0.032834306749763328 0 0.0012716696964462069 -0.032938597334899476 0 0.0013459590044002708 -0.032873647075291647 0 0.0012716696964462069 -0.032938597334899476 0 0.0013626449470129916 -0.032930540018209206 0 0.0012950254106954332 -0.033075825855698897 0 0.0012716696964462069 -0.032938597334899476 0 0.0012071756101070951 -0.032988162722896661 0 0.0012950254106954332 -0.033075825855698897 0 0.0012716696964462069 -0.032938597334899476 0 0.0013459590044002708 -0.032873647075291647 0 0.0013626449470129916 -0.032930540018209206 0 0.0014218148949256743 -0.032900966946243254 0 0.0013626449470129916 -0.032930540018209206 0 0.001445010809493342 -0.033138737207473595 0 0.0013414162954515844 -0.032716723699438212 0 0.0013459590044002708 -0.032873647075291647 0 0.0014950430452574134 -0.032878382611052151 0 0.0013459590044002708 -0.032873647075291647 0 0.0014950430452574134 -0.032878382611052151 0 0.0013626449470129916 -0.032930540018209206 0 0.00072115535544416489 -0.03388649714854803 0 0.00078448877008567856 -0.033842645096900915 0 0.00073692754194670015 -0.033717149372101241 0 0.00072115535544416489 -0.03388649714854803 0 0.0014680275940020626 -0.032654118405863922 0 0.0015923676209825426 -0.032820524185171562 0 0.001498826507059309 -0.032868178817890656 0 0.0006773283098383911 -0.033890563796595261 0 0.00072115535544416489 -0.03388649714854803 0 0.0013626449470129916 -0.032930540018209206 0 0.001445010809493342 -0.033138737207473595 0 0.0012950254106954332 -0.033075825855698897 0 0.00072115535544416489 -0.03388649714854803 0 0.00069493522004732925 -0.034058820898649748 0 0.001445010809493342 -0.033138737207473595 0 0.0012950254106954332 -0.033075825855698897 0 0.0013457019421789492 -0.033242536441287829 0 0.0012071756101070951 -0.032988162722896661 0 0.0012950254106954332 -0.033075825855698897 0 0.0011829773580792631 -0.033091578961085326 0 0.0011039700129974218 -0.03302636970639615 0 0.0012071756101070951 -0.032988162722896661 0 0.0011829773580792631 -0.033091578961085326 0 0.0010971141615289742 -0.033150205141436233 0 0.0011829773580792631 -0.033091578961085326 0 0.0012155409850523533 -0.033216528686112877 0 0.0012950254106954332 -0.033075825855698897 0 0.0011829773580792631 -0.033091578961085326 0 0.0012155409850523533 -0.033216528686112877 0 0.0012950254106954332 -0.033075825855698897 0 0.0012155409850523533 -0.033216528686112877 0 0.0013457019421789492 -0.033242536441287829 0 0.0012155409850523533 -0.033216528686112877 0 0.0012526305152232176 -0.033330272317161271 0 0.0013457019421789492 -0.033242536441287829 0 0.0011409490858676821 -0.033349747427591288 0 0.0012155409850523533 -0.033216528686112877 0 0.0012526305152232176 -0.033330272317161271 0 0.0011409490858676821 -0.033349747427591288 0 0.0012526305152232176 -0.033330272317161271 0 0.00124388115097729 -0.033436867075199196 0 0.0012526305152232176 -0.033330272317161271 0 0.00124388115097729 -0.033436867075199196 0 0.001355582256701636 -0.033349743939499722 0 0.0013666398353832324 -0.033434801048107039 0 0.001355582256701636 -0.033349743939499722 0 0.00146637489286632 -0.03336711280056652 0 0.0013666398353832324 -0.033434801048107039 0 0.00146637489286632 -0.03336711280056652 0 0.0014779283565737739 -0.033448565152914785 0 0.00124388115097729 -0.033436867075199196 0 0.0013666398353832324 -0.033434801048107039 0 0.001355582256701636 -0.033349743939499722 0 0.0012526305152232176 -0.033330272317161271 0 0.001355582256701636 -0.033349743939499722 0 0.0013457019421789492 -0.033242536441287829 0 0.001355582256701636 -0.033349743939499722 0 0.0013457019421789492 -0.033242536441287829 0 0.0014716165378781752 -0.033368123930349047 0 0.00080013639293120776 -0.034254966892419386 0 0.00067123286994864677 -0.034297516015843729 0 0.001445010809493342 -0.033138737207473595 0 0.0013457019421789492 -0.033242536441287829 0 0.0014716165378781752 -0.033368123930349047 0 0.00069493522004732925 -0.034058820898649748 0 0.00067123286994864677 -0.034297516015843729 0 -3.6471842682226086e-05 -0.034939214756257123 0 -1.0419927031858966e-05 -0.03495026028455081 0 -9.4735261809571689e-06 -0.03497326023815605 0 -3.6471842682226086e-05 -0.034939214756257123 0 -9.4735261809571689e-06 -0.03497326023815605 0 -2.0902275711686179e-05 -0.034997036981465328 0 -1.0419927031858966e-05 -0.03495026028455081 0 1.9907132708435253e-06 -0.034960689200330845 0 -9.4735261809571689e-06 -0.03497326023815605 0 1.9907132708435253e-06 -0.034960689200330845 0 2.3438814884532039e-05 -0.034927549668870274 0 2.7858894705744205e-06 -0.034942619166511257 0 -1.0419927031858966e-05 -0.03495026028455081 0 1.9907132708435253e-06 -0.034960689200330845 0 2.7858894705744205e-06 -0.034942619166511257 0 1.9907132708435253e-06 -0.034960689200330845 0 -9.4735261809571689e-06 -0.03497326023815605 0 1.1538411695148262e-05 -0.034985956244252776 0 -9.4735261809571689e-06 -0.03497326023815605 0 -2.0902275711686179e-05 -0.034997036981465328 0 6.7180744251023825e-06 -0.034995266041120382 0 -9.4735261809571689e-06 -0.03497326023815605 0 6.7180744251023825e-06 -0.034995266041120382 0 1.1538411695148262e-05 -0.034985956244252776 0 0.00067123286994864677 -0.034297516015843729 0 0.00035005251821985353 -0.034515554699970606 0 0.00018596137656141346 -0.034972859420680444 0 0.00023233642488878608 -0.034944382650278445 0 0.00020534288527159769 -0.034914774529939761 0 0.00035005251821985353 -0.034515554699970606 0 0.00063601477303384013 -0.034341689564167659 0 0.00058681465540660438 -0.034354460164618447 0 0.00071284696972233948 -0.034373131906225159 0 0.00059977226590250861 -0.034446990899415504 0 0.00067123286994864677 -0.034297516015843729 0 0.00063601477303384013 -0.034341689564167659 0 6.7180744251023825e-06 -0.034995266041120382 0 1.1538411695148262e-05 -0.034985956244252776 0 1.2028442350089159e-05 -0.034988748450032345 0 0.00035005251821985353 -0.034515554699970606 0 0.00011481031893791306 -0.034767810315055499 0 0.00018596137656141346 -0.034972859420680444 0 8.239720774134842e-05 -0.034957427295656471 0 0.00012764363241939714 -0.034910270948239744 0 0.00035005251821985353 -0.034515554699970606 0 9.6272061114045481e-05 -0.034737194806199266 0 1.4920795853786792e-05 -0.034986556287752997 0 1.2028442350089159e-05 -0.034988748450032345 0 1.0307099139579295e-05 -0.034987875074739216 0 1.9907132708435253e-06 -0.034960689200330845 0 1.1538411695148262e-05 -0.034985956244252776 0 2.3438814884532039e-05 -0.034927549668870274 0 0.00023194932073737371 -0.034806927093102458 0 0.00024877287965736455 -0.034739492771470794 0 1.1538411695148262e-05 -0.034985956244252776 0 1.1653200655050066e-05 -0.034989779816533999 0 1.2028442350089159e-05 -0.034988748450032345 0 1.1538411695148262e-05 -0.034985956244252776 0 1.1653200655050066e-05 -0.034989779816533999 0 1.3651242273281567e-05 -0.034991090549059543 0 1.1653200655050066e-05 -0.034989779816533999 0 1.1819365016684662e-05 -0.034991560564791246 0 9.3212645867479522e-06 -0.034993456956850785 0 1.3060825331692773e-05 -0.034993409819197394 0 1.3651242273281567e-05 -0.034991090549059543 0 1.3562528666426454e-05 -0.034994208918526559 0 1.1653200655050066e-05 -0.034989779816533999 0 1.1819365016684662e-05 -0.034991560564791246 0 1.3651242273281567e-05 -0.034991090549059543 0 0.00024877287965736455 -0.034739492771470794 0 0.00029661342790621273 -0.034490038019342709 0 1.1826562081491692e-05 -0.034992727474542219 0 1.0764574731253659e-05 -0.034994595880076085 0 9.3212645867479522e-06 -0.034993456956850785 0 1.1819365016684662e-05 -0.034991560564791246 0 1.1826562081491692e-05 -0.034992727474542219 0 9.3212645867479522e-06 -0.034993456956850785 0 1.1826562081491692e-05 -0.034992727474542219 0 1.3060825331692773e-05 -0.034993409819197394 0 1.0764574731253659e-05 -0.034994595880076085 0 1.1826562081491692e-05 -0.034992727474542219 0 1.3060825331692773e-05 -0.034993409819197394 0 1.3651242273281567e-05 -0.034991090549059543 0 1.1819365016684662e-05 -0.034991560564791246 0 1.1826562081491692e-05 -0.034992727474542219 0 1.3651242273281567e-05 -0.034991090549059543 0 2.7858894705744205e-06 -0.034942619166511257 0 -1.3670367064175275e-05 -0.034926674520242298 0 -1.2068129733802789e-05 -0.034899826574496751 0 -4.7994209006368014e-05 -0.034860213962095835 0 -3.6471842682226086e-05 -0.034939214756257123 0 -1.2068129733802789e-05 -0.034899826574496751 0 2.3438814884532039e-05 -0.034927549668870274 0 2.7858894705744205e-06 -0.034942619166511257 0 -3.683142295127463e-05 -0.034866367347878693 0 0.00057440474501624166 -0.034405851018173818 0 0.00060163789650143551 -0.0342887528959335 0 2.3438814884532039e-05 -0.034927549668870274 0 -3.683142295127463e-05 -0.034866367347878693 0 1.3426595118853036e-05 -0.034833545742838555 0 -1.0419927031858966e-05 -0.03495026028455081 0 2.7858894705744205e-06 -0.034942619166511257 0 -1.3670367064175275e-05 -0.034926674520242298 0 -3.6471842682226086e-05 -0.034939214756257123 0 -1.0419927031858966e-05 -0.03495026028455081 0 -1.3670367064175275e-05 -0.034926674520242298 0 -3.6471842682226086e-05 -0.034939214756257123 0 -1.3670367064175275e-05 -0.034926674520242298 0 -1.2068129733802789e-05 -0.034899826574496751 0 -3.683142295127463e-05 -0.034866367347878693 0 1.3426595118853036e-05 -0.034833545742838555 0 -3.2778882639680227e-05 -0.034810055876083282 0 0.0006773283098383911 -0.033890563796595261 0 0.00060163789650143551 -0.0342887528959335 0 -3.3163515550648648e-05 -0.034852540172865619 0 -4.7994209006368014e-05 -0.034860213962095835 0 -1.2068129733802789e-05 -0.034899826574496751 0 -7.7722857557146509e-05 -0.034781866533241126 0 -3.683142295127463e-05 -0.034866367347878693 0 -3.2778882639680227e-05 -0.034810055876083282 0 0.00040168215550313993 -0.034110964096933288 0 0.0006773283098383911 -0.033890563796595261 0 -3.035111683574838e-05 -0.034758117321059288 0 -7.7722857557146509e-05 -0.034781866533241126 0 -3.2778882639680227e-05 -0.034810055876083282 0 0.00040168215550313993 -0.034110964096933288 0 0.00029661342790621273 -0.034490038019342709 0 0.00018345059879771206 -0.034439879964331656 0 0.00029661342790621273 -0.034490038019342709 0 -3.035111683574838e-05 -0.034758117321059288 0 1.3426595118853036e-05 -0.034833545742838555 0 -3.2778882639680227e-05 -0.034810055876083282 0 0.00033448049995717875 -0.033947025234927465 0 0.00015241306473431609 -0.034038944917676249 0 0.00041755874173172043 -0.034470501756683786 0 1.3639266148309313e-05 -0.034997138127046717 0 1.3340235699226852e-05 -0.034994225001570643 0 1.1076719249598403e-05 -0.0349961708003955 0 1.1076719249598403e-05 -0.0349961708003955 0 1.0764574731253659e-05 -0.034994595880076085 0 8.5530229664870996e-06 -0.034996658962913214 0 1.1076719249598403e-05 -0.0349961708003955 0 1.0764574731253659e-05 -0.034994595880076085 0 1.2050020548967126e-05 -0.034994577885756516 0 1.3060825331692773e-05 -0.034993409819197394 0 1.0764574731253659e-05 -0.034994595880076085 0 1.2050020548967126e-05 -0.034994577885756516 0 1.3340235699226852e-05 -0.034994225001570643 0 1.1076719249598403e-05 -0.0349961708003955 0 1.2050020548967126e-05 -0.034994577885756516 0 1.3060825331692773e-05 -0.034993409819197394 0 1.3340235699226852e-05 -0.034994225001570643 0 1.2050020548967126e-05 -0.034994577885756516 0 0.00029829997395433203 -0.034504123157557721 0 0.00029661342790621273 -0.034490038019342709 0 7.9748620158513524e-06 -0.034995727390328205 0 5.2359929883891429e-06 -0.034996300745803149 0 9.3212645867479522e-06 -0.034993456956850785 0 1.0764574731253659e-05 -0.034994595880076085 0 7.9748620158513524e-06 -0.034995727390328205 0 8.5530229664870996e-06 -0.034996658962913214 0 1.0764574731253659e-05 -0.034994595880076085 0 7.9748620158513524e-06 -0.034995727390328205 0 9.3212645867479522e-06 -0.034993456956850785 0 6.3993235420509761e-06 -0.034997401002524658 0 7.9748620158513524e-06 -0.034995727390328205 0 8.5530229664870996e-06 -0.034996658962913214 0 6.3993235420509761e-06 -0.034997401002524658 0 7.9748620158513524e-06 -0.034995727390328205 0 5.2359929883891429e-06 -0.034996300745803149 0 3.9712594640316146e-06 -0.034998110638079755 0 6.3993235420509761e-06 -0.034997401002524658 0 5.2359929883891429e-06 -0.034996300745803149 0 3.9712594640316146e-06 -0.034998110638079755 0 5.2359929883891429e-06 -0.034996300745803149 0 2.6896858987311895e-06 -0.03499801444197758 0 5.2359929883891429e-06 -0.034996300745803149 0 8.0161460127522964e-06 -0.034992963070279694 0 4.5149263672527972e-06 -0.034995222167785681 0 5.2359929883891429e-06 -0.034996300745803149 0 9.3212645867479522e-06 -0.034993456956850785 0 8.0161460127522964e-06 -0.034992963070279694 0 1.1653200655050066e-05 -0.034989779816533999 0 9.3212645867479522e-06 -0.034993456956850785 0 8.0161460127522964e-06 -0.034992963070279694 0 1.1653200655050066e-05 -0.034989779816533999 0 8.0161460127522964e-06 -0.034992963070279694 0 1.2028442350089159e-05 -0.034988748450032345 0 8.0161460127522964e-06 -0.034992963070279694 0 1.2028442350089159e-05 -0.034988748450032345 0 7.402369364593277e-06 -0.034991549596074055 0 1.2028442350089159e-05 -0.034988748450032345 0 1.0307099139579295e-05 -0.034987875074739216 0 7.402369364593277e-06 -0.034991549596074055 0 0.00011481031893791306 -0.034767810315055499 0 3.0684161273233306e-05 -0.034904273357731663 0 1.0307099139579295e-05 -0.034987875074739216 0 7.402369364593277e-06 -0.034991549596074055 0 3.4399191476687545e-06 -0.03499315460230789 0 4.5149263672527972e-06 -0.034995222167785681 0 7.402369364593277e-06 -0.034991549596074055 0 3.4399191476687545e-06 -0.03499315460230789 0 8.0161460127522964e-06 -0.034992963070279694 0 4.5149263672527972e-06 -0.034995222167785681 0 7.402369364593277e-06 -0.034991549596074055 0 4.5149263672527972e-06 -0.034995222167785681 0 1.9257300373868176e-06 -0.03499754638369016 0 3.4399191476687545e-06 -0.03499315460230789 0 6.6945422971168813e-11 -0.034999997336443142 0 1.9257300373868176e-06 -0.03499754638369016 0 3.4399191476687545e-06 -0.03499315460230789 0 6.6945422971168813e-11 -0.034999997336443142 0 1.5394746279922472e-09 -0.034999992514472375 0 3.4399191476687545e-06 -0.03499315460230789 0 6.6945422971168813e-11 -0.034999997336443142 0 1.9257300373868176e-06 -0.03499754638369016 0 2.8807995381760405e-09 -0.034999995021080685 0 1.6670937975330238e-09 -0.034999998204816932 0 1.1577461396085251e-06 -0.034999545476378853 0 1.9257300373868176e-06 -0.03499754638369016 0 2.8807995381760405e-09 -0.034999995021080685 0 2.6896858987311895e-06 -0.03499801444197758 0 5.2359929883891429e-06 -0.034996300745803149 0 4.5149263672527972e-06 -0.034995222167785681 0 2.6896858987311895e-06 -0.03499801444197758 0 4.5149263672527972e-06 -0.034995222167785681 0 1.9257300373868176e-06 -0.03499754638369016 0 2.6896858987311895e-06 -0.03499801444197758 0 1.9971573820363702e-06 -0.034999627870993283 0 1.1577461396085251e-06 -0.034999545476378853 0 1.0737225015232133e-06 -0.03499913755461196 0 3.9712594640316146e-06 -0.034998110638079755 0 9.944903580030285e-07 -0.034998957534015239 0 5.9885797907149122e-11 -0.034999999181831262 0 9.944903580030285e-07 -0.034998957534015239 0 7.1555506489988281e-10 -0.034999998399051324 0 1.0737225015232133e-06 -0.03499913755461196 0 9.944903580030285e-07 -0.034998957534015239 0 7.1555506489988281e-10 -0.034999998399051324 0 1.9579228168694239e-05 -0.034985184306397805 0 1.1195788445704862e-08 -0.034999963348533281 0 1.3040079471681045e-05 -0.035000025523015468 0 1.9579228168694239e-05 -0.034985184306397805 0 4.0538889929925078e-05 -0.034996234155448343 0 1.3040079471681045e-05 -0.035000025523015468 0 1.9579228168694239e-05 -0.034985184306397805 0 1.5465444668230733e-05 -0.034979767118558734 0 3.0086736863759869e-05 -0.034964272886749963 0 1.9579228168694239e-05 -0.034985184306397805 0 1.1195788445704862e-08 -0.034999963348533281 0 1.5465444668230733e-05 -0.034979767118558734 0 8.1901575926308408e-05 -0.034973164388689207 0 4.0538889929925078e-05 -0.034996234155448343 0 0.00012728984266526349 -0.035020565452185869 0 0.00018414532754870304 -0.034901793060901361 0 3.4730021406448074e-05 -0.034927752193400698 0 4.0586004731023943e-05 -0.034942603047661447 0 1.9579228168694239e-05 -0.034985184306397805 0 3.0086736863759869e-05 -0.034964272886749963 0 4.1333672611175509e-05 -0.034972251277775125 0 3.0086736863759869e-05 -0.034964272886749963 0 4.4249518796163407e-05 -0.034957284906027036 0 4.0586004731023943e-05 -0.034942603047661447 0 3.0086736863759869e-05 -0.034964272886749963 0 4.4249518796163407e-05 -0.034957284906027036 0 4.1333672611175509e-05 -0.034972251277775125 0 4.4249518796163407e-05 -0.034957284906027036 0 7.1736545871621389e-05 -0.034952320443638371 0 4.0586004731023943e-05 -0.034942603047661447 0 4.4249518796163407e-05 -0.034957284906027036 0 7.1736545871621389e-05 -0.034952320443638371 0 4.1333672611175509e-05 -0.034972251277775125 0 7.1736545871621389e-05 -0.034952320443638371 0 8.1901575926308408e-05 -0.034973164388689207 0 4.1333672611175509e-05 -0.034972251277775125 0 8.1901575926308408e-05 -0.034973164388689207 0 4.1333672611175509e-05 -0.034972251277775125 0 4.0538889929925078e-05 -0.034996234155448343 0 1.9579228168694239e-05 -0.034985184306397805 0 4.1333672611175509e-05 -0.034972251277775125 0 4.0538889929925078e-05 -0.034996234155448343 0 4.672798249367101e-05 -0.034933087039644643 0 0.00010581890733294993 -0.03485739311154977 0 -1.061313318154755e-05 -0.034889119526018517 0 2.7082450499953411e-05 -0.034854521543248154 0 2.4514945571092135e-05 -0.034784301772610417 0 4.0538889929925078e-05 -0.034996234155448343 0 1.3040079471681045e-05 -0.035000025523015468 0 2.3910208741173879e-05 -0.035024277884758578 0 4.0538889929925078e-05 -0.034996234155448343 0 2.3910208741173879e-05 -0.035024277884758578 0 0.00012728984266526349 -0.035020565452185869 0 1.044582302591884e-08 -0.035000025041360239 0 1.3040079471681045e-05 -0.035000025523015468 0 2.3910208741173879e-05 -0.035024277884758578 0 1.1195788445704862e-08 -0.034999963348533281 0 1.044582302591884e-08 -0.035000025041360239 0 1.3040079471681045e-05 -0.035000025523015468 0 -3.501251588954226e-08 -0.034999906715843042 0 -9.6011271883699084e-07 -0.034953012094779891 0 -1.061313318154755e-05 -0.034889119526018517 0 1.044582302591884e-08 -0.035000025041360239 0 4.883225259004225e-10 -0.03500001690664422 0 2.3910208741173879e-05 -0.035024277884758578 0 4.5060922839576037e-08 -0.034999903093847005 0 4.672798249367101e-05 -0.034933087039644643 0 -3.501251588954226e-08 -0.034999906715843042 0 -7.3047823563960657e-09 -0.034999996616320368 0 -9.6011271883699084e-07 -0.034953012094779891 0 -7.3047823563960657e-09 -0.034999996616320368 0 -9.6011271883699084e-07 -0.034953012094779891 0 9.4906092292351573e-06 -0.034953964906926295 0 2.5269496319394299e-08 -0.034999830628528392 0 3.0684161273233306e-05 -0.034904273357731663 0 -9.6011271883699084e-07 -0.034953012094779891 0 9.4906092292351573e-06 -0.034953964906926295 0 3.264499365637396e-05 -0.034903983264862673 0 -1.061313318154755e-05 -0.034889119526018517 0 2.7082450499953411e-05 -0.034854521543248154 0 3.264499365637396e-05 -0.034903983264862673 0 -9.6011271883699084e-07 -0.034953012094779891 0 -1.061313318154755e-05 -0.034889119526018517 0 3.264499365637396e-05 -0.034903983264862673 0 2.7082450499953411e-05 -0.034854521543248154 0 3.264499365637396e-05 -0.034903983264862673 0 6.9072525339282064e-05 -0.034836662797539907 0 8.239720774134842e-05 -0.034957427295656471 0 9.4906092292351573e-06 -0.034953964906926295 0 3.264499365637396e-05 -0.034903983264862673 0 8.239720774134842e-05 -0.034957427295656471 0 9.6677332580068407e-05 -0.034880588489626399 0 0.00012764363241939714 -0.034910270948239744 0 8.239720774134842e-05 -0.034957427295656471 0 3.264499365637396e-05 -0.034903983264862673 0 9.6677332580068407e-05 -0.034880588489626399 0 3.264499365637396e-05 -0.034903983264862673 0 9.6677332580068407e-05 -0.034880588489626399 0 6.9072525339282064e-05 -0.034836662797539907 0 9.6677332580068407e-05 -0.034880588489626399 0 0.00011179231013048953 -0.034809661065892582 0 0.00013650131957061577 -0.034834408448764294 0 9.6677332580068407e-05 -0.034880588489626399 0 6.9072525339282064e-05 -0.034836662797539907 0 0.00011179231013048953 -0.034809661065892582 0 6.9072525339282064e-05 -0.034836662797539907 0 0.00011179231013048953 -0.034809661065892582 0 8.4514105865047141e-05 -0.034770420898759688 0 6.9072525339282064e-05 -0.034836662797539907 0 8.4514105865047141e-05 -0.034770420898759688 0 2.4514945571092135e-05 -0.034784301772610417 0 0.00011179231013048953 -0.034809661065892582 0 8.4514105865047141e-05 -0.034770420898759688 0 0.00012994597706213028 -0.034736396706202287 0 2.7082450499953411e-05 -0.034854521543248154 0 6.9072525339282064e-05 -0.034836662797539907 0 2.4514945571092135e-05 -0.034784301772610417 0 0.00018414532754870304 -0.034901793060901361 0 0.00033574962491264001 -0.034882255294910097 0 0.00016918045440111017 -0.034782967011968903 0 8.4483363357883886e-05 -0.034942399813849084 0 2.8925809525160917e-05 -0.034931659897372729 0 7.1736545871621389e-05 -0.034952320443638371 0 0.00018414532754870304 -0.034901793060901361 0 4.0586004731023943e-05 -0.034942603047661447 0 0.00012728984266526349 -0.035020565452185869 0 0.00018414532754870304 -0.034901793060901361 0 0.00033574962491264001 -0.034882255294910097 0 8.1901575926308408e-05 -0.034973164388689207 0 0.00012728984266526349 -0.035020565452185869 0 0.00018414532754870304 -0.034901793060901361 0 7.1736545871621389e-05 -0.034952320443638371 0 8.1901575926308408e-05 -0.034973164388689207 0 0.00018414532754870304 -0.034901793060901361 0 0.00010581890733294993 -0.03485739311154977 0 0.00018758042904616046 -0.034753472695908061 0 8.4514105865047141e-05 -0.034770420898759688 0 2.4514945571092135e-05 -0.034784301772610417 0 8.957355324590325e-05 -0.034679576848285237 0 8.4514105865047141e-05 -0.034770420898759688 0 8.957355324590325e-05 -0.034679576848285237 0 0.00012994597706213028 -0.034736396706202287 0 0.00015402436385035718 -0.034667391881328218 0 0.00018466291665449627 -0.034701034505264267 0 0.00012994597706213028 -0.034736396706202287 0 8.957355324590325e-05 -0.034679576848285237 0 0.00015402436385035718 -0.034667391881328218 0 0.00012994597706213028 -0.034736396706202287 0 0.00018466291665449627 -0.034701034505264267 0 0.00024938352966148155 -0.034660765037234371 0 0.00019746130704323574 -0.034631905293255508 0 0.00015402436385035718 -0.034667391881328218 0 0.00018466291665449627 -0.034701034505264267 0 0.00019746130704323574 -0.034631905293255508 0 0.00018466291665449627 -0.034701034505264267 0 0.00022266690721213758 -0.034758545720050556 0 0.00024938352966148155 -0.034660765037234371 0 0.00018466291665449627 -0.034701034505264267 0 0.00022266690721213758 -0.034758545720050556 0 0.00016381056171366283 -0.034781850736875113 0 0.00022266690721213758 -0.034758545720050556 0 0.00019564430263234361 -0.034801172844824611 0 0.00021703780071222623 -0.034827587894397369 0 0.00022266690721213758 -0.034758545720050556 0 0.00016381056171366283 -0.034781850736875113 0 0.00019564430263234361 -0.034801172844824611 0 0.00016381056171366283 -0.034781850736875113 0 0.00016839389902581459 -0.03482468677950535 0 0.00019564430263234361 -0.034801172844824611 0 0.00018466291665449627 -0.034701034505264267 0 0.00016381056171366283 -0.034781850736875113 0 0.00012994597706213028 -0.034736396706202287 0 0.00011179231013048953 -0.034809661065892582 0 0.00016381056171366283 -0.034781850736875113 0 0.00012994597706213028 -0.034736396706202287 0 0.00011179231013048953 -0.034809661065892582 0 0.00016381056171366283 -0.034781850736875113 0 0.00013650131957061577 -0.034834408448764294 0 0.00013650131957061577 -0.034834408448764294 0 0.00016839389902581459 -0.03482468677950535 0 0.00014567477642296608 -0.034868057129484702 0 0.00016381056171366283 -0.034781850736875113 0 0.00013650131957061577 -0.034834408448764294 0 0.00016839389902581459 -0.03482468677950535 0 0.00014567477642296608 -0.034868057129484702 0 0.00016483576154421856 -0.034889129881384741 0 0.00018463753903639386 -0.03485585845969006 0 0.00016839389902581459 -0.03482468677950535 0 0.00014567477642296608 -0.034868057129484702 0 0.00018463753903639386 -0.03485585845969006 0 9.6677332580068407e-05 -0.034880588489626399 0 0.00013650131957061577 -0.034834408448764294 0 0.00014567477642296608 -0.034868057129484702 0 0.00014567477642296608 -0.034868057129484702 0 0.00012764363241939714 -0.034910270948239744 0 0.00016483576154421856 -0.034889129881384741 0 0.00018596137656141346 -0.034972859420680444 0 0.00012764363241939714 -0.034910270948239744 0 0.00017606070355255017 -0.034918200308918013 0 9.6677332580068407e-05 -0.034880588489626399 0 0.00014567477642296608 -0.034868057129484702 0 0.00012764363241939714 -0.034910270948239744 0 0.00012764363241939714 -0.034910270948239744 0 0.00016483576154421856 -0.034889129881384741 0 0.00017606070355255017 -0.034918200308918013 0 0.00016483576154421856 -0.034889129881384741 0 0.00017606070355255017 -0.034918200308918013 0 0.00019212938559753925 -0.034891335665509102 0 0.00023233642488878608 -0.034944382650278445 0 0.00020534288527159769 -0.034914774529939761 0 0.00022537772503364561 -0.034878891374310772 0 0.00063601477303384013 -0.034341689564167659 0 0.00061858530505059194 -0.034457340165532618 0 0.00018596137656141346 -0.034972859420680444 0 0.00017606070355255017 -0.034918200308918013 0 0.00020534288527159769 -0.034914774529939761 0 0.00020534288527159769 -0.034914774529939761 0 0.00019212938559753925 -0.034891335665509102 0 0.00022537772503364561 -0.034878891374310772 0 0.00017606070355255017 -0.034918200308918013 0 0.00020534288527159769 -0.034914774529939761 0 0.00019212938559753925 -0.034891335665509102 0 0.00016483576154421856 -0.034889129881384741 0 0.00019212938559753925 -0.034891335665509102 0 0.00018463753903639386 -0.03485585845969006 0 0.00019212938559753925 -0.034891335665509102 0 0.00022537772503364561 -0.034878891374310772 0 0.00020372911894135149 -0.03486386027955074 0 0.00022537772503364561 -0.034878891374310772 0 0.00020372911894135149 -0.03486386027955074 0 0.00021703780071222623 -0.034827587894397369 0 0.00061858530505059194 -0.034457340165532618 0 0.00060781841194939841 -0.034506999303178465 0 0.00022092901160065877 -0.034871330295566626 0 0.00021703780071222623 -0.034827587894397369 0 0.00026118637739262524 -0.034845570751402204 0 0.00019212938559753925 -0.034891335665509102 0 0.00020372911894135149 -0.03486386027955074 0 0.00018463753903639386 -0.03485585845969006 0 0.00020372911894135149 -0.03486386027955074 0 0.00018463753903639386 -0.03485585845969006 0 0.00021703780071222623 -0.034827587894397369 0 0.00018463753903639386 -0.03485585845969006 0 0.00019564430263234361 -0.034801172844824611 0 0.00021703780071222623 -0.034827587894397369 0 0.00016839389902581459 -0.03482468677950535 0 0.00018463753903639386 -0.03485585845969006 0 0.00019564430263234361 -0.034801172844824611 0 0.00022266690721213758 -0.034758545720050556 0 0.00021703780071222623 -0.034827587894397369 0 0.00027928121006361547 -0.034800970626099152 0 0.00027928121006361547 -0.034800970626099152 0 0.00026118637739262524 -0.034845570751402204 0 0.0003326335056670598 -0.034886089370267014 0 0.00021703780071222623 -0.034827587894397369 0 0.00027928121006361547 -0.034800970626099152 0 0.00026118637739262524 -0.034845570751402204 0 0.00022092901160065877 -0.034871330295566626 0 0.00026118637739262524 -0.034845570751402204 0 0.0003326335056670598 -0.034886089370267014 0 0.00063601477303384013 -0.034341689564167659 0 0.00067893073179179047 -0.034412031353810033 0 0.00061858530505059194 -0.034457340165532618 0 0.00067893073179179047 -0.034412031353810033 0 0.0006078584553113603 -0.034440669686618117 0 0.00060287820491537335 -0.03440512231612361 0 0.00065565031899730581 -0.034409631912816846 0 0.0013666398353832324 -0.033434801048107039 0 0.0014779283565737739 -0.033448565152914785 0 0.0012873315751506717 -0.033573002062898996 0 0.00124388115097729 -0.033436867075199196 0 0.0012873315751506717 -0.033573002062898996 0 0.001048727734429713 -0.033551066060315222 0 0.00067893073179179047 -0.034412031353810033 0 0.00070329082115959483 -0.034225032682173188 0 0.00124388115097729 -0.033436867075199196 0 0.0013666398353832324 -0.033434801048107039 0 0.0012873315751506717 -0.033573002062898996 0 0.00067893073179179047 -0.034412031353810033 0 0.00045673815885704627 -0.034622629264445162 0 0.0003326335056670598 -0.034886089370267014 0 0.00035747011794486365 -0.03476498425043581 0 0.00047052034495825216 -0.034805519305841838 0 0.00027928121006361547 -0.034800970626099152 0 0.0003326335056670598 -0.034886089370267014 0 0.00035747011794486365 -0.03476498425043581 0 0.00035747011794486365 -0.03476498425043581 0 0.0002863559616265448 -0.034729238456776314 0 0.00033266369123964714 -0.034662038654261526 0 0.00035747011794486365 -0.03476498425043581 0 0.00033266369123964714 -0.034662038654261526 0 0.00042020020059503984 -0.03467326520884368 0 0.00027928121006361547 -0.034800970626099152 0 0.00035747011794486365 -0.03476498425043581 0 0.0002863559616265448 -0.034729238456776314 0 0.00022266690721213758 -0.034758545720050556 0 0.0002863559616265448 -0.034729238456776314 0 0.00024938352966148155 -0.034660765037234371 0 0.00022266690721213758 -0.034758545720050556 0 0.00027928121006361547 -0.034800970626099152 0 0.0002863559616265448 -0.034729238456776314 0 0.00024938352966148155 -0.034660765037234371 0 0.00033266369123964714 -0.034662038654261526 0 0.00030970114231604454 -0.034565788501543848 0 0.0002863559616265448 -0.034729238456776314 0 0.00024938352966148155 -0.034660765037234371 0 0.00033266369123964714 -0.034662038654261526 0 0.00033266369123964714 -0.034662038654261526 0 0.00038584149001930632 -0.034558777664262394 0 0.00030970114231604454 -0.034565788501543848 0 0.00033266369123964714 -0.034662038654261526 0 0.00038584149001930632 -0.034558777664262394 0 0.00042020020059503984 -0.03467326520884368 0 0.00038584149001930632 -0.034558777664262394 0 0.00032561955312739515 -0.034446571038245957 0 0.00040435660408018445 -0.034383523290509713 0 0.00038584149001930632 -0.034558777664262394 0 0.00030970114231604454 -0.034565788501543848 0 0.00032561955312739515 -0.034446571038245957 0 0.00030970114231604454 -0.034565788501543848 0 0.00027095397479181529 -0.034482655768528714 0 0.00022765807763373998 -0.034522649517818291 0 0.00024938352966148155 -0.034660765037234371 0 0.00030970114231604454 -0.034565788501543848 0 0.00024051506949402171 -0.034590743221040401 0 0.00026014964047003968 -0.034630157120828113 0 0.00024145048046814033 -0.034634536120628161 0 0.00027095397479181529 -0.034482655768528714 0 0.00023259354818513676 -0.034471919224953164 0 0.00022765807763373998 -0.034522649517818291 0 0.00030970114231604454 -0.034565788501543848 0 0.00027095397479181529 -0.034482655768528714 0 0.00032561955312739515 -0.034446571038245957 0 0.00027095397479181529 -0.034482655768528714 0 0.00027362025076383843 -0.034413778457533767 0 0.00032561955312739515 -0.034446571038245957 0 0.00027095397479181529 -0.034482655768528714 0 0.00027362025076383843 -0.034413778457533767 0 0.00023259354818513676 -0.034471919224953164 0 0.00027362025076383843 -0.034413778457533767 0 0.00032561955312739515 -0.034446571038245957 0 0.00032937618393266959 -0.034348915112702549 0 0.00032561955312739515 -0.034446571038245957 0 0.00032937618393266959 -0.034348915112702549 0 0.00040435660408018445 -0.034383523290509713 0 0.00032937618393266959 -0.034348915112702549 0 0.00029780939665707769 -0.034356009713335134 0 0.00041255827622863002 -0.034223541796796521 0 0.00034209038607533866 -0.034287319425275416 0 0.00029780939665707769 -0.034356009713335134 0 0.00041255827622863002 -0.034223541796796521 0 0.00027362025076383843 -0.034413778457533767 0 0.00029780939665707769 -0.034356009713335134 0 0.00020898726589355795 -0.034443382404305341 0 0.00027362025076383843 -0.034413778457533767 0 0.00032937618393266959 -0.034348915112702549 0 0.00029780939665707769 -0.034356009713335134 0 0.00029780939665707769 -0.034356009713335134 0 0.00020898726589355795 -0.034443382404305341 0 0.00018904361831552382 -0.034397322992276429 0 0.00025385874525138988 -0.034430251310102925 0 0.00029780939665707769 -0.034356009713335134 0 0.00018901242158426068 -0.034544518660773599 0 0.00021704839498540366 -0.034452575118855876 0 0.00017543626086744278 -0.034476840231569918 0 0.00017543626086744278 -0.034476840231569918 0 0.00012864615289358337 -0.03451032355017529 0 0.00020898726589355795 -0.034443382404305341 0 0.00018904361831552382 -0.034397322992276429 0 0.00014006360069839646 -0.034477055609425149 0 0.00018904361831552382 -0.034397322992276429 0 0.00014006360069839646 -0.034477055609425149 0 0.00010169608521259923 -0.034468711768030652 0 0.00020898726589355795 -0.034443382404305341 0 0.00014006360069839646 -0.034477055609425149 0 0.00016462020149843616 -0.034493989788041197 0 0.00016462020149843616 -0.034493989788041197 0 0.00018052866423489493 -0.034514628302654199 0 0.00010876742443165586 -0.03452900190048535 0 0.00016462020149843616 -0.034493989788041197 0 0.0001946303109316184 -0.034499464287399757 0 0.00018052866423489493 -0.034514628302654199 0 0.00027362025076383843 -0.034413778457533767 0 0.00020898726589355795 -0.034443382404305341 0 0.00023259354818513676 -0.034471919224953164 0 0.00020898726589355795 -0.034443382404305341 0 0.00016462020149843616 -0.034493989788041197 0 0.0001946303109316184 -0.034499464287399757 0 0.00020898726589355795 -0.034443382404305341 0 0.00023259354818513676 -0.034471919224953164 0 0.0001946303109316184 -0.034499464287399757 0 0.00024145048046814033 -0.034634536120628161 0 0.00022726313216629051 -0.03465843659895082 0 0.0001946303109316184 -0.034499464287399757 0 0.00022765807763373998 -0.034522649517818291 0 0.00018077335059744182 -0.034510667281926692 0 0.00024051506949402171 -0.034590743221040401 0 0.00019746130704323574 -0.034631905293255508 0 0.00017003173224282983 -0.034587924357820772 0 0.00022890673820167751 -0.034654256418569944 0 0.00022726313216629051 -0.03465843659895082 0 0.00023259354818513676 -0.034471919224953164 0 0.0001946303109316184 -0.034499464287399757 0 0.00022765807763373998 -0.034522649517818291 0 0.00024938352966148155 -0.034660765037234371 0 0.00024051506949402171 -0.034590743221040401 0 0.00019746130704323574 -0.034631905293255508 0 0.00022726313216629051 -0.03465843659895082 0 0.00016995185132479533 -0.0346189587566803 0 0.00018758042904616046 -0.034753472695908061 0 0.00022726313216629051 -0.03465843659895082 0 8.957355324590325e-05 -0.034679576848285237 0 0.00015402436385035718 -0.034667391881328218 0 0.00017003173224282983 -0.034587924357820772 0 0.00015402436385035718 -0.034667391881328218 0 0.00019746130704323574 -0.034631905293255508 0 0.00017003173224282983 -0.034587924357820772 0 0.00033574962491264001 -0.034882255294910097 0 0.000529354521227221 -0.034725912619235029 0 0.0002612569498780469 -0.034660100372504804 0 0.00033574962491264001 -0.034882255294910097 0 0.00016918045440111017 -0.034782967011968903 0 0.0002612569498780469 -0.034660100372504804 0 0.00016918045440111017 -0.034782967011968903 0 0.00012321764654853873 -0.034685381176425237 0 0.0002612569498780469 -0.034660100372504804 0 0.00018414532754870304 -0.034901793060901361 0 0.00016918045440111017 -0.034782967011968903 0 2.5826108720534233e-05 -0.034782837222808519 0 0.00016918045440111017 -0.034782967011968903 0 0.00012321764654853873 -0.034685381176425237 0 8.3647757931905084e-05 -0.034728506379312067 0 0.00016995185132479533 -0.0346189587566803 0 0.00010417073345434614 -0.034597492195878495 0 0.00012321764654853873 -0.034685381176425237 0 0.0002612569498780469 -0.034660100372504804 0 5.1733691706702354e-05 -0.034570723738980305 0 0.00010876742443165586 -0.03452900190048535 0 9.2179115488490298e-05 -0.034517587999478835 0 5.1733691706702354e-05 -0.034570723738980305 0 0.00014006360069839646 -0.034477055609425149 0 0.00016462020149843616 -0.034493989788041197 0 0.00010876742443165586 -0.03452900190048535 0 0.00014006360069839646 -0.034477055609425149 0 0.00010876742443165586 -0.03452900190048535 0 9.2179115488490298e-05 -0.034517587999478835 0 0.00014006360069839646 -0.034477055609425149 0 0.00010169608521259923 -0.034468711768030652 0 9.2179115488490298e-05 -0.034517587999478835 0 0.00010315807043851292 -0.034600892660156271 0 0.00018901242158426068 -0.034544518660773599 0 8.8408715213880482e-05 -0.034618185442918135 0 8.8408715213880482e-05 -0.034618185442918135 0 7.5762800693537607e-05 -0.034565575618228664 0 7.5364428392853098e-05 -0.034602812910768589 0 6.9055649684524287e-05 -0.034632780864926806 0 8.8408715213880482e-05 -0.034618185442918135 0 7.5364428392853098e-05 -0.034602812910768589 0 0.00010315807043851292 -0.034600892660156271 0 6.9055649684524287e-05 -0.034632780864926806 0 8.8408715213880482e-05 -0.034618185442918135 0 0.00012864615289358337 -0.03451032355017529 0 0.00011651981516942567 -0.034523421513216364 0 0.00010169608521259923 -0.034468711768030652 0 9.2179115488490298e-05 -0.034517587999478835 0 6.6703110386628252e-05 -0.034545634335691473 0 0.00010169608521259923 -0.034468711768030652 0 6.6703110386628252e-05 -0.034545634335691473 0 7.5762800693537607e-05 -0.034565575618228664 0 7.5762800693537607e-05 -0.034565575618228664 0 9.8612285989746286e-05 -0.034575483411165092 0 3.4952531530769587e-05 -0.034553310351384536 0 3.6789908882207651e-05 -0.034820792706462725 0 2.7056015209415548e-05 -0.034841178041763031 0 6.6703110386628252e-05 -0.034545634335691473 0 7.5762800693537607e-05 -0.034565575618228664 0 3.4952531530769587e-05 -0.034553310351384536 0 7.5762800693537607e-05 -0.034565575618228664 0 7.5364428392853098e-05 -0.034602812910768589 0 9.8612285989746286e-05 -0.034575483411165092 0 8.8626123660255824e-05 -0.034635958663906341 0 7.5364428392853098e-05 -0.034602812910768589 0 9.8612285989746286e-05 -0.034575483411165092 0 6.9055649684524287e-05 -0.034632780864926806 0 8.8626123660255824e-05 -0.034635958663906341 0 7.5364428392853098e-05 -0.034602812910768589 0 0.00013885030008424778 -0.034687216506259159 0 8.8626123660255824e-05 -0.034635958663906341 0 9.8612285989746286e-05 -0.034575483411165092 0 4.4909094599039891e-05 -0.034834234367769917 0 3.6789908882207651e-05 -0.034820792706462725 0 1.2716349957789209e-10 -0.035000035492582023 0 2.7998594885490985e-06 -0.035001093766330482 0 3.1213277024716431e-09 -0.034999992945207281 0 3.1213277024716431e-09 -0.034999992945207281 0 1.0932217343006114e-06 -0.035000442983490546 0 9.2008356844231657e-11 -0.035000004606522278 0 2.7998594885490985e-06 -0.035001093766330482 0 1.0932217343006114e-06 -0.035000442983490546 0 3.5130961807776697e-07 -0.035000011032559168 0 2.7998594885490985e-06 -0.035001093766330482 0 3.1213277024716431e-09 -0.034999992945207281 0 1.0932217343006114e-06 -0.035000442983490546 0 1.0932217343006114e-06 -0.035000442983490546 0 3.5130961807776697e-07 -0.035000011032559168 0 9.2008356844231657e-11 -0.035000004606522278 0 9.2179115488490298e-05 -0.034517587999478835 0 6.6703110386628252e-05 -0.034545634335691473 0 5.1733691706702354e-05 -0.034570723738980305 0 6.6703110386628252e-05 -0.034545634335691473 0 5.1733691706702354e-05 -0.034570723738980305 0 3.4952531530769587e-05 -0.034553310351384536 0 0.00012321764654853873 -0.034685381176425237 0 5.1733691706702354e-05 -0.034570723738980305 0 6.0417786935599754e-05 -0.034661654521979009 0 3.4952531530769587e-05 -0.034553310351384536 0 6.0417786935599754e-05 -0.034661654521979009 0 4.7619202080877686e-05 -0.03469542640151338 0 5.1733691706702354e-05 -0.034570723738980305 0 3.4952531530769587e-05 -0.034553310351384536 0 6.0417786935599754e-05 -0.034661654521979009 0 0.00016918045440111017 -0.034782967011968903 0 8.3647757931905084e-05 -0.034728506379312067 0 2.5826108720534233e-05 -0.034782837222808519 0 3.4952531530769587e-05 -0.034553310351384536 0 4.7619202080877686e-05 -0.03469542640151338 0 2.5826108720534233e-05 -0.034782837222808519 0 2.7056015209415548e-05 -0.034841178041763031 0 2.8925809525160917e-05 -0.034931659897372729 0 0.00012321764654853873 -0.034685381176425237 0 6.0417786935599754e-05 -0.034661654521979009 0 8.3647757931905084e-05 -0.034728506379312067 0 4.7619202080877686e-05 -0.03469542640151338 0 8.3647757931905084e-05 -0.034728506379312067 0 2.5826108720534233e-05 -0.034782837222808519 0 6.0417786935599754e-05 -0.034661654521979009 0 4.7619202080877686e-05 -0.03469542640151338 0 8.3647757931905084e-05 -0.034728506379312067 0 2.8925809525160917e-05 -0.034931659897372729 0 2.9011504513495509e-05 -0.034931922161996594 0 1.5465444668230733e-05 -0.034979767118558734 0 3.0086736863759869e-05 -0.034964272886749963 0 3.6755944426258779e-05 -0.034950478157129324 0 3.0086736863759869e-05 -0.034964272886749963 0 3.6755944426258779e-05 -0.034950478157129324 0 4.0586004731023943e-05 -0.034942603047661447 0 1.1195788445704862e-08 -0.034999963348533281 0 1.5465444668230733e-05 -0.034979767118558734 0 4.0318662801955009e-09 -0.034999960655779649 0 2.8925809525160917e-05 -0.034931659897372729 0 7.0992399696643607e-08 -0.034999884443825791 0 3.5130961807776697e-07 -0.035000011032559168 0 2.5497288236388608e-07 -0.034999989081049496 0 9.2008356844231657e-11 -0.035000004606522278 0 1.5465444668230733e-05 -0.034979767118558734 0 3.6755944426258779e-05 -0.034950478157129324 0 4.0318662801955009e-09 -0.034999960655779649 0 0.00058490344254850989 -0.033453997902863283 0 0.00056238685243254806 -0.033475897976819817 0 0.00056321409054086813 -0.033457900694126651 0 0.00058490344254850989 -0.033453997902863283 0 0.00059022871717531581 -0.033454786857344175 0 0.00059072927886259286 -0.033449597445594247 0 0.00058490344254850989 -0.033453997902863283 0 0.00056321409054086813 -0.033457900694126651 0 0.00059022871717531581 -0.033454786857344175 0 0.00058490344254850989 -0.033453997902863283 0 0.00060769908363994226 -0.033456485745217313 0 0.00056238685243254806 -0.033475897976819817 0 0.00058490344254850989 -0.033453997902863283 0 0.00060769908363994226 -0.033456485745217313 0 0.00062555206649972438 -0.033439216166778932 0 0.00056238685243254806 -0.033475897976819817 0 0.00056321409054086813 -0.033457900694126651 0 0.00053083367563337203 -0.033462055386876924 0 0.00056321409054086813 -0.033457900694126651 0 0.00057541463543311661 -0.033428836558911872 0 0.00053083367563337203 -0.033462055386876924 0 0.00057541463543311661 -0.033428836558911872 0 0.00058618585271600439 -0.033447703124246241 0 0.00062708863404567082 -0.033447996284211259 0 0.00056321409054086813 -0.033457900694126651 0 0.00057541463543311661 -0.033428836558911872 0 0.00058618585271600439 -0.033447703124246241 0 0.00057541463543311661 -0.033428836558911872 0 0.00064331539618451281 -0.033420322665561289 0 0.00062708863404567082 -0.033447996284211259 0 0.00064331539618451281 -0.033420322665561289 0 0.00067033819924849989 -0.033378071214634597 0 0.00070856638718623673 -0.033407706838439889 0 0.00057541463543311661 -0.033428836558911872 0 0.00064331539618451281 -0.033420322665561289 0 0.00061685592943192067 -0.033397161802187471 0 0.00064331539618451281 -0.033420322665561289 0 0.00067033819924849989 -0.033378071214634597 0 0.00061685592943192067 -0.033397161802187471 0 0.00064331539618451281 -0.033420322665561289 0 0.00069158922114852771 -0.033450043555818647 0 0.00062708863404567082 -0.033447996284211259 0 0.00064331539618451281 -0.033420322665561289 0 0.00069158922114852771 -0.033450043555818647 0 0.00070856638718623673 -0.033407706838439889 0 0.00069158922114852771 -0.033450043555818647 0 0.00062708863404567082 -0.033447996284211259 0 0.00069555988874580189 -0.033468483416018421 0 0.00062708863404567082 -0.033447996284211259 0 0.00069555988874580189 -0.033468483416018421 0 0.00064377202679119505 -0.033460855465297659 0 0.00056321409054086813 -0.033457900694126651 0 0.00058618585271600439 -0.033447703124246241 0 0.00059022871717531581 -0.033454786857344175 0 0.00058618585271600439 -0.033447703124246241 0 0.00062708863404567082 -0.033447996284211259 0 0.00059022871717531581 -0.033454786857344175 0 0.00062708863404567082 -0.033447996284211259 0 0.00059022871717531581 -0.033454786857344175 0 0.00064377202679119505 -0.033460855465297659 0 0.00059022871717531581 -0.033454786857344175 0 0.00060408163736075718 -0.033459151647270056 0 0.00059072927886259286 -0.033449597445594247 0 0.00059022871717531581 -0.033454786857344175 0 0.00060408163736075718 -0.033459151647270056 0 0.00064377202679119505 -0.033460855465297659 0 0.00060408163736075718 -0.033459151647270056 0 0.00063195482441388373 -0.033479957353389538 0 0.00058868758339786014 -0.033444034898214375 0 0.00060408163736075718 -0.033459151647270056 0 0.00058868758339786014 -0.033444034898214375 0 0.00059072927886259286 -0.033449597445594247 0 0.00069555988874580189 -0.033468483416018421 0 0.00070419022762618704 -0.033464740693787701 0 0.00064377202679119505 -0.033460855465297659 0 0.00060408163736075718 -0.033459151647270056 0 0.00064377202679119505 -0.033460855465297659 0 0.00063195482441388373 -0.033479957353389538 0 0.00070419022762618704 -0.033464740693787701 0 0.00064377202679119505 -0.033460855465297659 0 0.00063195482441388373 -0.033479957353389538 0 0.00070419022762618704 -0.033464740693787701 0 0.00063195482441388373 -0.033479957353389538 0 0.00073568821375910956 -0.033465792707362725 0 0.00058965520662460113 -0.033609477901340598 0 0.00063195482441388373 -0.033479957353389538 0 0.00070874142700340001 -0.033563490208806737 0 0.00063195482441388373 -0.033479957353389538 0 0.00070874142700340001 -0.033563490208806737 0 0.00073568821375910956 -0.033465792707362725 0 0.0012471659748639705 -0.033044523358305093 0 0.0010309179744977229 -0.033324133209599489 0 0.00054300159133518025 -0.033383548018822734 0 0.00063195482441388373 -0.033479957353389538 0 0.00058247827624519565 -0.033431033491318332 0 0.00063195482441388373 -0.033479957353389538 0 0.00058868758339786014 -0.033444034898214375 0 0.00058247827624519565 -0.033431033491318332 0 0.00058868758339786014 -0.033444034898214375 0 0.00058247827624519565 -0.033431033491318332 0 0.00057892750562662349 -0.033407521472401322 0 0.00054300159133518025 -0.033383548018822734 0 0.00058247827624519565 -0.033431033491318332 0 0.00057892750562662349 -0.033407521472401322 0 0.00057892750562662349 -0.033407521472401322 0 0.0005957633783887366 -0.03339188284980351 0 0.00059371826636330329 -0.033426076160191526 0 0.0005957633783887366 -0.03339188284980351 0 0.00059371826636330329 -0.033426076160191526 0 0.00061763058813261963 -0.033400682382967402 0 0.00059371826636330329 -0.033426076160191526 0 0.00060599776998548753 -0.03343501735978225 0 0.00061763058813261963 -0.033400682382967402 0 0.00058868758339786014 -0.033444034898214375 0 0.00057892750562662349 -0.033407521472401322 0 0.00059371826636330329 -0.033426076160191526 0 0.00058868758339786014 -0.033444034898214375 0 0.00059371826636330329 -0.033426076160191526 0 0.00059072927886259286 -0.033449597445594247 0 0.00058490344254850989 -0.033453997902863283 0 0.00059072927886259286 -0.033449597445594247 0 0.00060599776998548753 -0.03343501735978225 0 0.00059371826636330329 -0.033426076160191526 0 0.00059072927886259286 -0.033449597445594247 0 0.00060599776998548753 -0.03343501735978225 0 0.00058490344254850989 -0.033453997902863283 0 0.00062555206649972438 -0.033439216166778932 0 0.00060599776998548753 -0.03343501735978225 0 0.00062555206649972438 -0.033439216166778932 0 0.00060599776998548753 -0.03343501735978225 0 0.00064086674349747455 -0.033415132514962864 0 0.00060599776998548753 -0.03343501735978225 0 0.00064086674349747455 -0.033415132514962864 0 0.00061763058813261963 -0.033400682382967402 0 0.00065669419814330492 -0.033371730066956679 0 0.00064086674349747455 -0.033415132514962864 0 0.00061763058813261963 -0.033400682382967402 0 0.00065669419814330492 -0.033371730066956679 0 0.00064086674349747455 -0.033415132514962864 0 0.0006874790968572766 -0.033399964276548101 0 0.00064086674349747455 -0.033415132514962864 0 0.0006874790968572766 -0.033399964276548101 0 0.00066035402963276113 -0.033424330940213957 0 0.0006874790968572766 -0.033399964276548101 0 0.00069306173342027202 -0.033421570738033562 0 0.00066035402963276113 -0.033424330940213957 0 0.0006874790968572766 -0.033399964276548101 0 0.00070759064998064582 -0.033407207563386929 0 0.00069306173342027202 -0.033421570738033562 0 0.0006874790968572766 -0.033399964276548101 0 0.0007267547918569121 -0.033393147923732922 0 0.00070759064998064582 -0.033407207563386929 0 0.00071415644428405743 -0.033348704527401726 0 0.0006874790968572766 -0.033399964276548101 0 0.0007267547918569121 -0.033393147923732922 0 0.00078552812389547869 -0.033370187909083963 0 0.0007267547918569121 -0.033393147923732922 0 0.00072815139572817962 -0.033412769509248229 0 0.0007267547918569121 -0.033393147923732922 0 0.00072815139572817962 -0.033412769509248229 0 0.00072011343596612353 -0.033411612760171093 0 0.0007267547918569121 -0.033393147923732922 0 0.00070759064998064582 -0.033407207563386929 0 0.00072011343596612353 -0.033411612760171093 0 0.00053599916035760263 -0.033842863598052879 0 0.00052220119513217888 -0.034017863800750454 0 0.00078552812389547869 -0.033370187909083963 0 0.00079453925315903912 -0.033528773489015687 0 0.00093187898979794047 -0.033448791477083593 0 0.00052220119513217888 -0.034017863800750454 0 0.00052364397656782613 -0.034016593909310493 0 0.00070759064998064582 -0.033407207563386929 0 0.00072011343596612353 -0.033411612760171093 0 0.00069306173342027202 -0.033421570738033562 0 0.00072073984670669594 -0.033411256907087433 0 0.00072011343596612353 -0.033411612760171093 0 0.00069306173342027202 -0.033421570738033562 0 0.00052220119513217888 -0.034017863800750454 0 0.00059326422489349286 -0.034076302655722729 0 0.00072073984670669594 -0.033411256907087433 0 0.00069306173342027202 -0.033421570738033562 0 0.00068005691027161715 -0.03344522767085064 0 0.00069306173342027202 -0.033421570738033562 0 0.00065479652752963794 -0.033442244568399546 0 0.00068005691027161715 -0.03344522767085064 0 0.00065437096553532166 -0.034933747253029973 0 0.00056733793000745528 -0.034843976663031649 0 0.00064852880975164182 -0.034780724819071358 0 0.00060769908363994226 -0.033456485745217313 0 0.00062555206649972438 -0.033439216166778932 0 0.00065479652752963794 -0.033442244568399546 0 0.00062555206649972438 -0.033439216166778932 0 0.00064086674349747455 -0.033415132514962864 0 0.00066035402963276113 -0.033424330940213957 0 0.00062555206649972438 -0.033439216166778932 0 0.00065479652752963794 -0.033442244568399546 0 0.00066035402963276113 -0.033424330940213957 0 0.00069306173342027202 -0.033421570738033562 0 0.00065479652752963794 -0.033442244568399546 0 0.00066035402963276113 -0.033424330940213957 0 0.0010462157023711986 -0.033415975382650676 0 0.00124388115097729 -0.033436867075199196 0 0.001048727734429713 -0.033551066060315222 0 0.00079453925315903912 -0.033528773489015687 0 0.001048727734429713 -0.033551066060315222 0 0.00093187898979794047 -0.033448791477083593 0 0.00052220119513217888 -0.034017863800750454 0 0.00070329082115959483 -0.034225032682173188 0 0.00065437096553532166 -0.034933747253029973 0 0.00048609827326623778 -0.034919152584299576 0 0.00056733793000745528 -0.034843976663031649 0 0.0010462157023711986 -0.033415975382650676 0 0.001048727734429713 -0.033551066060315222 0 0.00093187898979794047 -0.033448791477083593 0 0.00032113823011645058 -0.034903253547268608 0 0.00048609827326623778 -0.034919152584299576 0 0.00047052034495825216 -0.034805519305841838 0 0.00048609827326623778 -0.034919152584299576 0 0.00056733793000745528 -0.034843976663031649 0 0.00047052034495825216 -0.034805519305841838 0 0.00035747011794486365 -0.03476498425043581 0 0.00047052034495825216 -0.034805519305841838 0 0.00042020020059503984 -0.03467326520884368 0 0.00047052034495825216 -0.034805519305841838 0 0.00054262829738863821 -0.03471370248060103 0 0.00042020020059503984 -0.03467326520884368 0 0.00056733793000745528 -0.034843976663031649 0 0.00047052034495825216 -0.034805519305841838 0 0.00054262829738863821 -0.03471370248060103 0 0.00054262829738863821 -0.03471370248060103 0 0.00064852880975164182 -0.034780724819071358 0 0.00065188037420807314 -0.034619084555311125 0 0.00056733793000745528 -0.034843976663031649 0 0.00054262829738863821 -0.03471370248060103 0 0.00064852880975164182 -0.034780724819071358 0 0.00054262829738863821 -0.03471370248060103 0 0.00065188037420807314 -0.034619084555311125 0 0.00049756640054342239 -0.034532732477080864 0 0.00054262829738863821 -0.03471370248060103 0 0.00042020020059503984 -0.03467326520884368 0 0.00049756640054342239 -0.034532732477080864 0 0.00038584149001930632 -0.034558777664262394 0 0.00042020020059503984 -0.03467326520884368 0 0.00049756640054342239 -0.034532732477080864 0 0.00060769908363994226 -0.033456485745217313 0 0.00065479652752963794 -0.033442244568399546 0 0.00062787321440882298 -0.033468307671665296 0 0.00068005691027161715 -0.03344522767085064 0 0.00067509470798792989 -0.033491112212931058 0 0.00062787321440882298 -0.033468307671665296 0 0.00059326422489349286 -0.034076302655722729 0 0.00062484629818584491 -0.034054335162923416 0 0.00065479652752963794 -0.033442244568399546 0 0.00068005691027161715 -0.03344522767085064 0 0.00062787321440882298 -0.033468307671665296 0 0.00067509470798792989 -0.033491112212931058 0 0.00062787321440882298 -0.033468307671665296 0 0.00058323980017081095 -0.033546923210882235 0 0.00056238685243254806 -0.033475897976819817 0 0.00062787321440882298 -0.033468307671665296 0 0.00058323980017081095 -0.033546923210882235 0 0.00060769908363994226 -0.033456485745217313 0 0.00056238685243254806 -0.033475897976819817 0 0.00062787321440882298 -0.033468307671665296 0 0.00062484629818584491 -0.034054335162923416 0 0.00063611016733114618 -0.034024453787147746 0 0.00067509470798792989 -0.033491112212931058 0 0.00058323980017081095 -0.033546923210882235 0 0.00069815605401395305 -0.033622169945988808 0 0.00058323980017081095 -0.033546923210882235 0 0.00057661418736254164 -0.033737687891915384 0 0.00069815605401395305 -0.033622169945988808 0 0.00057661418736254164 -0.033737687891915384 0 0.00069815605401395305 -0.033622169945988808 0 0.00060727569609080316 -0.034029080280716703 0 0.00063611016733114618 -0.034024453787147746 0 0.00063457231690101934 -0.034013293810077734 0 0.00058323980017081095 -0.033546923210882235 0 0.00057661418736254164 -0.033737687891915384 0 0.00053040176805707097 -0.033649901156834201 0 0.00058323980017081095 -0.033546923210882235 0 0.00053040176805707097 -0.033649901156834201 0 0.00052032891173592192 -0.033524803660643032 0 0.00038584149001930632 -0.034558777664262394 0 0.00049756640054342239 -0.034532732477080864 0 0.00040435660408018445 -0.034383523290509713 0 0.00065188037420807314 -0.034619084555311125 0 0.00066118960459835376 -0.034416766038040975 0 0.00049756640054342239 -0.034532732477080864 0 0.00066118960459835376 -0.034416766038040975 0 0.00050719248096349305 -0.034289230149397339 0 0.00060727569609080316 -0.034029080280716703 0 0.00066118960459835376 -0.034416766038040975 0 0.00049756640054342239 -0.034532732477080864 0 0.00050719248096349305 -0.034289230149397339 0 0.00049756640054342239 -0.034532732477080864 0 0.00050719248096349305 -0.034289230149397339 0 0.00040435660408018445 -0.034383523290509713 0 0.00032937618393266959 -0.034348915112702549 0 0.00040435660408018445 -0.034383523290509713 0 0.00041255827622863002 -0.034223541796796521 0 0.00050719248096349305 -0.034289230149397339 0 0.00040435660408018445 -0.034383523290509713 0 0.00041255827622863002 -0.034223541796796521 0 0.00050719248096349305 -0.034289230149397339 0 0.00041255827622863002 -0.034223541796796521 0 0.00060727569609080316 -0.034029080280716703 0 0.00044212310613784872 -0.034144248964037692 0 0.00041255827622863002 -0.034223541796796521 0 0.00060727569609080316 -0.034029080280716703 0 0.0005124051513565902 -0.034016322013565671 0 0.00044212310613784872 -0.034144248964037692 0 0.00060727569609080316 -0.034029080280716703 0 0.00044212310613784872 -0.034144248964037692 0 0.00034209038607533866 -0.034287319425275416 0 0.00041255827622863002 -0.034223541796796521 0 0.00053040176805707097 -0.033649901156834201 0 0.00054099399879384475 -0.033844660253538696 0 0.00049161707980725886 -0.03359906464191946 0 0.00057661418736254164 -0.033737687891915384 0 0.00053040176805707097 -0.033649901156834201 0 0.00054099399879384475 -0.033844660253538696 0 0.00054099399879384475 -0.033844660253538696 0 0.00051371667750204058 -0.033783607124731524 0 0.00049161707980725886 -0.03359906464191946 0 0.00057661418736254164 -0.033737687891915384 0 0.00054099399879384475 -0.033844660253538696 0 0.00060727569609080316 -0.034029080280716703 0 0.0005124051513565902 -0.034016322013565671 0 0.00054099399879384475 -0.033844660253538696 0 0.00060727569609080316 -0.034029080280716703 0 0.0005124051513565902 -0.034016322013565671 0 0.00054099399879384475 -0.033844660253538696 0 0.00051371667750204058 -0.033783607124731524 0 0.00051094737289514162 -0.033907179553386825 0 0.00051371667750204058 -0.033783607124731524 0 0.00048520192634597952 -0.033748291640585695 0 0.00051371667750204058 -0.033783607124731524 0 0.00048520192634597952 -0.033748291640585695 0 0.00046249513107706451 -0.033564698416867961 0 0.00048520192634597952 -0.033748291640585695 0 0.00043160611070224068 -0.033572277981079368 0 0.00046249513107706451 -0.033564698416867961 0 0.00044376598308297596 -0.033802534112303398 0 0.00048520192634597952 -0.033748291640585695 0 0.00043160611070224068 -0.033572277981079368 0 0.00043160611070224068 -0.033572277981079368 0 0.00046249513107706451 -0.033564698416867961 0 0.00041587670551571044 -0.033414591091687332 0 0.00046249513107706451 -0.033564698416867961 0 0.0004621122477945565 -0.033468432786627131 0 0.00049161707980725886 -0.03359906464191946 0 0.00046249513107706451 -0.033564698416867961 0 0.0004621122477945565 -0.033468432786627131 0 0.00041587670551571044 -0.033414591091687332 0 0.00051371667750204058 -0.033783607124731524 0 0.00046249513107706451 -0.033564698416867961 0 0.00049161707980725886 -0.03359906464191946 0 0.00053040176805707097 -0.033649901156834201 0 0.00049161707980725886 -0.03359906464191946 0 0.00052032891173592192 -0.033524803660643032 0 0.00049161707980725886 -0.03359906464191946 0 0.00049375128731998276 -0.033471008769689059 0 0.00052032891173592192 -0.033524803660643032 0 0.0004621122477945565 -0.033468432786627131 0 0.00049161707980725886 -0.03359906464191946 0 0.00049375128731998276 -0.033471008769689059 0 0.0004621122477945565 -0.033468432786627131 0 0.00049375128731998276 -0.033471008769689059 0 0.00049557401625053351 -0.033420383830039653 0 0.00049375128731998276 -0.033471008769689059 0 0.00053328222070034455 -0.033427039452747623 0 0.00049557401625053351 -0.033420383830039653 0 0.00049375128731998276 -0.033471008769689059 0 0.00053083367563337203 -0.033462055386876924 0 0.00053328222070034455 -0.033427039452747623 0 0.00049375128731998276 -0.033471008769689059 0 0.00053083367563337203 -0.033462055386876924 0 0.00052032891173592192 -0.033524803660643032 0 0.00056238685243254806 -0.033475897976819817 0 0.00053083367563337203 -0.033462055386876924 0 0.00052032891173592192 -0.033524803660643032 0 0.00056238685243254806 -0.033475897976819817 0 0.00058323980017081095 -0.033546923210882235 0 0.00052032891173592192 -0.033524803660643032 0 0.00063392739941967014 -0.033359091063015267 0 0.00059691716079297147 -0.033342656067983339 0 0.00066573134110165454 -0.03330313064729342 0 0.00063392739941967014 -0.033359091063015267 0 0.00057803183440353889 -0.0333930552423502 0 0.00059691716079297147 -0.033342656067983339 0 0.00063392739941967014 -0.033359091063015267 0 0.00066573134110165454 -0.03330313064729342 0 0.00070779597966651696 -0.033316519712467442 0 0.00063392739941967014 -0.033359091063015267 0 0.00067033819924849989 -0.033378071214634597 0 0.00070779597966651696 -0.033316519712467442 0 0.00063392739941967014 -0.033359091063015267 0 0.00061685592943192067 -0.033397161802187471 0 0.00057803183440353889 -0.0333930552423502 0 0.00063392739941967014 -0.033359091063015267 0 0.00067033819924849989 -0.033378071214634597 0 0.00061685592943192067 -0.033397161802187471 0 0.00057541463543311661 -0.033428836558911872 0 0.00061685592943192067 -0.033397161802187471 0 0.00057803183440353889 -0.0333930552423502 0 0.00057541463543311661 -0.033428836558911872 0 0.00053083367563337203 -0.033462055386876924 0 0.00053328222070034455 -0.033427039452747623 0 0.00057541463543311661 -0.033428836558911872 0 0.00053328222070034455 -0.033427039452747623 0 0.00057803183440353889 -0.0333930552423502 0 0.00057803183440353889 -0.0333930552423502 0 0.00053897595828511329 -0.03339069056816113 0 0.00059691716079297147 -0.033342656067983339 0 0.00053328222070034455 -0.033427039452747623 0 0.00057803183440353889 -0.0333930552423502 0 0.00053897595828511329 -0.03339069056816113 0 0.00053897595828511329 -0.03339069056816113 0 0.00055757406505385209 -0.033313687242429897 0 0.00059691716079297147 -0.033342656067983339 0 0.00053328222070034455 -0.033427039452747623 0 0.00053897595828511329 -0.03339069056816113 0 0.00049557401625053351 -0.033420383830039653 0 0.00053897595828511329 -0.03339069056816113 0 0.00049557401625053351 -0.033420383830039653 0 0.00048051049339608643 -0.033378440904388837 0 0.0004621122477945565 -0.033468432786627131 0 0.00049557401625053351 -0.033420383830039653 0 0.00048051049339608643 -0.033378440904388837 0 0.00053897595828511329 -0.03339069056816113 0 0.00055757406505385209 -0.033313687242429897 0 0.00048051049339608643 -0.033378440904388837 0 0.00062365221386765247 -0.03329046462053778 0 0.00055757406505385209 -0.033313687242429897 0 0.00059691716079297147 -0.033342656067983339 0 0.00062365221386765247 -0.03329046462053778 0 0.00055757406505385209 -0.033313687242429897 0 0.00069286816629334381 -0.033203489763068333 0 0.00062365221386765247 -0.03329046462053778 0 0.00059691716079297147 -0.033342656067983339 0 0.00066573134110165454 -0.03330313064729342 0 0.00066573134110165454 -0.03330313064729342 0 0.00069286816629334381 -0.033203489763068333 0 0.00075461918952053966 -0.033230864244157707 0 0.00062365221386765247 -0.03329046462053778 0 0.00066573134110165454 -0.03330313064729342 0 0.00069286816629334381 -0.033203489763068333 0 0.00055757406505385209 -0.033313687242429897 0 0.0005882379080151272 -0.033223143768510682 0 0.00045227879707959641 -0.03332777380842996 0 0.00055757406505385209 -0.033313687242429897 0 0.00069286816629334381 -0.033203489763068333 0 0.0005882379080151272 -0.033223143768510682 0 0.00069286816629334381 -0.033203489763068333 0 0.0005882379080151272 -0.033223143768510682 0 0.00070753688769154964 -0.033075645298846879 0 0.0004621122477945565 -0.033468432786627131 0 0.00048051049339608643 -0.033378440904388837 0 0.00041587670551571044 -0.033414591091687332 0 0.00055757406505385209 -0.033313687242429897 0 0.00048051049339608643 -0.033378440904388837 0 0.00045227879707959641 -0.03332777380842996 0 0.00045227879707959641 -0.03332777380842996 0 0.00041587670551571044 -0.033414591091687332 0 0.00033880637639581473 -0.033336261192710277 0 0.00048051049339608643 -0.033378440904388837 0 0.00045227879707959641 -0.03332777380842996 0 0.00041587670551571044 -0.033414591091687332 0 0.00046305515355142269 -0.032422660082060045 0 0.00033880637639581473 -0.033336261192710277 0 0.00057430911791009722 -0.033043927967072333 0 0.00043160611070224068 -0.033572277981079368 0 0.00041587670551571044 -0.033414591091687332 0 0.00033880637639581473 -0.033336261192710277 0 0.00045227879707959641 -0.03332777380842996 0 0.00033880637639581473 -0.033336261192710277 0 0.00057430911791009722 -0.033043927967072333 0 0.00034366217142835275 -0.033673566371904183 0 0.00043160611070224068 -0.033572277981079368 0 0.00033880637639581473 -0.033336261192710277 0 0.00070753688769154964 -0.033075645298846879 0 0.00057430911791009722 -0.033043927967072333 0 0.00073722700763536513 -0.032920840557346398 0 0.0005882379080151272 -0.033223143768510682 0 0.00045227879707959641 -0.03332777380842996 0 0.00057430911791009722 -0.033043927967072333 0 0.0005882379080151272 -0.033223143768510682 0 0.00070753688769154964 -0.033075645298846879 0 0.00057430911791009722 -0.033043927967072333 0 0.00068238891713881208 -0.032841709543337323 0 0.00057430911791009722 -0.033043927967072333 0 0.00073722700763536513 -0.032920840557346398 0 0.00068238891713881208 -0.032841709543337323 0 0.00076981580417891473 -0.032770748083981893 0 0.00073722700763536513 -0.032920840557346398 0 0.00073722700763536513 -0.032920840557346398 0 0.00083869415431709043 -0.032827294189142611 0 0.00084973725359567889 -0.032930005283744131 0 0.00076981580417891473 -0.032770748083981893 0 0.00073722700763536513 -0.032920840557346398 0 0.00083869415431709043 -0.032827294189142611 0 0.00070753688769154964 -0.033075645298846879 0 0.00073722700763536513 -0.032920840557346398 0 0.00084973725359567889 -0.032930005283744131 0 0.00084973725359567889 -0.032930005283744131 0 0.0010237052049550648 -0.032824373898994681 0 0.00090767897831540414 -0.032976548576138964 0 0.00083869415431709043 -0.032827294189142611 0 0.00084973725359567889 -0.032930005283744131 0 0.00095747530143505655 -0.032764646611874629 0 0.0011246273117392401 -0.0326770712891674 0 0.0010237052049550648 -0.032824373898994681 0 0.0012449056039247578 -0.032718143876019692 0 0.0011246273117392401 -0.0326770712891674 0 0.00095747530143505655 -0.032764646611874629 0 0.0010237052049550648 -0.032824373898994681 0 0.0010237052049550648 -0.032824373898994681 0 0.0010748134226267034 -0.032881616116798074 0 0.0012449056039247578 -0.032718143876019692 0 0.00084973725359567889 -0.032930005283744131 0 0.00095747530143505655 -0.032764646611874629 0 0.0010237052049550648 -0.032824373898994681 0 0.0010237052049550648 -0.032824373898994681 0 0.0010748134226267034 -0.032881616116798074 0 0.00090767897831540414 -0.032976548576138964 0 0.0010748134226267034 -0.032881616116798074 0 0.00095594118107908779 -0.033008208823855495 0 0.0010114032863824314 -0.033027300418690321 0 0.0010748134226267034 -0.032881616116798074 0 0.00095594118107908779 -0.033008208823855495 0 0.00090767897831540414 -0.032976548576138964 0 0.00095594118107908779 -0.033008208823855495 0 0.00090767897831540414 -0.032976548576138964 0 0.00081823116084512649 -0.033123562018009131 0 0.00079091314699141001 -0.033067252242378962 0 0.00090767897831540414 -0.032976548576138964 0 0.00081823116084512649 -0.033123562018009131 0 0.00069286816629334381 -0.033203489763068333 0 0.00079091314699141001 -0.033067252242378962 0 0.00081823116084512649 -0.033123562018009131 0 0.00069286816629334381 -0.033203489763068333 0 0.00070753688769154964 -0.033075645298846879 0 0.00079091314699141001 -0.033067252242378962 0 0.00070753688769154964 -0.033075645298846879 0 0.00084973725359567889 -0.032930005283744131 0 0.00079091314699141001 -0.033067252242378962 0 0.00084973725359567889 -0.032930005283744131 0 0.00079091314699141001 -0.033067252242378962 0 0.00090767897831540414 -0.032976548576138964 0 0.001380491562529722 -0.032630801193819441 0 0.00140458166956286 -0.03268288423001358 0 0.0012449056039247578 -0.032718143876019692 0 0.00140458166956286 -0.03268288423001358 0 0.0012449056039247578 -0.032718143876019692 0 0.001349382231075315 -0.032694304797876869 0 0.0010748134226267034 -0.032881616116798074 0 0.0012449056039247578 -0.032718143876019692 0 0.0012237600526006302 -0.032819197412896857 0 0.0012449056039247578 -0.032718143876019692 0 0.0012237600526006302 -0.032819197412896857 0 0.001349382231075315 -0.032694304797876869 0 0.0010748134226267034 -0.032881616116798074 0 0.0012237600526006302 -0.032819197412896857 0 0.0010114032863824314 -0.033027300418690321 0 0.0012237600526006302 -0.032819197412896857 0 0.001349382231075315 -0.032694304797876869 0 0.0014634258694467028 -0.032601267836903945 0 0.00140458166956286 -0.03268288423001358 0 0.001349382231075315 -0.032694304797876869 0 0.0014634258694467028 -0.032601267836903945 0 0.00140458166956286 -0.03268288423001358 0 0.0014634258694467028 -0.032601267836903945 0 0.0014752703305206661 -0.032670302457429086 0 0.0014634258694467028 -0.032601267836903945 0 0.0013415330871435608 -0.032858418440640524 0 0.0017363819093770103 -0.032288546220970368 0 0.0012237600526006302 -0.032819197412896857 0 0.0014634258694467028 -0.032601267836903945 0 0.0013415330871435608 -0.032858418440640524 0 0.0013415330871435608 -0.032858418440640524 0 0.0011089208134305384 -0.033018199673088597 0 0.0011540699463188856 -0.033158040870762025 0 0.0012237600526006302 -0.032819197412896857 0 0.0013415330871435608 -0.032858418440640524 0 0.0011089208134305384 -0.033018199673088597 0 0.0012237600526006302 -0.032819197412896857 0 0.0011089208134305384 -0.033018199673088597 0 0.0010114032863824314 -0.033027300418690321 0 0.0011089208134305384 -0.033018199673088597 0 0.0011540699463188856 -0.033158040870762025 0 0.0010122938194841741 -0.033178120274285565 0 0.0010176983774337314 -0.033271704184810305 0 0.0011540699463188856 -0.033158040870762025 0 0.0010122938194841741 -0.033178120274285565 0 0.0010176983774337314 -0.033271704184810305 0 0.0011540699463188856 -0.033158040870762025 0 0.0011970186983696364 -0.03331321875487879 0 0.0011540699463188856 -0.033158040870762025 0 0.0013546943260887149 -0.033130637204954565 0 0.0011970186983696364 -0.03331321875487879 0 0.0013415330871435608 -0.032858418440640524 0 0.0013546943260887149 -0.033130637204954565 0 0.0017486888573005105 -0.033015748274647129 0 0.0013415330871435608 -0.032858418440640524 0 0.0011540699463188856 -0.033158040870762025 0 0.0013546943260887149 -0.033130637204954565 0 0.00085713909696155991 -0.033154760031803197 0 0.00075461918952053966 -0.033230864244157707 0 0.0008014760762333293 -0.033266292175531564 0 0.00085713909696155991 -0.033154760031803197 0 0.00091803661346338415 -0.033158407979917488 0 0.0008014760762333293 -0.033266292175531564 0 0.00069286816629334381 -0.033203489763068333 0 0.00075461918952053966 -0.033230864244157707 0 0.00081823116084512649 -0.033123562018009131 0 0.00085713909696155991 -0.033154760031803197 0 0.00075461918952053966 -0.033230864244157707 0 0.00081823116084512649 -0.033123562018009131 0 0.00095594118107908779 -0.033008208823855495 0 0.00085713909696155991 -0.033154760031803197 0 0.00081823116084512649 -0.033123562018009131 0 0.00095594118107908779 -0.033008208823855495 0 0.00085713909696155991 -0.033154760031803197 0 0.0010114032863824314 -0.033027300418690321 0 0.0011089208134305384 -0.033018199673088597 0 0.0010114032863824314 -0.033027300418690321 0 0.00091803661346338415 -0.033158407979917488 0 0.00085713909696155991 -0.033154760031803197 0 0.0010114032863824314 -0.033027300418690321 0 0.00091803661346338415 -0.033158407979917488 0 0.00091803661346338415 -0.033158407979917488 0 0.00088740350552437165 -0.033277549245022256 0 0.0008014760762333293 -0.033266292175531564 0 0.00091803661346338415 -0.033158407979917488 0 0.0010122938194841741 -0.033178120274285565 0 0.00088740350552437165 -0.033277549245022256 0 0.0011089208134305384 -0.033018199673088597 0 0.00091803661346338415 -0.033158407979917488 0 0.0010122938194841741 -0.033178120274285565 0 0.0010176983774337314 -0.033271704184810305 0 0.00088740350552437165 -0.033277549245022256 0 0.00092592619740638463 -0.03332610689167094 0 0.0010176983774337314 -0.033271704184810305 0 0.0010122938194841741 -0.033178120274285565 0 0.00088740350552437165 -0.033277549245022256 0 0.00088740350552437165 -0.033277549245022256 0 0.00080736128740339149 -0.03333187103044935 0 0.0008014760762333293 -0.033266292175531564 0 0.00080736128740339149 -0.03333187103044935 0 0.0008014760762333293 -0.033266292175531564 0 0.00074025866797422014 -0.033349974619469529 0 0.00066573134110165454 -0.03330313064729342 0 0.00075461918952053966 -0.033230864244157707 0 0.00070779597966651696 -0.033316519712467442 0 0.00075461918952053966 -0.033230864244157707 0 0.0008014760762333293 -0.033266292175531564 0 0.00070779597966651696 -0.033316519712467442 0 0.00067033819924849989 -0.033378071214634597 0 0.00070779597966651696 -0.033316519712467442 0 0.00074025866797422014 -0.033349974619469529 0 0.0008014760762333293 -0.033266292175531564 0 0.00070779597966651696 -0.033316519712467442 0 0.00074025866797422014 -0.033349974619469529 0 0.00067033819924849989 -0.033378071214634597 0 0.00074025866797422014 -0.033349974619469529 0 0.00070856638718623673 -0.033407706838439889 0 0.00074025866797422014 -0.033349974619469529 0 0.00070856638718623673 -0.033407706838439889 0 0.00077665389614045913 -0.033392388483227294 0 0.00080736128740339149 -0.03333187103044935 0 0.00074025866797422014 -0.033349974619469529 0 0.00077665389614045913 -0.033392388483227294 0 0.00080736128740339149 -0.03333187103044935 0 0.00077665389614045913 -0.033392388483227294 0 0.00085181364182328222 -0.033356253877869904 0 0.00077665389614045913 -0.033392388483227294 0 0.00074757254814041875 -0.033444513512522422 0 0.00082623759848102771 -0.033436066350252841 0 0.00069158922114852771 -0.033450043555818647 0 0.00070856638718623673 -0.033407706838439889 0 0.00074757254814041875 -0.033444513512522422 0 0.00070856638718623673 -0.033407706838439889 0 0.00077665389614045913 -0.033392388483227294 0 0.00074757254814041875 -0.033444513512522422 0 0.00069158922114852771 -0.033450043555818647 0 0.00069555988874580189 -0.033468483416018421 0 0.00073751396185526262 -0.033478515886190531 0 0.00069158922114852771 -0.033450043555818647 0 0.00074757254814041875 -0.033444513512522422 0 0.00073751396185526262 -0.033478515886190531 0 0.00074757254814041875 -0.033444513512522422 0 0.00073751396185526262 -0.033478515886190531 0 0.00077828026036295473 -0.033482119474232637 0 0.00074757254814041875 -0.033444513512522422 0 0.00077828026036295473 -0.033482119474232637 0 0.00082623759848102771 -0.033436066350252841 0 0.00073751396185526262 -0.033478515886190531 0 0.00076725883655583897 -0.033512620353868518 0 0.00074932850019692084 -0.033491593974239092 0 0.00073751396185526262 -0.033478515886190531 0 0.00077828026036295473 -0.033482119474232637 0 0.00076725883655583897 -0.033512620353868518 0 0.00077828026036295473 -0.033482119474232637 0 0.00076725883655583897 -0.033512620353868518 0 0.00078406943602787416 -0.033540510002293904 0 0.00076725883655583897 -0.033512620353868518 0 0.00078406943602787416 -0.033540510002293904 0 0.0007714555809796679 -0.033537716704158338 0 0.00076725883655583897 -0.033512620353868518 0 0.00074932850019692084 -0.033491593974239092 0 0.0007714555809796679 -0.033537716704158338 0 0.00069555988874580189 -0.033468483416018421 0 0.00073751396185526262 -0.033478515886190531 0 0.00074932850019692084 -0.033491593974239092 0 0.00087808034959806029 -0.033523127347684332 0 0.0008680452919950872 -0.033571726010519665 0 0.00078406943602787416 -0.033540510002293904 0 0.00087808034959806029 -0.033523127347684332 0 0.0008680452919950872 -0.033571726010519665 0 0.00096245220511403126 -0.033537643536679249 0 0.0008680452919950872 -0.033571726010519665 0 0.00096245220511403126 -0.033537643536679249 0 0.00095518618403424792 -0.033585379256651227 0 0.0008680452919950872 -0.033571726010519665 0 0.00095518618403424792 -0.033585379256651227 0 0.00090368032719175884 -0.033622753573373833 0 0.0008680452919950872 -0.033571726010519665 0 0.00078406943602787416 -0.033540510002293904 0 0.00069908583648810535 -0.033611502310795384 0 0.00087808034959806029 -0.033523127347684332 0 0.00078406943602787416 -0.033540510002293904 0 0.00084430571654552371 -0.033487176761615708 0 0.00077828026036295473 -0.033482119474232637 0 0.00084430571654552371 -0.033487176761615708 0 0.00082623759848102771 -0.033436066350252841 0 0.00077828026036295473 -0.033482119474232637 0 0.00078406943602787416 -0.033540510002293904 0 0.00084430571654552371 -0.033487176761615708 0 0.00084430571654552371 -0.033487176761615708 0 0.00089363548469120616 -0.033442193070594775 0 0.00082623759848102771 -0.033436066350252841 0 0.00084430571654552371 -0.033487176761615708 0 0.00094697974797114165 -0.033475841499031767 0 0.00089363548469120616 -0.033442193070594775 0 0.00087808034959806029 -0.033523127347684332 0 0.00084430571654552371 -0.033487176761615708 0 0.00094697974797114165 -0.033475841499031767 0 0.00087808034959806029 -0.033523127347684332 0 0.00094697974797114165 -0.033475841499031767 0 0.00096245220511403126 -0.033537643536679249 0 0.00094697974797114165 -0.033475841499031767 0 0.00089363548469120616 -0.033442193070594775 0 0.00099808027426449451 -0.033395755135042456 0 0.00090184176081000518 -0.033390703544614528 0 0.00092592619740638463 -0.03332610689167094 0 0.00099808027426449451 -0.033395755135042456 0 0.00089363548469120616 -0.033442193070594775 0 0.00090184176081000518 -0.033390703544614528 0 0.00099808027426449451 -0.033395755135042456 0 0.00077665389614045913 -0.033392388483227294 0 0.00082623759848102771 -0.033436066350252841 0 0.00085181364182328222 -0.033356253877869904 0 0.00090184176081000518 -0.033390703544614528 0 0.00082623759848102771 -0.033436066350252841 0 0.00085181364182328222 -0.033356253877869904 0 0.00089363548469120616 -0.033442193070594775 0 0.00090184176081000518 -0.033390703544614528 0 0.00082623759848102771 -0.033436066350252841 0 0.00088740350552437165 -0.033277549245022256 0 0.00080736128740339149 -0.03333187103044935 0 0.00085181364182328222 -0.033356253877869904 0 0.00088740350552437165 -0.033277549245022256 0 0.00085181364182328222 -0.033356253877869904 0 0.00092592619740638463 -0.03332610689167094 0 0.00090184176081000518 -0.033390703544614528 0 0.00085181364182328222 -0.033356253877869904 0 0.00092592619740638463 -0.03332610689167094 0 0.0010176983774337314 -0.033271704184810305 0 0.00092592619740638463 -0.03332610689167094 0 0.00099808027426449451 -0.033395755135042456 0 0.0010176983774337314 -0.033271704184810305 0 0.0011970186983696364 -0.03331321875487879 0 0.00099808027426449451 -0.033395755135042456 0 0.0011970186983696364 -0.03331321875487879 0 0.00099808027426449451 -0.033395755135042456 0 0.0011251936118549851 -0.033457049485519023 0 0.0011970186983696364 -0.03331321875487879 0 0.0013537726408867086 -0.033498562360447501 0 0.0011251936118549851 -0.033457049485519023 0 0.0013546943260887149 -0.033130637204954565 0 0.0011970186983696364 -0.03331321875487879 0 0.0014594910343686529 -0.033277928985390115 0 0.0011970186983696364 -0.03331321875487879 0 0.0014594910343686529 -0.033277928985390115 0 0.0013537726408867086 -0.033498562360447501 0 0.0013537726408867086 -0.033498562360447501 0 0.0013650643482315838 -0.033708502662596521 0 0.0017127147194686231 -0.03368206504697914 0 0.0013537726408867086 -0.033498562360447501 0 0.001100221192502149 -0.033575490436996432 0 0.0013650643482315838 -0.033708502662596521 0 0.001100221192502149 -0.033575490436996432 0 0.0010075536494581275 -0.033703481056034698 0 0.0013650643482315838 -0.033708502662596521 0 0.00094697974797114165 -0.033475841499031767 0 0.00099808027426449451 -0.033395755135042456 0 0.0010285750066160537 -0.033498383574499031 0 0.0010285750066160537 -0.033498383574499031 0 0.0011251936118549851 -0.033457049485519023 0 0.001100221192502149 -0.033575490436996432 0 0.00099808027426449451 -0.033395755135042456 0 0.0010285750066160537 -0.033498383574499031 0 0.0011251936118549851 -0.033457049485519023 0 0.00094697974797114165 -0.033475841499031767 0 0.0010285750066160537 -0.033498383574499031 0 0.00096245220511403126 -0.033537643536679249 0 0.0013537726408867086 -0.033498562360447501 0 0.0011251936118549851 -0.033457049485519023 0 0.001100221192502149 -0.033575490436996432 0 0.0010285750066160537 -0.033498383574499031 0 0.001100221192502149 -0.033575490436996432 0 0.00096245220511403126 -0.033537643536679249 0 0.001100221192502149 -0.033575490436996432 0 0.00096245220511403126 -0.033537643536679249 0 0.00095518618403424792 -0.033585379256651227 0 0.001100221192502149 -0.033575490436996432 0 0.00095518618403424792 -0.033585379256651227 0 0.0010132733845830218 -0.033618909778062041 0 0.001100221192502149 -0.033575490436996432 0 0.0010132733845830218 -0.033618909778062041 0 0.0010075536494581275 -0.033703481056034698 0 0.00095518618403424792 -0.033585379256651227 0 0.00098613834714730798 -0.033648024136992638 0 0.00090368032719175884 -0.033622753573373833 0 0.00095518618403424792 -0.033585379256651227 0 0.0010132733845830218 -0.033618909778062041 0 0.00098613834714730798 -0.033648024136992638 0 0.00098613834714730798 -0.033648024136992638 0 0.0010075536494581275 -0.033703481056034698 0 0.00090368032719175884 -0.033622753573373833 0 0.0010132733845830218 -0.033618909778062041 0 0.00098613834714730798 -0.033648024136992638 0 0.0010075536494581275 -0.033703481056034698 0 0.0025313718878592953 -0.027274257181115327 0 0.0014926607390007862 -0.026042307658830734 0 0.0024849951813011519 -0.018617356428385756 0 0.0022733191379444811 -0.018460093452135697 0 0.0020893754660589662 -0.018670901186964357 0 0.0024849951813011519 -0.018617356428385756 0 0.0024292481125471428 -0.018401391373145198 0 0.0025446617014167608 -0.018294925347402822 0 0.0024849951813011519 -0.018617356428385756 0 0.0022733191379444811 -0.018460093452135697 0 0.0024292481125471428 -0.018401391373145198 0 0.0020893754660589662 -0.018670901186964357 0 0.0020560123232529152 -0.018333824834057329 0 0.0018035038441265145 -0.018451630666155447 0 0.0022733191379444811 -0.018460093452135697 0 0.0020893754660589662 -0.018670901186964357 0 0.0020560123232529152 -0.018333824834057329 0 0.0020560123232529152 -0.018333824834057329 0 0.0021323884960282578 -0.018107532931802013 0 0.0023488980441694787 -0.018231048051936267 0 0.0022733191379444811 -0.018460093452135697 0 0.0020560123232529152 -0.018333824834057329 0 0.0023488980441694787 -0.018231048051936267 0 0.0020560123232529152 -0.018333824834057329 0 0.0021323884960282578 -0.018107532931802013 0 0.0018761030614705028 -0.018091881825954045 0 0.0024292481125471428 -0.018401391373145198 0 0.0023488980441694787 -0.018231048051936267 0 0.0025446617014167608 -0.018294925347402822 0 0.0022733191379444811 -0.018460093452135697 0 0.0024292481125471428 -0.018401391373145198 0 0.0023488980441694787 -0.018231048051936267 0 0.0023488980441694787 -0.018231048051936267 0 0.0025446617014167608 -0.018294925347402822 0 0.0025720572989614849 -0.018036670805461997 0 0.0025446617014167608 -0.018294925347402822 0 0.0027666334737202298 -0.018191101030026753 0 0.0025720572989614849 -0.018036670805461997 0 0.0024849951813011519 -0.018617356428385756 0 0.0025446617014167608 -0.018294925347402822 0 0.0027666334737202298 -0.018191101030026753 0 0.0018472184700634949 -0.032534157681338549 0 0.00071492090258740593 -0.032647276774246725 0 0.00085269142585344087 -0.033392206120909804 0 0.0021266965260849191 -0.031738747078627304 0 0.0018472184700634949 -0.032534157681338549 0 0.00071492090258740593 -0.032647276774246725 0 0.00070874142700340001 -0.033563490208806737 0 0.00085269142585344087 -0.033392206120909804 0 0.00073568821375910956 -0.033465792707362725 0 0.001337534457830682 -0.03277048946160744 0 0.0011440163201767849 -0.032989983482084664 0 0.00070419022762618704 -0.033464740693787701 0 0.00073568821375910956 -0.033465792707362725 0 0.00077850775780908643 -0.033461432554342752 0 0.00085269142585344087 -0.033392206120909804 0 0.00073568821375910956 -0.033465792707362725 0 0.00077850775780908643 -0.033461432554342752 0 0.00070419022762618704 -0.033464740693787701 0 0.00077850775780908643 -0.033461432554342752 0 0.00074932850019692084 -0.033491593974239092 0 0.00069555988874580189 -0.033468483416018421 0 0.00070419022762618704 -0.033464740693787701 0 0.00074932850019692084 -0.033491593974239092 0 0.00085269142585344087 -0.033392206120909804 0 0.00077850775780908643 -0.033461432554342752 0 0.0007714555809796679 -0.033537716704158338 0 0.00077850775780908643 -0.033461432554342752 0 0.00074932850019692084 -0.033491593974239092 0 0.0007714555809796679 -0.033537716704158338 0 0.00085269142585344087 -0.033392206120909804 0 0.0007714555809796679 -0.033537716704158338 0 0.00069908583648810535 -0.033611502310795384 0 0.00078406943602787416 -0.033540510002293904 0 0.0007714555809796679 -0.033537716704158338 0 0.00069908583648810535 -0.033611502310795384 0 0.0025313718878592953 -0.027274257181115327 0 0.0023465288243983045 -0.025723476657456352 0 0.00015807546055930966 -0.033703018445864534 0 0.00071492090258740593 -0.032647276774246725 0 0.00085269142585344087 -0.033392206120909804 0 0.00015807546055930966 -0.033703018445864534 0 0.00085269142585344087 -0.033392206120909804 0 0.00069908583648810535 -0.033611502310795384 0 0.0008680452919950872 -0.033571726010519665 0 0.00069908583648810535 -0.033611502310795384 0 0.00090368032719175884 -0.033622753573373833 0 0.0010075536494581275 -0.033703481056034698 0 0.00069908583648810535 -0.033611502310795384 0 0.00090368032719175884 -0.033622753573373833 0 0.0025313718878592953 -0.027274257181115327 0 0.0019572517279261947 -0.027782912010370649 0 -0.0018313783514986234 -0.019436243210254788 0 -0.00046307734913728375 -0.020042192881633454 0 -0.0025471387724177856 -0.020839890123695984 0 -0.0018313783514986234 -0.019436243210254788 0 -0.00046307734913728375 -0.020042192881633454 0 -0.00096663505392715623 -0.01859112218828186 0 -0.00046307734913728375 -0.020042192881633454 0 -0.0025471387724177856 -0.020839890123695984 0 -0.00066584465092241684 -0.02182879802561364 0 -0.0025471387724177856 -0.020839890123695984 0 -0.0038550017573167734 -0.020795419833074421 0 -0.0042991756393367386 -0.022589501771049458 0 -0.0038550017573167734 -0.020795419833074421 0 -0.0050103373792064433 -0.020806593648496793 0 -0.0042991756393367386 -0.022589501771049458 0 -0.0050103373792064433 -0.020806593648496793 0 -0.0035715228468038923 -0.019030709927788075 0 -0.0057022326554454451 -0.018623655600742348 0 -0.0038550017573167734 -0.020795419833074421 0 -0.0050103373792064433 -0.020806593648496793 0 -0.0035715228468038923 -0.019030709927788075 0 -0.0025471387724177856 -0.020839890123695984 0 -0.0038550017573167734 -0.020795419833074421 0 -0.0035715228468038923 -0.019030709927788075 0 -0.0018313783514986234 -0.019436243210254788 0 -0.0025471387724177856 -0.020839890123695984 0 -0.0035715228468038923 -0.019030709927788075 0 -0.0035715228468038923 -0.019030709927788075 0 -0.0017982098328264879 -0.018051047755948717 0 -0.0030829366897196465 -0.016420266582909491 0 -0.0035715228468038923 -0.019030709927788075 0 -0.0046431466190800857 -0.01730083898839432 0 -0.0030829366897196465 -0.016420266582909491 0 -0.0035715228468038923 -0.019030709927788075 0 -0.0046431466190800857 -0.01730083898839432 0 -0.0057022326554454451 -0.018623655600742348 0 -0.0012109636203478276 -0.017052462785876344 0 -0.0017982098328264879 -0.018051047755948717 0 -0.0030829366897196465 -0.016420266582909491 0 -0.0012109636203478276 -0.017052462785876344 0 -0.0017982098328264879 -0.018051047755948717 0 -0.00081036756009429157 -0.017651366328519023 0 -0.0018313783514986234 -0.019436243210254788 0 -0.0017982098328264879 -0.018051047755948717 0 -0.00096663505392715623 -0.01859112218828186 0 -0.0018313783514986234 -0.019436243210254788 0 -0.0035715228468038923 -0.019030709927788075 0 -0.0017982098328264879 -0.018051047755948717 0 -0.00046307734913728375 -0.020042192881633454 0 -0.00096663505392715623 -0.01859112218828186 0 -0.00018878726613288767 -0.017801492562329033 0 -0.0017982098328264879 -0.018051047755948717 0 -0.00096663505392715623 -0.01859112218828186 0 -0.00081036756009429157 -0.017651366328519023 0 -0.00096663505392715623 -0.01859112218828186 0 -0.00018878726613288767 -0.017801492562329033 0 -0.00081036756009429157 -0.017651366328519023 0 -0.00018878726613288767 -0.017801492562329033 0 -0.00081036756009429157 -0.017651366328519023 0 -0.00033901196961270416 -0.016803233488660321 0 -0.0012109636203478276 -0.017052462785876344 0 -0.00081036756009429157 -0.017651366328519023 0 -0.00033901196961270416 -0.016803233488660321 0 -0.0012109636203478276 -0.017052462785876344 0 -0.00033901196961270416 -0.016803233488660321 0 -0.00094105839913752331 -0.016010205097414396 0 0.00033356629031101875 -0.01861410702896776 0 0.0011455891659620551 -0.017545121793819243 0 0.00015019811242771819 -0.016883426734658102 0 0.00052388226414339459 -0.017113845853070124 0 0.00042663416662134845 -0.016058108106169602 0 -0.00046307734913728375 -0.020042192881633454 0 0.0016194202474773822 -0.017933988814167232 0 0.0016119603509431881 -0.0182359234517359 0 -0.00046307734913728375 -0.020042192881633454 0 0.00052388226414339459 -0.017113845853070124 0 0.0015763487178883891 -0.016463840766426954 0 -0.00046307734913728375 -0.020042192881633454 0 -0.00018878726613288767 -0.017801492562329033 0 0.00052388226414339459 -0.017113845853070124 0 -0.00018878726613288767 -0.017801492562329033 0 0.00015019811242771819 -0.016883426734658102 0 0.00052388226414339459 -0.017113845853070124 0 -0.00018878726613288767 -0.017801492562329033 0 -0.00033901196961270416 -0.016803233488660321 0 0.00015019811242771819 -0.016883426734658102 0 0.00052388226414339459 -0.017113845853070124 0 0.0015763487178883891 -0.016463840766426954 0 0.00098064260272542284 -0.016253145945784194 0 0.0020560123232529152 -0.018333824834057329 0 0.0018761030614705028 -0.018091881825954045 0 0.0018196990115675574 -0.018291651746658706 0 0.0016119603509431881 -0.0182359234517359 0 0.0018761030614705028 -0.018091881825954045 0 0.0018196990115675574 -0.018291651746658706 0 0.0016194202474773822 -0.017933988814167232 0 0.0016119603509431881 -0.0182359234517359 0 0.0018761030614705028 -0.018091881825954045 0 0.0016119603509431881 -0.0182359234517359 0 0.0018196990115675574 -0.018291651746658706 0 0.0018035038441265145 -0.018451630666155447 0 0.0020560123232529152 -0.018333824834057329 0 0.0018196990115675574 -0.018291651746658706 0 0.0018035038441265145 -0.018451630666155447 0 0.0020893754660589662 -0.018670901186964357 0 0.0018035038441265145 -0.018451630666155447 0 0.0016906701743780554 -0.01871275696274988 0 0.00025816566331256154 -0.020896046130759946 0 1.7381544196443373e-05 -0.024785655202188533 0 0.0014926607390007862 -0.026042307658830734 0 1.7381544196443373e-05 -0.024785655202188533 0 0.0016119603509431881 -0.0182359234517359 0 0.0018035038441265145 -0.018451630666155447 0 0.0016906701743780554 -0.01871275696274988 0 -0.00046307734913728375 -0.020042192881633454 0 0.0019892175422104924 -0.021355287177821501 0 -0.00066584465092241684 -0.02182879802561364 0 -0.00046307734913728375 -0.020042192881633454 0 0.0016119603509431881 -0.0182359234517359 0 0.0019892175422104924 -0.021355287177821501 0 -0.00032571651891346947 -0.024711257704696184 0 0.002156049062543229 -0.022336447802407691 0 -0.0011229353001758343 -0.022602965042319709 0 -0.00032571651891346947 -0.024711257704696184 0 0.002156049062543229 -0.022336447802407691 0 0.0023792602466389799 -0.025656468953632949 0 1.7381544196443373e-05 -0.024785655202188533 0 -0.0010223690119497179 -0.023939902844760483 0 0.0013537726408867086 -0.033498562360447501 0 0.0017127147194686231 -0.03368206504697914 0 0.0017030651398050203 -0.033367643509237627 0 1.7381544196443373e-05 -0.024785655202188533 0 0.00095009420260233168 -0.028487052892209069 0 0.0014594910343686529 -0.033277928985390115 0 0.0017030651398050203 -0.033367643509237627 0 0.0017486888573005105 -0.033015748274647129 0 0.0014594910343686529 -0.033277928985390115 0 0.0013537726408867086 -0.033498562360447501 0 0.0017030651398050203 -0.033367643509237627 0 -0.00032571651891346947 -0.024711257704696184 0 0.0023792602466389799 -0.025656468953632949 0 0.00067614458727477834 -0.027042094769644847 0 0.0023792602466389799 -0.025656468953632949 0 0.00067614458727477834 -0.027042094769644847 0 0.0023803202537757435 -0.029083053653957133 0 -0.00032571651891346947 -0.024711257704696184 0 0.00067614458727477834 -0.027042094769644847 0 -0.00096425898952696727 -0.026780170544247965 0 -0.00096425898952696727 -0.026780170544247965 0 -0.0026733946447769015 -0.026065647703613262 0 -0.0019973332377941034 -0.025111738483657796 0 -0.00096425898952696727 -0.026780170544247965 0 -0.0026733946447769015 -0.026065647703613262 0 -0.0016250395392702272 -0.027998768138744863 0 -0.0026733946447769015 -0.026065647703613262 0 -0.0019973332377941034 -0.025111738483657796 0 -0.0032501306401351618 -0.024327348151246053 0 -0.00032571651891346947 -0.024711257704696184 0 -0.00096425898952696727 -0.026780170544247965 0 -0.0019973332377941034 -0.025111738483657796 0 -0.0025471387724177856 -0.020839890123695984 0 -0.00066584465092241684 -0.02182879802561364 0 -0.0042991756393367386 -0.022589501771049458 0 -0.00032571651891346947 -0.024711257704696184 0 -0.0022155601207020461 -0.023757386919949497 0 -0.0011229353001758343 -0.022602965042319709 0 -0.0010223690119497179 -0.023939902844760483 0 -0.002129551920340686 -0.0237689697981333 0 -0.00032571651891346947 -0.024711257704696184 0 -0.0019973332377941034 -0.025111738483657796 0 -0.0022155601207020461 -0.023757386919949497 0 -0.0022155601207020461 -0.023757386919949497 0 -0.0011229353001758343 -0.022602965042319709 0 -0.0042991756393367386 -0.022589501771049458 0 -0.0019973332377941034 -0.025111738483657796 0 -0.0022155601207020461 -0.023757386919949497 0 -0.0032501306401351618 -0.024327348151246053 0 -0.0050103373792064433 -0.020806593648496793 0 -0.0042991756393367386 -0.022589501771049458 0 -0.0051521097334613864 -0.023924251474584563 0 -0.0022155601207020461 -0.023757386919949497 0 -0.0042991756393367386 -0.022589501771049458 0 -0.0032501306401351618 -0.024327348151246053 0 -0.0042991756393367386 -0.022589501771049458 0 -0.0032501306401351618 -0.024327348151246053 0 -0.0051521097334613864 -0.023924251474584563 0 0.0071422915227526617 0.021650187018567725 0 0.0075642114864975961 0.020527549157181028 0 0.0082389461378702712 0.02000404828542842 0 0.00060732456468983462 -0.0015942114352408042 0 0.0029472355994992023 -0.0035774221254099947 0 -0.0026733946447769015 -0.026065647703613262 0 -0.0051521097334613864 -0.023924251474584563 0 -0.0030897343407433869 -0.027942345040144843 0 0.0071422915227526617 0.021650187018567725 0 0.0071841280683230908 0.020705823742606329 0 0.0075642114864975961 0.020527549157181028 0 -0.0026733946447769015 -0.026065647703613262 0 -0.0032501306401351618 -0.024327348151246053 0 -0.0051521097334613864 -0.023924251474584563 0 0.0071841280683230908 0.020705823742606329 0 0.0075642114864975961 0.020527549157181028 0 0.0076950545949242303 0.0197516648927679 0 0.0076950545949242303 0.0197516648927679 0 0.0082389461378702712 0.02000404828542842 0 0.0092443150767362245 0.018740085511010536 0 0.0074852190557549853 0.020323042390447976 0 0.0071386655160593565 0.019652216083253269 0 0.0064137108700751382 0.020127148583696106 0 0.0075642114864975961 0.020527549157181028 0 0.0076950545949242303 0.0197516648927679 0 0.0082389461378702712 0.02000404828542842 0 -0.0026733946447769015 -0.026065647703613262 0 -0.0030897343407433869 -0.027942345040144843 0 -0.0016250395392702272 -0.027998768138744863 0 -0.00096425898952696727 -0.026780170544247965 0 -0.0016250395392702272 -0.027998768138744863 0 -0.00012382603306808538 -0.028905112042604483 0 -0.0013419941789154428 -0.029659926357506691 0 -0.00012382603306808538 -0.028905112042604483 0 -0.00032593829975166062 -0.030272347665476065 0 -0.0016250395392702272 -0.027998768138744863 0 -0.0013419941789154428 -0.029659926357506691 0 -0.00012382603306808538 -0.028905112042604483 0 -0.0030897343407433869 -0.027942345040144843 0 -0.0016250395392702272 -0.027998768138744863 0 -0.0013419941789154428 -0.029659926357506691 0 -0.0030897343407433869 -0.027942345040144843 0 -0.0013419941789154428 -0.029659926357506691 0 -0.00071132617971153415 -0.031597979710035896 0 0.0082389461378702712 0.02000404828542842 0 0.0092443150767362245 0.018740085511010536 0 0.009468204238187769 0.018693259945709893 0 0.0074852190557549853 0.020323042390447976 0 0.0092443150767362245 0.018740085511010536 0 0.0083054248505880189 0.019065424447674627 0 0.0074906561560805088 0.020120554599850703 0 0.0081891023465887145 0.019466454494818562 0 0.0029472355994992023 -0.0035774221254099947 0 0.005189732924556655 -0.0047639383298141765 0 -0.0013419941789154428 -0.029659926357506691 0 -0.00062077472372113808 -0.030667091290947621 0 -0.00071132617971153415 -0.031597979710035896 0 -0.0013419941789154428 -0.029659926357506691 0 -0.00062077472372113808 -0.030667091290947621 0 -0.00032593829975166062 -0.030272347665476065 0 -0.00062077472372113808 -0.030667091290947621 0 -0.00071132617971153415 -0.031597979710035896 0 -0.00014958084003134837 -0.031110508227237058 0 0.0092443150767362245 0.018740085511010536 0 0.0088008363344615811 0.018485992537046442 0 0.0092483249069430732 0.018343160105847179 0 0.0092443150767362245 0.018740085511010536 0 0.009468204238187769 0.018693259945709893 0 0.0092483249069430732 0.018343160105847179 0 0.0092443150767362245 0.018740085511010536 0 0.0088008363344615811 0.018485992537046442 0 0.0083054248505880189 0.019065424447674627 0 0.0088008363344615811 0.018485992537046442 0 0.0083054248505880189 0.019065424447674627 0 0.008211546793536504 0.018414802412095487 0 0.0074852190557549853 0.020323042390447976 0 0.0083054248505880189 0.019065424447674627 0 0.0077412682057499066 0.019259536558057771 0 0.0083054248505880189 0.019065424447674627 0 0.0077412682057499066 0.019259536558057771 0 0.008211546793536504 0.018414802412095487 0 0.0069743438125907265 0.018883034022692181 0 0.0077412682057499066 0.019259536558057771 0 0.008211546793536504 0.018414802412095487 0 0.0069743438125907265 0.018883034022692181 0 0.0071386655160593565 0.019652216083253269 0 0.0077412682057499066 0.019259536558057771 0 0.0074852190557549853 0.020323042390447976 0 0.0071386655160593565 0.019652216083253269 0 0.0077412682057499066 0.019259536558057771 0 0.00095009420260233168 -0.028487052892209069 0 0.0013615518846364623 -0.030255641055000806 0 0.0013546943260887149 -0.033130637204954565 0 0.0014594910343686529 -0.033277928985390115 0 0.0017486888573005105 -0.033015748274647129 0 0.00067614458727477834 -0.027042094769644847 0 0.0023803202537757435 -0.029083053653957133 0 -0.00012382603306808538 -0.028905112042604483 0 0.0023803202537757435 -0.029083053653957133 0 -0.00012382603306808538 -0.028905112042604483 0 0.00082243506511573696 -0.030715598241230196 0 0.00067614458727477834 -0.027042094769644847 0 -0.00096425898952696727 -0.026780170544247965 0 -0.00012382603306808538 -0.028905112042604483 0 -0.00032593829975166062 -0.030272347665476065 0 -0.00014958084003134837 -0.031110508227237058 0 0.00082243506511573696 -0.030715598241230196 0 -0.00012382603306808538 -0.028905112042604483 0 -0.00032593829975166062 -0.030272347665476065 0 0.00082243506511573696 -0.030715598241230196 0 -0.00062077472372113808 -0.030667091290947621 0 -0.00032593829975166062 -0.030272347665476065 0 -0.00014958084003134837 -0.031110508227237058 0 -0.00071132617971153415 -0.031597979710035896 0 -7.5416352347734239e-05 -0.031550622658995942 0 0.00042950980935357609 -0.032041130288996453 0 -0.00014958084003134837 -0.031110508227237058 0 0.00033543785473642097 -0.031493962315910978 0 0.00082243506511573696 -0.030715598241230196 0 -0.00071132617971153415 -0.031597979710035896 0 -0.00014958084003134837 -0.031110508227237058 0 -7.5416352347734239e-05 -0.031550622658995942 0 -0.00014958084003134837 -0.031110508227237058 0 -7.5416352347734239e-05 -0.031550622658995942 0 0.00033543785473642097 -0.031493962315910978 0 -7.5416352347734239e-05 -0.031550622658995942 0 0.00033543785473642097 -0.031493962315910978 0 0.00042950980935357609 -0.032041130288996453 0 0.0010287659556343991 -0.03185828538600137 0 0.00082243506511573696 -0.030715598241230196 0 0.0017363819093770103 -0.032288546220970368 0 0.00033543785473642097 -0.031493962315910978 0 0.0010287659556343991 -0.03185828538600137 0 0.00082243506511573696 -0.030715598241230196 0 0.0023803202537757435 -0.029083053653957133 0 0.00082243506511573696 -0.030715598241230196 0 0.0017363819093770103 -0.032288546220970368 0 0.0013415330871435608 -0.032858418440640524 0 0.0017486888573005105 -0.033015748274647129 0 0.0017363819093770103 -0.032288546220970368 0 0.0013615518846364623 -0.030255641055000806 0 0.0014681998206553604 -0.030914739671588722 0 0.0014634258694467028 -0.032601267836903945 0 0.0014752703305206661 -0.032670302457429086 0 0.0017363819093770103 -0.032288546220970368 0 0.0010287659556343991 -0.03185828538600137 0 0.0017363819093770103 -0.032288546220970368 0 0.0013622294923447164 -0.032534954963305572 0 0.0014752703305206661 -0.032670302457429086 0 0.0013622294923447164 -0.032534954963305572 0 0.0012686874619624582 -0.032882096468817255 0 0.0014752703305206661 -0.032670302457429086 0 0.0017363819093770103 -0.032288546220970368 0 0.0013622294923447164 -0.032534954963305572 0 0.009468204238187769 0.018693259945709893 0 0.01093179366898361 0.016475740594911737 0 0.0096618011804899609 0.017689578519039243 0 -0.00071132617971153415 -0.031597979710035896 0 0.00042950980935357609 -0.032041130288996453 0 0.0011453770818342954 -0.033150638265546026 0 0.00099587577492009512 -0.032551459009057523 0 0.00042950980935357609 -0.032041130288996453 0 0.0011453770818342954 -0.033150638265546026 0 0.005189732924556655 -0.0047639383298141765 0 0.0064740465129408927 -0.0021955971297468978 0 0.0013622294923447164 -0.032534954963305572 0 0.00099587577492009512 -0.032551459009057523 0 0.0012686874619624582 -0.032882096468817255 0 0.0013622294923447164 -0.032534954963305572 0 0.00099587577492009512 -0.032551459009057523 0 0.00092310547784435276 -0.032222694554575923 0 0.0010287659556343991 -0.03185828538600137 0 0.0013622294923447164 -0.032534954963305572 0 0.00092310547784435276 -0.032222694554575923 0 0.00099587577492009512 -0.032551459009057523 0 0.00092310547784435276 -0.032222694554575923 0 0.00042950980935357609 -0.032041130288996453 0 0.00033543785473642097 -0.031493962315910978 0 0.0010287659556343991 -0.03185828538600137 0 0.00042950980935357609 -0.032041130288996453 0 0.0010287659556343991 -0.03185828538600137 0 0.00092310547784435276 -0.032222694554575923 0 0.00042950980935357609 -0.032041130288996453 0 0.01093179366898361 0.016475740594911737 0 0.0096862215410091004 0.017094954066157974 0 0.0096618011804899609 0.017689578519039243 0 0.01093179366898361 0.016475740594911737 0 0.0096862215410091004 0.017094954066157974 0 0.0096830023939882496 0.016180092160267012 0 0.00099587577492009512 -0.032551459009057523 0 0.0011453770818342954 -0.033150638265546026 0 0.0012686874619624582 -0.032882096468817255 0 0.0013333804894839749 -0.032825772664463772 0 0.0012686874619624582 -0.032882096468817255 0 0.0014037086502011343 -0.032725354047882654 0 0.0064740465129408927 -0.0021955971297468978 0 0.006170937904844403 -0.0026733045351819383 0 0.0076207899363666641 -0.007294723464665435 0 0.0064740465129408927 -0.0021955971297468978 0 0.0014670870685829572 -0.032596311644017294 0 0.0013333804894839749 -0.032825772664463772 0 0.0014037086502011343 -0.032725354047882654 0 0.0014752703305206661 -0.032670302457429086 0 0.0012686874619624582 -0.032882096468817255 0 0.0014037086502011343 -0.032725354047882654 0 0.001380491562529722 -0.032630801193819441 0 0.00140458166956286 -0.03268288423001358 0 0.0014037086502011343 -0.032725354047882654 0 0.00140458166956286 -0.03268288423001358 0 0.0014752703305206661 -0.032670302457429086 0 0.0014037086502011343 -0.032725354047882654 0 0.0083487213926911243 0.017612103631222478 0 0.0074176954158816531 0.017434310856264561 0 0.0088138158794670417 0.016735807764439579 0 0.0069743438125907265 0.018883034022692181 0 0.0074176954158816531 0.017434310856264561 0 0.008211546793536504 0.018414802412095487 0 0.0083487213926911243 0.017612103631222478 0 0.0074176954158816531 0.017434310856264561 0 0.008211546793536504 0.018414802412095487 0 0.0088008363344615811 0.018485992537046442 0 0.008211546793536504 0.018414802412095487 0 0.0089954404469773219 0.017836098710514971 0 0.0083487213926911243 0.017612103631222478 0 0.008211546793536504 0.018414802412095487 0 0.0089954404469773219 0.017836098710514971 0 0.0088008363344615811 0.018485992537046442 0 0.0089954404469773219 0.017836098710514971 0 0.0092483249069430732 0.018343160105847179 0 0.009468204238187769 0.018693259945709893 0 0.0092483249069430732 0.018343160105847179 0 0.0096618011804899609 0.017689578519039243 0 0.0089954404469773219 0.017836098710514971 0 0.0092483249069430732 0.018343160105847179 0 0.0096618011804899609 0.017689578519039243 0 0.0089954404469773219 0.017836098710514971 0 0.0096862215410091004 0.017094954066157974 0 0.0088138158794670417 0.016735807764439579 0 0.0089954404469773219 0.017836098710514971 0 0.0096862215410091004 0.017094954066157974 0 0.0096618011804899609 0.017689578519039243 0 0.0083487213926911243 0.017612103631222478 0 0.0089954404469773219 0.017836098710514971 0 0.0088138158794670417 0.016735807764439579 0 0.0092990008836940936 0.014393750981519784 0 0.0088138158794670417 0.016735807764439579 0 0.0096830023939882496 0.016180092160267012 0 0.0092990008836940936 0.014393750981519784 0 0.01093179366898361 0.016475740594911737 0 0.0096830023939882496 0.016180092160267012 0 0.0092990008836940936 0.014393750981519784 0 0.0088138158794670417 0.016735807764439579 0 0.0076579682194318462 0.015821675951075986 0 0.0096862215410091004 0.017094954066157974 0 0.0088138158794670417 0.016735807764439579 0 0.0096830023939882496 0.016180092160267012 0 0.0074176954158816531 0.017434310856264561 0 0.0088138158794670417 0.016735807764439579 0 0.0076579682194318462 0.015821675951075986 0 0.0074176954158816531 0.017434310856264561 0 0.0076579682194318462 0.015821675951075986 0 0.0060026351482154565 0.016141917065346328 0 0.0074176954158816531 0.017434310856264561 0 0.0060026351482154565 0.016141917065346328 0 0.005393746857792924 0.017988962009648234 0 0.0069743438125907265 0.018883034022692181 0 0.0074176954158816531 0.017434310856264561 0 0.005393746857792924 0.017988962009648234 0 0.005393746857792924 0.017988962009648234 0 0.0039983719291494775 0.017150208696324137 0 0.0032372069769086324 0.018811511779039603 0 0.0045998784595030397 0.01564672608767901 0 0.0060026351482154565 0.016141917065346328 0 0.0039983719291494775 0.017150208696324137 0 0.0060026351482154565 0.016141917065346328 0 0.005393746857792924 0.017988962009648234 0 0.0039983719291494775 0.017150208696324137 0 0.0039983719291494775 0.017150208696324137 0 0.0027469724955267731 0.016246938122610362 0 0.0021782875032348441 0.018150184166460751 0 0.0045998784595030397 0.01564672608767901 0 0.0039983719291494775 0.017150208696324137 0 0.0027469724955267731 0.016246938122610362 0 0.0027469724955267731 0.016246938122610362 0 0.00099305283961801023 0.0163687330924683 0 0.0021782875032348441 0.018150184166460751 0 0.0017180205102440673 0.015329570280507299 0 0.0027469724955267731 0.016246938122610362 0 0.00099305283961801023 0.0163687330924683 0 0.0012078020295831996 0.016848331109356258 0 0.0014117733381641127 0.017197674988219603 0 0.0019774775667497058 0.018047158918224625 0 0.0021782875032348441 0.018150184166460751 0 0.0018196946273055174 0.018379594941465977 0 0.0021782875032348441 0.018150184166460751 0 0.0018196946273055174 0.018379594941465977 0 0.0018777727005569558 0.019187406226738587 0 0.0021782875032348441 0.018150184166460751 0 0.0032372069769086324 0.018811511779039603 0 0.0018777727005569558 0.019187406226738587 0 0.0039983719291494775 0.017150208696324137 0 0.0021782875032348441 0.018150184166460751 0 0.0032372069769086324 0.018811511779039603 0 0.0032372069769086324 0.018811511779039603 0 0.0026242840829329996 0.020035066022235849 0 0.004479509930521916 0.019696208984129417 0 0.0033828624637901395 0.020030755915915154 0 0.0048434752195288793 0.01957693054331763 0 0.0032372069769086324 0.018811511779039603 0 0.0026242840829329996 0.020035066022235849 0 0.0018777727005569558 0.019187406226738587 0 0.0037986013241879013 0.020017251063161854 0 0.0023346007901994792 0.0205198175923723 0 0.00332293575651084 0.021308318148518732 0 0.0037986013241879013 0.020017251063161854 0 0.0053072952424412095 0.019501724058053893 0 0.0046745285430249998 0.021157878006736412 0 0.0056254440485054283 0.020562581896095423 0 0.0064137108700751382 0.020127148583696106 0 0.0053072952424412095 0.019501724058053893 0 0.0056254440485054283 0.020562581896095423 0 0.0053072952424412095 0.019501724058053893 0 0.0046745285430249998 0.021157878006736412 0 0.0074852190557549853 0.020323042390447976 0 0.0064137108700751382 0.020127148583696106 0 0.0061182720450831977 0.021437076302659817 0 0.0056254440485054283 0.020562581896095423 0 0.0064137108700751382 0.020127148583696106 0 0.0061182720450831977 0.021437076302659817 0 0.0069743438125907265 0.018883034022692181 0 0.0071386655160593565 0.019652216083253269 0 0.0064137108700751382 0.020127148583696106 0 0.0069743438125907265 0.018883034022692181 0 0.0064137108700751382 0.020127148583696106 0 0.0053072952424412095 0.019501724058053893 0 0.0069743438125907265 0.018883034022692181 0 0.005393746857792924 0.017988962009648234 0 0.004479509930521916 0.019696208984129417 0 0.0057693913179507599 0.019284893755379725 0 0.0048434752195288793 0.01957693054331763 0 0.005393746857792924 0.017988962009648234 0 0.0032372069769086324 0.018811511779039603 0 0.004479509930521916 0.019696208984129417 0 -0.00068373563174759433 0.019557639813113249 0 2.3103270272912709e-05 0.018473191056197956 0 0.00014640756068300429 0.019859006350655309 0 0.00013714416749133979 0.017883442154182885 0 -0.00040425724142663177 0.017986124082909394 0 2.3103270272912709e-05 0.018473191056197956 0 2.3103270272912709e-05 0.018473191056197956 0 0.00072721641938423517 0.01892310274054812 0 0.00097468155852579042 0.017961259918115809 0 0.00025985821904417214 0.017493285319023399 0 0.00057621749434763907 0.017093382154015329 0 0.00013714416749133979 0.017883442154182885 0 2.3103270272912709e-05 0.018473191056197956 0 0.00095903957551249852 0.017984774394124145 0 2.3103270272912709e-05 0.018473191056197956 0 0.00072721641938423517 0.01892310274054812 0 0.00014640756068300429 0.019859006350655309 0 0.00072721641938423517 0.01892310274054812 0 0.0013571825204937995 0.01871261343728187 0 0.001081931164720379 0.019703861216381686 0 0.00072721641938423517 0.01892310274054812 0 0.0013571825204937995 0.01871261343728187 0 0.00097468155852579042 0.017961259918115809 0 0.0013571825204937995 0.01871261343728187 0 0.00097468155852579042 0.017961259918115809 0 0.0016034182684906968 0.018129611738526581 0 0.001765145383908856 0.01758167648250869 0 0.0019774775667497058 0.018047158918224625 0 0.0016034182684906968 0.018129611738526581 0 0.0019774775667497058 0.018047158918224625 0 0.0016034182684906968 0.018129611738526581 0 0.0018196946273055174 0.018379594941465977 0 0.0013571825204937995 0.01871261343728187 0 0.0018196946273055174 0.018379594941465977 0 0.0018777727005569558 0.019187406226738587 0 0.0013571825204937995 0.01871261343728187 0 0.0016034182684906968 0.018129611738526581 0 0.0018196946273055174 0.018379594941465977 0 0.0018777727005569558 0.019187406226738587 0 0.0015905058411097826 0.020378244712253107 0 0.001081931164720379 0.019703861216381686 0 0.0033828624637901395 0.020030755915915154 0 0.0021234001642608663 0.020443623796169381 0 0.0026242840829329996 0.020035066022235849 0 0.0018777727005569558 0.019187406226738587 0 0.0015905058411097826 0.020378244712253107 0 0.0021234001642608663 0.020443623796169381 0 0.0014794734908662825 0.020670647001102233 0 0.0015905058411097826 0.020378244712253107 0 0.001081931164720379 0.019703861216381686 0 0.00083919947999279204 0.021026814812387714 0 0.0013571825204937995 0.01871261343728187 0 0.0018777727005569558 0.019187406226738587 0 0.001081931164720379 0.019703861216381686 0 0.00072721641938423517 0.01892310274054812 0 0.001081931164720379 0.019703861216381686 0 0.00014640756068300429 0.019859006350655309 0 0.001081931164720379 0.019703861216381686 0 0.00014640756068300429 0.019859006350655309 0 0.00083919947999279204 0.021026814812387714 0 -0.00078617476563353286 0.020504731409210507 0 0.00014640756068300429 0.019859006350655309 0 -0.00022021001883888369 0.021241435909827151 0 0.00014640756068300429 0.019859006350655309 0 -0.00022021001883888369 0.021241435909827151 0 0.00083919947999279204 0.021026814812387714 0 0.00021204484794421597 0.022329600987666898 0 0.00083919947999279204 0.021026814812387714 0 0.0011840050799424493 0.022891167136786451 0 -0.0005489989787948043 0.022231852697138843 0 0.00021204484794421597 0.022329600987666898 0 -0.00022021001883888369 0.021241435909827151 0 -0.0005489989787948043 0.022231852697138843 0 -0.00033279088254549775 0.023048229520488076 0 0.00021204484794421597 0.022329600987666898 0 0.00021204484794421597 0.022329600987666898 0 -0.00022021001883888369 0.021241435909827151 0 0.00083919947999279204 0.021026814812387714 0 0.00083919947999279204 0.021026814812387714 0 0.0019391448272274906 0.021846773491801592 0 0.0011840050799424493 0.022891167136786451 0 0.0019391448272274906 0.021846773491801592 0 0.002066833859108531 0.022888461481599367 0 0.0011840050799424493 0.022891167136786451 0 0.0023346007901994792 0.0205198175923723 0 0.00083919947999279204 0.021026814812387714 0 0.0019391448272274906 0.021846773491801592 0 0.0023346007901994792 0.0205198175923723 0 0.0019391448272274906 0.021846773491801592 0 0.00332293575651084 0.021308318148518732 0 0.0019391448272274906 0.021846773491801592 0 0.0028882411271522065 0.022451945924324618 0 0.00332293575651084 0.021308318148518732 0 0.0019391448272274906 0.021846773491801592 0 0.0028882411271522065 0.022451945924324618 0 0.002066833859108531 0.022888461481599367 0 0.0028882411271522065 0.022451945924324618 0 0.002691768962304681 0.023419761966980732 0 0.002066833859108531 0.022888461481599367 0 0.002691768962304681 0.023419761966980732 0 0.0033872477414050683 0.023854297647349972 0 0.002537168272738068 0.024316962119511763 0 0.002691768962304681 0.023419761966980732 0 0.0016714153084856054 0.023765470517896813 0 0.002537168272738068 0.024316962119511763 0 0.0016714153084856054 0.023765470517896813 0 0.001833914684192997 0.02441947350758256 0 0.002537168272738068 0.024316962119511763 0 0.0016714153084856054 0.023765470517896813 0 0.00094224084720770352 0.024426201019874607 0 0.001833914684192997 0.02441947350758256 0 0.002691768962304681 0.023419761966980732 0 0.0016714153084856054 0.023765470517896813 0 0.002066833859108531 0.022888461481599367 0 0.0016714153084856054 0.023765470517896813 0 0.002066833859108531 0.022888461481599367 0 0.0011840050799424493 0.022891167136786451 0 0.0016714153084856054 0.023765470517896813 0 0.0011840050799424493 0.022891167136786451 0 0.00042102863178686913 0.023664293854491956 0 0.00021204484794421597 0.022329600987666898 0 0.0011840050799424493 0.022891167136786451 0 0.00042102863178686913 0.023664293854491956 0 0.0016714153084856054 0.023765470517896813 0 0.00042102863178686913 0.023664293854491956 0 0.00094224084720770352 0.024426201019874607 0 -0.0003814493345494016 0.024026111227770326 0 -7.5354283580387197e-05 0.024688129521955461 0 0.00042102863178686913 0.023664293854491956 0 -0.00033279088254549775 0.023048229520488076 0 0.00021204484794421597 0.022329600987666898 0 0.00042102863178686913 0.023664293854491956 0 -0.0003814493345494016 0.024026111227770326 0 -0.00033279088254549775 0.023048229520488076 0 0.00042102863178686913 0.023664293854491956 0 0.0049604372794390958 0.022460375546707736 0 0.0060890941112729134 0.02212366163598849 0 0.0062283725251705228 0.021076546272932133 0 0.0049604372794390958 0.022460375546707736 0 0.0061182720450831977 0.021437076302659817 0 0.0046745285430249998 0.021157878006736412 0 0.0057736345002985055 0.021763613404296063 0 0.0063938107090300185 0.021158806908855059 0 0.0071422915227526617 0.021650187018567725 0 0.0060890941112729134 0.02212366163598849 0 0.0061959492607788205 0.02244868775576566 0 0.0071422915227526617 0.021650187018567725 0 0.0065735777640702278 0.021510054647214286 0 0.0068299146072118497 0.021182451062561076 0 0.0071422915227526617 0.021650187018567725 0 0.0060890941112729134 0.02212366163598849 0 0.0065735777640702278 0.021510054647214286 0 0.0060890941112729134 0.02212366163598849 0 0.0065735777640702278 0.021510054647214286 0 0.0062283725251705228 0.021076546272932133 0 0.0071841280683230908 0.020705823742606329 0 0.0076950545949242303 0.0197516648927679 0 0.0062283725251705228 0.021076546272932133 0 0.0074906561560805088 0.020120554599850703 0 0.0063938107090300185 0.021158806908855059 0 0.0071841280683230908 0.020705823742606329 0 0.0062283725251705228 0.021076546272932133 0 0.0068299146072118497 0.021182451062561076 0 0.0065735777640702278 0.021510054647214286 0 0.0062283725251705228 0.021076546272932133 0 0.0068299146072118497 0.021182451062561076 0 0.0071422915227526617 0.021650187018567725 0 0.0071841280683230908 0.020705823742606329 0 0.0068299146072118497 0.021182451062561076 0 0.0056254440485054283 0.020562581896095423 0 0.0061182720450831977 0.021437076302659817 0 0.0046745285430249998 0.021157878006736412 0 0.0037986013241879013 0.020017251063161854 0 0.0046745285430249998 0.021157878006736412 0 0.00332293575651084 0.021308318148518732 0 0.0046745285430249998 0.021157878006736412 0 0.00332293575651084 0.021308318148518732 0 0.0039962114993424462 0.022288004046205449 0 0.0028882411271522065 0.022451945924324618 0 0.00332293575651084 0.021308318148518732 0 0.0039962114993424462 0.022288004046205449 0 0.0049604372794390958 0.022460375546707736 0 0.0046745285430249998 0.021157878006736412 0 0.0039962114993424462 0.022288004046205449 0 0.0049604372794390958 0.022460375546707736 0 0.0039962114993424462 0.022288004046205449 0 0.0046699531798801222 0.023131606333694731 0 0.0039962114993424462 0.022288004046205449 0 0.0046699531798801222 0.023131606333694731 0 0.0036348692336448758 0.023196743513794221 0 0.0046699531798801222 0.023131606333694731 0 0.0036348692336448758 0.023196743513794221 0 0.0041120891743856051 0.023768252472547196 0 0.0028882411271522065 0.022451945924324618 0 0.0039962114993424462 0.022288004046205449 0 0.0036348692336448758 0.023196743513794221 0 0.0028882411271522065 0.022451945924324618 0 0.002691768962304681 0.023419761966980732 0 0.0036348692336448758 0.023196743513794221 0 0.0033872477414050683 0.023854297647349972 0 0.0039980622294222938 0.024532944055467926 0 0.002537168272738068 0.024316962119511763 0 0.002691768962304681 0.023419761966980732 0 0.0036348692336448758 0.023196743513794221 0 0.0033872477414050683 0.023854297647349972 0 0.0036348692336448758 0.023196743513794221 0 0.0033872477414050683 0.023854297647349972 0 0.0041120891743856051 0.023768252472547196 0 0.0033872477414050683 0.023854297647349972 0 0.0041120891743856051 0.023768252472547196 0 0.0039980622294222938 0.024532944055467926 0 0.0046699531798801222 0.023131606333694731 0 0.0041120891743856051 0.023768252472547196 0 0.0048426218909255357 0.023987932898629709 0 0.0012753905214760099 0.014179178510613948 0 0.0019766737530029599 0.0097543846148076038 0 0.0041120891743856051 0.023768252472547196 0 0.0048426218909255357 0.023987932898629709 0 0.0039980622294222938 0.024532944055467926 0 -0.007342087642972726 -0.019690821488339935 0 -0.0075124956659673968 -0.01723222923420864 0 -0.0096649443718433981 -0.015560082121286832 0 -0.0017772320353102566 -0.00030020992938269755 0 -0.0030693223796654421 -0.0036566400411041783 0 0.0046699531798801222 0.023131606333694731 0 0.0048426218909255357 0.023987932898629709 0 0.0057192949959234581 0.023387966610428346 0 0.0057192949959234581 0.023387966610428346 0 0.0060515353476753722 0.023212982504956559 0 0.0053186040915612224 0.024231562034076334 0 0.0050643610706840999 0.023762164603965949 0 0.0057192949959234581 0.023387966610428346 0 0.0053186040915612224 0.024231562034076334 0 0.0012753905214760099 0.014179178510613948 0 0.0013322563822775052 0.015365614268179846 0 0.0049604372794390958 0.022460375546707736 0 0.0060890941112729134 0.02212366163598849 0 0.0055504599073254212 0.022801501601358083 0 0.0046699531798801222 0.023131606333694731 0 0.0057192949959234581 0.023387966610428346 0 0.0055504599073254212 0.022801501601358083 0 0.0057192949959234581 0.023387966610428346 0 0.0055504599073254212 0.022801501601358083 0 0.0060515353476753722 0.023212982504956559 0 0.0060890941112729134 0.02212366163598849 0 0.0055504599073254212 0.022801501601358083 0 0.0061959492607788205 0.02244868775576566 0 0.0049604372794390958 0.022460375546707736 0 0.0046699531798801222 0.023131606333694731 0 0.0055504599073254212 0.022801501601358083 0 0.00060732456468983462 -0.0015942114352408042 0 -0.0017772320353102566 -0.00030020992938269755 0 -0.0050103373792064433 -0.020806593648496793 0 -0.0051521097334613864 -0.023924251474584563 0 -0.007342087642972726 -0.019690821488339935 0 0.0071422915227526617 0.021650187018567725 0 0.0061959492607788205 0.02244868775576566 0 0.0060515353476753722 0.023212982504956559 0 0.0055504599073254212 0.022801501601358083 0 0.0061959492607788205 0.02244868775576566 0 0.0060515353476753722 0.023212982504956559 0 -0.0050103373792064433 -0.020806593648496793 0 -0.007342087642972726 -0.019690821488339935 0 -0.0057022326554454451 -0.018623655600742348 0 -0.007342087642972726 -0.019690821488339935 0 -0.0057022326554454451 -0.018623655600742348 0 -0.0075124956659673968 -0.01723222923420864 0 -0.0046431466190800857 -0.01730083898839432 0 -0.0057044352426594228 -0.017103171307542693 0 -0.0049602877168603713 -0.015248760855137079 0 -0.0075124956659673968 -0.01723222923420864 0 -0.0057044352426594228 -0.017103171307542693 0 -0.0049602877168603713 -0.015248760855137079 0 -0.0046431466190800857 -0.01730083898839432 0 -0.0057022326554454451 -0.018623655600742348 0 -0.0057044352426594228 -0.017103171307542693 0 -0.0057022326554454451 -0.018623655600742348 0 -0.0075124956659673968 -0.01723222923420864 0 -0.0057044352426594228 -0.017103171307542693 0 -0.0075124956659673968 -0.01723222923420864 0 -0.0096649443718433981 -0.015560082121286832 0 -0.0049602877168603713 -0.015248760855137079 0 -0.0030693223796654421 -0.0036566400411041783 0 -0.0032366220744166133 -0.0091281161549211457 0 -0.001911502138412546 -0.014164833169424915 0 -0.0020922416176796135 -0.014438173895186477 0 -0.0013440634441180702 -0.014915180348610885 0 -0.0013865897952104122 -0.014367204797133246 0 -0.001911502138412546 -0.014164833169424915 0 -0.0013440634441180702 -0.014915180348610885 0 -0.001911502138412546 -0.014164833169424915 0 -0.0015727529202884426 -0.014031635776177628 0 -0.0019200741018225106 -0.013805567471552142 0 -0.0013865897952104122 -0.014367204797133246 0 -0.0015727529202884426 -0.014031635776177628 0 -0.0011693655460093949 -0.01405677923653606 0 -0.0013865897952104122 -0.014367204797133246 0 -0.001911502138412546 -0.014164833169424915 0 -0.0015727529202884426 -0.014031635776177628 0 -0.001911502138412546 -0.014164833169424915 0 -0.0024196127577643506 -0.014117601687737125 0 -0.0023376819351922625 -0.013725006126948283 0 -0.0022180823787979697 -0.013417432886222446 0 -0.0021398709799230501 -0.013103022592274331 0 -0.001911502138412546 -0.014164833169424915 0 -0.0020922416176796135 -0.014438173895186477 0 -0.0024196127577643506 -0.014117601687737125 0 -0.0020922416176796135 -0.014438173895186477 0 -0.0022793212299990675 -0.014888777856086484 0 -0.0013440634441180702 -0.014915180348610885 0 -0.0020922416176796135 -0.014438173895186477 0 -0.0022793212299990675 -0.014888777856086484 0 -0.0024196127577643506 -0.014117601687737125 0 -0.002337997415684437 -0.013988981288997787 0 -0.002813265269883204 -0.014048641165518103 0 -0.0028750023817227716 -0.013682343989287023 0 0.0050643610706840999 0.023762164603965949 0 0.0053186040915612224 0.024231562034076334 0 0.0044717658723016588 0.024142102759406536 0 -0.0030693223796654421 -0.0036566400411041783 0 0.0019766737530029599 0.0097543846148076038 0 0.0019766737530029599 0.0097543846148076038 0 0.0029258334889166217 0.012605340390624185 0 0.0035240114970849033 0.02435682507951431 0 0.002537168272738068 0.024316962119511763 0 0.0024656207408705636 0.025077082861162857 0 -0.002813265269883204 -0.014048641165518103 0 -0.0028750023817227716 -0.013682343989287023 0 -0.0035433520432872792 -0.013668623265108126 0 0.0019766737530029599 0.0097543846148076038 0 0.00035360266097344341 0.0076207213850797524 0 -0.0028750023817227716 -0.013682343989287023 0 -0.0031835914899134414 -0.013166450912055925 0 -0.0035433520432872792 -0.013668623265108126 0 -0.0028750023817227716 -0.013682343989287023 0 -0.0026844797475501759 -0.013426490087757988 0 -0.0031835914899134414 -0.013166450912055925 0 -0.0030693223796654421 -0.0036566400411041783 0 -0.00099074800629984005 -0.0097463151090716668 0 -0.0022793212299990675 -0.014888777856086484 0 -0.0024196127577643506 -0.014117601687737125 0 -0.0026844797475501759 -0.013426490087757988 0 -0.0024196127577643506 -0.014117601687737125 0 -0.0026844797475501759 -0.013426490087757988 0 -0.0020906376606087897 -0.013084834476549559 0 -0.002337997415684437 -0.013988981288997787 0 -0.0028750023817227716 -0.013682343989287023 0 -0.0026844797475501759 -0.013426490087757988 0 -0.0026844797475501759 -0.013426490087757988 0 -0.0024510063931874534 -0.01285709673564815 0 -0.0020906376606087897 -0.013084834476549559 0 -0.0026844797475501759 -0.013426490087757988 0 -0.0024510063931874534 -0.01285709673564815 0 -0.0029042115623474384 -0.012979163442588919 0 -0.0024510063931874534 -0.01285709673564815 0 -0.0029042115623474384 -0.012979163442588919 0 -0.0026215092598699348 -0.012520203131104671 0 -0.0026844797475501759 -0.013426490087757988 0 -0.0031835914899134414 -0.013166450912055925 0 -0.0029042115623474384 -0.012979163442588919 0 -0.0029042115623474384 -0.012979163442588919 0 -0.0032035483434022763 -0.012646809251872379 0 -0.0026215092598699348 -0.012520203131104671 0 -0.0031835914899134414 -0.013166450912055925 0 -0.0029042115623474384 -0.012979163442588919 0 -0.0032035483434022763 -0.012646809251872379 0 -0.0031835914899134414 -0.013166450912055925 0 -0.0032035483434022763 -0.012646809251872379 0 -0.0035957297174096878 -0.012663327753806439 0 -0.0025473899845611112 -0.012322470358296582 0 -0.0023128002026435511 -0.012366166721712127 0 -0.002731835187835673 -0.012215696375420174 0 -0.0028597419274265204 -0.011438903642946563 0 -0.0015423500807664932 -0.011559779600765497 0 -0.0028597419274265204 -0.011438903642946563 0 -0.0015423500807664932 -0.011559779600765497 0 -0.0026179144415041941 -0.010672643367849621 0 -0.0025473899845611112 -0.012322470358296582 0 -0.0020255949106934138 -0.011961988412233258 0 -0.002731835187835673 -0.012215696375420174 0 -0.0028597419274265204 -0.011438903642946563 0 -0.0033757233164804501 -0.012029644002202865 0 -0.0022142077812931107 -0.012147370637271074 0 -0.0022247039816285404 -0.012191765735122489 0 -0.0020797280346622252 -0.01215384478538817 0 -0.0023128002026435511 -0.012366166721712127 0 -0.0019621546424198944 -0.012391264467530192 0 -0.0024510063931874534 -0.01285709673564815 0 -0.0026215092598699348 -0.012520203131104671 0 -0.0019286769606401148 -0.012327517914368386 0 -0.0023710729523671774 -0.012230124454781751 0 -0.0022142077812931107 -0.012147370637271074 0 -0.0022247039816285404 -0.012191765735122489 0 -0.0020255949106934138 -0.011961988412233258 0 -0.0017676542023531544 -0.011750579086340555 0 -0.0022142077812931107 -0.012147370637271074 0 -0.0020797280346622252 -0.01215384478538817 0 -0.0020588311483317771 -0.012065704886583425 0 -0.0022477184957249287 -0.013007348149678123 0 -0.0016602839191216499 -0.013205961961050318 0 -0.0019839916645777566 -0.013463839471376842 0 -0.0019621546424198944 -0.012391264467530192 0 -0.0017676542023531544 -0.011750579086340555 0 -0.0022477184957249287 -0.013007348149678123 0 -0.0013647399894309942 -0.012689509206109052 0 -0.0016602839191216499 -0.013205961961050318 0 -0.0024684223478154271 -0.012925408861664898 0 -0.0013707142475645462 -0.012648748829428092 0 -0.0023466884876337658 -0.012411059779894285 0 -0.0019621546424198944 -0.012391264467530192 0 -0.0014259860033629201 -0.012422929262208822 0 -0.0013647399894309942 -0.012689509206109052 0 -0.0016602839191216499 -0.013205961961050318 0 -0.0010236914767922309 -0.013269267027901748 0 -0.0016602839191216499 -0.013205961961050318 0 -0.0015151780240604627 -0.013639890958883882 0 -0.0019839916645777566 -0.013463839471376842 0 -0.0015151780240604627 -0.013639890958883882 0 -0.0019200741018225106 -0.013805567471552142 0 -0.0019839916645777566 -0.013463839471376842 0 -0.0016602839191216499 -0.013205961961050318 0 -0.0015151780240604627 -0.013639890958883882 0 -0.0010236914767922309 -0.013269267027901748 0 -0.0015727529202884426 -0.014031635776177628 0 -0.0015151780240604627 -0.013639890958883882 0 -0.0011693655460093949 -0.01405677923653606 0 -0.0015727529202884426 -0.014031635776177628 0 -0.0015151780240604627 -0.013639890958883882 0 -0.0019200741018225106 -0.013805567471552142 0 -0.0019621546424198944 -0.012391264467530192 0 -0.0021398709799230501 -0.013103022592274331 0 -0.0024510063931874534 -0.01285709673564815 0 -0.0019286769606401148 -0.012327517914368386 0 -0.0020906376606087897 -0.013084834476549559 0 -0.001911502138412546 -0.014164833169424915 0 -0.0019200741018225106 -0.013805567471552142 0 -0.0023376819351922625 -0.013725006126948283 0 -0.0019200741018225106 -0.013805567471552142 0 -0.0023376819351922625 -0.013725006126948283 0 -0.0019839916645777566 -0.013463839471376842 0 -0.0022477184957249287 -0.013007348149678123 0 -0.0023376819351922625 -0.013725006126948283 0 -0.0019839916645777566 -0.013463839471376842 0 -7.5354283580387197e-05 0.024688129521955461 0 5.7621978400590597e-05 0.025360170742017862 0 0.00071008289039837494 0.025194840304973633 0 -7.5354283580387197e-05 0.024688129521955461 0 0.00094224084720770352 0.024426201019874607 0 0.00071008289039837494 0.025194840304973633 0 -7.5354283580387197e-05 0.024688129521955461 0 0.00042102863178686913 0.023664293854491956 0 0.00094224084720770352 0.024426201019874607 0 0.00094224084720770352 0.024426201019874607 0 0.00071008289039837494 0.025194840304973633 0 0.0015532662007350878 0.024964510873062559 0 0.00071008289039837494 0.025194840304973633 0 0.0015532662007350878 0.024964510873062559 0 0.0012670013925926147 0.02566399135397987 0 0.0015532662007350878 0.024964510873062559 0 0.0024656207408705636 0.025077082861162857 0 0.0012670013925926147 0.02566399135397987 0 -0.0035433520432872792 -0.013668623265108126 0 -0.0037929577896304418 -0.013115987739228762 0 -0.0051320758669370966 -0.012824647198646379 0 0.00035360266097344341 0.0076207213850797524 0 -0.0013675028287014918 0.0074501026035023689 0 0.0015532662007350878 0.024964510873062559 0 0.001833914684192997 0.02441947350758256 0 0.0024656207408705636 0.025077082861162857 0 0.00094224084720770352 0.024426201019874607 0 0.0015532662007350878 0.024964510873062559 0 0.001833914684192997 0.02441947350758256 0 0.001833914684192997 0.02441947350758256 0 0.002537168272738068 0.024316962119511763 0 0.0024656207408705636 0.025077082861162857 0 -0.0031835914899134414 -0.013166450912055925 0 -0.0035433520432872792 -0.013668623265108126 0 -0.0037929577896304418 -0.013115987739228762 0 -0.0031835914899134414 -0.013166450912055925 0 -0.0037929577896304418 -0.013115987739228762 0 -0.0035957297174096878 -0.012663327753806439 0 -0.0037929577896304418 -0.013115987739228762 0 -0.0035957297174096878 -0.012663327753806439 0 -0.0042736093867282877 -0.01276362420762441 0 -0.0035957297174096878 -0.012663327753806439 0 -0.0033757233164804501 -0.012029644002202865 0 -0.0042736093867282877 -0.01276362420762441 0 -0.0025473899845611112 -0.012322470358296582 0 -0.0027713581018661325 -0.012425560348692521 0 -0.002731835187835673 -0.012215696375420174 0 -0.0035957297174096878 -0.012663327753806439 0 -0.0033757233164804501 -0.012029644002202865 0 -0.0033757233164804501 -0.012029644002202865 0 -0.0038126254932873767 -0.011491739677720381 0 -0.0042736093867282877 -0.01276362420762441 0 -0.0028597419274265204 -0.011438903642946563 0 -0.0033757233164804501 -0.012029644002202865 0 -0.0038126254932873767 -0.011491739677720381 0 -0.0028597419274265204 -0.011438903642946563 0 -0.0038126254932873767 -0.011491739677720381 0 -0.0033802817875519444 -0.010893527092041933 0 -0.003301555754902606 -0.010939063371105059 0 -0.0032415458565756999 -0.0095158896385184825 0 -0.0038126254932873767 -0.011491739677720381 0 -0.0042736093867282877 -0.01276362420762441 0 -0.004853315637881047 -0.011126981352841051 0 -0.0037929577896304418 -0.013115987739228762 0 -0.0051320758669370966 -0.012824647198646379 0 -0.0042736093867282877 -0.01276362420762441 0 -0.0051320758669370966 -0.012824647198646379 0 -0.0042736093867282877 -0.01276362420762441 0 -0.0049005052829565561 -0.010096680363634003 0 -0.0013675028287014918 0.0074501026035023689 0 -0.0029053012904913574 0.0081886874431973192 0 0.00071008289039837494 0.025194840304973633 0 0.0012670013925926147 0.02566399135397987 0 0.00027560765949700278 0.02607673949607639 0 -0.0051320758669370966 -0.012824647198646379 0 -0.0074697012617888376 -0.011178601594157995 0 -0.0049005052829565561 -0.010096680363634003 0 -0.00024218055061267816 0.025674393708648949 0 5.7621978400590597e-05 0.025360170742017862 0 0.00027560765949700278 0.02607673949607639 0 5.7621978400590597e-05 0.025360170742017862 0 0.00071008289039837494 0.025194840304973633 0 0.00027560765949700278 0.02607673949607639 0 -0.0080494413341271123 -0.0074736043081395165 0 -0.0069833159412861423 -0.0077393153852211372 0 -0.007321138149427346 -0.006526834535596068 0 -0.0069833159412861423 -0.0077393153852211372 0 -0.0066746472018918753 -0.0069101689971882273 0 -0.007321138149427346 -0.006526834535596068 0 -0.0080494413341271123 -0.0074736043081395165 0 -0.0069833159412861423 -0.0077393153852211372 0 -0.0072450062745816292 -0.0090347393636094949 0 -0.0086052029223788861 -0.0088646165821601366 0 -0.0080494413341271123 -0.0074736043081395165 0 -0.0072450062745816292 -0.0090347393636094949 0 -0.0086052029223788861 -0.0088646165821601366 0 -0.0074697012617888376 -0.011178601594157995 0 -0.0072450062745816292 -0.0090347393636094949 0 -0.0074697012617888376 -0.011178601594157995 0 -0.0072450062745816292 -0.0090347393636094949 0 -0.0049005052829565561 -0.010096680363634003 0 -0.0069833159412861423 -0.0077393153852211372 0 -0.0072450062745816292 -0.0090347393636094949 0 -0.0049005052829565561 -0.010096680363634003 0 -0.0024904923685237072 -0.0058786260873129282 0 -0.0032415458565756999 -0.0095158896385184825 0 -0.0069833159412861423 -0.0077393153852211372 0 -0.0058077070499125243 -0.0073061401990953366 0 -0.0049005052829565561 -0.010096680363634003 0 -0.005509802073754639 -0.009351932444591109 0 -0.0050133249368386201 -0.0097805076432237823 0 -0.004853315637881047 -0.011126981352841051 0 -0.0069833159412861423 -0.0077393153852211372 0 -0.0058077070499125243 -0.0073061401990953366 0 -0.0066746472018918753 -0.0069101689971882273 0 -0.005509802073754639 -0.009351932444591109 0 -0.0053030104521521772 -0.009314975670438019 0 -0.005213727985885366 -0.0094631848544238679 0 -0.005509802073754639 -0.009351932444591109 0 -0.0053030104521521772 -0.009314975670438019 0 -0.0051659339170429391 -0.0090298105011188713 0 -0.0053030104521521772 -0.009314975670438019 0 -0.0050555606144814741 -0.0093669097080020941 0 -0.0051659339170429391 -0.0090298105011188713 0 -0.0053030104521521772 -0.009314975670438019 0 -0.0050555606144814741 -0.0093669097080020941 0 -0.005213727985885366 -0.0094631848544238679 0 -0.005509802073754639 -0.009351932444591109 0 -0.005213727985885366 -0.0094631848544238679 0 -0.0050133249368386201 -0.0097805076432237823 0 -0.0050555606144814741 -0.0093669097080020941 0 -0.005213727985885366 -0.0094631848544238679 0 -0.0050133249368386201 -0.0097805076432237823 0 -0.0047721646365370962 -0.0095181351973544857 0 -0.0047664446719782481 -0.009164473667463988 0 -0.0041711850983497311 -0.0092611644584257649 0 -0.0050555606144814741 -0.0093669097080020941 0 -0.0047721646365370962 -0.0095181351973544857 0 -0.0050133249368386201 -0.0097805076432237823 0 -0.0050555606144814741 -0.0093669097080020941 0 -0.0047721646365370962 -0.0095181351973544857 0 -0.0047664446719782481 -0.009164473667463988 0 -0.0050555606144814741 -0.0093669097080020941 0 -0.0047664446719782481 -0.009164473667463988 0 -0.0051659339170429391 -0.0090298105011188713 0 -0.0041711850983497311 -0.0092611644584257649 0 -0.00439666461469431 -0.0097819276034487625 0 -0.003764559354518381 -0.0097838286639150632 0 -0.0047721646365370962 -0.0095181351973544857 0 -0.0041711850983497311 -0.0092611644584257649 0 -0.00439666461469431 -0.0097819276034487625 0 -0.00439666461469431 -0.0097819276034487625 0 -0.0042028970611371255 -0.010599807137475993 0 -0.003764559354518381 -0.0097838286639150632 0 -0.0047721646365370962 -0.0095181351973544857 0 -0.00439666461469431 -0.0097819276034487625 0 -0.0050133249368386201 -0.0097805076432237823 0 -0.00439666461469431 -0.0097819276034487625 0 -0.0050133249368386201 -0.0097805076432237823 0 -0.0042028970611371255 -0.010599807137475993 0 -0.0038126254932873767 -0.011491739677720381 0 -0.004853315637881047 -0.011126981352841051 0 -0.0042028970611371255 -0.010599807137475993 0 -0.0050133249368386201 -0.0097805076432237823 0 -0.004853315637881047 -0.011126981352841051 0 -0.0042028970611371255 -0.010599807137475993 0 -0.0042028970611371255 -0.010599807137475993 0 -0.0034162357195063114 -0.01027048994253605 0 -0.003764559354518381 -0.0097838286639150632 0 -0.0042028970611371255 -0.010599807137475993 0 -0.0033802817875519444 -0.010893527092041933 0 -0.0034162357195063114 -0.01027048994253605 0 -0.0038126254932873767 -0.011491739677720381 0 -0.0042028970611371255 -0.010599807137475993 0 -0.0033802817875519444 -0.010893527092041933 0 -0.0033802817875519444 -0.010893527092041933 0 -0.0034162357195063114 -0.01027048994253605 0 -0.0026179144415041941 -0.010672643367849621 0 -0.0029255299648713808 -0.009381484519211683 0 -0.0025663557641480927 -0.0086275815126820189 0 -0.0034162357195063114 -0.01027048994253605 0 -0.0032931831840835842 -0.0093488417193543297 0 -0.0025651321689091474 -0.0086842914346761078 0 -0.0034162357195063114 -0.01027048994253605 0 -0.003764559354518381 -0.0097838286639150632 0 -0.0032931831840835842 -0.0093488417193543297 0 -0.0041711850983497311 -0.0092611644584257649 0 -0.003764559354518381 -0.0097838286639150632 0 -0.0032931831840835842 -0.0093488417193543297 0 -0.0032931831840835842 -0.0093488417193543297 0 -0.002854172315799413 -0.008114225293698726 0 -0.0025651321689091474 -0.0086842914346761078 0 -0.0032931831840835842 -0.0093488417193543297 0 -0.003795421161700608 -0.0085862930122771238 0 -0.0029351350781238084 -0.007848677179158001 0 -0.0028534570599900856 -0.0083267500424928607 0 -0.0026746002725206489 -0.0076881842977158952 0 -0.0041711850983497311 -0.0092611644584257649 0 -0.0032931831840835842 -0.0093488417193543297 0 -0.003795421161700608 -0.0085862930122771238 0 -0.003795421161700608 -0.0085862930122771238 0 -0.0029351350781238084 -0.007848677179158001 0 -0.0040035895206987152 -0.0078343410452002965 0 -0.0025919060584843304 -0.0063492445500395855 0 -0.0029351350781238084 -0.007848677179158001 0 -0.0035322419010050399 -0.0070179680227024661 0 -0.0029351350781238084 -0.007848677179158001 0 -0.0035322419010050399 -0.0070179680227024661 0 -0.0040035895206987152 -0.0078343410452002965 0 -0.0035322419010050399 -0.0070179680227024661 0 -0.0040035895206987152 -0.0078343410452002965 0 -0.0047179034227125575 -0.0071217868268278499 0 -0.0040035895206987152 -0.0078343410452002965 0 -0.0047179034227125575 -0.0071217868268278499 0 -0.0048976305452811987 -0.0080950594129371063 0 -0.0048976305452811987 -0.0080950594129371063 0 -0.0045532688825875994 -0.0086270429144974341 0 -0.0052928667574048665 -0.0086472392671941515 0 -0.003795421161700608 -0.0085862930122771238 0 -0.0040035895206987152 -0.0078343410452002965 0 -0.0045532688825875994 -0.0086270429144974341 0 -0.0040035895206987152 -0.0078343410452002965 0 -0.0048976305452811987 -0.0080950594129371063 0 -0.0045532688825875994 -0.0086270429144974341 0 -0.0047664446719782481 -0.009164473667463988 0 -0.0041711850983497311 -0.0092611644584257649 0 -0.0045532688825875994 -0.0086270429144974341 0 -0.0041711850983497311 -0.0092611644584257649 0 -0.003795421161700608 -0.0085862930122771238 0 -0.0045532688825875994 -0.0086270429144974341 0 -0.0047664446719782481 -0.009164473667463988 0 -0.0045532688825875994 -0.0086270429144974341 0 -0.0051659339170429391 -0.0090298105011188713 0 -0.0045532688825875994 -0.0086270429144974341 0 -0.0052928667574048665 -0.0086472392671941515 0 -0.0051659339170429391 -0.0090298105011188713 0 -0.0023404056435812372 -0.0050474705259890805 0 -0.0022861853599719061 -0.0051963257111300098 0 -0.0022550762038575285 -0.0051679593298328179 0 -0.0024904923685237072 -0.0058786260873129282 0 -0.0018698938474140028 -0.0041534769565487054 0 -0.005509802073754639 -0.009351932444591109 0 -0.0052928667574048665 -0.0086472392671941515 0 -0.0059153044365445624 -0.0082409979478023313 0 -0.005509802073754639 -0.009351932444591109 0 -0.0052928667574048665 -0.0086472392671941515 0 -0.0051659339170429391 -0.0090298105011188713 0 -0.0024904923685237072 -0.0058786260873129282 0 -0.0022331349017478712 -0.0045004728415745741 0 -0.0058077070499125243 -0.0073061401990953366 0 -0.0066746472018918753 -0.0069101689971882273 0 -0.0067160403404910125 -0.0059735749048012788 0 -0.0018698938474140028 -0.0041534769565487054 0 -0.0022331349017478712 -0.0045004728415745741 0 -0.0048976305452811987 -0.0080950594129371063 0 -0.0052928667574048665 -0.0086472392671941515 0 -0.0059153044365445624 -0.0082409979478023313 0 0.0026590585768556537 0.00082973973807134809 0 0.0023950183865674487 0.0017275378398552872 0 0.0022829659367756029 0.0011316753373983074 0 0.0017825527271877273 0.0012275271966052537 0 0.0023950183865674487 0.0017275378398552872 0 0.0022829659367756029 0.0011316753373983074 0 -0.0047179034227125575 -0.0071217868268278499 0 -0.0048976305452811987 -0.0080950594129371063 0 -0.0059153044365445624 -0.0082409979478023313 0 -0.0013901827297332311 -0.0034527515709710395 0 -0.0018698938474140028 -0.0041534769565487054 0 0.0026590585768556537 0.00082973973807134809 0 0.0024635020923565267 0.0013401773926481704 0 0.0027410330057820484 0.0011286410636350049 0 -0.0013514081004198999 -0.0017555200024270217 0 -0.0018698938474140028 -0.0041534769565487054 0 -0.0025138115443658765 -0.0019024950449526765 0 -0.0022331349017478712 -0.0045004728415745741 0 0.002999438476179752 0.00080993437873286115 0 0.0028147797052403573 0.00082030976864262467 0 0.0027410330057820484 0.0011286410636350049 0 -0.002780852560218529 0.00062121359357138607 0 -0.0025138115443658765 -0.0019024950449526765 0 -0.008642192901371859 -0.0057871781745019628 0 -0.0076258096314197679 -0.0046261882933906128 0 -0.0076012559149833629 -0.0055957546796043325 0 -0.008642192901371859 -0.0057871781745019628 0 -0.0076012559149833629 -0.0055957546796043325 0 -0.007321138149427346 -0.006526834535596068 0 -0.008642192901371859 -0.0057871781745019628 0 -0.0080494413341271123 -0.0074736043081395165 0 -0.007321138149427346 -0.006526834535596068 0 -0.0076012559149833629 -0.0055957546796043325 0 -0.0067034995930189221 -0.0059638203341615724 0 -0.007321138149427346 -0.006526834535596068 0 0.0024635020923565267 0.0013401773926481704 0 0.0027410330057820484 0.0011286410636350049 0 0.0025350653788789321 0.0014053579238595285 0 -0.0076258096314197679 -0.0046261882933906128 0 -0.0076012559149833629 -0.0055957546796043325 0 -0.0067034995930189221 -0.0059638203341615724 0 -0.0066746472018918753 -0.0069101689971882273 0 -0.0067160403404910125 -0.0059735749048012788 0 -0.007321138149427346 -0.006526834535596068 0 -0.0022331349017478712 -0.0045004728415745741 0 -0.0026173424887863828 -0.0047845206889858046 0 -0.00079105290401227583 -0.0098774125351773351 0 -4.4044971468898957e-05 -0.0093355644207168895 0 -0.00063282728379464445 -0.0087218002730227971 0 -0.0012527372543099549 -0.01011264921315074 0 -0.0017676542023531544 -0.011750579086340555 0 -0.00079105290401227583 -0.0098774125351773351 0 -0.0016105643945701791 -0.0096935370796419635 0 -0.00063282728379464445 -0.0087218002730227971 0 -0.00079105290401227583 -0.0098774125351773351 0 -4.4044971468898957e-05 -0.0093355644207168895 0 -0.00041092632489119906 -0.010946579144337361 0 -0.0025980583603030056 -0.01098276937951574 0 -0.001610508848019917 -0.011286923967041784 0 -0.0018188978199693087 -0.012135362714188375 0 -0.0025980583603030056 -0.01098276937951574 0 -0.001610508848019917 -0.011286923967041784 0 -0.001420181748196454 -0.01054497929644533 0 -0.0013707142475645462 -0.012648748829428092 0 -0.00146948631550306 -0.011952651634921955 0 -0.0023466884876337658 -0.012411059779894285 0 -0.0025980583603030056 -0.01098276937951574 0 -0.0018188978199693087 -0.012135362714188375 0 -0.0030109240610435932 -0.012754288337436619 0 -0.0016323436213880017 -0.011795942312439738 0 -0.0017676542023531544 -0.011750579086340555 0 -0.00079105290401227583 -0.0098774125351773351 0 -0.00041092632489119906 -0.010946579144337361 0 -0.0013247607025120296 -0.010625160925073063 0 -0.0015423500807664932 -0.011559779600765497 0 -0.00041092632489119906 -0.010946579144337361 0 -0.0013247607025120296 -0.010625160925073063 0 -0.0013247607025120296 -0.010625160925073063 0 -0.0026179144415041941 -0.010672643367849621 0 -0.0016105643945701791 -0.0096935370796419635 0 -0.0015423500807664932 -0.011559779600765497 0 -0.0013247607025120296 -0.010625160925073063 0 -0.0026179144415041941 -0.010672643367849621 0 -0.0034162357195063114 -0.01027048994253605 0 -0.0026179144415041941 -0.010672643367849621 0 -0.0024576734180418633 -0.0096249838829567634 0 -0.0028597419274265204 -0.011438903642946563 0 -0.0033802817875519444 -0.010893527092041933 0 -0.0026179144415041941 -0.010672643367849621 0 -0.0020046103141846232 -0.0099174224484629061 0 -0.0016030992864816864 -0.0094835880815740976 0 -0.0034162357195063114 -0.01027048994253605 0 -0.0024576734180418633 -0.0096249838829567634 0 -0.0026703660825625583 -0.0086874805502269326 0 -0.0026179144415041941 -0.010672643367849621 0 -0.0024576734180418633 -0.0096249838829567634 0 -0.0016369939125102995 -0.0096053793704717581 0 -0.00079105290401227583 -0.0098774125351773351 0 -0.0013247607025120296 -0.010625160925073063 0 -0.0016105643945701791 -0.0096935370796419635 0 -0.0024576734180418633 -0.0096249838829567634 0 -0.0016369939125102995 -0.0096053793704717581 0 -0.0019645281237713808 -0.0089274770112480889 0 -0.0016030992864816864 -0.0094835880815740976 0 -0.0009559777892237198 -0.0087402209676281546 0 -0.0019645281237713808 -0.0089274770112480889 0 -0.0017016362785717547 -0.0082539311651231781 0 -0.00077947780086002456 -0.0086096853245787742 0 -0.0016369939125102995 -0.0096053793704717581 0 -0.0019645281237713808 -0.0089274770112480889 0 -0.00077947780086002456 -0.0086096853245787742 0 -0.0019645281237713808 -0.0089274770112480889 0 -0.0026703660825625583 -0.0086874805502269326 0 -0.0017016362785717547 -0.0082539311651231781 0 -0.0024576734180418633 -0.0096249838829567634 0 -0.0019645281237713808 -0.0089274770112480889 0 -0.0026703660825625583 -0.0086874805502269326 0 -0.0018913733664019106 -0.0073355000578960881 0 -0.0025172027057831559 -0.0070308010519528367 0 -0.002854172315799413 -0.008114225293698726 0 -0.0020089735867533805 -0.0074700026182886719 0 -0.0025663557641480927 -0.0086275815126820189 0 -0.0019464278081632355 -0.0073078164332966572 0 -0.0026703660825625583 -0.0086874805502269326 0 -0.0017016362785717547 -0.0082539311651231781 0 -0.0018913733664019106 -0.0073355000578960881 0 -0.002854172315799413 -0.008114225293698726 0 -0.0025651321689091474 -0.0086842914346761078 0 -0.0022672611119929674 -0.0063169911391482755 0 -0.0026746002725206489 -0.0076881842977158952 0 -0.0019464278081632355 -0.0073078164332966572 0 -0.0017016362785717547 -0.0082539311651231781 0 -0.0015105154882379898 -0.0076187651426056933 0 -0.0017016362785717547 -0.0082539311651231781 0 -0.0010069603865396329 -0.007783284268718816 0 -0.00077947780086002456 -0.0086096853245787742 0 -0.0017016362785717547 -0.0082539311651231781 0 -0.0015105154882379898 -0.0076187651426056933 0 -0.0010069603865396329 -0.007783284268718816 0 -0.0012993723292200252 -0.0072706559611634162 0 -0.0015105154882379898 -0.0076187651426056933 0 -0.0010069603865396329 -0.007783284268718816 0 -0.0009559777892237198 -0.0087402209676281546 0 -0.00064851552917497164 -0.0082618838095787125 0 -0.0010069603865396329 -0.007783284268718816 0 -0.00077947780086002456 -0.0086096853245787742 0 -3.7338676731845082e-05 -0.0077026723656457054 0 -0.00085839730420265515 -0.0070340101679418291 0 -0.0010069603865396329 -0.007783284268718816 0 -3.7338676731845082e-05 -0.0077026723656457054 0 -4.4044971468898957e-05 -0.0093355644207168895 0 -0.00063282728379464445 -0.0087218002730227971 0 0.00032441750269148378 -0.0077542788921622901 0 -0.0025980583603030056 -0.01098276937951574 0 -0.0022145334603402055 -0.0091871633770298951 0 -0.001420181748196454 -0.01054497929644533 0 -0.0012527372543099549 -0.01011264921315074 0 -0.00064851552917497164 -0.0082618838095787125 0 -0.0022145334603402055 -0.0091871633770298951 0 -0.00063324106329718801 -0.0097982320410230778 0 -0.00031470085635361086 -0.0087693623316411617 0 -0.00063324106329718801 -0.0097982320410230778 0 -0.00031470085635361086 -0.0087693623316411617 0 0.0006126721412504113 -0.0097293316915626048 0 0.0010313070525145062 -0.0083794985008939123 0 -0.00031470085635361086 -0.0087693623316411617 0 0.0006126721412504113 -0.0097293316915626048 0 -0.00063324106329718801 -0.0097982320410230778 0 -9.7764375991524286e-05 -0.010720603192918543 0 0.0006126721412504113 -0.0097293316915626048 0 -0.0022145334603402055 -0.0091871633770298951 0 -0.00063324106329718801 -0.0097982320410230778 0 -0.001420181748196454 -0.01054497929644533 0 -0.00063324106329718801 -0.0097982320410230778 0 -9.7764375991524286e-05 -0.010720603192918543 0 -0.001420181748196454 -0.01054497929644533 0 -0.0016323436213880017 -0.011795942312439738 0 -0.0013536432869119372 -0.011685182370728707 0 -9.7764375991524286e-05 -0.010720603192918543 0 -0.001420181748196454 -0.01054497929644533 0 -0.00059857975010720044 -0.011490589622065461 0 -0.001610508848019917 -0.011286923967041784 0 -0.0018188978199693087 -0.012135362714188375 0 -0.00059857975010720044 -0.011490589622065461 0 -0.001610508848019917 -0.011286923967041784 0 -0.001420181748196454 -0.01054497929644533 0 -0.00059857975010720044 -0.011490589622065461 0 -9.7764375991524286e-05 -0.010720603192918543 0 -0.00059857975010720044 -0.011490589622065461 0 0.00024417250219793181 -0.011622410397059302 0 -0.00059857975010720044 -0.011490589622065461 0 0.00024417250219793181 -0.011622410397059302 0 -0.00023889714399113614 -0.012367802167657857 0 0.00024417250219793181 -0.011622410397059302 0 -0.00023889714399113614 -0.012367802167657857 0 0.00074076539967449326 -0.012333622902982538 0 -0.0013707142475645462 -0.012648748829428092 0 -0.00023889714399113614 -0.012367802167657857 0 -0.00089704647043329082 -0.012104814039195418 0 -0.00146948631550306 -0.011952651634921955 0 -0.00059857975010720044 -0.011490589622065461 0 -0.00089704647043329082 -0.012104814039195418 0 -0.00059857975010720044 -0.011490589622065461 0 -0.00023889714399113614 -0.012367802167657857 0 -0.00089704647043329082 -0.012104814039195418 0 -0.0014259860033629201 -0.012422929262208822 0 -0.0010021746488586977 -0.012361664835623535 0 -0.0013707142475645462 -0.012648748829428092 0 -0.00146948631550306 -0.011952651634921955 0 -0.00089704647043329082 -0.012104814039195418 0 0.0016050769011461919 -0.012137001882820898 0 0.00074076539967449326 -0.012333622902982538 0 0.0012894617134895316 -0.012896681137933489 0 0.0016050769011461919 -0.012137001882820898 0 0.00074076539967449326 -0.012333622902982538 0 0.0011685681973082672 -0.010989019666738887 0 0.00024417250219793181 -0.011622410397059302 0 0.00074076539967449326 -0.012333622902982538 0 0.0011685681973082672 -0.010989019666738887 0 -9.7764375991524286e-05 -0.010720603192918543 0 0.00024417250219793181 -0.011622410397059302 0 0.0011685681973082672 -0.010989019666738887 0 0.0016050769011461919 -0.012137001882820898 0 0.0011685681973082672 -0.010989019666738887 0 0.0019392700125012948 -0.011456920303629874 0 0.0018287270207293866 -0.010589209985151313 0 0.0022657491929168167 -0.010164423352217528 0 0.0011685681973082672 -0.010989019666738887 0 0.0019205321297762683 -0.010689301292279534 0 0.0019392700125012948 -0.011456920303629874 0 0.0011685681973082672 -0.010989019666738887 0 0.0006126721412504113 -0.0097293316915626048 0 0.0024326291212979322 -0.0094426695776665924 0 -9.7764375991524286e-05 -0.010720603192918543 0 0.0011685681973082672 -0.010989019666738887 0 0.0006126721412504113 -0.0097293316915626048 0 0.0010313070525145062 -0.0083794985008939123 0 0.0006126721412504113 -0.0097293316915626048 0 0.0024326291212979322 -0.0094426695776665924 0 0.0030176965055089414 -0.0095026509275308139 0 0.0022657491929168167 -0.010164423352217528 0 0.0024766442031715487 -0.010426267359137516 0 0.0019205321297762683 -0.010689301292279534 0 0.0027447075300983358 -0.010843646322759658 0 0.0027447075300983358 -0.010843646322759658 0 0.0024362053729812933 -0.011199732759239519 0 0.0030676452416512055 -0.011386698650471429 0 0.0019205321297762683 -0.010689301292279534 0 0.0024362053729812933 -0.011199732759239519 0 0.0019392700125012948 -0.011456920303629874 0 0.0019205321297762683 -0.010689301292279534 0 0.0027447075300983358 -0.010843646322759658 0 0.0024362053729812933 -0.011199732759239519 0 0.0033224921337043252 -0.01071854183823513 0 0.00321093587167099 -0.01106785934538832 0 0.0034793785220327321 -0.011060749354894064 0 0.0029499206674676801 -0.010543967078439657 0 0.0027447075300983358 -0.010843646322759658 0 0.0030605137436625395 -0.010788714896667828 0 0.0033224921337043252 -0.01071854183823513 0 0.0030605137436625395 -0.010788714896667828 0 0.00321093587167099 -0.01106785934538832 0 0.0027447075300983358 -0.010843646322759658 0 0.0030605137436625395 -0.010788714896667828 0 0.00321093587167099 -0.01106785934538832 0 0.0027447075300983358 -0.010843646322759658 0 0.00321093587167099 -0.01106785934538832 0 0.0030676452416512055 -0.011386698650471429 0 0.00321093587167099 -0.01106785934538832 0 0.0032779290734343196 -0.011345402271199033 0 0.0030676452416512055 -0.011386698650471429 0 0.00321093587167099 -0.01106785934538832 0 0.0033709470920037189 -0.011232773749693642 0 0.0034793785220327321 -0.011060749354894064 0 0.0032779290734343196 -0.011345402271199033 0 0.0033709470920037189 -0.011232773749693642 0 0.0033709006483511081 -0.011445125427053211 0 0.00321093587167099 -0.01106785934538832 0 0.0032779290734343196 -0.011345402271199033 0 0.0033709470920037189 -0.011232773749693642 0 0.0035468954877076113 -0.011271829589777752 0 0.0033709470920037189 -0.011232773749693642 0 0.0033709006483511081 -0.011445125427053211 0 0.0035468954877076113 -0.011271829589777752 0 0.0033709470920037189 -0.011232773749693642 0 0.0034793785220327321 -0.011060749354894064 0 0.0037148076318743147 -0.011681685437622377 0 0.00334868179035391 -0.011674258082480838 0 0.0034851889178693913 -0.011499823385747399 0 0.0027307436822994829 -0.014033158972567581 0 0.0028305033959555438 -0.013884610161309841 0 0.0033645919277105604 -0.011563846878568306 0 0.0034851889178693913 -0.011499823385747399 0 0.0033709006483511081 -0.011445125427053211 0 0.0032779290734343196 -0.011345402271199033 0 0.0033645919277105604 -0.011563846878568306 0 0.0033709006483511081 -0.011445125427053211 0 0.0030676452416512055 -0.011386698650471429 0 0.0032777738305502773 -0.011942191877605337 0 0.0028774318632965217 -0.012079541894365364 0 0.0027307436822994829 -0.014033158972567581 0 0.002644684982212269 -0.013521234021691796 0 0.0032779290734343196 -0.011345402271199033 0 0.0033645919277105604 -0.011563846878568306 0 0.0030676452416512055 -0.011386698650471429 0 0.0038847231235086101 -0.011730154395733154 0 0.0030676452416512055 -0.011386698650471429 0 0.0032777738305502773 -0.011942191877605337 0 0.0027307436822994829 -0.014033158972567581 0 0.0027144322153572977 -0.014722645231385062 0 0.0038847231235086101 -0.011730154395733154 0 0.0032777738305502773 -0.011942191877605337 0 0.0032775560100850652 -0.0125255850987266 0 0.0032777738305502773 -0.011942191877605337 0 0.0028774318632965217 -0.012079541894365364 0 0.0032775560100850652 -0.0125255850987266 0 0.0028952613945367909 -0.016771657974969059 0 0.0030085461151215928 -0.017018382186443838 0 0.0028542123184763834 -0.017108573908775956 0 0.0028952613945367909 -0.016771657974969059 0 0.0028542123184763834 -0.017108573908775956 0 0.0026140774791314071 -0.01709780160883936 0 0.0030085461151215928 -0.017018382186443838 0 0.0030120147406255157 -0.017153431407547576 0 0.0028542123184763834 -0.017108573908775956 0 0.0019392700125012948 -0.011456920303629874 0 0.0024992672445615311 -0.011693258368831932 0 0.0022883967796131651 -0.012222618851673339 0 0.0024362053729812933 -0.011199732759239519 0 0.0019392700125012948 -0.011456920303629874 0 0.0024992672445615311 -0.011693258368831932 0 0.0024362053729812933 -0.011199732759239519 0 0.0030676452416512055 -0.011386698650471429 0 0.0024992672445615311 -0.011693258368831932 0 0.0030676452416512055 -0.011386698650471429 0 0.0024992672445615311 -0.011693258368831932 0 0.0028774318632965217 -0.012079541894365364 0 0.0028774318632965217 -0.012079541894365364 0 0.0022883967796131651 -0.012222618851673339 0 0.0027342034058197599 -0.012720197469392609 0 0.0024992672445615311 -0.011693258368831932 0 0.0028774318632965217 -0.012079541894365364 0 0.0022883967796131651 -0.012222618851673339 0 0.0028774318632965217 -0.012079541894365364 0 0.0027342034058197599 -0.012720197469392609 0 0.0032775560100850652 -0.0125255850987266 0 0.0016050769011461919 -0.012137001882820898 0 0.0022883967796131651 -0.012222618851673339 0 0.0019500089366212619 -0.012692963635273004 0 0.0016050769011461919 -0.012137001882820898 0 0.0019392700125012948 -0.011456920303629874 0 0.0022883967796131651 -0.012222618851673339 0 0.0022883967796131651 -0.012222618851673339 0 0.0019500089366212619 -0.012692963635273004 0 0.0027342034058197599 -0.012720197469392609 0 0.0019500089366212619 -0.012692963635273004 0 0.0027342034058197599 -0.012720197469392609 0 0.0018319875972085732 -0.013598561239056643 0 0.0023065067220058169 -0.0132184614177293 0 0.0018584110594420686 -0.013653856020011793 0 0.0027342034058197599 -0.012720197469392609 0 0.0028436601960907053 -0.013391480748959021 0 0.0032775560100850652 -0.0125255850987266 0 0.0024310981116986755 -0.015467954921763314 0 0.0027144322153572977 -0.014722645231385062 0 0.0023249776690967101 -0.01742031646956126 0 0.0026140774791314071 -0.01709780160883936 0 0.0025706347420434116 -0.017376037809687456 0 0.0023249776690967101 -0.01742031646956126 0 0.0024946259198972481 -0.01757568577538432 0 0.0023217760594188312 -0.017689853004878752 0 0.0023249776690967101 -0.01742031646956126 0 0.0024946259198972481 -0.01757568577538432 0 0.0025706347420434116 -0.017376037809687456 0 0.0027342034058197599 -0.012720197469392609 0 0.0028436601960907053 -0.013391480748959021 0 0.0022415564109048787 -0.013507552052882222 0 0.0028436601960907053 -0.013391480748959021 0 0.0022415564109048787 -0.013507552052882222 0 0.002421880948862639 -0.014517823020775332 0 0.0029505384501125227 -0.017275535271736642 0 0.0030120147406255157 -0.017153431407547576 0 0.0028542123184763834 -0.017108573908775956 0 0.0029505384501125227 -0.017275535271736642 0 0.002742890156984494 -0.017298424568018417 0 0.0028814134811586279 -0.017434227583482342 0 0.0029505384501125227 -0.017275535271736642 0 0.0028542123184763834 -0.017108573908775956 0 0.002742890156984494 -0.017298424568018417 0 0.002742890156984494 -0.017298424568018417 0 0.0026140774791314071 -0.01709780160883936 0 0.0025706347420434116 -0.017376037809687456 0 0.0028542123184763834 -0.017108573908775956 0 0.002742890156984494 -0.017298424568018417 0 0.0026140774791314071 -0.01709780160883936 0 0.0024946259198972481 -0.01757568577538432 0 0.0026763650457828749 -0.0174894640924123 0 0.0026505904017204451 -0.017672128187565046 0 0.0024946259198972481 -0.01757568577538432 0 0.0025706347420434116 -0.017376037809687456 0 0.0026763650457828749 -0.0174894640924123 0 0.002742890156984494 -0.017298424568018417 0 0.0026763650457828749 -0.0174894640924123 0 0.0028814134811586279 -0.017434227583482342 0 0.002742890156984494 -0.017298424568018417 0 0.0025706347420434116 -0.017376037809687456 0 0.0026763650457828749 -0.0174894640924123 0 0.0026763650457828749 -0.0174894640924123 0 0.0028814134811586279 -0.017434227583482342 0 0.0028351286757077269 -0.017645693363336309 0 0.0030391835420857049 -0.017534094443224849 0 0.0028814134811586279 -0.017434227583482342 0 0.0028351286757077269 -0.017645693363336309 0 0.0030315862970852559 -0.017378323081209662 0 0.0029505384501125227 -0.017275535271736642 0 0.0028814134811586279 -0.017434227583482342 0 0.0030391835420857049 -0.017534094443224849 0 0.0030315862970852559 -0.017378323081209662 0 0.0028814134811586279 -0.017434227583482342 0 0.0030262051187068791 -0.017807870114723959 0 0.0030391835420857049 -0.017534094443224849 0 0.0028351286757077269 -0.017645693363336309 0 0.0030262051187068791 -0.017807870114723959 0 0.0028351286757077269 -0.017645693363336309 0 0.0027299021027542463 -0.017855228692894031 0 0.0028351286757077269 -0.017645693363336309 0 0.0026505904017204451 -0.017672128187565046 0 0.0027299021027542463 -0.017855228692894031 0 0.0026763650457828749 -0.0174894640924123 0 0.0028351286757077269 -0.017645693363336309 0 0.0026505904017204451 -0.017672128187565046 0 0.0024946259198972481 -0.01757568577538432 0 0.0026505904017204451 -0.017672128187565046 0 0.0025165513211217821 -0.01779844159195642 0 0.0026505904017204451 -0.017672128187565046 0 0.0027299021027542463 -0.017855228692894031 0 0.0025165513211217821 -0.01779844159195642 0 0.0027666334737202298 -0.018191101030026753 0 0.0025720572989614849 -0.018036670805461997 0 0.0027299021027542463 -0.017855228692894031 0 0.0025720572989614849 -0.018036670805461997 0 0.0027299021027542463 -0.017855228692894031 0 0.0025165513211217821 -0.01779844159195642 0 0.0026139997417053279 -0.02437978557206116 0 0.0023465288243983045 -0.025723476657456352 0 0.0030262051187068791 -0.017807870114723959 0 0.0027666334737202298 -0.018191101030026753 0 0.0027299021027542463 -0.017855228692894031 0 0.0021266965260849191 -0.031738747078627304 0 0.0017927030645209776 -0.03093937068421234 0 0.00071492090258740593 -0.032647276774246725 0 0.0024310981116986755 -0.015467954921763314 0 0.0019606469433494089 -0.016339133145515133 0 0.0023249776690967101 -0.01742031646956126 0 0.0020232714982051816 -0.01773706983276736 0 0.0023217760594188312 -0.017689853004878752 0 0.0020232714982051816 -0.01773706983276736 0 0.0023217760594188312 -0.017689853004878752 0 0.0022632835468815371 -0.017920863494265846 0 0.0024946259198972481 -0.01757568577538432 0 0.0023217760594188312 -0.017689853004878752 0 0.0025165513211217821 -0.01779844159195642 0 0.0023217760594188312 -0.017689853004878752 0 0.0025165513211217821 -0.01779844159195642 0 0.0022632835468815371 -0.017920863494265846 0 0.0023488980441694787 -0.018231048051936267 0 0.0025720572989614849 -0.018036670805461997 0 0.0022632835468815371 -0.017920863494265846 0 0.0025720572989614849 -0.018036670805461997 0 0.0025165513211217821 -0.01779844159195642 0 0.0022632835468815371 -0.017920863494265846 0 0.0020232714982051816 -0.01773706983276736 0 0.0022632835468815371 -0.017920863494265846 0 0.0019892710343129526 -0.017944375121573077 0 0.0021323884960282578 -0.018107532931802013 0 0.0023488980441694787 -0.018231048051936267 0 0.0022632835468815371 -0.017920863494265846 0 0.0021323884960282578 -0.018107532931802013 0 0.0022632835468815371 -0.017920863494265846 0 0.0019892710343129526 -0.017944375121573077 0 0.0021323884960282578 -0.018107532931802013 0 0.0018761030614705028 -0.018091881825954045 0 0.0019892710343129526 -0.017944375121573077 0 0.0011455891659620551 -0.017545121793819243 0 0.0019606469433494089 -0.016339133145515133 0 0.0016194202474773822 -0.017933988814167232 0 0.0018761030614705028 -0.018091881825954045 0 0.0019892710343129526 -0.017944375121573077 0 0.0016194202474773822 -0.017933988814167232 0 0.0020232714982051816 -0.01773706983276736 0 0.0019892710343129526 -0.017944375121573077 0 0.0015763487178883891 -0.016463840766426954 0 0.002421880948862639 -0.014517823020775332 0 0.0012260059437453836 -0.01545453429979343 0 0.002421880948862639 -0.014517823020775332 0 0.0012154619311918683 -0.014481174151322574 0 0.0012260059437453836 -0.01545453429979343 0 0.0018584110594420686 -0.013653856020011793 0 0.00092130221568057749 -0.014525924627141591 0 0.0022415564109048787 -0.013507552052882222 0 0.002421880948862639 -0.014517823020775332 0 0.0012154619311918683 -0.014481174151322574 0 0.00094863730023603558 -0.014466080979390852 0 -0.00053065977171049808 -0.015434004260088242 0 -0.00016008147608438374 -0.014373298994087442 0 0.00094863730023603558 -0.014466080979390852 0 -0.00016008147608438374 -0.014373298994087442 0 0.00025868222694781919 -0.013735674510370326 0 0.00094863730023603558 -0.014466080979390852 0 -0.00053065977171049808 -0.015434004260088242 0 -0.00094105839913752331 -0.016010205097414396 0 0.00092130221568057749 -0.014525924627141591 0 0.00016485497397248538 -0.015205748277423265 0 0.0012154619311918683 -0.014481174151322574 0 0.0012260059437453836 -0.01545453429979343 0 0.00042663416662134845 -0.016058108106169602 0 0.0012154619311918683 -0.014481174151322574 0 0.00042663416662134845 -0.016058108106169602 0 -0.00094105839913752331 -0.016010205097414396 0 0.0012260059437453836 -0.01545453429979343 0 0.00098064260272542284 -0.016253145945784194 0 0.00042663416662134845 -0.016058108106169602 0 0.0015763487178883891 -0.016463840766426954 0 0.0012260059437453836 -0.01545453429979343 0 0.00098064260272542284 -0.016253145945784194 0 0.00052388226414339459 -0.017113845853070124 0 0.00098064260272542284 -0.016253145945784194 0 0.00042663416662134845 -0.016058108106169602 0 -0.00033901196961270416 -0.016803233488660321 0 0.00015019811242771819 -0.016883426734658102 0 0.00042663416662134845 -0.016058108106169602 0 -0.00053065977171049808 -0.015434004260088242 0 -0.00094105839913752331 -0.016010205097414396 0 -0.0030829366897196465 -0.016420266582909491 0 -0.00033901196961270416 -0.016803233488660321 0 0.00042663416662134845 -0.016058108106169602 0 -0.00094105839913752331 -0.016010205097414396 0 -0.0012109636203478276 -0.017052462785876344 0 -0.00094105839913752331 -0.016010205097414396 0 -0.0030829366897196465 -0.016420266582909491 0 -0.0022181168644900655 -0.010599043937049413 0 -0.0032366220744166133 -0.0091281161549211457 0 -0.00053065977171049808 -0.015434004260088242 0 -0.0013440634441180702 -0.014915180348610885 0 -0.00092916684421386487 -0.014622531502961087 0 -0.00053065977171049808 -0.015434004260088242 0 -0.0049602877168603713 -0.015248760855137079 0 -0.0030829366897196465 -0.016420266582909491 0 -0.0046431466190800857 -0.01730083898839432 0 -0.0049602877168603713 -0.015248760855137079 0 -0.0030829366897196465 -0.016420266582909491 0 -0.00092916684421386487 -0.014622531502961087 0 -0.0011693655460093949 -0.01405677923653606 0 -0.00059742621953926174 -0.013762429865431648 0 -0.0013865897952104122 -0.014367204797133246 0 -0.0013440634441180702 -0.014915180348610885 0 -0.00092916684421386487 -0.014622531502961087 0 -0.0013865897952104122 -0.014367204797133246 0 -0.00092916684421386487 -0.014622531502961087 0 -0.0011693655460093949 -0.01405677923653606 0 -0.00053065977171049808 -0.015434004260088242 0 -0.00092916684421386487 -0.014622531502961087 0 -0.00016008147608438374 -0.014373298994087442 0 -0.00092916684421386487 -0.014622531502961087 0 -0.00016008147608438374 -0.014373298994087442 0 -0.00059742621953926174 -0.013762429865431648 0 -0.00059742621953926174 -0.013762429865431648 0 -0.0010236914767922309 -0.013269267027901748 0 -0.0001719003817853654 -0.013084670990982018 0 -0.00016008147608438374 -0.014373298994087442 0 -0.00059742621953926174 -0.013762429865431648 0 0.00025868222694781919 -0.013735674510370326 0 -0.00059742621953926174 -0.013762429865431648 0 -0.0001719003817853654 -0.013084670990982018 0 0.00025868222694781919 -0.013735674510370326 0 -0.0015151780240604627 -0.013639890958883882 0 -0.0011693655460093949 -0.01405677923653606 0 -0.0010830046756318576 -0.013680763270451854 0 -0.0011693655460093949 -0.01405677923653606 0 -0.00059742621953926174 -0.013762429865431648 0 -0.0010830046756318576 -0.013680763270451854 0 -0.00059742621953926174 -0.013762429865431648 0 -0.0010830046756318576 -0.013680763270451854 0 -0.0010236914767922309 -0.013269267027901748 0 -0.0015151780240604627 -0.013639890958883882 0 -0.0010830046756318576 -0.013680763270451854 0 -0.0010236914767922309 -0.013269267027901748 0 -0.0013647399894309942 -0.012689509206109052 0 -0.00023889714399113614 -0.012367802167657857 0 -0.0010236914767922309 -0.013269267027901748 0 -0.00023889714399113614 -0.012367802167657857 0 -0.0010236914767922309 -0.013269267027901748 0 -0.0001719003817853654 -0.013084670990982018 0 -0.00023889714399113614 -0.012367802167657857 0 0.00074076539967449326 -0.012333622902982538 0 -0.0001719003817853654 -0.013084670990982018 0 0.00074076539967449326 -0.012333622902982538 0 0.00059871478673443929 -0.013117921439394097 0 0.0012894617134895316 -0.012896681137933489 0 0.00074076539967449326 -0.012333622902982538 0 -0.0001719003817853654 -0.013084670990982018 0 0.00059871478673443929 -0.013117921439394097 0 0.00059871478673443929 -0.013117921439394097 0 0.0012894617134895316 -0.012896681137933489 0 0.0009939084400076236 -0.013532871268557562 0 0.0019500089366212619 -0.012692963635273004 0 0.0018319875972085732 -0.013598561239056643 0 0.0012894617134895316 -0.012896681137933489 0 0.0016050769011461919 -0.012137001882820898 0 0.0019500089366212619 -0.012692963635273004 0 0.0012894617134895316 -0.012896681137933489 0 0.0018319875972085732 -0.013598561239056643 0 0.00094863730023603558 -0.014466080979390852 0 0.0009939084400076236 -0.013532871268557562 0 0.0018319875972085732 -0.013598561239056643 0 0.0012894617134895316 -0.012896681137933489 0 0.0009939084400076236 -0.013532871268557562 0 0.00094863730023603558 -0.014466080979390852 0 0.00025868222694781919 -0.013735674510370326 0 0.0009939084400076236 -0.013532871268557562 0 0.00059871478673443929 -0.013117921439394097 0 0.00025868222694781919 -0.013735674510370326 0 0.0009939084400076236 -0.013532871268557562 0 -0.0001719003817853654 -0.013084670990982018 0 0.00059871478673443929 -0.013117921439394097 0 0.00025868222694781919 -0.013735674510370326 0 
</DataArray>
</PointData>
<CellData Scalars="region_id,cross_section_updated," Vectors="" Tensors="stress,">
<DataArray type="Float64" Name="region_id" format="ascii">
5 5 5 5 5 6 5 5 5 5 5 5 5 6 5 5 5 5 6 5 5 6 5 5 5 5 6 5 5 5 5 6 5 5 5 5 5 5 5 5 5 5 5 5 5 6 5 5 6 5 5 5 5 5 6 5 5 5 5 5 5 5 6 5 5 5 5 6 5 5 5 5 5 5 5 5 5 6 5 5 6 5 5 6 5 5 5 5 6 5 5 5 5 5 5 5 6 6 6 5 5 6 5 5 5 5 5 6 5 5 5 5 5 5 5 5 5 5 5 5 5 6 5 5 5 6 5 5 5 5 5 5 6 5 5 5 5 5 5 5 5 5 5 5 5 5 5 5 5 5 5 5 5 5 5 5 5 5 6 5 5 5 6 5 5 6 5 5 5 5 5 5 5 5 5 5 5 6 5 5 5 5 5 5 5 5 6 5 5 5 5 5 5 5 5 6 5 5 5 5 5 5 5 5 5 6 5 5 5 5 5 5 5 5 5 5 5 5 5 5 5 5 5 5 5 5 5 5 5 6 5 5 5 6 5 6 5 6 5 5 6 5 5 5 6 5 6 5 6 5 6 6 5 6 5 5 6 5 6 5 5 5 6 5 6 6 5 5 6 5 5 5 6 5 6 6 6 5 6 5 5 5 6 5 6 6 6 5 5 6 6 5 5 5 5 6 5 6 5 5 6 5 5 5 6 5 6 6 6 5 5 5 6 5 6 6 6 6 5 5 5 6 6 5 5 6 6 6 5 6 5 5 5 5 6 5 5 5 5 5 5 5 6 5 5 5 5 5 5 6 6 5 5 5 6 5 5 5 6 5 6 5 6 6 5 5 5 5 6 5 5 6 5 5 5 5 6 5 6 5 5 5 5 5 6 6 5 5 5 5 5 5 5 5 6 5 5 5 6 5 5 6 5 6 5 5 5 5 5 5 5 5 5 5 5 6 5 6 5 6 5 5 5 6 5 6 5 6 5 5 5 5 5 5 6 5 6 5 5 5 6 5 5 5 6 5 6 6 5 5 5 5 6 5 5 5 5 6 6 5 5 6 5 6 5 6 6 5 5 5 6 5 5 5 5 6 5 5 5 5 5 5 5 5 5 5 5 6 5 5 5 5 6 5 5 5 6 5 6 6 6 5 5 5 6 6 5 6 5 5 6 5 5 5 5 6 5 5 5 5 5 5 5 5 5 5 5 6 6 5 5 6 5 5 5 6 5 5 5 5 5 5 6 5 5 5 6 5 5 5 6 5 5 5 5 5 5 5 5 5 5 5 6 5 5 5 6 5 5 5 5 5 5 5 6 5 5 5 5 5 6 5 5 5 5 5 5 5 5 5 5 5 5 5 5 5 5 5 5 5 6 5 5 5 5 6 5 5 6 5 5 5 5 5 5 5 6 5 5 5 5 5 5 5 5 6 5 6 5 5 6 5 5 5 6 5 5 6 5 5 5 6 5 6 5 5 6 5 6 5 5 5 5 5 5 5 5 5 5 5 5 5 5 5 5 5 5 5 5 5 5 6 5 6 5 6 5 5 5 5 5 5 5 5 5 5 5 5 5 5 5 6 5 5 5 5 5 5 5 5 5 6 5 5 5 5 5 5 5 5 5 5 5 5 5 5 5 5 5 5 5 5 5 5 5 5 5 5 5 5 5 6 5 5 6 5 5 5 6 6 5 6 5 5 5 5 5 6 5 5 5 5 5 6 5 5 5 5 5 5 5 5 5 5 5 5 5 5 5 5 5 5 5 5 5 5 5 5 5 5 5 5 5 5 5 5 5 5 5 5 5 5 5 5 5 5 5 5 5 5 5 5 5 6 5 5 5 5 5 5 5 5 5 5 5 5 5 5 5 6 5 5 5 5 6 5 5 5 5 5 5 5 5 5 5 5 5 5 5 5 5 5 5 5 5 5 5 5 5 5 5 5 6 5 5 6 5 6 6 6 6 5 5 6 5 5 5 5 5 5 5 5 5 5 5 5 5 5 5 5 5 6 5 5 6 5 6 5 5 5 5 6 5 6 5 5 5 5 6 5 5 5 6 5 5 5 5 5 6 5 6 5 5 6 6 5 6 5 5 5 5 5 5 5 5 5 5 5 6 5 5 5 6 5 5 5 6 5 5 6 6 6 5 5 5 5 5 5 5 5 5 5 5 6 5 5 5 5 5 5 5 5 6 6 6 5 5 5 5 5 5 5 5 6 6 5 5 5 6 5 5 6 5 5 5 5 5 5 5 5 5 5 5 6 5 5 5 5 5 5 5 5 6 5 5 5 5 5 5 5 5 5 5 6 5 6 6 6 5 5 5 5 5 5 5 6 6 5 6 5 5 5 5 5 6 5 6 6 5 5 5 6 5 6 5 5 5 5 6 5 5 5 5 5 5 5 5 5 5 5 5 5 5 5 5 5 6 5 5 5 6 5 5 5 5 5 6 5 5 5 5 5 5 6 5 6 5 5 5 5 5 5 5 5 6 5 5 5 6 5 5 5 5 5 5 5 5 5 5 5 5 5 5 5 5 5 5 5 5 5 5 5 5 5 6 6 6 5 5 5 5 6 5 5 5 5 6 5 5 5 5 5 5 5 6 5 5 5 5 5 5 5 5 6 5 5 5 5 5 5 5 5 5 5 5 5 6 5 5 5 5 5 5 6 5 5 5 5 5 5 5 5 6 5 5 5 6 5 5 5 5 5 5 5 5 5 5 5 5 6 5 5 5 5 5 5 5 5 5 5 5 5 5 5 5 5 5 5 5 5 5 5 5 5 5 5 5 5 5 5 5 5 5 5 5 5 5 5 5 5 5 5 5 5 5 5 5 6 5 5 5 5 5 5 5 5 5 5 5 5 5 5 5 5 5 5 5 5 5 5 5 5 6 5 5 5 5 5 5 5 5 5 5 6 5 5 6 5 5 5 5 5 5 5 5 5 6 5 6 5 5 5 5 6 5 5 6 5 6 5 5 5 5 5 6 5 5 5 5 5 5 5 5 6 5 5 5 5 5 5 5 5 5 5 5 5 5 5 6 5 6 6 5 5 5 5 5 6 5 5 5 5 5 5 5 5 5 5 5 5 5 5 5 6 5 5 5 5 5 5 5 5 5 5 5 5 5 5 5 5 6 5 5 5 5 5 6 6 5 5 6 5 5 5 5 5 5 5 5 5 5 6 5 5 5 5 5 5 5 5 5 6 5 6 5 5 5 5 5 6 5 5 5 5 6 5 5 5 6 5 5 5 6 5 5 6 5 5 5 5 5 5 5 5 5 5 5 5 5 5 5 5 6 5 5 5 5 5 5 5 6 5 5 5 5 5 5 5 5 5 5 5 5 5 5 5 5 5 5 5 5 5 5 5 5 5 5 5 6 5 5 5 5 6 5 5 5 6 5 5 5 5 5 5 5 5 5 6 5 6 5 5 5 5 5 5 5 5 5 5 5 5 5 5 5 5 5 5 6 6 5 5 5 6 5 5 6 5 5 6 5 5 5 6 5 5 6 5 5 5 5 5 5 5 5 5 5 5 5 5 5 5 5 5 5 5 5 6 5 6 5 5 5 5 5 5 5 5 5 5 5 6 5 6 5 5 5 6 5 5 5 5 5 6 5 5 5 5 5 5 6 5 5 5 5 5 5 5 5 5 5 5 6 5 5 5 5 5 5 5 5 6 5 5 5 6 5 5 6 5 5 5 5 5 6 5 5 5 5 5 5 5 5 5 6 5 5 6 5 6 5 6 6 6 5 6 5 5 5 5 5 5 6 5 5 5 5 5 5 6 5 5 5 5 5 5 5 6 5 5 5 5 6 5 5 5 5 5 6 5 6 5 5 5 5 5 5 5 5 5 5 6 5 5 5 5 5 5 5 6 5 5 5 5 5 5 5 6 5 6 5 5 5 5 5 5 5 5 6 5 5 5 6 6 5 5 5 5 5 6 6 5 6 5 5 6 5 5 6 5 5 5 5 5 5 5 5 6 5 5 5 5 5 6 5 5 5 5 6 5 5 6 5 5 5 5 5 5 5 5 5 5 5 5 5 5 5 5 5 5 5 5 5 5 5 5 5 5 5 5 5 5 5 5 5 5 5 5 5 5 5 5 5 6 5 5 6 5 5 5 5 5 6 5 5 5 5 6 5 5 5 5 5 5 5 5 5 5 5 5 5 5 5 5 5 5 5 5 5 5 5 5 6 5 5 5 6 5 5 5 5 5 5 6 5 5 5 5 5 5 5 5 5 5 5 6 5 6 6 5 5 6 5 5 5 5 5 5 5 5 5 5 5 6 5 5 6 5 5 5 5 5 5 5 5 5 5 5 5 5 5 5 6 5 5 5 5 5 5 5 6 5 6 5 5 5 5 6 5 6 5 5 5 5 5 5 5 5 5 6 5 5 5 5 5 5 5 5 5 5 5 5 5 5 5 5 5 6 5 5 5 5 5 5 5 5 5 5 5 5 5 5 5 5 5 5 5 5 5 5 5 5 5 6 6 5 5 5 5 5 5 5 5 5 5 5 6 5 5 5 5 6 5 5 5 5 6 5 5 5 5 5 5 5 5 6 5 5 5 5 5 5 5 5 5 6 5 5 5 5 5 5 5 5 5 5 5 5 5 5 5 5 5 5 5 5 6 5 5 5 5 5 5 5 5 5 5 5 5 5 5 6 5 6 5 5 5 5 5 5 5 5 6 5 5 6 5 5 5 5 5 5 5 5 5 5 5 5 5 5 5 5 5 5 5 5 5 5 5 5 5 5 5 5 5 5 5 5 5 5 5 5 6 5 5 6 5 5 5 5 6 5 6 5 5 6 5 6 5 5 5 5 5 6 5 5 5 5 5 5 5 5 5 5 5 5 6 5 5 5 6 5 5 5 5 5 5 5 5 5 6 5 5 5 5 6 6 5 5 5 5 5 5 5 5 6 5 5 5 5 5 6 5 5 5 6 5 5 5 6 5 5 5 5 6 5 5 5 5 5 5 5 5 5 5 5 5 5 5 6 5 5 5 5 5 5 6 5 6 6 5 6 5 6 5 5 5 5 6 5 5 5 5 6 5 5 5 5 5 5 5 5 5 6 5 5 5 5 5 5 5 5 5 5 5 5 5 5 6 5 5 5 6 5 5 5 6 5 6 5 5 5 5 5 5 5 5 5 5 5 5 5 5 5 5 6 5 5 5 5 5 5 6 5 5 5 5 5 5 5 5 5 5 5 5 5 5 5 5 5 5 6 5 5 5 5 5 5 5 5 5 5 5 5 5 5 5 5 5 5 5 5 5 5 5 5 5 5 5 5 5 5 5 5 5 5 6 5 5 5 5 6 5 5 5 5 5 5 5 6 5 5 5 5 5 5 5 5 5 6 5 5 6 5 5 5 5 5 6 5 5 5 6 5 5 6 5 5 5 5 5 5 5 5 5 5 5 5 5 5 5 5 5 5 5 5 6 5 5 5 5 5 5 5 5 5 5 6 6 5 6 5 5 5 5 5 6 5 5 5 5 6 5 5 5 5 5 6 5 6 5 5 6 5 5 5 5 5 5 5 5 6 5 5 5 5 5 5 6 5 5 5 5 5 5 6 5 5 5 5 6 5 5 6 5 6 5 5 6 5 5 5 5 5 5 6 5 5 5 5 6 5 5 5 5 5 5 5 5 6 6 5 5 5 5 5 5 5 5 6 5 5 5 5 5 5 6 5 5 5 5 5 5 5 6 5 5 5 6 5 5 5 5 5 5 5 5 5 5 5 5 6 5 5 5 5 6 5 5 6 5 5 5 5 6 5 5 5 6 6 5 5 5 6 5 5 5 6 5 5 5 5 5 5 5 5 5 6 5 5 5 6 5 5 5 5 5 5 5 5 5 5 5 5 6 5 6 5 5 6 5 5 6 5 5 5 5 5 5 5 6 5 5 5 5 5 6 5 6 5 5 5 6 6 5 6 6 5 6 5 5 5 5 5 5 6 5 6 5 5 5 5 5 5 5 5 5 5 5 5 5 6 5 5 6 5 6 5 5 6 5 5 5 6 6 5 5 6 5 5 5 5 5 5 5 5 5 5 5 5 5 5 5 5 5 5 5 5 5 5 5 6 6 5 6 5 6 5 5 6 6 5 5 6 5 5 6 5 5 6 5 6 5 5 5 5 6 5 5 5 5 6 5 6 6 5 6 5 5 6 6 5 5 5 6 5 5 5 5 6 6 5 5 5 5 5 6 5 5 5 5 5 5 5 5 5 5 5 6 5 6 5 6 5 5 6 5 6 5 5 5 5 5 5 5 5 6 5 5 6 5 5 5 5 6 5 5 5 5 5 5 5 5 5 5 5 5 6 5 5 5 5 5 5 5 5 5 5 5 6 5 5 5 5 5 5 6 5 6 5 5 6 5 5 5 5 5 5 5 5 5 5 5 5 5 5 5 5 5 6 6 5 5 5 6 5 5 6 5 5 5 5 5 5 5 5 5 5 5 5 5 5 5 5 5 5 5 5 5 5 5 5 5 6 6 5 5 5 5 5 5 5 5 5 5 5 6 5 5 5 5 5 5 5 5 5 5 5 5 5 5 5 5 5 5 5 5 5 5 5 5 5 5 5 5 5 5 5 5 5 6 5 5 5 5 5 6 5 5 6 5 5 6 6 5 5 5 5 5 5 5 5 5 5 5 5 5 6 5 5 6 5 5 5 5 5 5 6 5 5 6 5 5 5 5 5 5 5 5 5 5 5 5 5 6 5 5 5 5 5 5 5 6 5 5 5 5 5 5 5 5 5 5 5 5 6 5 5 6 5 5 5 5 5 5 5 5 5 5 5 5 5 5 5 5 5 5 5 5 6 5 5 6 5 6 5 5 5 6 5 5 6 5 6 5 5 5 6 5 5 5 5 6 5 5 5 5 5 5 5 6 5 5 5 6 5 5 5 5 5 5 5 5 5 5 5 5 6 5 5 5 5 5 5 5 5 6 5 5 5 5 5 5 5 5 5 5 5 6 5 5 5 5 5 5 5 5 5 5 5 5 5 5 5 5 5 5 5 6 6 5 5 5 6 5 5 5 5 5 5 5 5 5 5 5 5 6 5 5 5 5 5 5 5 5 5 6 5 5 5 5 5 5 5 5 5 5 5 5 5 5 5 5 6 5 6 5 5 5 5 5 6 5 5 5 5 6 5 5 5 6 5 5 5 6 5 5 5 5 5 5 5 5 5 6 5 5 5 6 5 5 6 5 5 5 5 5 5 6 5 5 5 5 5 5 5 5 6 5 5 5 6 5 5 5 5 5 5 5 5 5 5 5 5 5 5 5 5 5 5 5 5 5 5 5 5 5 5 5 6 5 5 5 5 5 5 5 6 5 5 5 5 5 5 5 5 5 5 5 5 5 5 5 5 5 5 5 5 5 5 5 5 5 6 5 6 5 5 5 5 5 5 6 5 5 5 6 5 5 6 5 5 5 5 5 5 5 5 5 5 5 5 6 5 5 5 5 5 6 5 5 5 5 5 5 5 5 5 5 5 5 5 6 5 5 5 6 5 5 5 5 5 5 5 5 5 5 5 5 6 6 5 5 5 5 6 5 5 5 5 5 5 5 5 5 6 6 5 5 5 5 5 6 5 5 5 5 5 6 5 5 5 5 5 6 5 6 5 5 5 5 6 5 6 5 6 6 5 5 5 5 5 5 5 6 6 5 5 5 5 5 5 6 6 6 5 6 6 5 5 5 6 5 5 5 5 5 6 6 6 5 6 5 5 5 6 5 6 6 5 5 5 5 5 5 5 6 6 5 5 6 6 6 5 5 5 5 5 5 5 5 5 5 5 5 5 5 5 5 5 5 5 5 5 5 5 5 5 5 5 5 5 5 5 5 5 5 5 5 5 5 5 5 6 5 5 5 5 5 5 5 5 5 5 6 5 5 5 5 5 5 6 5 5 6 5 5 5 5 5 5 5 5 5 5 5 5 5 6 5 6 5 5 5 5 6 5 5 5 6 5 5 6 5 5 5 6 5 5 6 5 5 5 5 5 6 5 5 5 5 5 5 5 6 5 5 5 5 5 5 5 6 5 5 6 5 5 5 5 6 5 6 5 5 5 5 5 6 5 5 5 5 6 5 5 5 5 5 5 6 6 5 5 5 5 5 6 5 5 6 5 5 5 5 5 5 5 5 5 5 6 5 5 5 5 5 5 5 5 5 5 5 5 5 5 5 5 5 5 6 5 5 5 5 5 5 6 5 5 5 5 5 5 5 6 6 5 5 5 5 6 5 5 5 5 5 5 5 6 5 5 6 5 6 6 6 5 5 5 5 5 5 6 5 5 5 5 5 6 5 5 5 5 6 5 5 5 6 5 5 5 6 5 5 5 5 5 5 5 5 5 5 5 5 5 5 5 5 5 5 5 5 5 5 5 5 5 6 5 5 5 5 5 5 5 6 5 6 5 5 5 5 5 5 6 5 5 6 5 5 5 6 5 5 6 5 5 5 5 5 6 5 5 5 6 6 5 5 5 5 5 5 5 5 5 5 5 5 6 5 5 5 5 5 5 5 5 5 6 5 5 5 5 5 6 6 5 5 5 5 5 5 5 5 5 6 5 5 5 5 5 5 5 5 6 5 5 5 5 5 5 5 5 5 5 5 5 5 5 5 5 5 5 6 5 5 5 5 6 5 6 5 6 5 5 5 5 5 5 5 5 5 5 5 5 5 5 5 5 5 6 5 5 5 5 5 6 5 5 5 6 6 5 5 5 5 5 6 5 5 5 5 6 5 5 5 5 5 5 5 5 6 5 5 5 5 5 5 5 6 5 5 5 5 5 5 5 5 5 6 5 5 5 5 5 5 5 5 5 5 5 5 5 5 5 5 5 5 6 5 5 5 5 5 5 5 5 5 5 5 5 5 6 5 5 5 5 5 5 6 5 5 6 5 5 6 5 5 5 5 5 5 5 5 5 5 5 5 5 5 5 5 5 5 5 5 5 5 5 5 5 5 6 5 6 5 6 6 5 5 5 6 5 5 5 5 5 5 5 5 5 6 6 5 6 5 5 5 5 5 5 5 5 5 5 5 5 5 5 6 5 6 6 5 6 5 5 5 5 5 5 5 5 5 6 6 5 5 5 5 5 5 5 5 5 5 5 5 5 5 5 5 5 5 5 5 5 5 6 5 5 5 5 5 6 5 5 5 5 5 6 5 5 5 6 5 5 5 5 5 5 5 5 5 6 5 5 5 5 6 5 5 5 5 5 5 6 5 5 5 5 5 5 5 6 5 5 5 5 6 5 5 5 5 5 5 5 5 5 5 6 5 5 5 5 6 5 5 5 6 5 5 5 5 5 6 5 5 5 5 5 5 5 5 5 5 5 5 5 5 6 6 5 5 6 5 5 5 5 5 5 5 6 5 5 5 5 5 5 6 5 5 5 5 5 5 5 5 5 5 5 5 5 5 5 5 5 5 5 5 5 5 5 6 5 5 5 5 5 5 5 5 6 5 5 5 5 6 5 5 5 5 5 6 5 6 5 6 5 5 5 5 5 5 5 6 5 5 5 6 5 5 5 5 5 6 5 5 5 5 5 6 5 6 5 5 6 5 6 5 5 5 5 5 6 5 5 5 6 5 5 5 5 5 5 5 5 5 5 6 5 5 5 5 5 5 5 5 5 5 5 5 5 5 5 5 5 5 5 5 5 5 6 5 5 5 5 5 5 5 5 5 5 5 5 5 5 5 5 5 5 6 5 5 5 6 5 5 5 5 5 5 6 5 5 5 6 6 5 6 5 6 6 5 6 5 5 6 5 5 6 6 5 5 5 5 5 5 5 5 6 5 6 5 5 5 5 5 5 5 5 5 5 5 5 5 5 5 5 5 5 5 5 5 5 6 5 5 5 5 5 5 5 5 6 5 5 6 5 5 6 6 5 5 6 5 5 5 5 5 5 5 5 5 5 5 5 5 5 5 5 5 5 5 5 5 5 5 5 5 5 5 5 5 5 5 5 5 5 5 5 5 5 5 6 5 6 5 5 5 5 5 5 5 5 5 5 5 5 5 5 5 5 5 5 5 5 5 5 5 5 5 5 5 5 5 5 5 5 5 5 5 5 5 5 5 5 6 5 5 6 5 5 5 5 5 6 5 6 5 5 6 5 5 5 5 5 5 6 5 5 5 5 5 5 5 5 5 5 5 6 5 5 6 6 5 6 5 5 6 5 5 5 5 6 5 5 5 5 5 5 5 5 5 6 5 6 5 5 5 5 5 5 5 6 5 6 5 5 5 5 5 5 5 5 5 6 5 6 5 5 5 5 5 5 5 5 5 5 6 5 5 5 6 5 5 6 5 5 6 5 5 5 5 6 5 5 5 6 5 5 5 5 5 5 5 5 5 5 5 5 5 5 6 5 5 5 5 5 5 6 5 6 5 6 5 5 5 6 5 5 5 5 5 5 5 5 6 5 5 5 5 5 6 5 5 6 5 5 5 5 5 5 5 5 5 6 5 5 5 6 5 5 5 5 5 5 6 5 5 5 5 5 5 5 5 5 5 5 5 5 5 5 5 5 5 5 5 5 5 5 5 5 5 5 5 5 5 5 6 5 5 5 5 5 6 5 5 6 6 5 5 5 5 6 5 5 5 5 5 6 5 5 5 5 5 5 5 5 5 5 5 5 5 5 5 5 6 5 5 5 5 5 5 5 5 6 6 5 5 5 5 5 5 6 5 5 5 5 6 5 5 5 5 5 5 5 5 5 5 5 5 5 5 5 5 5 5 5 5 5 5 5 5 6 5 5 6 5 5 5 5 5 5 5 5 5 5 5 5 5 5 5 5 5 5 5 5 5 5 5 5 5 5 5 6 5 6 5 5 5 5 5 6 5 5 5 5 5 5 5 5 5 5 5 5 5 5 5 5 5 5 5 5 6 6 5 6 5 5 5 5 5 5 5 5 5 5 5 5 5 5 5 5 6 5 5 5 6 5 5 5 5 5 5 5 5 5 5 5 5 5 6 5 5 5 5 5 5 5 5 5 5 5 5 5 5 5 5 5 5 5 5 5 5 6 5 5 5 5 5 5 5 5 5 5 5 5 5 6 5 6 5 5 6 6 5 5 5 5 5 5 5 5 5 5 5 5 5 5 5 5 5 5 5 5 6 5 5 6 5 5 5 6 5 5 5 5 5 5 6 5 5 5 6 5 5 5 5 5 5 5 5 6 5 5 6 5 5 6 5 6 5 5 5 5 6 6 5 5 6 6 5 5 6 5 5 5 5 6 5 5 6 6 5 6 5 5 5 5 5 5 5 5 5 5 5 5 5 5 5 5 5 5 5 5 6 5 5 5 5 6 5 5 5 5 6 6 5 5 5 5 5 5 5 5 5 5 5 5 6 5 5 5 6 5 5 5 5 5 5 5 6 5 5 5 6 5 5 6 6 5 5 5 6 5 5 5 6 5 5 5 5 5 5 5 5 5 5 5 5 5 5 5 5 5 5 6 5 5 5 5 5 5 5 5 5 5 5 5 5 5 5 5 5 5 6 6 5 5 5 5 5 6 6 5 6 5 5 5 5 5 5 5 5 5 6 5 5 5 6 5 5 5 5 5 5 5 5 5 5 5 5 5 5 6 5 5 5 5 5 5 5 6 5 5 6 5 5 5 5 5 5 6 5 5 5 5 6 5 5 5 5 5 5 6 5 5 5 5 5 5 5 5 6 6 5 5 5 6 6 5 5 5 5 5 6 5 5 5 5 5 5 6 5 5 5 5 6 5 5 5 5 5 6 5 5 5 5 6 5 5 5 5 5 5 5 5 5 5 5 5 5 5 5 5 5 5 5 5 5 5 5 5 5 6 5 5 5 5 6 5 6 5 6 5 5 6 5 5 6 5 5 6 5 5 5 5 5 5 6 5 5 6 5 6 6 6 5 5 6 5 6 6 5 5 5 6 5 6 5 5 5 5 5 5 6 5 5 5 6 5 5 5 5 5 5 5 6 5 5 5 6 5 6 6 5 5 5 5 5 5 5 6 5 5 5 5 5 5 5 5 6 6 5 5 5 5 6 5 5 6 5 5 5 6 5 5 5 6 6 5 5 5 5 6 5 5 5 5 5 6 6 5 5 5 5 5 5 5 5 5 5 5 5 5 5 5 5 5 5 5 5 5 5 5 5 5 5 5 5 5 5 5 6 5 5 5 6 5 5 5 5 5 5 5 5 5 5 5 5 5 5 5 6 5 6 6 5 5 6 5 5 5 5 5 5 5 5 5 5 5 5 5 5 5 5 5 5 5 5 5 5 5 6 5 5 6 6 5 5 5 5 5 5 5 6 5 5 5 6 5 5 5 5 6 6 5 5 5 5 5 5 5 6 5 5 5 5 6 5 5 5 5 6 5 5 5 5 5 5 5 5 5 5 5 5 5 5 5 5 5 5 5 6 5 5 5 5 5 5 5 5 5 5 5 5 5 5 5 5 6 5 5 5 6 5 5 5 5 5 5 5 5 5 6 5 5 5 5 5 5 5 5 5 5 5 5 5 5 5 5 5 5 5 5 5 6 5 5 5 5 5 5 5 5 5 5 5 5 5 5 5 5 5 6 5 5 5 5 5 6 5 5 5 5 5 5 5 5 5 5 5 5 5 5 5 5 5 5 5 5 5 5 5 5 5 5 5 6 5 5 6 5 5 5 6 5 5 5 5 5 5 5 5 5 5 5 5 5 5 5 6 5 6 5 5 5 5 5 5 5 5 5 6 5 5 5 5 5 5 5 5 5 6 6 5 5 5 5 5 5 5 5 5 5 5 5 5 5 5 5 5 5 5 5 5 5 5 5 5 5 5 5 5 5 5 5 5 5 5 5 5 5 5 5 5 5 5 5 5 5 5 5 5 5 5 5 5 5 5 5 5 5 5 5 5 5 5 5 5 5 5 5 5 5 5 6 5 5 5 5 5 5 6 5 5 5 5 5 5 5 5 5 6 5 6 5 5 5 5 5 5 5 5 5 5 5 5 5 5 5 5 5 5 5 5 5 5 5 5 5 5 5 5 5 5 5 5 5 5 6 5 5 5 6 6 5 5 5 5 5 5 5 5 5 5 5 5 5 5 5 5 5 5 5 5 5 5 6 6 5 5 5 5 5 5 5 5 6 5 5 5 5 5 5 6 5 5 5 5 5 6 5 5 5 5 6 5 5 5 6 5 5 5 6 5 5 6 5 5 5 5 5 5 5 5 5 5 5 5 5 6 5 5 5 5 5 5 5 5 6 5 5 5 5 5 5 5 5 5 5 5 6 5 5 5 6 5 5 5 5 6 5 5 5 5 5 5 5 5 6 5 6 5 5 6 5 5 5 5 5 6 5 5 5 5 5 5 5 5 5 5 5 5 6 5 5 5 5 5 5 5 5 5 6 5 5 5 5 5 5 6 5 5 5 5 5 5 5 6 5 5 5 5 5 6 5 5 5 5 5 5 5 5 5 5 5 5 5 5 5 5 5 5 5 5 5 5 5 5 5 5 5 5 5 5 5 5 5 5 5 5 5 5 5 5 5 5 5 5 5 5 5 6 5 6 5 5 5 5 5 5 5 5 5 5 5 5 5 5 6 5 5 5 5 5 5 5 5 5 5 5 5 5 5 5 6 5 5 6 5 6 5 5 5 5 5 6 5 5 5 5 5 5 5 5 5 5 5 5 5 5 5 5 5 5 5 5 6 5 5 5 5 5 5 5 5 5 5 5 6 5 6 5 5 6 5 6 5 5 5 5 5 5 5 6 5 6 5 5 5 5 6 5 5 5 5 6 6 5 5 6 5 5 5 5 5 5 5 5 5 5 5 5 5 5 5 5 6 5 5 5 5 5 5 5 5 5 5 5 5 5 5 6 5 6 5 5 5 5 5 5 5 6 5 6 5 5 5 5 5 5 5 5 5 6 6 5 5 5 6 5 5 5 5 6 5 6 5 5 6 5 6 6 6 5 5 6 5 5 5 6 6 6 5 5 5 5 5 5 5 5 5 5 5 6 5 5 5 5 5 5 6 5 5 5 6 5 5 5 5 5 5 5 5 6 5 5 5 6 5 5 5 5 5 5 5 5 5 5 5 5 5 5 5 5 5 5 5 5 5 5 5 5 5 5 5 5 5 5 5 5 5 5 5 5 5 5 5 5 5 5 5 5 5 5 5 5 5 5 5 5 5 5 5 5 5 5 5 5 6 5 5 5 5 5 6 5 5 5 5 6 5 5 5 6 5 5 5 5 5 5 5 5 5 5 5 5 5 5 5 5 5 5 5 5 5 5 5 5 5 5 5 5 5 5 5 5 5 5 5 5 5 5 5 5 6 5 5 6 5 5 5 5 5 5 5 6 5 5 5 5 5 5 5 5 5 5 5 6 5 5 6 5 6 5 5 5 6 5 5 5 5 5 5 5 5 6 5 5 5 5 6 5 5 5 5 6 5 6 5 5 5 5 5 5 5 5 5 5 5 5 6 5 6 5 5 5 5 5 5 5 5 5 5 5 5 5 6 5 5 5 5 5 5 5 5 5 6 5 5 5 6 5 5 5 5 5 5 5 5 5 5 5 5 5 5 5 5 5 5 5 5 5 5 5 5 5 5 5 5 5 5 5 5 5 5 5 6 5 5 6 5 5 5 5 6 5 5 5 5 5 5 5 5 5 5 5 5 5 5 5 6 5 5 5 5 5 5 5 5 5 6 5 6 5 5 5 5 5 5 5 6 5 5 5 5 5 5 5 5 5 5 5 5 5 5 6 5 5 5 5 5 5 5 5 5 5 5 6 5 5 5 5 5 5 5 5 5 5 5 5 5 5 5 5 5 5 5 5 5 5 5 6 5 6 5 5 5 5 5 5 6 5 6 5 5 5 6 5 5 5 6 5 5 5 6 5 5 6 5 5 5 5 5 5 5 6 5 5 5 5 5 5 5 6 5 5 5 5 5 5 5 5 5 5 5 5 5 6 5 5 5 5 5 5 5 5 6 5 5 5 5 5 5 5 5 5 5 5 5 5 5 5 5 5 5 5 5 6 5 5 5 5 5 5 5 5 5 5 5 5 5 5 5 5 5 5 5 5 5 5 5 5 5 5 5 5 5 5 5 5 5 5 5 5 5 5 5 5 5 5 5 5 5 5 5 5 5 5 6 5 6 5 5 5 6 5 5 6 6 5 6 5 5 5 5 5 5 5 5 5 5 5 5 5 5 5 5 5 5 5 5 5 5 5 5 5 5 5 5 5 5 5 5 5 5 5 6 5 5 5 5 6 5 5 6 5 5 5 6 5 5 5 5 6 5 6 6 5 5 5 5 6 5 5 5 6 5 5 5 6 5 5 5 5 5 5 6 5 5 5 5 5 5 5 5 5 5 5 5 5 5 5 5 5 5 5 5 6 5 5 5 5 5 5 5 5 5 5 5 5 5 5 5 5 5 5 6 5 5 6 5 5 6 5 5 5 5 5 5 5 5 5 5 5 6 5 5 5 5 6 5 5 5 5 6 5 5 5 6 5 5 5 5 5 5 5 5 5 5 5 5 5 5 5 5 5 5 5 5 5 5 5 5 5 6 5 5 5 5 5 5 5 5 6 5 5 5 6 5 5 5 5 5 5 5 5 5 5 5 5 5 5 5 5 5 5 5 5 5 5 5 5 6 5 5 5 6 5 5 5 5 5 5 5 5 6 5 5 6 5 5 5 5 6 5 5 5 5 5 5 5 6 5 6 5 5 6 5 5 6 6 5 5 5 5 5 5 5 5 5 5 5 5 5 5 5 5 5 5 5 5 5 6 5 5 5 5 6 5 5 5 5 5 5 5 5 5 5 5 5 5 6 5 5 6 5 5 5 5 5 5 5 5 5 5 5 5 5 5 5 5 5 5 5 5 5 5 5 5 5 5 5 5 5 5 5 5 5 5 5 5 5 5 5 5 5 5 5 5 5 5 5 5 5 5 5 5 5 5 5 5 5 5 5 5 5 5 5 5 5 5 5 5 5 5 5 5 5 5 5 5 5 5 5 5 5 5 5 5 5 5 5 5 5 5 5 5 5 5 5 5 5 5 5 5 5 5 5 5 5 5 5 5 5 5 5 5 5 5 5 5 5 5 5 5 5 5 5 5 5 5 5 5 6 5 5 5 5 5 5 5 6 5 5 5 5 5 5 5 5 5 6 5 6 5 5 5 6 5 5 6 5 5 5 5 5 5 5 5 5 5 5 5 5 5 5 5 5 5 5 5 5 5 5 5 5 5 5 5 5 5 5 5 5 5 5 5 5 6 5 5 6 6 5 5 6 5 5 6 5 5 5 6 5 5 5 5 5 5 5 5 5 6 5 5 5 5 5 5 6 5 5 5 5 5 5 5 5 5 5 5 5 5 5 5 5 5 5 5 5 5 5 5 5 5 5 5 5 5 5 5 6 5 5 5 5 5 5 5 5 5 5 5 5 5 5 5 5 5 5 5 5 5 5 5 5 5 5 5 5 5 5 5 5 5 5 5 5 5 5 5 5 5 5 5 5 5 5 6 5 6 5 5 5 5 6 5 5 5 5 6 5 5 5 5 6 5 5 5 5 5 5 5 5 6 5 5 6 5 6 5 5 5 5 6 5 5 6 6 5 5 5 5 5 5 6 5 5 5 5 5 5 5 5 5 5 6 6 5 5 5 5 5 6 5 5 6 5 5 5 5 6 5 5 6 5 5 5 5 5 5 5 5 5 5 5 5 5 5 5 5 5 5 5 5 5 5 5 5 5 5 5 5 5 6 5 6 5 5 5 5 5 5 5 5 5 5 5 5 5 6 5 5 5 5 6 6 5 5 5 5 5 5 5 5 5 5 5 5 5 5 5 5 5 5 5 5 5 5 5 5 5 5 5 5 5 5 5 5 5 5 5 5 5 5 5 5 5 5 6 5 5 5 6 5 5 5 5 5 5 5 5 5 5 5 5 5 5 5 5 5 5 5 5 6 5 5 6 5 5 5 5 5 5 5 5 5 6 5 5 5 5 5 6 5 5 5 5 5 6 5 6 5 5 5 5 5 5 5 5 5 5 5 5 5 6 5 5 5 6 6 5 5 5 5 5 5 5 5 6 5 5 6 5 5 6 6 5 5 5 5 5 6 5 5 5 5 5 5 5 6 5 5 6 6 5 5 5 5 5 5 6 6 5 5 5 6 5 5 5 5 5 5 5 6 5 5 5 5 5 5 5 5 5 5 5 5 5 5 5 5 5 5 5 5 5 5 5 5 5 5 6 5 5 5 5 5 5 5 6 5 5 5 5 5 5 5 5 5 5 5 6 5 5 5 5 5 5 5 5 6 5 5 5 5 5 5 5 5 5 5 5 5 5 5 5 5 6 5 5 5 6 5 5 5 5 5 6 5 5 5 5 5 5 5 5 5 5 5 5 5 5 6 5 5 5 5 6 5 5 6 5 5 5 5 5 6 5 5 5 5 5 5 5 5 5 5 5 5 5 5 6 5 6 5 5 5 6 5 6 5 6 5 5 5 5 5 5 6 6 5 5 5 5 5 5 6 5 6 5 5 5 5 5 5 5 5 5 5 5 5 5 5 5 5 5 6 5 5 5 6 6 5 5 5 5 5 6 5 5 6 6 5 5 5 5 5 5 5 5 5 5 5 5 5 5 5 5 5 5 5 5 5 5 5 5 5 5 5 5 5 5 5 5 5 5 5 5 5 5 5 5 5 5 5 5 6 5 5 6 6 6 5 5 5 5 5 5 6 5 5 5 5 5 5 5 5 5 6 5 5 5 6 5 5 5 5 5 5 5 5 5 5 5 5 5 5 5 5 5 5 5 5 6 5 5 5 5 6 5 5 5 5 5 5 5 5 5 5 5 5 5 5 5 5 5 5 5 5 5 5 5 5 5 5 5 5 5 5 5 5 5 5 6 5 6 5 5 5 5 5 5 5 5 6 5 5 5 6 5 6 5 5 5 5 5 5 5 5 6 5 5 5 5 6 5 5 5 5 6 5 5 5 5 5 5 5 6 5 5 5 5 6 5 5 5 5 5 5 5 5 5 5 5 5 5 5 5 5 5 5 5 5 5 5 5 5 5 5 5 5 5 5 5 5 5 5 5 5 5 5 5 5 5 5 5 5 5 5 6 5 5 5 5 6 6 5 5 6 6 5 5 5 5 5 5 5 5 5 5 5 5 5 5 5 5 5 5 5 6 5 5 5 6 6 5 5 5 5 5 5 5 5 5 5 5 5 5 5 5 5 5 5 5 5 5 5 5 5 5 5 5 6 5 5 5 5 5 5 5 6 5 5 5 5 5 5 5 5 5 5 5 5 5 5 5 6 5 5 5 5 5 5 5 5 6 5 6 6 5 5 5 5 5 5 5 5 5 5 5 5 6 5 5 5 5 5 5 5 5 5 5 5 5 5 5 5 5 5 5 6 5 5 5 6 5 5 5 5 5 5 5 5 6 5 5 5 5 5 5 5 5 5 5 5 5 5 5 5 6 5 5 5 6 5 5 5 5 5 5 5 5 5 5 5 5 5 5 5 5 5 5 5 5 5 5 5 5 5 5 5 5 5 5 5 5 5 6 5 6 5 5 5 5 5 5 5 5 6 5 5 5 5 5 5 5 5 5 6 5 5 6 5 5 5 5 5 6 5 5 5 5 6 5 5 5 5 6 5 5 5 6 5 6 5 5 6 5 5 5 5 5 5 5 5 5 5 5 5 5 5 6 5 5 6 5 6 5 5 5 6 5 5 6 5 5 5 5 6 5 6 5 5 5 5 5 5 6 5 6 5 5 5 5 5 6 5 5 5 5 6 5 5 5 5 5 5 6 5 5 5 5 5 5 5 5 5 5 5 5 5 5 5 5 5 5 5 5 5 5 5 5 5 5 5 5 5 5 5 5 5 6 6 5 5 5 5 5 5 5 5 5 5 6 5 5 6 6 5 6 5 5 5 5 5 5 5 6 5 5 5 5 5 5 5 5 5 5 5 5 6 5 5 5 5 6 5 5 5 5 5 5 5 5 5 5 5 5 6 5 5 5 5 5 5 5 5 5 5 5 5 5 5 5 5 5 6 5 5 5 5 5 6 5 5 5 6 5 5 5 5 5 5 6 5 6 5 5 5 6 5 5 5 5 5 5 5 5 5 6 5 5 6 5 5 5 5 5 5 5 6 5 5 5 5 5 5 5 5 5 5 5 5 5 6 5 5 6 5 5 5 5 5 5 6 5 5 5 5 5 5 6 5 5 5 5 5 5 5 6 5 5 5 5 5 5 5 5 5 5 5 5 5 5 5 5 5 5 5 5 5 5 6 5 5 5 5 5 5 5 5 5 5 6 5 5 5 5 6 6 5 5 5 5 6 5 5 5 5 5 5 5 5 5 6 5 5 5 5 5 5 5 5 5 5 5 6 5 5 5 6 5 5 5 6 5 5 5 5 5 5 5 5 5 5 5 5 6 5 5 5 5 5 6 5 5 6 5 5 5 5 5 5 5 5 5 5 5 5 5 5 6 5 5 5 5 5 5 5 6 5 5 5 6 5 5 5 5 5 6 5 5 5 5 5 5 5 5 5 6 5 5 5 5 5 5 5 5 6 5 5 5 5 5 6 5 5 5 5 5 5 5 6 5 5 5 5 5 5 5 5 5 5 5 5 5 5 5 5 5 5 5 5 5 5 5 5 5 5 5 5 5 5 5 5 5 5 5 5 5 5 5 5 5 5 5 5 5 5 5 5 6 5 5 5 5 5 5 5 6 5 5 5 5 5 5 5 5 5 5 5 5 5 5 5 5 5 5 5 5 5 5 6 6 5 5 6 6 5 5 5 5 5 5 5 6 5 5 5 5 5 5 5 5 5 5 5 5 5 5 6 5 5 5 5 5 5 5 5 6 5 5 6 5 5 5 6 5 5 5 5 5 5 5 5 5 5 5 5 5 5 5 5 5 5 5 5 5 5 5 5 5 5 5 5 6 5 5 5 5 5 5 5 5 6 5 5 5 5 5 5 6 6 5 5 5 5 6 5 5 6 5 5 6 5 5 5 5 5 5 6 5 5 5 5 5 5 5 5 6 5 5 5 5 5 5 5 5 5 5 5 6 5 5 6 5 5 5 5 5 5 5 6 5 5 5 6 5 6 5 6 5 5 5 5 5 5 5 5 5 5 5 5 5 5 5 5 5 6 5 6 5 5 5 5 5 5 5 5 5 5 6 5 5 5 5 5 5 5 6 5 5 5 6 5 6 6 5 5 6 5 5 5 5 6 5 5 5 6 5 5 5 6 5 6 6 5 5 5 5 5 5 6 5 5 5 5 5 5 5 5 6 6 6 5 6 5 5 6 6 5 5 6 5 5 5 5 5 5 5 5 5 5 5 6 5 5 5 5 5 5 5 5 5 5 5 5 5 6 6 5 5 5 5 6 5 5 5 6 5 5 5 5 5 6 6 5 5 5 6 5 5 5 5 5 5 5 5 5 5 5 5 5 5 5 6 5 5 5 6 5 5 5 6 5 5 5 5 5 5 6 5 5 5 5 5 6 5 5 5 5 5 5 5 5 6 5 5 5 5 5 5 5 5 5 6 5 5 5 5 6 5 6 5 5 6 5 6 5 5 5 5 5 5 6 5 6 6 5 5 5 5 5 5 5 5 6 5 6 5 6 5 6 5 5 5 5 5 5 5 5 5 5 5 6 5 5 5 6 5 5 5 5 5 5 5 5 6 5 5 5 5 5 5 5 5 5 6 5 5 5 5 6 5 5 6 5 5 5 5 5 5 5 5 5 6 5 5 5 6 5 5 5 5 5 5 5 5 5 5 5 5 5 5 5 5 5 5 5 6 5 5 5 5 5 5 5 5 5 5 6 5 5 5 5 5 5 5 5 5 5 5 5 5 5 5 5 5 5 5 5 5 5 5 5 5 5 5 5 5 5 5 5 5 5 5 5 5 5 5 5 5 5 5 5 5 6 6 5 5 5 5 5 5 5 5 5 5 5 5 5 6 6 5 5 5 6 5 5 6 5 5 5 6 5 5 5 6 5 5 5 5 5 5 5 5 6 5 5 6 5 6 6 5 5 5 5 5 5 6 5 6 6 6 5 5 6 5 5 6 6 5 5 5 5 5 5 5 5 5 5 5 5 5 5 5 5 5 5 5 5 5 6 5 5 5 5 5 5 5 5 5 6 5 5 5 5 5 5 5 6 6 5 5 5 5 5 5 5 5 5 5 5 5 5 5 5 5 5 5 5 5 5 5 5 6 5 6 5 5 5 5 5 5 5 6 5 5 5 6 6 5 5 6 5 5 5 5 6 5 5 5 6 5 5 5 6 5 5 5 5 5 5 5 5 5 6 6 5 5 5 5 5 6 5 5 6 6 6 5 5 5 5 5 6 5 5 5 5 5 5 5 5 5 6 5 6 5 5 5 5 5 5 5 5 5 5 5 5 5 5 5 5 5 5 5 5 5 5 5 5 6 5 5 5 5 6 6 5 5 5 6 5 5 5 5 5 5 5 5 5 5 5 5 5 5 5 5 6 5 5 5 6 5 5 6 5 5 5 5 5 5 5 5 5 5 5 5 5 6 5 5 6 5 5 5 6 5 6 5 6 5 6 6 6 5 5 5 5 5 5 5 5 6 5 5 5 5 5 5 5 5 6 5 5 6 5 5 5 5 5 5 5 5 5 5 5 5 5 5 5 5 5 5 5 5 5 6 5 5 5 5 5 5 5 5 5 5 6 5 6 5 5 6 5 6 5 6 5 5 6 5 6 5 5 6 5 5 5 6 5 5 5 5 5 5 5 5 5 5 5 5 5 5 5 5 5 5 5 5 5 5 5 5 5 5 5 5 5 5 5 5 5 5 5 5 5 5 5 5 5 5 5 5 5 5 5 5 5 5 5 5 5 5 5 5 5 5 5 5 5 6 5 5 6 5 5 5 5 5 5 6 6 5 5 5 5 5 5 5 5 5 5 5 5 5 5 5 5 5 5 6 5 5 5 6 5 5 5 5 5 5 5 5 5 5 5 5 5 5 5 5 6 5 5 5 5 5 5 5 6 5 5 5 5 5 5 5 5 6 5 6 5 5 5 5 5 5 5 5 5 5 5 5 5 5 5 5 6 5 5 5 5 5 5 5 6 5 5 5 5 6 5 5 5 5 5 5 5 6 5 5 6 6 5 5 6 5 5 5 5 5 5 6 5 5 5 5 5 5 5 5 5 6 5 5 6 5 5 6 5 5 6 5 5 5 5 5 6 5 5 5 5 5 5 5 5 6 5 5 5 5 5 5 5 6 5 5 5 5 5 5 5 5 5 5 5 5 6 5 5 5 5 5 5 5 6 6 5 6 5 6 5 5 5 5 5 5 5 5 5 5 5 5 5 5 5 6 5 6 5 5 5 5 5 5 5 5 6 5 6 5 6 5 6 5 6 5 5 6 5 5 5 5 5 6 5 5 5 5 5 5 5 5 6 5 5 5 5 5 6 5 5 6 5 6 6 5 5 5 5 5 5 5 5 6 5 5 5 5 5 5 5 5 5 5 5 5 5 6 5 5 5 5 5 5 5 6 5 5 5 6 5 5 5 5 5 5 5 5 5 5 5 5 5 5 5 5 5 6 5 5 5 5 5 5 5 6 5 5 6 5 5 5 5 5 5 5 5 5 5 5 5 5 5 5 6 5 5 5 5 6 5 5 5 5 5 5 5 5 5 5 5 5 5 5 5 5 5 5 5 5 5 5 5 5 5 6 5 5 5 5 5 5 6 5 5 5 5 5 5 5 5 5 6 6 5 5 5 6 5 6 5 5 5 5 5 5 5 5 5 5 5 5 5 5 5 6 5 5 5 5 5 5 5 5 5 5 5 5 6 6 5 5 5 5 5 5 5 5 6 5 5 6 5 5 6 6 5 5 5 5 5 5 5 6 5 5 5 5 5 5 5 5 5 6 5 5 5 6 5 5 5 5 5 6 5 5 5 5 5 5 5 5 5 5 5 5 6 5 5 5 6 5 5 5 6 5 5 5 5 5 5 5 5 5 5 5 5 5 5 5 5 5 5 5 5 5 5 5 5 5 5 5 5 5 5 5 5 6 5 5 5 5 5 5 5 5 5 5 5 5 5 5 5 5 5 5 5 5 5 5 5 5 6 5 6 5 5 6 5 5 5 5 5 5 5 5 5 6 5 5 5 5 5 5 5 5 5 5 5 5 5 5 6 5 5 5 5 6 5 5 5 6 5 5 5 5 5 5 5 5 5 5 5 5 5 5 5 5 5 5 5 5 5 5 5 5 5 5 5 5 5 5 5 5 5 5 5 5 5 5 5 5 5 5 5 5 5 5 5 5 5 5 5 5 5 5 5 5 5 5 5 5 5 5 5 5 5 5 5 5 5 5 5 5 5 5 5 5 5 5 5 5 5 5 5 5 5 5 5 5 5 5 5 5 5 5 5 5 5 5 5 5 5 5 5 5 5 5 5 5 5 5 5 5 5 5 5 5 5 5 5 5 5 5 5 5 5 5 5 5 5 5 5 5 5 5 5 5 5 5 5 5 5 5 5 5 5 5 5 5 5 5 5 5 5 5 5 5 5 5 5 5 5 5 5 5 5 5 5 5 5 5 5 5 5 5 5 5 5 5 5 5 5 5 5 5 5 5 5 5 5 6 5 5 5 5 5 5 5 5 5 5 5 5 5 5 5 5 6 5 5 5 5 5 5 5 5 6 5 5 5 5 6 5 5 5 5 5 5 5 5 5 5 5 5 5 5 5 5 5 5 5 5 5 5 6 5 5 5 5 5 5 5 5 5 5 5 5 5 6 6 5 5 5 5 5 6 5 6 5 5 5 5 5 5 5 5 5 5 5 6 5 5 5 5 5 5 5 6 5 5 5 5 5 5 5 5 5 5 5 5 5 5 5 6 6 5 5 5 5 5 5 5 5 5 5 5 5 6 5 5 5 5 5 5 5 5 5 5 5 5 5 5 5 5 6 5 5 5 5 5 5 5 6 5 5 5 5 5 5 5 5 5 5 6 6 5 5 5 5 5 5 5 5 5 5 5 5 5 5 5 5 5 5 5 5 5 5 5 5 5 5 5 5 5 5 6 5 5 5 5 5 6 5 5 5 5 5 5 5 5 5 5 6 5 5 5 5 6 5 5 5 5 5 5 5 5 5 5 6 5 6 5 5 5 5 5 5 5 5 5 5 5 5 5 5 5 5 5 5 5 5 5 5 5 5 5 5 5 5 5 5 5 6 5 5 5 5 5 6 5 5 5 5 5 5 5 5 5 5 5 5 5 5 5 5 5 5 6 5 5 6 5 5 5 6 5 5 5 5 5 6 5 5 5 5 5 5 5 5 5 5 6 5 5 5 5 5 5 6 5 5 5 5 5 6 6 5 5 6 5 5 6 5 5 5 5 5 5 5 5 5 5 6 5 5 6 5 5 6 5 5 6 5 5 6 5 5 6 5 5 5 5 5 5 6 5 5 5 5 5 5 5 5 5 5 5 6 5 5 5 5 5 5 5 6 5 5 5 5 6 5 5 5 6 5 5 5 5 5 5 5 5 5 5 5 6 5 5 5 5 5 5 5 5 5 5 5 5 5 5 5 5 5 5 5 5 5 5 5 5 6 5 5 5 5 5 6 5 5 5 5 5 5 5 5 5 5 5 5 5 5 6 5 5 6 5 6 5 5 5 5 6 5 6 6 5 6 5 5 5 5 5 5 5 6 5 6 5 5 5 5 5 5 6 5 5 5 5 5 5 6 5 5 5 5 6 5 5 5 5 5 6 5 5 6 5 5 5 5 6 5 5 5 5 6 5 5 5 5 5 5 6 5 5 5 5 5 5 5 5 5 6 5 5 5 5 5 5 6 5 5 5 5 6 5 5 5 5 5 5 5 5 5 5 5 5 5 5 5 5 6 5 5 5 6 5 5 6 5 5 5 5 5 5 5 5 5 5 5 5 5 5 5 5 6 5 6 5 5 5 5 5 5 5 5 5 5 5 5 5 5 5 5 5 5 5 5 5 5 5 5 5 5 6 5 5 6 5 5 5 5 5 5 5 5 5 5 6 5 5 5 5 6 5 5 5 5 6 5 5 5 5 5 5 5 5 5 6 5 5 5 5 5 5 5 5 5 5 5 5 5 5 5 5 5 5 5 5 5 5 5 5 5 5 5 5 
</DataArray>
<DataArray type="Float64" Name="stress" NumberOfComponents="9" format="ascii">
-227852883.13809013 -816590537.30165291 0 -816590537.30165291 2200448770.3108635 0 0 0 0 -145537198.04814076 -136206496.98143387 0 -136206496.98143387 1537237624.9136124 0 0 0 0 1045993.789053843 -119985432.22400856 0 -119985432.22400856 1215191471.6602592 0 0 0 0 158487857.37936568 -311817490.76758957 0 -311817490.76758957 591830286.05295563 0 0 0 0 -35755773.195681602 -185768995.38898468 0 -185768995.38898468 594739346.73501325 0 0 0 0 -197539.09470777115 -88643.383777571842 0 -88643.383777571842 1283285.9044480734 0 0 0 0 -2083451.9995633364 68383677.71786499 0 68383677.71786499 -43075114.835945129 0 0 0 0 69575768.448549569 -20123150.112480164 0 -20123150.112480164 8200223.4039001465 0 0 0 0 98312648.563606441 -646432583.33073616 0 -646432583.33073616 1372608613.2533646 0 0 0 0 362255156.10922396 -349722156.72004032 0 -349722156.72004032 543189403.37552643 0 0 0 0 5536803.2721523046 -237589648.92426682 0 -237589648.92426682 675816796.48642445 0 0 0 0 1424361595.4988034 -1191309440.8433475 0 -1191309440.8433475 419994444.32875824 0 0 0 0 498782991.21482915 1287543866.9247513 0 1287543866.9247513 2201515277.2712517 0 0 0 0 1244713.9256342901 92595.335520496592 0 92595.335520496592 2303871.397143051 0 0 0 0 -82100305.371961981 554886739.59793854 0 554886739.59793854 1599999846.6096039 0 0 0 0 -334646427.16142869 209718968.38314819 0 209718968.38314819 2205267166.8000231 0 0 0 0 -6081614.8447064012 423548293.9648819 0 423548293.9648819 893997671.0401001 0 0 0 0 43004737.249360472 248945148.80696487 0 248945148.80696487 934530540.2235899 0 0 0 0 1202760.2019604736 -641856.66412097123 0 -641856.66412097123 5434871.7134338655 0 0 0 0 139892071.55230123 185062796.21619987 0 185062796.21619987 479873574.004776 0 0 0 0 -131786170.01990971 -114885413.22744751 0 -114885413.22744751 1192842194.8428726 0 0 0 0 919952.44989526167 1922783.032666536 0 1922783.032666536 5765890.6981195919 0 0 0 0 -30404846.563306332 18269871.338909149 0 18269871.338909149 5470855.3609390259 0 0 0 0 -67330421.091395855 8138743.4956512451 0 8138743.4956512451 27694615.472091675 0 0 0 0 -17350334.821322918 8751096.7379493713 0 8751096.7379493713 11069381.718074799 0 0 0 0 -69555716.192004204 -62757540.799583435 0 -62757540.799583435 -26020359.18157196 0 0 0 0 -92106.099346410774 -2686687.2611437831 0 -2686687.2611437831 11060906.241295889 0 0 0 0 50802965.186083555 -52683930.606231689 0 -52683930.606231689 -35999445.456447601 0 0 0 0 -13642651.414322376 -19149526.743465424 0 -19149526.743465424 13299573.881664276 0 0 0 0 -26002261.396587849 -10863704.049811363 0 -10863704.049811363 33783576.881011963 0 0 0 0 68785975.106248379 2948896.4564743042 0 2948896.4564743042 -102045327.26167297 0 0 0 0 -969569.87331497204 -479003.46450402029 0 -479003.46450402029 4627507.1356974524 0 0 0 0 297802409.09266293 -218851145.10820389 0 -218851145.10820389 170487012.81801987 0 0 0 0 76581614.779119253 40182585.783157349 0 40182585.783157349 47714248.355491638 0 0 0 0 13831944.081529737 -50188273.047494888 0 -50188273.047494888 78938523.524795532 0 0 0 0 27171896.823833108 -55578142.145606995 0 -55578142.145606995 -40121920.682621002 0 0 0 0 -40697144.285501167 -923114.10973516107 0 -923114.10973516107 108046640.6031189 0 0 0 0 -15117027.721105009 -9618898.0381298065 0 -9618898.0381298065 107481645.57754517 0 0 0 0 -16987849.742588997 -50176021.986175537 0 -50176021.986175537 122305383.20306396 0 0 0 0 -9584795.58598423 -39213046.192581177 0 -39213046.192581177 120233036.50445557 0 0 0 0 -40759921.742015041 -15784208.025912732 0 -15784208.025912732 154814239.27676392 0 0 0 0 31862018.095722198 -6865405.4649658203 0 -6865405.4649658203 62807629.124629974 0 0 0 0 129927424.51612806 108597372.5196991 0 108597372.5196991 198584704.26655579 0 0 0 0 187566209.59491241 -52086112.103494644 0 -52086112.103494644 73255048.519515991 0 0 0 0 20604693.002042055 21455802.303131104 0 21455802.303131104 234935622.81738281 0 0 0 0 73190.552689613542 214434.31435177475 0 214434.31435177475 219534.27643647417 0 0 0 0 110125511.20724487 -90444311.504394531 0 -90444311.504394531 86062307.293106079 0 0 0 0 183940949.25835079 120056632.42077065 0 120056632.42077065 95830545.321777344 0 0 0 0 7234.7942979813088 133055.97464491148 0 133055.97464491148 116244.58360609412 0 0 0 0 30599618.889419317 -81399899.854888916 0 -81399899.854888916 22538866.10748291 0 0 0 0 -4878629.427849412 -29214842.116287231 0 -29214842.116287231 133580250.03955078 0 0 0 0 -58773070.968523979 -85560228.028503418 0 -85560228.028503418 330338133.67041016 0 0 0 0 -15384805.551985741 -42004083.993515015 0 -42004083.993515015 133081376.28820467 0 0 0 0 -1746071.3357150555 3479396.1247711182 0 3479396.1247711182 7770657.1950283051 0 0 0 0 -613459.65470661689 586208.79882601183 0 586208.79882601183 1794518.4828385711 0 0 0 0 -23368302.695393801 -2094524.8076324463 0 -2094524.8076324463 25946903.656646729 0 0 0 0 3042199.2651180029 6170650.2613067627 0 6170650.2613067627 21046602.748935699 0 0 0 0 4004478.3749350868 -3904892.4942946434 0 -3904892.4942946434 43383841.756515503 0 0 0 0 3815831.6846190691 -21664977.227219582 0 -21664977.227219582 51649103.68006897 0 0 0 0 -17927116.486226678 -20947135.098838806 0 -20947135.098838806 61996720.226196289 0 0 0 0 -120097162.84617448 -69547283.57277298 0 -69547283.57277298 42477270.427597046 0 0 0 0 -14418233.890005827 -20574461.641748428 0 -20574461.641748428 13431790.095222473 0 0 0 0 -22686.690600745555 -2579500.8314066436 0 -2579500.8314066436 10743434.145305958 0 0 0 0 -30248211.777671814 14485150.516357422 0 14485150.516357422 8564337.5666389465 0 0 0 0 -75184538.144020915 17296290.351263046 0 17296290.351263046 70834570.205383301 0 0 0 0 20402380.809391022 -15941581.929962158 0 -15941581.929962158 58606032.186706543 0 0 0 0 53913619.836023331 63365310.745250702 0 63365310.745250702 19254350.131038666 0 0 0 0 606004.56128154264 769667.54852947593 0 769667.54852947593 -156686.51756755263 0 0 0 0 16241253.055609226 69162422.831619263 0 69162422.831619263 80291762.192903519 0 0 0 0 59983130.328241587 38361467.508659363 0 38361467.508659363 42328474.925926208 0 0 0 0 -23038603.728954315 3336030.9711723328 0 3336030.9711723328 25781095.628417969 0 0 0 0 -42202726.069029331 17014171.690696716 0 17014171.690696716 36682423.737739563 0 0 0 0 -50905348.283123225 6441571.8692111969 0 6441571.8692111969 17692564.516036987 0 0 0 0 -45895130.778117895 22966857.154327393 0 22966857.154327393 27446015.467132568 0 0 0 0 -14914041.892375112 35239564.754325867 0 35239564.754325867 28207739.589767456 0 0 0 0 -33865912.047468483 6588610.1253376007 0 6588610.1253376007 25849168.312942505 0 0 0 0 48123133.730454445 18186546.2228508 0 18186546.2228508 8075906.8880996704 0 0 0 0 89731.665467529325 1962020.6267362274 0 1962020.6267362274 417931.43562926725 0 0 0 0 8114.9961201548576 1999047.6967916489 0 1999047.6967916489 2782451.3604049683 0 0 0 0 -501303.81469559669 950259.6408367157 0 950259.6408367157 1867439.5158233643 0 0 0 0 -345931.3150387553 1111135.1341667045 0 1111135.1341667045 5191359.7601756947 0 0 0 0 -1806692.0051296949 4898188.65391922 0 4898188.65391922 24846646.133796692 0 0 0 0 10454793.925192416 12253412.282944202 0 12253412.282944202 23489338.081161499 0 0 0 0 420755.08244600846 2292916.1286629271 0 2292916.1286629271 5132421.2248649094 0 0 0 0 13582119.902931333 37428032.947250366 0 37428032.947250366 21261505.122905731 0 0 0 0 578771.57806777954 1739753.1448516846 0 1739753.1448516846 1890076.7713317871 0 0 0 0 -710385.00600576401 -2885064.1216621399 0 -2885064.1216621399 1678661.0808563232 0 0 0 0 -6215710.8298432827 7317068.3160934448 0 7317068.3160934448 3376955.1844024658 0 0 0 0 -826719.25654370454 1124131.8027907978 0 1124131.8027907978 3082024.204273954 0 0 0 0 3380406.1880077124 5403936.2124099731 0 5403936.2124099731 -714014.11450195312 0 0 0 0 -287056.85468137264 149576.97620773315 0 149576.97620773315 3461639.8243751526 0 0 0 0 2588522.5730558038 -278356.32116699219 0 -278356.32116699219 -2952872.3572463989 0 0 0 0 9624675.6804956794 10136725.462997437 0 10136725.462997437 6471091.5041427612 0 0 0 0 6431677.3588068485 -14046.979827880859 0 -14046.979827880859 -2124032.9003143311 0 0 0 0 70531330.598364323 -9119410.5989990234 0 -9119410.5989990234 14994139.097541809 0 0 0 0 -298068.77145593864 -29864.804594039917 0 -29864.804594039917 765611.65644073486 0 0 0 0 -60132.95796074337 -10531.937887072563 0 -10531.937887072563 58711.485739177093 0 0 0 0 -1253.6411196584304 -4432.4846659093164 0 -4432.4846659093164 -4017.3052004389465 0 0 0 0 15983.661766816247 53063.861927207559 0 53063.861927207559 -17792.287739794701 0 0 0 0 -1872331.8049424328 2181507.6469268799 0 2181507.6469268799 1759181.6160812378 0 0 0 0 -1596976.9648121893 -719583.52820587158 0 -719583.52820587158 234514.2491607666 0 0 0 0 130889.85243799871 193676.97968286695 0 193676.97968286695 -292203.14763855562 0 0 0 0 -62162.833631616086 525446.24509429932 0 525446.24509429932 231762.14942932129 0 0 0 0 -561990.85057685804 772496.03609848022 0 772496.03609848022 362942.2014465332 0 0 0 0 -289883.84160182765 -953327.77407836914 0 -953327.77407836914 -255486.85098266602 0 0 0 0 -279979.51561484486 838635.38672637939 0 838635.38672637939 -214262.53150939941 0 0 0 0 -484831.32746231556 668112.09004211426 0 668112.09004211426 502564.34922027588 0 0 0 0 1589.7794843469883 -12245.316604796797 0 -12245.316604796797 39000.033945849165 0 0 0 0 420.45679099066183 -139901.98668670654 0 -139901.98668670654 1746600.7074050903 0 0 0 0 213119.86098815335 -15295748.465129852 0 -15295748.465129852 61857686.357154846 0 0 0 0 -10531754.243127955 -60595158.181388855 0 -60595158.181388855 143906209.50338745 0 0 0 0 97301740.522846609 -117196969.73585129 0 -117196969.73585129 135703847.81750107 0 0 0 0 -116815.08539924122 -48815458.568108536 0 -48815458.568108536 322092093.09374237 0 0 0 0 23567693.288967118 -68424896.840011597 0 -68424896.840011597 223414321.48419189 0 0 0 0 135949990.08141693 -252047158.20991898 0 -252047158.20991898 274370739.7564621 0 0 0 0 161866867.68521023 -120714390.17918634 0 -120714390.17918634 104722643.71581268 0 0 0 0 9410631.4136455059 8869416.2707519531 0 8869416.2707519531 105576229.54301238 0 0 0 0 2099169.5116180722 -4884557.0240979195 0 -4884557.0240979195 87299888.492553711 0 0 0 0 3948384.9667446613 13885796.738113403 0 13885796.738113403 53134178.555236816 0 0 0 0 3752986.4927126169 -10142482.741088867 0 -10142482.741088867 26593479.849487305 0 0 0 0 20076103.447686255 27785523.87322998 0 27785523.87322998 53101508.102287292 0 0 0 0 -47962.76931372119 26727.322724524885 0 26727.322724524885 53591.552992146462 0 0 0 0 -24586446.314680129 -47603535.198554993 0 -47603535.198554993 92741071.226974487 0 0 0 0 -38040201.512356758 4993813.8670959473 0 4993813.8670959473 47955787.585357666 0 0 0 0 99559089.492640868 -52360484.898300171 0 -52360484.898300171 79032931.087753296 0 0 0 0 1010868.7511388664 1144314.9397118189 0 1144314.9397118189 2205446.7037839703 0 0 0 0 176733663.63166583 152451355.19655061 0 152451355.19655061 54866212.125976562 0 0 0 0 -130494978.66399559 108137053.70322609 0 108137053.70322609 4800580.505897522 0 0 0 0 68480353.443676338 101011891.33507621 0 101011891.33507621 -95666085.117599487 0 0 0 0 83636620.790609151 -45705735.551383972 0 -45705735.551383972 -142880852.54805374 0 0 0 0 40675182.087362468 -19590604.609055519 0 -19590604.609055519 752632585.75907898 0 0 0 0 191691476.46003169 -21483035.426529884 0 -21483035.426529884 -124821833.75545502 0 0 0 0 331821.62503293477 240720.47304954613 0 240720.47304954613 903052.68702155352 0 0 0 0 -61998849.685685426 -400325095.70112801 0 -400325095.70112801 734960671.06484985 0 0 0 0 537245215.67967176 470797594.99151278 0 470797594.99151278 585924092.5236969 0 0 0 0 234096486.86787704 -113170092.86555386 0 -113170092.86555386 1701294407.4980469 0 0 0 0 182918168.92503825 -449847089.6904726 0 -449847089.6904726 1486112228.2846222 0 0 0 0 -242417019.65842503 -65167026.513225555 0 -65167026.513225555 2205267618.2355652 0 0 0 0 -186233144.58702233 -54733584.219491959 0 -54733584.219491959 1704543055.2055359 0 0 0 0 -35623846.315574944 -107433255.41974258 0 -107433255.41974258 778547891.40846252 0 0 0 0 -31133927.106263522 187933490.66060829 0 187933490.66060829 881325383.07810211 0 0 0 0 -165856842.52558798 88098483.178619385 0 88098483.178619385 1756373549.0762558 0 0 0 0 -168471918.19901073 184776055.08477783 0 184776055.08477783 2204848607.5369301 0 0 0 0 -203497076.41585249 33527257.64540863 0 33527257.64540863 1770485471.9565201 0 0 0 0 409092136.34185547 200551008.03197098 0 200551008.03197098 1880397210.1975784 0 0 0 0 268300167.47491682 575201432.67358017 0 575201432.67358017 390225634.7964325 0 0 0 0 -124705811.18701594 341939978.24421692 0 341939978.24421692 1959138310.5678425 0 0 0 0 -20474151.459740877 -34380807.062986374 0 -34380807.062986374 419216110.88134003 0 0 0 0 38643622.261271298 -98675900.458621979 0 -98675900.458621979 20444315.757156372 0 0 0 0 -129701.69508588314 -36198511.868171692 0 -36198511.868171692 248527058.31510544 0 0 0 0 187250011.46872526 13371474.336065292 0 13371474.336065292 201824867.49891663 0 0 0 0 152009519.6833722 -49195896.874661446 0 -49195896.874661446 202482849.16960144 0 0 0 0 1780909.081622988 139858558.66796112 0 139858558.66796112 896289465.69651031 0 0 0 0 18421353.654190719 150816397.55946732 0 150816397.55946732 67420067.076381683 0 0 0 0 24616901.262482323 -181739821.07795036 0 -181739821.07795036 -24844137.774101257 0 0 0 0 63567297.493727505 -21835161.288860321 0 -21835161.288860321 -213434323.85894012 0 0 0 0 58434025.285100698 -62490539.682487488 0 -62490539.682487488 -64438688.625141144 0 0 0 0 -41796387.191936493 -38432632.858821869 0 -38432632.858821869 -18290325.892597198 0 0 0 0 80410.143101609254 184709.48860666901 0 184709.48860666901 62976.624145774171 0 0 0 0 -4301914.9778373241 13501352.90171814 0 13501352.90171814 -4931363.8754651546 0 0 0 0 -109787883.02040088 -121207232.19931984 0 -121207232.19931984 34753194.428840637 0 0 0 0 58297788.958518505 -51321687.872742653 0 -51321687.872742653 39798492.004226685 0 0 0 0 449983.22913473635 -132680.04459505901 0 -132680.04459505901 507589.14421277866 0 0 0 0 38725592.398814678 -17664084.617508888 0 -17664084.617508888 51081205.881027222 0 0 0 0 12498256.612487793 -95635896.397514343 0 -95635896.397514343 41166634.00189209 0 0 0 0 291028.05173840688 140002.78787862044 0 140002.78787862044 390623.80274083838 0 0 0 0 -55548775.182874441 -27321621.685970306 0 -27321621.685970306 24563238.996627808 0 0 0 0 15475534.082469463 -16172517.87638092 0 -16172517.87638092 81702549.158615112 0 0 0 0 28605244.084811211 -48723816.991453171 0 -48723816.991453171 64964184.416412354 0 0 0 0 -58407288.296764851 -18266521.101131439 0 -18266521.101131439 86855807.035385132 0 0 0 0 -19853774.783884287 -70288856.294490814 0 -70288856.294490814 83681969.899688721 0 0 0 0 -74048367.119141579 14036263.655662537 0 14036263.655662537 169503074.96940613 0 0 0 0 -86865626.981305897 44920218.935171127 0 44920218.935171127 135970067.1741333 0 0 0 0 -60611183.550696611 -72010209.57913208 0 -72010209.57913208 215171709.07891083 0 0 0 0 -37408497.202902317 -53712865.806365967 0 -53712865.806365967 -21843432.949790955 0 0 0 0 -42525856.650872231 66049154.04940033 0 66049154.04940033 187978846.48517418 0 0 0 0 144157217.83441663 207015621.15908813 0 207015621.15908813 -321168187.92765045 0 0 0 0 531440.548291852 463600.78389666229 0 463600.78389666229 829668.41712888423 0 0 0 0 10011457.464291692 -168590537.7862587 0 -168590537.7862587 3160394446.2610817 0 0 0 0 -80223231.327280521 -222006161.98069763 0 -222006161.98069763 48905846.082389832 0 0 0 0 188733236.40003759 -52761198.603218079 0 -52761198.603218079 2205302005.1362443 0 0 0 0 319570415.99535871 140051733.43190384 0 140051733.43190384 2372365830.2317505 0 0 0 0 275573741.79414475 260768776.18085289 0 260768776.18085289 2833432854.0764999 0 0 0 0 59857065.039896876 -374295120.3351593 0 -374295120.3351593 2694340058.593338 0 0 0 0 60151988.989672057 -335208059.28975022 0 -335208059.28975022 2095552018.4927292 0 0 0 0 -19316746.110259071 37147431.080921173 0 37147431.080921173 2236240970.0653 0 0 0 0 1190286.9167489407 1393750.4186792262 0 1393750.4186792262 2218585.7256901101 0 0 0 0 -10496551.056436867 -169631009.72175598 0 -169631009.72175598 1944541396.2880707 0 0 0 0 -1219997.068860054 47699547.980157852 0 47699547.980157852 -143421408.01576996 0 0 0 0 -147033208.14020014 96800263.816963196 0 96800263.816963196 363075752.37086487 0 0 0 0 -82358382.911196709 96465913.1994133 0 96465913.1994133 40740479.925723076 0 0 0 0 -57869645.255866438 -270652295.22599411 0 -270652295.22599411 1752046179.5603104 0 0 0 0 -165366167.48224086 -79184305.824640274 0 -79184305.824640274 2204597472.7651863 0 0 0 0 -304801968.23067749 207057629.13211441 0 207057629.13211441 1872688875.1220551 0 0 0 0 -36532805.593493223 57378793.204082489 0 57378793.204082489 1319184193.0884647 0 0 0 0 1312814.2925827017 1904353.8220666759 0 1904353.8220666759 3594644.8856336917 0 0 0 0 -47582332.524751484 -58833218.245319843 0 -58833218.245319843 66438522.900772095 0 0 0 0 168779969.40653706 83852114.215896606 0 83852114.215896606 -63682181.471603394 0 0 0 0 63023752.835294247 -54388320.928165436 0 -54388320.928165436 19185118.47504425 0 0 0 0 -124634319.61114502 35715186.854530334 0 35715186.854530334 169663307.96407318 0 0 0 0 -88337941.757399559 -54712960.685401917 0 -54712960.685401917 49576020.360313416 0 0 0 0 -29041121.182965279 20190793.12322998 0 20190793.12322998 99114599.180374146 0 0 0 0 17237530.815513611 17076860.134605408 0 17076860.134605408 78307483.55657196 0 0 0 0 70697845.852395058 2634727.9861221313 0 2634727.9861221313 -491776.90723419189 0 0 0 0 -21993457.649808884 112096950.23610687 0 112096950.23610687 156257308.7642355 0 0 0 0 175854.84057112946 -42926.462581460364 0 -42926.462581460364 143730.66324852034 0 0 0 0 15135978.50556612 6723593.6296386719 0 6723593.6296386719 -785269.82061767578 0 0 0 0 10896779.973426342 2608251.3310813904 0 2608251.3310813904 47133199.885139465 0 0 0 0 -3514616.4772536755 6699814.9151725769 0 6699814.9151725769 7483563.450920105 0 0 0 0 3908064.012254715 -7947745.0498657227 0 -7947745.0498657227 7356712.9066772461 0 0 0 0 5725020.3010425568 -211941.42259979248 0 -211941.42259979248 6083571.43409729 0 0 0 0 9559870.7493839264 2640022.6441917419 0 2640022.6441917419 8124461.1802902222 0 0 0 0 16711831.702596903 -1477754.4939479828 0 -1477754.4939479828 810985.11335754395 0 0 0 0 7832910.5235333443 -12949245.949337006 0 -12949245.949337006 100365.92386436462 0 0 0 0 -1877578.1439518929 -38824295.624023438 0 -38824295.624023438 15516655.018218994 0 0 0 0 48071449.570941925 -12046651.459625244 0 -12046651.459625244 -2014215.609046936 0 0 0 0 -2591551.5472729206 -8103538.4344577789 0 -8103538.4344577789 2259057.0199050903 0 0 0 0 1804626.9542298317 -8806600.4670028687 0 -8806600.4670028687 -180990.0373840332 0 0 0 0 2547090.243393898 -5083164.6307411194 0 -5083164.6307411194 -280913.6754989624 0 0 0 0 5719992.9117703438 -799819.86140632629 0 -799819.86140632629 1370865.4646148682 0 0 0 0 11373914.07916069 -4837281.0928115845 0 -4837281.0928115845 -1297677.9982299805 0 0 0 0 6738591.6109666824 -2429784.3820419312 0 -2429784.3820419312 -772201.3670501709 0 0 0 0 3602633.361161232 471899.80685424805 0 471899.80685424805 608720.59555053711 0 0 0 0 3791010.6976003647 -5651135.9383163452 0 -5651135.9383163452 -978972.44709587097 0 0 0 0 1659561.1477185488 -5492565.3561258316 0 -5492565.3561258316 -462719.78408813477 0 0 0 0 -847434.96601057053 -3658852.34400177 0 -3658852.34400177 3255380.1620559692 0 0 0 0 2269567.5372548103 -3475855.6468849182 0 -3475855.6468849182 -675491.48671722412 0 0 0 0 1440358.7563266754 -3067490.9343261719 0 -3067490.9343261719 -833984.32054710388 0 0 0 0 2470728.6759011745 -714350.36176681519 0 -714350.36176681519 1129752.8727264404 0 0 0 0 -25543.885884864954 59615.175554057583 0 59615.175554057583 77343.050252758898 0 0 0 0 599780.46713113785 -2629173.7850036621 0 -2629173.7850036621 811839.41537475586 0 0 0 0 760009.62525463104 -2782780.6941585541 0 -2782780.6941585541 -196184.64242553711 0 0 0 0 -4169225.107632637 -9533093.9714813232 0 -9533093.9714813232 844452.44676780701 0 0 0 0 -392102.17880527367 -1992267.5154484706 0 -1992267.5154484706 10904000.203821804 0 0 0 0 -2249516.8287234306 -5235816.9229431152 0 -5235816.9229431152 1644703.9666099548 0 0 0 0 -23689.55751538917 133087.72022452578 0 133087.72022452578 1797728.2469668384 0 0 0 0 -11659337.878053069 -12225232.229179382 0 -12225232.229179382 9239044.7084169388 0 0 0 0 639527.83173327614 -1977857.4222358242 0 -1977857.4222358242 6174696.8016890995 0 0 0 0 -3702723.7418052554 -3261838.6565551758 0 -3261838.6565551758 15704339.766845703 0 0 0 0 1896987.5870666504 1802593.1821746826 0 1802593.1821746826 15248353.586713314 0 0 0 0 956632.53462776658 2773969.9001269359 0 2773969.9001269359 6726151.1670455066 0 0 0 0 -632936.29770979285 1897527.5462379456 0 1897527.5462379456 21107604.10018158 0 0 0 0 -1711905.238789916 -1339719.8420295715 0 -1339719.8420295715 2788982.846660614 0 0 0 0 -898142.03304171562 -593906.44018173218 0 -593906.44018173218 4240773.321762085 0 0 0 0 -715750.10030594328 -993947.70740675088 0 -993947.70740675088 3363431.0178787261 0 0 0 0 -1259259.7067146301 1687187.0632629395 0 1687187.0632629395 2185818.7984304428 0 0 0 0 -1002493.1908617464 395613.05352936126 0 395613.05352936126 8310109.7701610159 0 0 0 0 -1666989.523663044 551938.02932739258 0 551938.02932739258 1405862.5403308868 0 0 0 0 -543709.64103660872 385502.37794986181 0 385502.37794986181 10259496.011481622 0 0 0 0 -2342624.1041698456 -710584.97311401367 0 -710584.97311401367 2306769.5895996094 0 0 0 0 -711179.2718621674 -160804.03087390773 0 -160804.03087390773 8618145.8532836176 0 0 0 0 -504352.64098549006 -885961.73712393269 0 -885961.73712393269 7264063.0510166269 0 0 0 0 -1566785.801954627 -609659.45951271057 0 -609659.45951271057 3918213.8199157715 0 0 0 0 -258258.24972579814 142817.35061162338 0 142817.35061162338 5682093.6649827734 0 0 0 0 -210087.57726812363 135543.40971183777 0 135543.40971183777 4156461.1460418701 0 0 0 0 -558979.48394203186 -614778.69971466064 0 -614778.69971466064 2585286.2648165226 0 0 0 0 -400545.25433853385 321579.34891244583 0 321579.34891244583 7339322.1247848095 0 0 0 0 -1040998.4185490608 -361271.07267475128 0 -361271.07267475128 4463585.1015014648 0 0 0 0 -500468.10412656586 -197453.72887211107 0 -197453.72887211107 6166769.2213999713 0 0 0 0 -1156155.5853424072 -477409.34022521973 0 -477409.34022521973 4716599.4263763428 0 0 0 0 -666562.81632423401 511940.95957946777 0 511940.95957946777 6735189.7431676388 0 0 0 0 -197224.01297712326 540919.64922904968 0 540919.64922904968 4332799.8711051941 0 0 0 0 88912.67425877566 991460.18254616018 0 991460.18254616018 4203743.9327535182 0 0 0 0 -45957.396792292595 -9703.9611101150513 0 -9703.9611101150513 3230362.6386489868 0 0 0 0 309010.98754956538 26604.851115834899 0 26604.851115834899 2656205.4748183712 0 0 0 0 128589.1631242428 33217.656420106068 0 33217.656420106068 3944553.1966126324 0 0 0 0 370623.78407526016 -137718.61490058899 0 -137718.61490058899 2392710.1709403992 0 0 0 0 658179.2841835022 -195266.5505065918 0 -195266.5505065918 1711806.2724914551 0 0 0 0 341226.96714600711 -399161.94771341048 0 -399161.94771341048 2631873.6601510826 0 0 0 0 652454.32678985596 -202167.09884262085 0 -202167.09884262085 1810460.9948730469 0 0 0 0 -592193.61967849731 -1713127.638343811 0 -1713127.638343811 1035142.8970031738 0 0 0 0 -258733.39993572235 -1249631.1681518555 0 -1249631.1681518555 1437445.2339773178 0 0 0 0 588027.44041539449 -812197.21493592579 0 -812197.21493592579 1036216.9053764939 0 0 0 0 511889.89467048645 -384058.42579269409 0 -384058.42579269409 1869284.1888885498 0 0 0 0 -27097.474087013165 -2530335.3892228138 0 -2530335.3892228138 1109032.091148369 0 0 0 0 35668.348779993597 -517689.60184981721 0 -517689.60184981721 814573.02235914394 0 0 0 0 559561.55884895613 6081.6820386229083 0 6081.6820386229083 613709.44421967119 0 0 0 0 -339577.43146133423 -236775.43953704834 0 -236775.43953704834 286195.08374023438 0 0 0 0 210960.07003427204 -404462.48466129787 0 -404462.48466129787 2167914.3638220816 0 0 0 0 192873.65800428391 2344768.8740196228 0 2344768.8740196228 -323807.62166595459 0 0 0 0 -89126.641199111938 -252233.53629827499 0 -252233.53629827499 1196594.9607200623 0 0 0 0 -147084.19185519218 -413602.17519378662 0 -413602.17519378662 1216947.5848808289 0 0 0 0 21767.641666774522 98843.181299965829 0 98843.181299965829 91380.989686522633 0 0 0 0 -101952.91061973572 405977.77053070068 0 405977.77053070068 784313.97083282471 0 0 0 0 498071.45365478541 -600690.7241949162 0 -600690.7241949162 1195748.4398778751 0 0 0 0 725836.27214598807 -235454.11886417679 0 -235454.11886417679 1608384.62940678 0 0 0 0 662812.4775925763 291565.37787866406 0 291565.37787866406 -195384.95310184732 0 0 0 0 4271315.0999823809 -4143055.1464977264 0 -4143055.1464977264 -6932829.5791897774 0 0 0 0 2206292.0790601373 2280187.1497106552 0 2280187.1497106552 -746035.90319824219 0 0 0 0 1221972.8337881477 -537590.54057411663 0 -537590.54057411663 2090272.3781882674 0 0 0 0 1466867.8846617013 111699.1525054751 0 111699.1525054751 1447386.0999751277 0 0 0 0 -6040797.045932591 -28736589.930202484 0 -28736589.930202484 -80161067.403953552 0 0 0 0 213154.78441429138 161557.95509338379 0 161557.95509338379 582755.58882522583 0 0 0 0 -2063053.3875501826 -3683016.7223110199 0 -3683016.7223110199 -6201754.4398803711 0 0 0 0 -21792067.629247874 63377810.194038391 0 63377810.194038391 -100612076.35922241 0 0 0 0 2179189.7193882908 1047594.5877889376 0 1047594.5877889376 1898160.3113210183 0 0 0 0 1158958.6799325943 891758.73024177551 0 891758.73024177551 2580329.7387580872 0 0 0 0 483653.52820568538 395821.7644179496 0 395821.7644179496 -298881.91042625532 0 0 0 0 -26205287.314393662 -53309125.93175292 0 -53309125.93175292 -97961227.709465027 0 0 0 0 862139.73531198502 755687.59889602661 0 755687.59889602661 3118528.4509658813 0 0 0 0 853314.16088929446 339215.76633031742 0 339215.76633031742 1575486.6039227732 0 0 0 0 911265.86088299751 890538.34104728699 0 890538.34104728699 3311163.1302719116 0 0 0 0 308037.35715866089 587610.12725448608 0 587610.12725448608 912495.66426086426 0 0 0 0 238420.1907248497 198645.20368003845 0 198645.20368003845 629174.62275314331 0 0 0 0 537551.66206512065 691430.45022281725 0 691430.45022281725 1189751.1059073508 0 0 0 0 417714.43869543076 150221.504737854 0 150221.504737854 2021437.978761673 0 0 0 0 748010.75691523077 503604.25505374372 0 503604.25505374372 1368099.5239621662 0 0 0 0 690796.72890759329 445553.98058116436 0 445553.98058116436 1523680.5361098517 0 0 0 0 962035.01083122275 492492.42079311796 0 492492.42079311796 612472.49295252003 0 0 0 0 149358.39745616913 185979.88159179688 0 185979.88159179688 479395.5196056366 0 0 0 0 83809.759645462036 -1082.1454734802246 0 -1082.1454734802246 3154612.102432251 0 0 0 0 563755.64415168762 424606.02420043945 0 424606.02420043945 377831.90855789185 0 0 0 0 -240173.21839714516 222120.3552616518 0 222120.3552616518 4382817.794977149 0 0 0 0 -437469.77386760712 -33092.163333892822 0 -33092.163333892822 486829.03826904297 0 0 0 0 620482.88986235927 410484.49676794559 0 410484.49676794559 1678403.9951473661 0 0 0 0 593671.15879388922 45522.064317507669 0 45522.064317507669 2750320.0311535075 0 0 0 0 -437746.05784991756 472549.45232347399 0 472549.45232347399 8145670.5348907877 0 0 0 0 342093.47859373968 -205923.1984806275 0 -205923.1984806275 4303400.7221911931 0 0 0 0 -250979.90334129333 2058876.5836830139 0 2058876.5836830139 4297618.517414093 0 0 0 0 -772918.4626159668 967336.1702041626 0 967336.1702041626 4837953.1767845154 0 0 0 0 395538.55983734131 2846051.8309745789 0 2846051.8309745789 3812889.9794311523 0 0 0 0 1095016.3172331112 2603403.2647408452 0 2603403.2647408452 2202199.7143472955 0 0 0 0 -216837.91932064015 246371.4393777363 0 246371.4393777363 288018.72194834799 0 0 0 0 34383.603759765625 -302335.29034423828 0 -302335.29034423828 3711082.2075195312 0 0 0 0 -1368048.3529224396 750827.86155509949 0 750827.86155509949 1002713.8773803711 0 0 0 0 63425.967379315523 1723749.6813964951 0 1723749.6813964951 2609120.1486793365 0 0 0 0 -194675.26822266413 527917.46733660786 0 527917.46733660786 2222653.58875468 0 0 0 0 -334910.18753804034 499992.18061300367 0 499992.18061300367 8225254.1179442257 0 0 0 0 -241067.63345909119 2781883.1825447083 0 2781883.1825447083 7207752.8702087402 0 0 0 0 -498671.04944898561 979747.73842060566 0 979747.73842060566 6585271.3357275883 0 0 0 0 2359320.0317869186 -283755.63599395752 0 -283755.63599395752 3559084.3095970154 0 0 0 0 -2912926.8416929245 -1206950.4266815186 0 -1206950.4266815186 -2317229.9167785645 0 0 0 0 -790.11911773681641 5521018.8473510742 0 5521018.8473510742 12057948.623016357 0 0 0 0 -605124.65565466881 7205799.8815202713 0 7205799.8815202713 10955299.677993774 0 0 0 0 -381124.11070411094 655910.61218190566 0 655910.61218190566 692480.47393568605 0 0 0 0 -6028205.8980569839 -2162119.2453136444 0 -2162119.2453136444 7732451.440612793 0 0 0 0 -4726916.488527298 -245783.87342834473 0 -245783.87342834473 9374173.2150230408 0 0 0 0 -3489165.4457168579 -2345452.3982849121 0 -2345452.3982849121 11820062.666549683 0 0 0 0 908697.07436561584 -3526385.5651054382 0 -3526385.5651054382 13139402.320823669 0 0 0 0 -174723.76669120789 -1366974.7539825439 0 -1366974.7539825439 8837559.121635437 0 0 0 0 2956435.2278957367 6729550.0822639465 0 6729550.0822639465 -698561.67129898071 0 0 0 0 -2821835.8290734291 1176420.4239177704 0 1176420.4239177704 20990583.91494751 0 0 0 0 511853.47818005877 1203687.0440715672 0 1203687.0440715672 4570187.4122945778 0 0 0 0 478127.24389266968 711402.09960174561 0 711402.09960174561 4798220.8528556824 0 0 0 0 -2851691.4409890175 2760922.7910423279 0 2760922.7910423279 8770226.9897918701 0 0 0 0 -3422974.56985569 1244047.7776222229 0 1244047.7776222229 6566180.4904747009 0 0 0 0 -3437746.6768779755 1779770.9288787842 0 1779770.9288787842 5116437.3553581238 0 0 0 0 544088.83817481995 -948797.03630065918 0 -948797.03630065918 3083191.9987106323 0 0 0 0 30099.910041809082 1940052.1066589355 0 1940052.1066589355 5788637.563041687 0 0 0 0 1789961.0332444108 903309.73025753291 0 903309.73025753291 1148477.7565477863 0 0 0 0 -81945.080406616442 22494.344076007605 0 22494.344076007605 168330.86573304608 0 0 0 0 400540.0321559906 842192.08242034912 0 842192.08242034912 4764306.8680496216 0 0 0 0 -523340.0169775486 5645650.6318979263 0 5645650.6318979263 6842410.4166679382 0 0 0 0 2881092.7485237718 -6476735.8350193501 0 -6476735.8350193501 -1893897.7681808472 0 0 0 0 288790.19454186596 1213566.5828481643 0 1213566.5828481643 4587825.0835536672 0 0 0 0 616852.63115310669 1524527.2465782166 0 1524527.2465782166 4229476.5627808571 0 0 0 0 5189716.0675907135 16770857.416053772 0 16770857.416053772 12575908.489189148 0 0 0 0 3806532.2959270477 2777949.5016555786 0 2777949.5016555786 -2903511.1102905273 0 0 0 0 -213417.58637437481 1071186.9452324403 0 1071186.9452324403 421837.63597949408 0 0 0 0 2019430.1533966064 -2171449.4719581604 0 -2171449.4719581604 9164938.0283660889 0 0 0 0 -312365.7262080959 1222748.8917060867 0 1222748.8917060867 5391947.3972564992 0 0 0 0 -3139909.2176475525 2734562.4472103119 0 2734562.4472103119 10969894.093753815 0 0 0 0 -1791489.0148846135 -159363.86298386334 0 -159363.86298386334 2893596.1501832195 0 0 0 0 1164803.3300110581 3556306.5714619597 0 3556306.5714619597 2921878.0386419464 0 0 0 0 -11854117.714319229 6495841.0699987411 0 6495841.0699987411 19475109.15263176 0 0 0 0 -14862258.38698101 10386862.320039749 0 10386862.320039749 15863204.946460724 0 0 0 0 -3836493.5846500397 7348801.0259189606 0 7348801.0259189606 -3261459.2975349426 0 0 0 0 -1318640.6811447144 -9552663.8127708435 0 -9552663.8127708435 -8483430.6541175842 0 0 0 0 -389060.74461704446 -69868.743496438488 0 -69868.743496438488 2198217.7083236747 0 0 0 0 993565.19287967682 23983736.706922531 0 23983736.706922531 -31039571.563236237 0 0 0 0 5492728.4849815369 12823427.543228149 0 12823427.543228149 3785209.3965568542 0 0 0 0 1592246.9422278148 2622325.687333297 0 2622325.687333297 3183387.1191115156 0 0 0 0 797849.01817178726 1905847.2126483917 0 1905847.2126483917 3134852.5723838806 0 0 0 0 959225.00672721863 1399523.3854446411 0 1399523.3854446411 3109470.0708873272 0 0 0 0 -47364649.060800552 -2675391.2124385834 0 -2675391.2124385834 3915360.9470748901 0 0 0 0 -55154154.981399775 -23950314.268283844 0 -23950314.268283844 22356724.079818726 0 0 0 0 271332.73236968613 964546.32161626965 0 964546.32161626965 162138.43707914464 0 0 0 0 -117010507.90993309 -7256272.2392997742 0 -7256272.2392997742 16730125.455490112 0 0 0 0 -268147.71999513311 -149037.99549709796 0 -149037.99549709796 203594.52115426771 0 0 0 0 1246625.5922079086 1110343.3810825348 0 1110343.3810825348 3042127.2450971603 0 0 0 0 587534.98880004883 1358061.0563850403 0 1358061.0563850403 3761909.8669281006 0 0 0 0 899445.77906703949 833388.7591547966 0 833388.7591547966 3212210.2536315918 0 0 0 0 1217518.3789541721 1258043.0016040802 0 1258043.0016040802 2301107.7701873779 0 0 0 0 1388937.0780439377 1614074.642786026 0 1614074.642786026 1739081.1570549011 0 0 0 0 1928542.6748170466 3289787.8189300587 0 3289787.8189300587 2684611.3329964224 0 0 0 0 2117155.2537255967 1611237.5166553902 0 1611237.5166553902 2328839.3359284899 0 0 0 0 1115703.8823270798 1696337.7141208649 0 1696337.7141208649 2439739.3533287048 0 0 0 0 -55600724.277967453 19421484.716329575 0 19421484.716329575 20272913.911422729 0 0 0 0 -292247933.35497761 -60970463.022433281 0 -60970463.022433281 144218189.35177612 0 0 0 0 -112239933.94326401 -11023308.16097641 0 -11023308.16097641 108678890.8267765 0 0 0 0 -206173167.14590788 -16919955.181838036 0 -16919955.181838036 131023442.01221085 0 0 0 0 -104910832.44166088 -16556833.543501854 0 -16556833.543501854 111924178.44348526 0 0 0 0 -272343785.59106159 38321825.183986664 0 38321825.183986664 160191543.69844055 0 0 0 0 12670260.603937149 9324683.0671510696 0 9324683.0671510696 12530451.78105545 0 0 0 0 -132807.16949058569 748453.62265161262 0 748453.62265161262 467945.5721141221 0 0 0 0 -179190000.1980629 19756790.84945488 0 19756790.84945488 298641870.00099945 0 0 0 0 12386404.758417234 42100584.127892837 0 42100584.127892837 24956439.681257248 0 0 0 0 -1662596.9796385765 133643.55037975311 0 133643.55037975311 -74450884.774414539 0 0 0 0 -985474.44891551882 2200279.9114294355 0 2200279.9114294355 1949378.0314395018 0 0 0 0 13921545.232956409 -15502462.499054909 0 -15502462.499054909 -70641683.800181389 0 0 0 0 -38918751.920012474 -13010275.49502182 0 -13010275.49502182 45026020.89093399 0 0 0 0 -1096529.8876034543 -161567.26354097389 0 -161567.26354097389 5964110.6485914793 0 0 0 0 -30804448.912557602 -36612971.722995758 0 -36612971.722995758 -24860162.257343292 0 0 0 0 -48504.592513355426 104091.63349058386 0 104091.63349058386 198773.18969241437 0 0 0 0 -127100853.85028362 -47304216.108192444 0 -47304216.108192444 -84101071.992303848 0 0 0 0 -228242062.98552895 -108710642.89928913 0 -108710642.89928913 28020304.740188599 0 0 0 0 -215605053.56494761 -60383909.264707804 0 -60383909.264707804 102250592.75041962 0 0 0 0 -93580212.842069626 19241794.379362106 0 19241794.379362106 18328289.789693832 0 0 0 0 -77360406.701083183 -10843299.86114645 0 -10843299.86114645 64963615.00270462 0 0 0 0 -106763970.53438377 73549895.042340279 0 73549895.042340279 -17155522.897854805 0 0 0 0 -51899776.23273468 103357124.00628185 0 103357124.00628185 54706906.571228027 0 0 0 0 -92215255.491835594 50515357.073630333 0 50515357.073630333 9422047.6334037781 0 0 0 0 -41755323.081571579 59040929.149384499 0 59040929.149384499 -83466618.895126343 0 0 0 0 -40177065.74683857 91001667.940691948 0 91001667.940691948 -46625986.09655571 0 0 0 0 -83391524.212044716 78852752.104217529 0 78852752.104217529 15805058.705729485 0 0 0 0 -598467.27528243465 1474816.3240027064 0 1474816.3240027064 4645240.0132689215 0 0 0 0 -822296.85849571228 2478550.3707542419 0 2478550.3707542419 44707.44095146656 0 0 0 0 -483195.02658124571 3678132.5487528825 0 3678132.5487528825 2295057.900357116 0 0 0 0 9545296.5073986053 -5533848.2143707275 0 -5533848.2143707275 -10468247.735961914 0 0 0 0 139387.78875276004 2965478.7824503626 0 2965478.7824503626 1901452.7430323781 0 0 0 0 -95962677.475185633 41811768.82039094 0 41811768.82039094 -24417959.936397552 0 0 0 0 -129295974.29587889 47790304.763100147 0 47790304.763100147 8328081.7085437775 0 0 0 0 4762684.9830467701 16850164.218277931 0 16850164.218277931 2876711.846118927 0 0 0 0 -456804.69773806015 3001527.7817369718 0 3001527.7817369718 1579738.7215106413 0 0 0 0 -362568.84840774536 870802.73425674438 0 870802.73425674438 3735293.8465003967 0 0 0 0 -210671.40459078737 -340761.50628161849 0 -340761.50628161849 389536.35450516827 0 0 0 0 -2128056.0861740112 2291080.9442863464 0 2291080.9442863464 3827143.2294015884 0 0 0 0 -358866.64163615881 2189921.9328964222 0 2189921.9328964222 3332594.9877375662 0 0 0 0 -2120503.1689472198 961450.10433959961 0 961450.10433959961 4499315.4782227278 0 0 0 0 -1839333.299554348 2473907.6824359894 0 2473907.6824359894 2452595.3156661987 0 0 0 0 -2306211.4038686752 1160896.1079368591 0 1160896.1079368591 2649515.4093081951 0 0 0 0 -1511237.2961816788 728747.14553833008 0 728747.14553833008 3934610.506129384 0 0 0 0 -488145.89140987396 839471.43944549561 0 839471.43944549561 3323770.551651001 0 0 0 0 -2051457.1025166512 323431.47706985474 0 323431.47706985474 3790170.6577377319 0 0 0 0 -17078.656476219039 912874.14546765084 0 912874.14546765084 2843134.7488485761 0 0 0 0 -1243845.9062151909 -154846.77526092529 0 -154846.77526092529 2517987.2917633057 0 0 0 0 -194168.71328078967 2098189.1650991798 0 2098189.1650991798 6175755.9446851406 0 0 0 0 -12367265.333346367 -2698429.7459411621 0 -2698429.7459411621 18836398.572677612 0 0 0 0 -5850988.5424714088 3919485.1261303425 0 3919485.1261303425 7317311.509098053 0 0 0 0 -2702618.3584566116 1573873.4309711456 0 1573873.4309711456 2568356.8530007601 0 0 0 0 31715.625531930302 591299.65826733073 0 591299.65826733073 3014677.4317435138 0 0 0 0 1191048.232011795 5053468.7863616943 0 5053468.7863616943 6668406.1251449585 0 0 0 0 -211830.34878349304 10218340.292675018 0 10218340.292675018 10189734.792900085 0 0 0 0 12378379.668239236 4321701.9310379028 0 4321701.9310379028 4800716.6469726562 0 0 0 0 -360669.03957190993 2301476.7203089902 0 2301476.7203089902 5896436.5367631949 0 0 0 0 -2227285.4016017914 2045729.5199604034 0 2045729.5199604034 2245794.2861785889 0 0 0 0 91479.891444494715 3182789.1233779765 0 3182789.1233779765 4292217.9158743098 0 0 0 0 639313.95077369502 2026425.5727063459 0 2026425.5727063459 6645657.0611420395 0 0 0 0 2687120.7628507614 607610.7541809082 0 607610.7541809082 1794587.2548704147 0 0 0 0 -2210191.392367363 -2595751.9290313721 0 -2595751.9290313721 7505453.5310821533 0 0 0 0 -5785873.5822377205 -3422511.2848596573 0 -3422511.2848596573 6828122.8644866943 0 0 0 0 -2627027.5057544708 4283981.0835094452 0 4283981.0835094452 16957771.738264084 0 0 0 0 -2417079.5564009417 2460093.1961094118 0 2460093.1961094118 9528256.4221959244 0 0 0 0 4142424.8819074631 3685161.642824173 0 3685161.642824173 14975447.015234947 0 0 0 0 -657956.22906112671 1383147.859213829 0 1383147.859213829 9922583.3036975861 0 0 0 0 -3049981.8268330097 11453728.556661367 0 11453728.556661367 22389801.584598541 0 0 0 0 -1342495.3563859463 -578497.13750839233 0 -578497.13750839233 10195569.386985779 0 0 0 0 -973694.3927405054 2196003.8307095133 0 2196003.8307095133 9101544.1339073312 0 0 0 0 879973.34492070996 826427.08720056526 0 826427.08720056526 9741901.1492222771 0 0 0 0 -1742120.793970108 1045869.6962547302 0 1045869.6962547302 2778824.9494171143 0 0 0 0 -3214809.4150114059 1478338.1221618652 0 1478338.1221618652 5569570.275390625 0 0 0 0 -822108.8893673867 -368779.74828155991 0 -368779.74828155991 11073487.109799698 0 0 0 0 -233656.29217529297 1945629.7915878296 0 1945629.7915878296 2286465.0256958008 0 0 0 0 632679.69893106539 1687356.1794514961 0 1687356.1794514961 2136477.863055665 0 0 0 0 -5078397.1328794956 -1237407.6444911957 0 -1237407.6444911957 16089827.307037354 0 0 0 0 -449057.53150955669 -61880.211274912581 0 -61880.211274912581 9900314.1778528243 0 0 0 0 -367021.04311982566 -118628.86340108886 0 -118628.86340108886 10254905.161983347 0 0 0 0 -445275.90819621086 -651173.69275856018 0 -651173.69275856018 11127914.788921356 0 0 0 0 202202.33035171032 -4400046.9797768593 0 -4400046.9797768593 21540394.002586365 0 0 0 0 7078534.3169087172 19409385.71256876 0 19409385.71256876 15816191.023048401 0 0 0 0 -754256.1708861856 1052397.0436419901 0 1052397.0436419901 2419909.2190434821 0 0 0 0 3073591.4684944153 2229271.5086956024 0 2229271.5086956024 10922136.753938675 0 0 0 0 -2418463.5171294212 14054358.178506851 0 14054358.178506851 25723330.120773315 0 0 0 0 -9664198.5411677361 5306320.053896904 0 5306320.053896904 26971690.300811768 0 0 0 0 18278137.147231102 2082022.2644386292 0 2082022.2644386292 7750119.7785491943 0 0 0 0 113709.45037221862 792497.85605006386 0 792497.85605006386 4834530.5918350965 0 0 0 0 -5187180.301420927 -1357952.6337776184 0 -1357952.6337776184 7253450.8446273804 0 0 0 0 3033597.2400083542 -2981519.3223724365 0 -2981519.3223724365 6963145.8272781372 0 0 0 0 5025184.7120542526 577707.6986541748 0 577707.6986541748 3899068.2212119102 0 0 0 0 -2103104.2162758112 1310597.577568531 0 1310597.577568531 6782302.5134811401 0 0 0 0 9222535.071105957 8716461.3280792236 0 8716461.3280792236 12030296.16122818 0 0 0 0 -1510805.8074455261 608863.03064727783 0 608863.03064727783 6953509.8285827637 0 0 0 0 1175434.0188822746 10856472.295246124 0 10856472.295246124 23769871.411437988 0 0 0 0 -912700.86864995956 6172867.7110671997 0 6172867.7110671997 17080082.060165405 0 0 0 0 -891247.43561410904 6104654.1584739685 0 6104654.1584739685 14885262.248977661 0 0 0 0 -1085762.3135480881 3125380.6218280792 0 3125380.6218280792 15436822.182754517 0 0 0 0 678430.54929351807 4504399.1925849915 0 4504399.1925849915 12355212.707992554 0 0 0 0 -216505.06562848995 475417.4636054989 0 475417.4636054989 745152.28820756823 0 0 0 0 2301367.19835186 8568236.3768157959 0 8568236.3768157959 15922189.394138336 0 0 0 0 182405.73503303528 -676847.51272583008 0 -676847.51272583008 6383148.5535969734 0 0 0 0 2438599.3396215439 6616498.2852478027 0 6616498.2852478027 14180550.997344971 0 0 0 0 -1777809.9213607311 2241595.3715610504 0 2241595.3715610504 5394590.1570129395 0 0 0 0 298383.38431946817 582838.65796510316 0 582838.65796510316 6112971.7602459788 0 0 0 0 -1220249.4041500092 1317310.7369689941 0 1317310.7369689941 2001092.751449585 0 0 0 0 -858136.29211044312 2035055.7118530273 0 2035055.7118530273 4832625.3815917969 0 0 0 0 -1368240.6332110167 1562520.0640263557 0 1562520.0640263557 5892633.624130249 0 0 0 0 953412.31392707513 1704253.7619856019 0 1704253.7619856019 4112068.2273987047 0 0 0 0 10753692.661876678 9752623.3019714355 0 9752623.3019714355 3590730.5242919922 0 0 0 0 -679250.2499854319 -238150.41390512139 0 -238150.41390512139 1798022.0315743163 0 0 0 0 1873950.3595536994 3329691.1069412595 0 3329691.1069412595 1191588.6526213922 0 0 0 0 126317.11234582495 201826.80577580212 0 201826.80577580212 -101531.31053569913 0 0 0 0 132581.09535646439 452843.3109664917 0 452843.3109664917 5955262.1532001495 0 0 0 0 1201571.6695809364 4334249.9019937515 0 4334249.9019937515 10002528.435375214 0 0 0 0 2453655.8064191341 2845717.6352028847 0 2845717.6352028847 8867723.7192764282 0 0 0 0 1257327.8208810491 1299101.7723992597 0 1299101.7723992597 6463802.9041437879 0 0 0 0 -1071526.0108606599 -1453088.996594402 0 -1453088.996594402 10046587.149155762 0 0 0 0 -1870059.5477824211 1512168.4824266434 0 1512168.4824266434 12170990.00743866 0 0 0 0 -1422527.9478678133 -1286093.1196942208 0 -1286093.1196942208 11081439.377390452 0 0 0 0 -1760801.2746205926 1736079.1760749817 0 1736079.1760749817 17116705.779083252 0 0 0 0 -2086817.3690652847 -3413158.8046913147 0 -3413158.8046913147 11994458.632658958 0 0 0 0 -644847.10924837831 526572.00724626333 0 526572.00724626333 7141136.5591719672 0 0 0 0 -799438.93545931578 701813.35565948486 0 701813.35565948486 17901932.096094131 0 0 0 0 -326789.86633056402 -7450427.3001556396 0 -7450427.3001556396 12263664.453697205 0 0 0 0 -3095182.1367621645 -5204700.4494514465 0 -5204700.4494514465 10780211.552082062 0 0 0 0 -3816756.3653806522 -5509494.172914505 0 -5509494.172914505 13467657.137702942 0 0 0 0 -433876.19879332324 -2029417.168703204 0 -2029417.168703204 10915738.191387838 0 0 0 0 -4092060.4460786488 -6650921.9142532349 0 -6650921.9142532349 14094498.050689697 0 0 0 0 -4818631.7829111982 -8386829.3371219635 0 -8386829.3371219635 12124298.25983429 0 0 0 0 -15118509.045473987 -4065010.3651790619 0 -4065010.3651790619 21372826.669799805 0 0 0 0 -12628042.027431186 -14006665.459609032 0 -14006665.459609032 30923084.084075928 0 0 0 0 -39920470.856402792 -16547820.52973938 0 -16547820.52973938 35953770.994552612 0 0 0 0 -26065388.290379126 -11683028.502723694 0 -11683028.502723694 30736195.007774353 0 0 0 0 -16984883.253556445 2227146.1112594604 0 2227146.1112594604 28137812.152038574 0 0 0 0 -11694520.75737875 5048468.5674667358 0 5048468.5674667358 14366615.280059814 0 0 0 0 -8865816.459631592 -3962332.8782787323 0 -3962332.8782787323 18878180.236850739 0 0 0 0 -2285852.7244083881 -2762300.2975940704 0 -2762300.2975940704 15724959.671367645 0 0 0 0 -5746812.614086099 489629.14867782593 0 489629.14867782593 17507677.505525589 0 0 0 0 -619447.58353246411 -1185937.9022616623 0 -1185937.9022616623 12765856.758455694 0 0 0 0 -887529.2095266002 2590955.9316503322 0 2590955.9316503322 11611480.616094204 0 0 0 0 -8285348.9106504619 1226649.3738098145 0 1226649.3738098145 17690604.219156265 0 0 0 0 -5912452.4040827751 4512863.5582809448 0 4512863.5582809448 8321061.0866699219 0 0 0 0 -1342557.774844605 5814790.7348771812 0 5814790.7348771812 9685013.3683218025 0 0 0 0 -14982986.575811148 7842268.3188457489 0 7842268.3188457489 8864602.4746699333 0 0 0 0 -5504212.0952146649 884102.33177113533 0 884102.33177113533 9994888.3690338135 0 0 0 0 2224076.1166632175 2041323.7296924591 0 2041323.7296924591 7390162.5026931763 0 0 0 0 -798751.03864700627 -648026.08021257073 0 -648026.08021257073 1289227.249414999 0 0 0 0 -5018713.0532643497 2286095.4416956902 0 2286095.4416956902 8220463.109375 0 0 0 0 -4847986.3572154641 967772.16154813766 0 967772.16154813766 11097591.114112854 0 0 0 0 936274.99511122704 295928.51851844788 0 295928.51851844788 11267680.385812759 0 0 0 0 500063.50252389908 -265829.55927085876 0 -265829.55927085876 13241367.942466736 0 0 0 0 -3473317.5305526853 -2167643.6087536812 0 -2167643.6087536812 10674397.607505798 0 0 0 0 -3145202.0033616424 -1135978.788795948 0 -1135978.788795948 7854755.2353439331 0 0 0 0 -336674.92099510913 3086672.7648679055 0 3086672.7648679055 12789425.683609353 0 0 0 0 -8243644.4823229313 1074564.7748527527 0 1074564.7748527527 13437863.848085403 0 0 0 0 -8823897.2408413887 25331436.197407722 0 25331436.197407722 16389165.238456726 0 0 0 0 -6679474.493493557 24692396.747992516 0 24692396.747992516 11117027.036777496 0 0 0 0 -536363.19733090745 3973886.9831361622 0 3973886.9831361622 1715878.8499817811 0 0 0 0 -6729569.828130722 22802728.780153275 0 22802728.780153275 18479803.456260681 0 0 0 0 -2632628.1748065948 2212195.1850223541 0 2212195.1850223541 4686299.2056007385 0 0 0 0 -6989219.2381477356 58162.341122627258 0 58162.341122627258 12731437.84170723 0 0 0 0 -1753399.7062554355 1274629.8091990454 0 1274629.8091990454 6877347.7947139731 0 0 0 0 -6735384.532040596 234513.65293359756 0 234513.65293359756 4794269.3459854126 0 0 0 0 -5629532.8073997498 21312044.68567276 0 21312044.68567276 21805482.536064148 0 0 0 0 -582810.27506637573 17385479.657936096 0 17385479.657936096 22976402.273078918 0 0 0 0 4178380.6957206726 16936713.505554199 0 16936713.505554199 15434208.662796021 0 0 0 0 8982981.6218490601 8590330.5145301819 0 8590330.5145301819 25321025.961344719 0 0 0 0 20164435.639630318 17599262.578300476 0 17599262.578300476 13664125.932991028 0 0 0 0 -1809097.2784080505 13094234.021495819 0 13094234.021495819 23550769.772716522 0 0 0 0 32458757.4812603 6324232.6433162689 0 6324232.6433162689 13577618.431655884 0 0 0 0 -9853322.1383676529 17675550.724214554 0 17675550.724214554 25691024.162691116 0 0 0 0 -11496856.42524147 -2486186.6555156708 0 -2486186.6555156708 12293727.732753754 0 0 0 0 -46825402.858323693 12753499.241397262 0 12753499.241397262 29548894.228784561 0 0 0 0 -586725.17594244913 1950052.3245837984 0 1950052.3245837984 12997801.411475072 0 0 0 0 -1447071.4174294472 12415108.393694401 0 12415108.393694401 3660669.0493030548 0 0 0 0 -22861333.331132889 -5869398.0976676941 0 -5869398.0976676941 23720408.442909241 0 0 0 0 -12468902.033662796 8254839.3479576111 0 8254839.3479576111 5756594.0193243027 0 0 0 0 -1499277.7700001919 -320131.45184128871 0 -320131.45184128871 13347861.39718142 0 0 0 0 -41870730.128553391 -5519430.0213727951 0 -5519430.0213727951 30855432.206227779 0 0 0 0 6014624.7074661255 15676345.515028477 0 15676345.515028477 29719446.465643883 0 0 0 0 -21151597.391371727 -3037656.0555343628 0 -3037656.0555343628 49971992.372957706 0 0 0 0 -12842464.563456535 9124696.9920911789 0 9124696.9920911789 36456236.890209198 0 0 0 0 12499092.794654369 15313212.198582172 0 15313212.198582172 13271144.178119659 0 0 0 0 10399843.509115696 9536028.2316250801 0 9536028.2316250801 35321514.747126579 0 0 0 0 7872515.2815545797 26504441.807864189 0 26504441.807864189 46238439.620983124 0 0 0 0 82899.541127292207 397850.94128502207 0 397850.94128502207 809854.41372790234 0 0 0 0 34498558.240601301 53988573.301618934 0 53988573.301618934 92056248.069507599 0 0 0 0 -6579875.6685743332 -86937338.808049202 0 -86937338.808049202 -9630936.2468906641 0 0 0 0 -617236.40408468246 -29196101.259420872 0 -29196101.259420872 -23836382.245063782 0 0 0 0 -87449978.517599106 -45952330.855359077 0 -45952330.855359077 22484574.474687576 0 0 0 0 36070727.909086913 41270122.187616646 0 41270122.187616646 23357283.609241486 0 0 0 0 41065.276375748217 1661229.7570013716 0 1661229.7570013716 3132585.2256063009 0 0 0 0 -71464656.81701088 -10631380.360531569 0 -10631380.360531569 19168262.545791626 0 0 0 0 -64556172.01452446 -20989822.521138191 0 -20989822.521138191 1083562.5835151672 0 0 0 0 -97778403.928791046 -945218.09922409058 0 -945218.09922409058 15780411.189102173 0 0 0 0 -62259648.628650665 10540236.585235596 0 10540236.585235596 21375110.181713104 0 0 0 0 -53059600.444377899 11912642.549556732 0 11912642.549556732 19226795.120235443 0 0 0 0 -99747613.953708649 29396687.211582184 0 29396687.211582184 45622343.725894928 0 0 0 0 -15865591.730175018 -4619210.0694770813 0 -4619210.0694770813 3570615.0443134308 0 0 0 0 -44841318.069205284 -2704517.159277916 0 -2704517.159277916 12928205.324630737 0 0 0 0 -14831010.382176399 2527241.2972621918 0 2527241.2972621918 17611220.122406006 0 0 0 0 -14533621.368728638 2063319.7162094116 0 2063319.7162094116 13610645.158473015 0 0 0 0 -24357007.869371414 25024451.610135078 0 25024451.610135078 26636550.953857422 0 0 0 0 -60082263.742782593 35319705.836183548 0 35319705.836183548 46096388.844127655 0 0 0 0 -162187640.86488819 61410716.845184326 0 61410716.845184326 133508628.88095093 0 0 0 0 -50265432.879654884 -11316319.919102669 0 -11316319.919102669 -7664039.8162121773 0 0 0 0 -153875962.1683203 209454106.03619695 0 209454106.03619695 17954335.313083649 0 0 0 0 -126889162.84274006 11275019.281961441 0 11275019.281961441 40718802.000404358 0 0 0 0 -110706859.04732645 -100021651.63040829 0 -100021651.63040829 -136906658.59837341 0 0 0 0 -6107047.1452158391 -5278355.4465103149 0 -5278355.4465103149 9853000.3512153625 0 0 0 0 1198661.8600021936 16217794.293266296 0 16217794.293266296 -11449872.775566101 0 0 0 0 -161660.11477771658 -235511.17957207933 0 -235511.17957207933 1044264.1517441515 0 0 0 0 -4115601.0984168649 1533508.8347206116 0 1533508.8347206116 4263038.6939620972 0 0 0 0 16754459.530199666 -24559219.069261551 0 -24559219.069261551 42249207.035232544 0 0 0 0 6791130.7017717622 -4711338.3519535065 0 -4711338.3519535065 58047080.303924561 0 0 0 0 -13889436.257699206 -17313758.636573792 0 -17313758.636573792 50464160.443481445 0 0 0 0 -48133.740124074757 -93399.82999808155 0 -93399.82999808155 552697.77763304859 0 0 0 0 -2523204.7239698851 -16440551.350652695 0 -16440551.350652695 53060669.490608215 0 0 0 0 18413464.050635975 -49857898.869415283 0 -49857898.869415283 16748870.928344727 0 0 0 0 8564.1562075739639 -62701.21967163682 0 -62701.21967163682 345022.53781978041 0 0 0 0 -20734.535951161681 844834.23016738892 0 844834.23016738892 8341544.4729156494 0 0 0 0 14342249.719311386 -3537332.6617088318 0 -3537332.6617088318 -33494481.160358429 0 0 0 0 -3799651.0878977124 1129301.2942519188 0 1129301.2942519188 9102995.0570373535 0 0 0 0 16262103.94209183 -16850228.651298523 0 -16850228.651298523 5602054.658706665 0 0 0 0 9446047.531423891 8860157.5945663452 0 8860157.5945663452 6907595.1586532593 0 0 0 0 -2786278.7464159033 8544899.1900749207 0 8544899.1900749207 38405968.15826416 0 0 0 0 -23112142.051193267 22816385.534629822 0 22816385.534629822 66762653.178894043 0 0 0 0 -30066.174954023252 -25490.759593950585 0 -25490.759593950585 105659.51891738921 0 0 0 0 3259908.6664926773 21321.417419433594 0 21321.417419433594 -1039075.0235900879 0 0 0 0 4063606.5256907856 4590386.2204704285 0 4590386.2204704285 2826974.2032699585 0 0 0 0 2261.1127825777153 3234263.559715271 0 3234263.559715271 10166958.556362152 0 0 0 0 4298.8653571884934 544503.14514213393 0 544503.14514213393 603101.98866271973 0 0 0 0 344433.78364356456 1215282.5749435425 0 1215282.5749435425 1837313.9577236176 0 0 0 0 -1723003.0474744434 -758732.75113677979 0 -758732.75113677979 1618175.0252113342 0 0 0 0 -1849190.2084239698 -372278.86630630493 0 -372278.86630630493 532025.5958404541 0 0 0 0 666401.97665040777 1050677.3655128479 0 1050677.3655128479 280277.49755859375 0 0 0 0 -2581.03355735999 44198.122746909037 0 44198.122746909037 61787.988331570639 0 0 0 0 1636152.7599632293 -3182820.7173480988 0 -3182820.7173480988 4831063.7803268433 0 0 0 0 -101076.21409740558 -79810.998969954904 0 -79810.998969954904 314662.89712188765 0 0 0 0 3700492.5360419899 -3323986.6917362213 0 -3323986.6917362213 4811371.0965042114 0 0 0 0 -740537.78192469478 -1506716.6684627533 0 -1506716.6684627533 4231874.078956604 0 0 0 0 47098.308344854406 443721.28222959116 0 443721.28222959116 1101537.9673534408 0 0 0 0 -244785.00303411484 -745688.23079681396 0 -745688.23079681396 5377328.2720413208 0 0 0 0 -681235.27637386322 -437655.5775604248 0 -437655.5775604248 5178927.0392260551 0 0 0 0 -433436.29031169415 -314419.44738769531 0 -314419.44738769531 5185076.3277740479 0 0 0 0 -118726.53800740262 609546.89516767673 0 609546.89516767673 2320933.4448835389 0 0 0 0 -702833.4456012249 -91077.454582214355 0 -91077.454582214355 5024879.8346252441 0 0 0 0 2550865.3079590276 -11412021.113715649 0 -11412021.113715649 32532518.203781128 0 0 0 0 -409905.11835898831 -383740.04204765894 0 -383740.04204765894 2286250.9184248522 0 0 0 0 -1015395.5528213978 -503129.45763015747 0 -503129.45763015747 5573449.2827358246 0 0 0 0 -1192010.7845619917 1292217.7769050598 0 1292217.7769050598 4590032.7290115356 0 0 0 0 -612195.43087673187 -23078.938228607178 0 -23078.938228607178 6372889.5389984846 0 0 0 0 -71744.257527158421 1390570.400490257 0 1390570.400490257 4517547.0675335601 0 0 0 0 -1384608.9648454189 956025.86371994019 0 956025.86371994019 4009073.1073828936 0 0 0 0 -1345244.3297123739 -143509.4408249869 0 -143509.4408249869 3699966.6623660773 0 0 0 0 -609513.33061408997 -4626816.6848297119 0 -4626816.6848297119 15182524.306091309 0 0 0 0 -5622415.8914273977 -11585571.652196884 0 -11585571.652196884 33946225.857879639 0 0 0 0 55298.961207346991 -249961.22195575107 0 -249961.22195575107 -72297.891195774078 0 0 0 0 -4341401.6123313904 -4986062.452457428 0 -4986062.452457428 15094708.757919312 0 0 0 0 -1500384.8322156717 -2145179.2156306859 0 -2145179.2156306859 4869354.9017629921 0 0 0 0 -2445080.3004643917 -3195699.7985610962 0 -3195699.7985610962 14518633.838752747 0 0 0 0 -679665.36679640412 92254.510948181152 0 92254.510948181152 10903526.153198242 0 0 0 0 -3041825.351921469 174389.31406402588 0 174389.31406402588 17425358.379119873 0 0 0 0 -3100659.8498829603 210637.55751037598 0 210637.55751037598 19333784.398620605 0 0 0 0 1213949.9071206972 -5906670.2783613205 0 -5906670.2783613205 23546602.152832031 0 0 0 0 -2747495.7825240791 -939031.68172073364 0 -939031.68172073364 22966945.387329102 0 0 0 0 -5166236.6453078985 3395841.252281189 0 3395841.252281189 18947945.259300232 0 0 0 0 -570508.53164684772 -764491.31097412109 0 -764491.31097412109 17608662.869842529 0 0 0 0 -5670703.7370161489 -1216022.002512455 0 -1216022.002512455 28667109.888656616 0 0 0 0 -2258915.3116694987 4117839.3145294189 0 4117839.3145294189 18900771.183250427 0 0 0 0 -3242431.8914462328 8043806.4597015381 0 8043806.4597015381 3526851.7759780884 0 0 0 0 -2310688.1187385321 3871780.803817749 0 3871780.803817749 17911639.357017517 0 0 0 0 -794086.75882874802 3553492.3571652621 0 3553492.3571652621 16799645.850387573 0 0 0 0 6520298.1546842605 -10189840.106567383 0 -10189840.106567383 28222927.010162354 0 0 0 0 1562385.4483802915 -17799878.779483795 0 -17799878.779483795 39361038.320590973 0 0 0 0 -5875032.8692155778 -9258097.4632339478 0 -9258097.4632339478 34474258.895606995 0 0 0 0 -20491677.540637583 -5617937.6345558167 0 -5617937.6345558167 37453235.317893982 0 0 0 0 -13677905.483753502 10305182.97397995 0 10305182.97397995 19650574.496013641 0 0 0 0 9238736.5702809319 2316626.3743591309 0 2316626.3743591309 -3831306.7421646118 0 0 0 0 -10710890.14843237 -7312915.0111722946 0 -7312915.0111722946 5740300.6926574707 0 0 0 0 -13544852.708830329 9512175.4246954918 0 9512175.4246954918 7977059.7998657227 0 0 0 0 1434625.0049081743 6183674.6755523682 0 6183674.6755523682 8212905.9447517395 0 0 0 0 -1927.6578348034418 -6240.6492919065058 0 -6240.6492919065058 70357.149745300412 0 0 0 0 -11174108.954506099 8315164.373714447 0 8315164.373714447 23277476.229698181 0 0 0 0 -191193.02685752409 -116993.15168552846 0 -116993.15168552846 3275715.7677474394 0 0 0 0 985405.52648762614 -6493174.8346557617 0 -6493174.8346557617 7841750.8748092651 0 0 0 0 -44858.584405865906 -76868.128893526271 0 -76868.128893526271 951471.7962549869 0 0 0 0 990344.00927533209 -6992299.0728225708 0 -6992299.0728225708 -744143.78193473816 0 0 0 0 1068986.8825039677 -5698265.5414237976 0 -5698265.5414237976 5465905.3555526733 0 0 0 0 955738.42604154348 -4209277.0304908752 0 -4209277.0304908752 5243224.7824401855 0 0 0 0 6145043.120827958 -12619588.470062256 0 -12619588.470062256 7604500.9972896576 0 0 0 0 -477984.87574931234 -13655086.816860199 0 -13655086.816860199 18252194.582969666 0 0 0 0 -376462.56294328626 -12287761.902331114 0 -12287761.902331114 12439542.256851196 0 0 0 0 -9525783.1200604271 -13529939.504119873 0 -13529939.504119873 20231804.801139832 0 0 0 0 14501999.037776574 -9692934.5351295471 0 -9692934.5351295471 7398984.0771980286 0 0 0 0 6279739.2507289648 -18892484.623119354 0 -18892484.623119354 18892165.818519592 0 0 0 0 29153070.66114223 -29886788.939483643 0 -29886788.939483643 27824502.764297485 0 0 0 0 15321477.369560972 173716.28019714355 0 173716.28019714355 55325991.211921692 0 0 0 0 4121901.8274412304 -16005406.157146454 0 -16005406.157146454 20869042.231571198 0 0 0 0 2243579.6664123312 -24932159.841020584 0 -24932159.841020584 27643579.392333984 0 0 0 0 -16976098.541520435 -26918456.37928009 0 -26918456.37928009 37590931.309906006 0 0 0 0 1584161.1746176779 4219272.306722641 0 4219272.306722641 2773213.7785186768 0 0 0 0 -1901.8884099949501 832.91988475248218 0 832.91988475248218 39282.681491483003 0 0 0 0 13045118.241730258 -16406232.169017792 0 -16406232.169017792 15793345.804321289 0 0 0 0 24404488.735362448 44172948.874969482 0 44172948.874969482 52551069.882141113 0 0 0 0 592293.99848712981 20001897.690475464 0 20001897.690475464 47228671.307197571 0 0 0 0 4004536.5815471485 27118102.152576447 0 27118102.152576447 30565884.250442505 0 0 0 0 4589997.4846062139 13023545.484413147 0 13023545.484413147 17652358.54032135 0 0 0 0 2604829.3587889187 15038269.494504929 0 15038269.494504929 2654214.3094024658 0 0 0 0 4224518.9231579229 6029829.366771698 0 6029829.366771698 24165451.519331932 0 0 0 0 898836.69895205647 -14664280.862129211 0 -14664280.862129211 20917525.772766113 0 0 0 0 2836886.9793238863 -7434870.6200637817 0 -7434870.6200637817 47825850.900037766 0 0 0 0 3150.0209371543206 -7794.0807926570997 0 -7794.0807926570997 29770.022175252438 0 0 0 0 12280442.461947486 14290479.425930023 0 14290479.425930023 42554121.246915549 0 0 0 0 -15529197.313075975 -24607833.42269516 0 -24607833.42269516 27210347.946548462 0 0 0 0 -3545936.0390524864 -21672462.211662292 0 -21672462.211662292 13734288.465267181 0 0 0 0 3317102.7952886634 -11291943.267974854 0 -11291943.267974854 78427369.432884216 0 0 0 0 8234514.8092052517 -6968849.0028076172 0 -6968849.0028076172 33364518.054420471 0 0 0 0 4912088.6249763351 9607502.0713777542 0 9607502.0713777542 42781348.356651306 0 0 0 0 5514597.7493163198 7160377.0999221802 0 7160377.0999221802 44118887.842285156 0 0 0 0 31937.862751454828 7626487.7038726807 0 7626487.7038726807 47034443.900405884 0 0 0 0 -2871.8656033552998 11642803.617725372 0 11642803.617725372 40481132.64490509 0 0 0 0 6651873.0940172998 11845036.588596344 0 11845036.588596344 35159137.793174744 0 0 0 0 -508168.90496079996 16890023.585956573 0 16890023.585956573 39045308.071674347 0 0 0 0 1278774.1923999069 13924935.590675354 0 13924935.590675354 43814914.314559937 0 0 0 0 -4984.5487678500449 10083550.037902832 0 10083550.037902832 42177871.99936676 0 0 0 0 -4041331.847387556 11559759.615337372 0 11559759.615337372 43908419.723849773 0 0 0 0 -2943134.7054166254 14439216.826420784 0 14439216.826420784 50770444.687797546 0 0 0 0 -7574703.4000048749 5313880.1936798096 0 5313880.1936798096 47720910.562764168 0 0 0 0 -5611675.3289713785 1954710.3628997803 0 1954710.3628997803 38711395.161809921 0 0 0 0 -2484936.3109049499 23859749.849300385 0 23859749.849300385 64808359.297584534 0 0 0 0 -4349372.8571447432 16894113.487567902 0 16894113.487567902 46626792.625312805 0 0 0 0 -5512653.5135950996 5381918.4701595306 0 5381918.4701595306 40970394.010299683 0 0 0 0 -7026175.5694753751 -1648366.7992420197 0 -1648366.7992420197 71479791.240966797 0 0 0 0 -882413.00186961796 -2529485.6762411594 0 -2529485.6762411594 42124658.907897949 0 0 0 0 359403.75500183599 -11161914.071436644 0 -11161914.071436644 30045177.086044312 0 0 0 0 -663357.92328551412 3746836.5046615601 0 3746836.5046615601 15076354.958568573 0 0 0 0 -5062.0963441659715 7405721.3194465637 0 7405721.3194465637 27921250.064788818 0 0 0 0 1365771.9698639922 -1350085.3069400787 0 -1350085.3069400787 3699024.5568618774 0 0 0 0 -2325853.8565488448 -638190.60140991211 0 -638190.60140991211 22554487.583881378 0 0 0 0 1500.22197829587 5548454.5182342529 0 5548454.5182342529 3706083.2024078369 0 0 0 0 -753965.17221450619 -814973.72908782959 0 -814973.72908782959 -6284080.4818267822 0 0 0 0 201653.15644664201 322832.29344784468 0 322832.29344784468 505291.19868063927 0 0 0 0 -410.76386808890379 7271.9319458007812 0 7271.9319458007812 464405.0393371582 0 0 0 0 -229389.7165203914 1555585.9842147827 0 1555585.9842147827 675154.93444824219 0 0 0 0 -200917.22790451173 -23717.862516507506 0 -23717.862516507506 517174.43968153745 0 0 0 0 -2823339.4115014076 2397308.9579391479 0 2397308.9579391479 1410715.5246987343 0 0 0 0 -2185764.7779800892 1656055.5351791382 0 1656055.5351791382 1384086.7909297943 0 0 0 0 31781.154333767859 -718313.26876115799 0 -718313.26876115799 52978.276161193848 0 0 0 0 -497221.02322241932 75903.888752507046 0 75903.888752507046 718534.42589758709 0 0 0 0 413185.615220482 599906.31188710034 0 599906.31188710034 630721.00297252461 0 0 0 0 2269608.9978438839 5778430.1057519913 0 5778430.1057519913 1586956.490272522 0 0 0 0 512890.38431539503 395496.99752823263 0 395496.99752823263 305297.03286746517 0 0 0 0 -11242155.004129767 8289137.3295249939 0 8289137.3295249939 -3204676.749206543 0 0 0 0 -14233364.06446892 4110382.6808547974 0 4110382.6808547974 8291934.2989044189 0 0 0 0 -14596702.833351254 578887.53924179077 0 578887.53924179077 4963193.8727684021 0 0 0 0 -2083070.5759856701 605847.99073028564 0 605847.99073028564 2414969.4254586697 0 0 0 0 -3149386.8331082463 1447050.3507242203 0 1447050.3507242203 2461400.25 0 0 0 0 -528461.35048501426 -153705.7769433409 0 -153705.7769433409 710901.70033788309 0 0 0 0 -337903.87381634046 -1221931.812286377 0 -1221931.812286377 955264.99320888519 0 0 0 0 -9484174.6230628192 -3058376.7321414948 0 -3058376.7321414948 2040560.7202148438 0 0 0 0 -11444971.07342267 -8088400.1481513977 0 -8088400.1481513977 -4081548.4642829895 0 0 0 0 -9644590.1820590645 -2917139.0164051056 0 -2917139.0164051056 7047683.207572937 0 0 0 0 -11190427.259162068 -15869933.085948944 0 -15869933.085948944 -5349974.5222101212 0 0 0 0 -455413.17396749335 -309719.97355720773 0 -309719.97355720773 686059.34926023707 0 0 0 0 716188.5805165153 1082777.5196914673 0 1082777.5196914673 1438909.4895877838 0 0 0 0 3353219.7212388683 103580.0034942627 0 103580.0034942627 1993956.9687347412 0 0 0 0 -246606.74852724466 840011.43812179565 0 840011.43812179565 3871018.7404289246 0 0 0 0 2111049.807670583 5342824.6010360718 0 5342824.6010360718 9178668.5380477905 0 0 0 0 -15706.694904167502 1498313.4769199681 0 1498313.4769199681 2669657.2529449463 0 0 0 0 1134262.8773154952 1582212.9144363403 0 1582212.9144363403 339134.94665527344 0 0 0 0 1768765.6663805943 -516678.26225185394 0 -516678.26225185394 -85455.795936584473 0 0 0 0 -35933.488949933555 1453641.0892791748 0 1453641.0892791748 1555988.7839584351 0 0 0 0 69924.270629346371 -23178361.995315552 0 -23178361.995315552 41319260.549999237 0 0 0 0 23870935.966055736 -25190850.027247429 0 -25190850.027247429 -282653.95600891113 0 0 0 0 -1152315.626475811 -14118162.937347412 0 -14118162.937347412 6427373.095703125 0 0 0 0 17535442.369963665 -2177481.3101682663 0 -2177481.3101682663 1174132.851776123 0 0 0 0 50433632.91923476 -31001947.953094482 0 -31001947.953094482 25264769.690044403 0 0 0 0 -661808.14129466191 -10516564.905078888 0 -10516564.905078888 -1238404.6649093628 0 0 0 0 14697791.964916676 -16494691.021781921 0 -16494691.021781921 -27476312.636962891 0 0 0 0 5421259.6792084575 -12961171.519264221 0 -12961171.519264221 -5417670.6462402344 0 0 0 0 313084.22590476274 -21470021.553264618 0 -21470021.553264618 6396608.4689331055 0 0 0 0 9280305.8966451883 -18635539.48972702 0 -18635539.48972702 -16100156.469741821 0 0 0 0 3107842.0937894583 -11720808.873779297 0 -11720808.873779297 -19262662.739730835 0 0 0 0 -1557041.923129797 -16771322.083831787 0 -16771322.083831787 -11374297.681140423 0 0 0 0 -677246.95945686102 -15338681.047866821 0 -15338681.047866821 -18584471.295211792 0 0 0 0 -7049415.6929891109 -11852624.656242371 0 -11852624.656242371 -11928653.321365356 0 0 0 0 -2981372.3513739109 -16034951.491394043 0 -16034951.491394043 -12480124.626140594 0 0 0 0 -3943643.351772666 -18618253.815788269 0 -18618253.815788269 -74514.886703491211 0 0 0 0 -477009.39479529858 -15575259.57824707 0 -15575259.57824707 -11383123.311100245 0 0 0 0 -13246226.834398985 -9103470.2425079346 0 -9103470.2425079346 -9379085.9674377441 0 0 0 0 -9712514.1988913417 -15582907.292438507 0 -15582907.292438507 -588991.02423095703 0 0 0 0 -12427373.183319569 -6783050.3175468445 0 -6783050.3175468445 14340384.291137695 0 0 0 0 -8075455.1580870152 -13523032.27482605 0 -13523032.27482605 -951303.48999595642 0 0 0 0 -5784533.3332598209 -17966175.820579529 0 -17966175.820579529 17188936.938064575 0 0 0 0 -7920270.5494647026 -10623467.51247406 0 -10623467.51247406 4618927.969707489 0 0 0 0 -9447544.9142659903 -529559.06304168701 0 -529559.06304168701 27565778.260511398 0 0 0 0 -10792054.018393129 -5520165.4406108856 0 -5520165.4406108856 12537547.720420837 0 0 0 0 -14745041.8221246 -61021.340492248535 0 -61021.340492248535 21013292.096229553 0 0 0 0 -10240741.252674997 4886819.0393314362 0 4886819.0393314362 -2936617.4962081909 0 0 0 0 -8694391.703458786 12897563.87253952 0 12897563.87253952 12973180.999687195 0 0 0 0 -5393308.1621715426 7420528.114238739 0 7420528.114238739 13905198.72833252 0 0 0 0 10779814.26071918 24021846.583068848 0 24021846.583068848 38370337.12336731 0 0 0 0 10331856.427092224 25417536.974655151 0 25417536.974655151 34417848.202194214 0 0 0 0 26747555.723066479 53217098.943351746 0 53217098.943351746 22198977.92269516 0 0 0 0 -6782660.7259321064 -6175914.3481731415 0 -6175914.3481731415 38643687.0548172 0 0 0 0 3682109.0110113025 -636885.21337890625 0 -636885.21337890625 35081634.007059097 0 0 0 0 18057433.762060348 21542044.712638855 0 21542044.712638855 192391256.73666382 0 0 0 0 20881935.682256803 27234548.39831543 0 27234548.39831543 58510700.546867371 0 0 0 0 -173340.74058975722 1406809.5480766296 0 1406809.5480766296 96937871.5493927 0 0 0 0 63770870.797967166 81130588.487121582 0 81130588.487121582 56878140.947624207 0 0 0 0 16007039.01399529 38219729.930915833 0 38219729.930915833 74433297.93196106 0 0 0 0 60342727.921891898 48773767.435096741 0 48773767.435096741 29554645.161369324 0 0 0 0 61983696.011433944 51809003.706541061 0 51809003.706541061 -10468620.671417236 0 0 0 0 -388821.5733253723 -534865.2196242772 0 -534865.2196242772 993151.84381999075 0 0 0 0 -7918399.6349951327 -17895909.332580566 0 -17895909.332580566 65441588.658157349 0 0 0 0 -1564738.8896991014 71695155.517475128 0 71695155.517475128 -22152012.241882324 0 0 0 0 3312377.8323267475 39484723.31778717 0 39484723.31778717 -36777605.904281616 0 0 0 0 41854323.78001669 53998758.922431946 0 53998758.922431946 -15150673.962844849 0 0 0 0 670112.30958921462 62971641.99430275 0 62971641.99430275 9320428.7557525635 0 0 0 0 31237259.413183719 37131080.003379822 0 37131080.003379822 26390752.968109131 0 0 0 0 26757907.120856285 37939329.827049255 0 37939329.827049255 -1549645.4347000122 0 0 0 0 42445628.266225971 46714001.994613171 0 46714001.994613171 -15416809.552322388 0 0 0 0 39125642.188601688 81922790.597387314 0 81922790.597387314 52241570.693939209 0 0 0 0 84521432.689172238 67484860.739173889 0 67484860.739173889 -7287451.2651119232 0 0 0 0 -8899146.4149626791 55844215.150344849 0 55844215.150344849 11262840.082290649 0 0 0 0 -20151466.786138043 16488363.579051971 0 16488363.579051971 21281545.286300659 0 0 0 0 -52620235.500580072 25863654.714614868 0 25863654.714614868 -5032667.1032791138 0 0 0 0 14640376.838984065 43756541.728385925 0 43756541.728385925 -7231521.7279510498 0 0 0 0 7452043.4019534141 60033048.039024353 0 60033048.039024353 -4877005.7037963867 0 0 0 0 399016.06379393447 254021.04104672 0 254021.04104672 168340.40607720613 0 0 0 0 -17834657.003829002 28480358.059825897 0 28480358.059825897 -11768983.571731567 0 0 0 0 -8900335.3773527145 1771670.7954750061 0 1771670.7954750061 -8401671.1700820923 0 0 0 0 33094557.55120188 27331703.465179443 0 27331703.465179443 4970806.3183803558 0 0 0 0 70115688.998698592 21513190.880058289 0 21513190.880058289 -35091542.162216187 0 0 0 0 170593.37216415384 86220.816058326513 0 86220.816058326513 47815.161212515086 0 0 0 0 6620481.0601361096 -6685693.5889205933 0 -6685693.5889205933 43906073.702697754 0 0 0 0 -1085523.7004320249 -14360088.440159798 0 -14360088.440159798 132543687.31401062 0 0 0 0 48832290.806706965 48065682.389196396 0 48065682.389196396 96933531.130939484 0 0 0 0 3939289.7206082866 15197961.933055878 0 15197961.933055878 73038680.615501404 0 0 0 0 -17550810.812333219 11227662.979671478 0 11227662.979671478 35992364.307769775 0 0 0 0 -47701453.386680484 33197627.706947327 0 33197627.706947327 30187662.480682373 0 0 0 0 -56094728.665786386 4760761.3301849365 0 4760761.3301849365 41574650.089416504 0 0 0 0 63883781.34030351 -33273812.388801575 0 -33273812.388801575 52061318.536346436 0 0 0 0 -8715047.690934673 47199662.155187607 0 47199662.155187607 102171114.45956421 0 0 0 0 -1887163.7668254673 -20896230.843643188 0 -20896230.843643188 100235625.36707783 0 0 0 0 89773847.610466167 20900446.40228653 0 20900446.40228653 45223272.169494629 0 0 0 0 3248996.6010384932 -10851174.822517395 0 -10851174.822517395 52311186.767860413 0 0 0 0 -26806.347652719589 -26298866.886775017 0 -26298866.886775017 31629725.358215332 0 0 0 0 -33031462.387796268 -12192656.033866882 0 -12192656.033866882 57652718.483253479 0 0 0 0 -18629338.116789389 -14436522.764472961 0 -14436522.764472961 33390868.248886108 0 0 0 0 -42883261.190300062 -4479490.6532440186 0 -4479490.6532440186 27042559.389663696 0 0 0 0 -30858322.751550809 -23633243.634475708 0 -23633243.634475708 36846868.05531311 0 0 0 0 -36091399.978838585 13873913.497854233 0 13873913.497854233 36934693.031814575 0 0 0 0 -89116344.737489522 5346336.9809799194 0 5346336.9809799194 35575108.050308228 0 0 0 0 -54779590.371837527 2298252.2601623535 0 2298252.2601623535 15538387.775604248 0 0 0 0 -83142233.159466982 -18120025.435722351 0 -18120025.435722351 3384443.8883056641 0 0 0 0 -52005780.396454066 -15607662.764198303 0 -15607662.764198303 14074751.151306152 0 0 0 0 -62061195.782045871 7441568.7512054443 0 7441568.7512054443 20415643.430038452 0 0 0 0 -62078660.779832661 9152385.5923452377 0 9152385.5923452377 -20802873.117248535 0 0 0 0 -43999869.536886252 7867614.5047149658 0 7867614.5047149658 23971855.586662292 0 0 0 0 -86756199.476957142 11307070.448379517 0 11307070.448379517 28252448.545501709 0 0 0 0 -69615668.967259943 27784000.171516418 0 27784000.171516418 33597257.954116821 0 0 0 0 -1617681.5726452735 414497.16900951695 0 414497.16900951695 5078674.3909120932 0 0 0 0 -43939975.605353028 4986854.1602210999 0 4986854.1602210999 8842349.570892334 0 0 0 0 -90510899.254914731 31925075.528766632 0 31925075.528766632 19502534.336936951 0 0 0 0 -604917.97556703421 -598281.50543976575 0 -598281.50543976575 1980770.5279613137 0 0 0 0 -5627311.6887038946 497134.2470741272 0 497134.2470741272 2817832.3614807129 0 0 0 0 -604535.21903055965 121149.94909072109 0 121149.94909072109 7051945.6593247484 0 0 0 0 -788086.67731318506 -2085821.9439041754 0 -2085821.9439041754 3569385.7342152894 0 0 0 0 -1182349.7210699318 4949401.9096401017 0 4949401.9096401017 2176109.7172136903 0 0 0 0 420820.34412687831 3858794.7435368914 0 3858794.7435368914 10198603.320874978 0 0 0 0 5040188.144819662 4577839.3231735229 0 4577839.3231735229 -5792105.7644348145 0 0 0 0 -4400660.3933191039 17790785.798316956 0 17790785.798316956 17421824.236175537 0 0 0 0 450469.95297869085 1379609.4101540009 0 1379609.4101540009 -460058.19970751181 0 0 0 0 -106745843.64081046 -4807939.763343811 0 -4807939.763343811 31660921.489990234 0 0 0 0 -1849782.520275116 3097788.5190868378 0 3097788.5190868378 12178044.965263367 0 0 0 0 -1007472.0824985504 1619422.0092658997 0 1619422.0092658997 9677180.8176040649 0 0 0 0 -3127876.1217370033 663309.18063735962 0 663309.18063735962 11534975.243484497 0 0 0 0 -3192842.7032136917 477484.23176193237 0 477484.23176193237 11400609.502243042 0 0 0 0 -2769882.6972467899 1765790.8288459778 0 1765790.8288459778 12037488.639205933 0 0 0 0 -2506624.7335104942 361927.12579345703 0 361927.12579345703 9957898.5060882568 0 0 0 0 -260393.02223730087 1737183.2089633942 0 1737183.2089633942 15130882.850830078 0 0 0 0 -2687206.4972839355 -562.75941848754883 0 -562.75941848754883 12534980.48034668 0 0 0 0 -2047822.5693151951 2230809.2845649719 0 2230809.2845649719 12233225.648193359 0 0 0 0 -1208683.9281368256 1194224.2413787842 0 1194224.2413787842 11592662.070953369 0 0 0 0 -1539222.9298529625 1964137.782661438 0 1964137.782661438 14549661.661331177 0 0 0 0 -372548.42568016052 690123.57146453857 0 690123.57146453857 12474226.638920307 0 0 0 0 1254093.0081920624 3962727.5482254028 0 3962727.5482254028 12397663.594600677 0 0 0 0 821586.10528230667 1420746.8320770264 0 1420746.8320770264 3694165.0587615967 0 0 0 0 -261733.21049976349 1621456.0663146973 0 1621456.0663146973 12439884.454608917 0 0 0 0 -897006.78605175018 1687253.2019386292 0 1687253.2019386292 14371278.476470947 0 0 0 0 -399305.41130366299 -138592.08750530519 0 -138592.08750530519 5392272.1724228784 0 0 0 0 -110506.76082229614 2501025.5789527893 0 2501025.5789527893 14660493.296825409 0 0 0 0 766282.50218689442 1382838.5374984741 0 1382838.5374984741 4308754.206817627 0 0 0 0 -1816985.1537395171 -1423730.5590904467 0 -1423730.5590904467 14592381.202362169 0 0 0 0 1939008.6112675667 2628245.8709716797 0 2628245.8709716797 13741069.953590393 0 0 0 0 964889.83673104038 992851.41415150091 0 992851.41415150091 13455676.043558175 0 0 0 0 -11976680.678434134 -9454040.5263938904 0 -9454040.5263938904 -12314489.994656086 0 0 0 0 -1248051.328605175 954999.4947013855 0 954999.4947013855 17236430.721946716 0 0 0 0 244842.98145341873 879310.69118499756 0 879310.69118499756 15041043.275856018 0 0 0 0 -7645837.8553962708 -29115461.346954346 0 -29115461.346954346 -1422203.6751708984 0 0 0 0 -1306635.2816629172 -2531573.5812801104 0 -2531573.5812801104 8251612.1623589285 0 0 0 0 418701.31146669388 -22040013.328208923 0 -22040013.328208923 -21002203.51322937 0 0 0 0 1142843.2884218232 -1520014.9575069807 0 -1520014.9575069807 -4700871.5384044349 0 0 0 0 8542640.466824472 -2765409.2122955322 0 -2765409.2122955322 2021303.6970214844 0 0 0 0 -28607620.442753077 5267594.706161499 0 5267594.706161499 -35252610.46786499 0 0 0 0 -61354.478184640408 -1440190.6990251541 0 -1440190.6990251541 3540907.0039215088 0 0 0 0 1012169.2042348981 2266934.6399078369 0 2266934.6399078369 8093862.4997024536 0 0 0 0 882407.61604949192 -886721.56058542244 0 -886721.56058542244 -1951743.1328442991 0 0 0 0 -3373410.8033711314 -4582101.0243453979 0 -4582101.0243453979 8373326.5646338463 0 0 0 0 428048.47236195207 -1685129.9538993835 0 -1685129.9538993835 -881267.97062683105 0 0 0 0 -1388836.1786572933 -1796206.5578079224 0 -1796206.5578079224 3602312.6550951004 0 0 0 0 -657158.75593384076 -1539146.9191982169 0 -1539146.9191982169 4099527.0383281708 0 0 0 0 -171984.06507432461 -1429723.4047813416 0 -1429723.4047813416 2903357.3818817139 0 0 0 0 -829323.62505185604 -1692684.9246139526 0 -1692684.9246139526 4499219.9486694336 0 0 0 0 -1509714.9386125207 -907114.89370346069 0 -907114.89370346069 9716306.7088165283 0 0 0 0 1486661.7532229424 -5059181.3453979492 0 -5059181.3453979492 636930.77984619141 0 0 0 0 -987943.51101970673 -294925.66888427734 0 -294925.66888427734 813923.12191438675 0 0 0 0 -4693.0255072308792 -661761.89207579754 0 -661761.89207579754 2121905.0761414897 0 0 0 0 -71760842.746103451 59824294.711170197 0 59824294.711170197 -23233053.558364868 0 0 0 0 -1286339.8550134543 -1505099.9776635338 0 -1505099.9776635338 2842084.6749724783 0 0 0 0 -81779537.102104962 47980687.149040222 0 47980687.149040222 -3786318.8864746094 0 0 0 0 -54437614.621759564 16916107.164756775 0 16916107.164756775 -8334952.2846679688 0 0 0 0 -95204.036903315849 -320978.49606427015 0 -320978.49606427015 1750202.7586794198 0 0 0 0 -990765.64507699234 409217.41372936592 0 409217.41372936592 4222555.290183641 0 0 0 0 -939146.36291837692 -1581881.9319000244 0 -1581881.9319000244 4014261.4646606445 0 0 0 0 -571652.84200523677 -490164.06262334064 0 -490164.06262334064 4481505.4237648342 0 0 0 0 -1145004.1092071533 -539463.60952758789 0 -539463.60952758789 3212163.2112045288 0 0 0 0 -1073918.7147758007 -611121.28840637207 0 -611121.28840637207 3234462.8577194214 0 0 0 0 -475776.22440910339 10882266.03363657 0 10882266.03363657 7016660.424706459 0 0 0 0 14718010.048814297 -24643886.565073967 0 -24643886.565073967 -31284678.260891914 0 0 0 0 3356967.3069884777 -28577930.14943409 0 -28577930.14943409 83924347.525528908 0 0 0 0 7249397.2020158768 -7906655.6625061035 0 -7906655.6625061035 20484982.459851265 0 0 0 0 -5883338.1336574554 -21110499.343876362 0 -21110499.343876362 17592627.316492081 0 0 0 0 -3625694.0935106277 -18011643.629261494 0 -18011643.629261494 -6406150.5874490738 0 0 0 0 -15954271.73785305 -11041577.096834183 0 -11041577.096834183 11908436.414953232 0 0 0 0 -11836087.245253563 -21247814.878290653 0 -21247814.878290653 9215741.8986228704 0 0 0 0 -5306257.2151660919 -23574489.572091818 0 -23574489.572091818 26587796.105953217 0 0 0 0 -533736.28981172724 -1219771.8686668593 0 -1219771.8686668593 14705631.712863464 0 0 0 0 -26007902.335484505 -19164704.868346214 0 -19164704.868346214 18137975.423832297 0 0 0 0 -21192616.121572614 -4717745.8041064143 0 -4717745.8041064143 16437756.796583176 0 0 0 0 -3711201.222345978 -2184181.0692644119 0 -2184181.0692644119 11901788.023300171 0 0 0 0 18637.936930886674 -2438102.9734884324 0 -2438102.9734884324 12869080.016603842 0 0 0 0 613012.09880256653 -438956.80521011353 0 -438956.80521011353 12068984.301992416 0 0 0 0 497566.50332635641 91825.659269332886 0 91825.659269332886 14922087.302841187 0 0 0 0 3021681.5917929411 816954.24466609955 0 816954.24466609955 11312000.626663208 0 0 0 0 1006288.426375053 720206.42178112455 0 720206.42178112455 13627829.034828831 0 0 0 0 314459.63183641434 -1508743.8353366852 0 -1508743.8353366852 10853166.409442663 0 0 0 0 -3562010.2071251869 2341115.884042263 0 2341115.884042263 25713817.441431046 0 0 0 0 -1008715.7230575019 -1156156.9445336373 0 -1156156.9445336373 13868367.470796667 0 0 0 0 -256055.53924419265 762081.32705544401 0 762081.32705544401 7448361.2714189738 0 0 0 0 -59749.434375451412 66257.615320965881 0 66257.615320965881 2252247.5262116576 0 0 0 0 -575902.31312513351 5340075.8213505745 0 5340075.8213505745 21820214.749352455 0 0 0 0 -14593239.664092064 -3246088.1268267632 0 -3246088.1268267632 20024815.176660776 0 0 0 0 3801927.1036672592 2129145.0671372414 0 2129145.0671372414 25202933.989636421 0 0 0 0 -6221475.2814397812 -4883913.916903019 0 -4883913.916903019 35643394.632478714 0 0 0 0 -17230169.801136732 -5652409.8816070557 0 -5652409.8816070557 22614099.529445648 0 0 0 0 -10097001.065041065 8697100.3516850471 0 8697100.3516850471 28742609.833104134 0 0 0 0 -21560437.105345249 -28902169.047775269 0 -28902169.047775269 39059869.148626328 0 0 0 0 -13718359.364221573 -5736972.8926229477 0 -5736972.8926229477 28046122.418316841 0 0 0 0 -6840690.9645385742 -18427404.41237545 0 -18427404.41237545 41095431.125844955 0 0 0 0 -4944791.8286252022 -11472783.131141424 0 -11472783.131141424 21777210.334215164 0 0 0 0 19179558.904651642 -6386378.1158056259 0 -6386378.1158056259 -44005067.340021133 0 0 0 0 1133805.7642973796 -2972573.0307530169 0 -2972573.0307530169 -1295251.6971013211 0 0 0 0 216764.20311206579 -23717215.095731795 0 -23717215.095731795 10671361.866607666 0 0 0 0 455340.38061141968 -26504709.035737038 0 -26504709.035737038 31500141.016337395 0 0 0 0 1378906.3539464474 -20115639.02116251 0 -20115639.02116251 20213613.498723984 0 0 0 0 -9489499.7451121807 2030387.6671762466 0 2030387.6671762466 21177908.05432415 0 0 0 0 -287941.16516590118 -9980364.7673139572 0 -9980364.7673139572 26803023.807710648 0 0 0 0 1722038.0094079971 -10893934.172816038 0 -10893934.172816038 6610205.9797267914 0 0 0 0 2066081.2234973907 -10909102.700678349 0 -10909102.700678349 25971682.33095932 0 0 0 0 939764.68658399582 -3872691.6858730316 0 -3872691.6858730316 7996459.6026763916 0 0 0 0 -114484.1177819905 -2339534.3878012174 0 -2339534.3878012174 11797407.523201777 0 0 0 0 113038.50617472391 -1324096.474284064 0 -1324096.474284064 17013030.732419826 0 0 0 0 1928635.6634033308 -3931286.4738711091 0 -3931286.4738711091 8853682.28548746 0 0 0 0 379781.9079990387 -190060.44799423218 0 -190060.44799423218 8465019.7797851562 0 0 0 0 4822564.3372639567 -163752602.43765259 0 -163752602.43765259 -55926791.115674973 0 0 0 0 148681390.16377893 12221178.082061768 0 12221178.082061768 8426661.2943382263 0 0 0 0 36871411.751266837 57756733.713272095 0 57756733.713272095 45556392.889034271 0 0 0 0 34463645.096505404 64972722.570884705 0 64972722.570884705 -67808532.22315979 0 0 0 0 -118042404.59485951 -16552551.905670166 0 -16552551.905670166 29549837.110120773 0 0 0 0 1419256.3971261978 1248895.6284484863 0 1248895.6284484863 11197925.636667252 0 0 0 0 45858051.910911798 -73950170.153381348 0 -73950170.153381348 -97520842.251907349 0 0 0 0 -166293.92775856194 -2498783.3884184733 0 -2498783.3884184733 10875023.136550866 0 0 0 0 -24184.722656416183 -189294.46305901557 0 -189294.46305901557 -167145.48327019066 0 0 0 0 -30374377.449494004 9202913.3805389404 0 9202913.3805389404 -20425590.516282916 0 0 0 0 -22043284.38552165 -38304628.641357422 0 -38304628.641357422 -18911028.059616089 0 0 0 0 5420471.2005772591 -33156835.657104492 0 -33156835.657104492 5989399.0065917969 0 0 0 0 867923.32170738152 -739035.23619827628 0 -739035.23619827628 -3622384.7674651965 0 0 0 0 15956359.468246805 29414382.23023653 0 29414382.23023653 53142919.16998291 0 0 0 0 15310594.880079165 21380976.661071777 0 21380976.661071777 30968451.115753174 0 0 0 0 508573.02926054824 -845470.76372171193 0 -845470.76372171193 -909434.15707363933 0 0 0 0 55092147.29727304 8846191.4495067596 0 8846191.4495067596 -1655289.2621307373 0 0 0 0 -857624.46069286764 13834375.597553253 0 13834375.597553253 76979569.463699341 0 0 0 0 9355588.7195637394 32374164.395797729 0 32374164.395797729 53555473.047927856 0 0 0 0 10665355.627586707 24221652.205522537 0 24221652.205522537 104186171.49269104 0 0 0 0 23671672.868512474 -1432885.3243665695 0 -1432885.3243665695 25745889.414489746 0 0 0 0 30373710.1620401 -26295399.967178345 0 -26295399.967178345 33484493.809928894 0 0 0 0 28057156.77654165 -45742190.332336426 0 -45742190.332336426 56360228.23797226 0 0 0 0 18854093.574683487 7240753.8775892258 0 7240753.8775892258 107315373.89755249 0 0 0 0 135892385.65713534 -54911782.105010986 0 -54911782.105010986 133831178.97442627 0 0 0 0 74339650.635462254 25225371.955047607 0 25225371.955047607 78713514.378097534 0 0 0 0 37508972.000231504 26257455.51565963 0 26257455.51565963 113364263.18623352 0 0 0 0 157644.38369153917 -261396.44226004183 0 -261396.44226004183 -263723.4721230939 0 0 0 0 14248421.595899343 -53671571.965362549 0 -53671571.965362549 -85922257.73547554 0 0 0 0 63421802.926794857 -151004270.98122787 0 -151004270.98122787 92504982.078964233 0 0 0 0 -190399884.14300823 -17925498.168243408 0 -17925498.168243408 79614141.76776123 0 0 0 0 -42055658.866195619 13066879.395584106 0 13066879.395584106 28494290.336761475 0 0 0 0 -29679188.888191879 -22189798.897583008 0 -22189798.897583008 127118759.38665771 0 0 0 0 63172402.100130737 71763833.40247345 0 71763833.40247345 138173843.92824745 0 0 0 0 175002330.65990457 -16763832.072509766 0 -16763832.072509766 93216978.104675293 0 0 0 0 62695999.790827215 26770144.681144714 0 26770144.681144714 159558885.35548401 0 0 0 0 269084.89240123029 281482.41936419718 0 281482.41936419718 472737.68120397627 0 0 0 0 118343612.11057502 137792677.69929504 0 137792677.69929504 82305608.858604431 0 0 0 0 -41176710.465672016 59705221.525939941 0 59705221.525939941 65888813.240402222 0 0 0 0 105268583.57937837 41063458.488773346 0 41063458.488773346 8568503.5316009521 0 0 0 0 -22767775.862366796 -410496.43284606934 0 -410496.43284606934 46825617.434539795 0 0 0 0 30124960.912077844 79507278.135192871 0 79507278.135192871 75207753.984863281 0 0 0 0 -63307232.616009474 21236827.237075806 0 21236827.237075806 62171630.572166443 0 0 0 0 -151900884.41577071 -44572762.903427124 0 -44572762.903427124 31113376.235244751 0 0 0 0 -90846024.532591224 56175672.841873169 0 56175672.841873169 54588486.632034302 0 0 0 0 -31739269.790300831 19130015.373581886 0 19130015.373581886 -29967097.037750244 0 0 0 0 -122683605.89891881 -62551025.863800049 0 -62551025.863800049 1689051.2428512573 0 0 0 0 -814096.6256987747 624652.58675925434 0 624652.58675925434 1950103.8392124865 0 0 0 0 -2986359.931180954 1138910.769241333 0 1138910.769241333 3115642.4646911621 0 0 0 0 -2932052.0664629396 -323137.78339406522 0 -323137.78339406522 17972628.493420094 0 0 0 0 -7157008.6754731704 -358197.15747697093 0 -358197.15747697093 23243044.508260608 0 0 0 0 2044811.9368889714 3738941.133465454 0 3738941.133465454 4710022.7189440094 0 0 0 0 -158771946.90085942 -20058675.389083862 0 -20058675.389083862 61471503.56072998 0 0 0 0 -210617766.66002482 21465041.706993103 0 21465041.706993103 28270778.074768066 0 0 0 0 -225877.43254876137 443797.2786898613 0 443797.2786898613 3779331.249622345 0 0 0 0 -133972173.42146158 -35982866.882148743 0 -35982866.882148743 85465948.485736847 0 0 0 0 -137697340.60038108 -14847593.096050262 0 -14847593.096050262 6227313.5077972412 0 0 0 0 -8252268.5302581787 -6187328.7113571167 0 -6187328.7113571167 -1643923.0115966797 0 0 0 0 -212721249.33112413 -110231136.44894409 0 -110231136.44894409 33598390.710540771 0 0 0 0 585034.50839713332 -2346842.7157010259 0 -2346842.7157010259 15387398.84165052 0 0 0 0 791873.79065705696 425987.75778815895 0 425987.75778815895 16497842.408059243 0 0 0 0 -566986.39644145966 -4920015.7598614693 0 -4920015.7598614693 6884496.8054790497 0 0 0 0 2706515.0549331121 -3717523.6108142268 0 -3717523.6108142268 -558574.35297427699 0 0 0 0 -3719606.3024181277 11002324.961471558 0 11002324.961471558 71221610.42754364 0 0 0 0 -17664185.258346677 6666892.9017066956 0 6666892.9017066956 101193341.06549835 0 0 0 0 5842666.0008349419 43321131.583374023 0 43321131.583374023 177136000.77717972 0 0 0 0 136576113.14575639 -13241810.922092438 0 -13241810.922092438 54699830.08618927 0 0 0 0 20919077.796415061 -47001816.405899048 0 -47001816.405899048 97014986.279655457 0 0 0 0 -10381.398372366637 -735466.90228312369 0 -735466.90228312369 415925.3854859136 0 0 0 0 89556219.973512098 15064571.930646896 0 15064571.930646896 6217826.4608764648 0 0 0 0 -66265.787738455576 -135218.35777230375 0 -135218.35777230375 263322.93854552042 0 0 0 0 497518.10045305901 -1101281.1708171628 0 -1101281.1708171628 675431.18220765516 0 0 0 0 -662740.74005186558 -2467274.0149078369 0 -2467274.0149078369 1718403.6863861084 0 0 0 0 19015540.817286216 -22418997.831394196 0 -22418997.831394196 26688071.6772995 0 0 0 0 -11804082.602809638 8263076.1702041626 0 8263076.1702041626 75435502.009691238 0 0 0 0 192284.08999726706 -1154538.585430922 0 -1154538.585430922 682913.35862642247 0 0 0 0 -1346601.3392220289 -7013751.837272644 0 -7013751.837272644 -4584509.5157051086 0 0 0 0 -97260.486813066047 -1078642.8962992728 0 -1078642.8962992728 765456.93027499318 0 0 0 0 33564423.851579964 -31105601.888031006 0 -31105601.888031006 -7434270.7609786987 0 0 0 0 5160227.046966292 22412233.211257935 0 22412233.211257935 48788773.444950104 0 0 0 0 5983646.9958302975 14939204.283241272 0 14939204.283241272 -4322561.1102600098 0 0 0 0 -624729.95733875036 16537013.441764832 0 16537013.441764832 -4335106.9575805664 0 0 0 0 230061.87674366363 -258497.10904821754 0 -258497.10904821754 -553885.2601570189 0 0 0 0 -15157527.939159691 2354367.5643692017 0 2354367.5643692017 1097113.7446212769 0 0 0 0 312340.26160711981 22353521.719818115 0 22353521.719818115 58989168.642486572 0 0 0 0 -1671271.6196113303 25925635.069519043 0 25925635.069519043 60496790.284435272 0 0 0 0 -1209765.4786609039 31293068.007820129 0 31293068.007820129 55957855.755989075 0 0 0 0 -17132137.454795364 13241072.711990356 0 13241072.711990356 71187395.090324402 0 0 0 0 -25049153.110977516 14769977.698432922 0 14769977.698432922 72840071.173210144 0 0 0 0 -696111.61859468371 15344059.798007965 0 15344059.798007965 35958940.9099617 0 0 0 0 -19252647.792907745 35075941.312941551 0 35075941.312941551 56670729.807022095 0 0 0 0 -22061516.698945098 36875704.547870636 0 36875704.547870636 16260956.310951233 0 0 0 0 -38695864.399248704 -4169420.0679349899 0 -4169420.0679349899 18399109.833076477 0 0 0 0 9717093.190748848 26821066.254310608 0 26821066.254310608 -76285091.903549194 0 0 0 0 -20128260.637443919 25930727.18198967 0 25930727.18198967 77915908.36390686 0 0 0 0 -13893332.403105564 30798591.375663757 0 30798591.375663757 35555378.049530029 0 0 0 0 44527723.250017889 11420606.302799225 0 11420606.302799225 -5658294.5978546143 0 0 0 0 23117929.466134138 13914465.38425827 0 13914465.38425827 48481162.773090363 0 0 0 0 29347050.185009882 -6294711.6859970093 0 -6294711.6859970093 -53887077.260383606 0 0 0 0 -13718531.21622929 8124524.9657402039 0 8124524.9657402039 -5829710.1464381218 0 0 0 0 -206566.66446931832 -156415.91229947098 0 -156415.91229947098 164353.90868827142 0 0 0 0 -211838.17526328564 -4243583.6389694214 0 -4243583.6389694214 5125430.5113220215 0 0 0 0 4688350.0645628124 25034943.906028748 0 25034943.906028748 -68751081.847042084 0 0 0 0 2736384.9669569135 -2926453.6715316772 0 -2926453.6715316772 -3281292.6591720581 0 0 0 0 488551.51991002995 -117734.1955455523 0 -117734.1955455523 134622.51002116036 0 0 0 0 5944617.3431636095 -9630398.6941452026 0 -9630398.6941452026 14984940.076286316 0 0 0 0 -6738604.8266549073 -7278604.2451953888 0 -7278604.2451953888 -9309408.4426727295 0 0 0 0 -2201442.2094490677 -733276.35758590698 0 -733276.35758590698 46081.854736328125 0 0 0 0 3468743.8995280862 -835052.42535018921 0 -835052.42535018921 13726.215393066406 0 0 0 0 -13603512.75365901 926459.1079864502 0 926459.1079864502 6747743.0058097839 0 0 0 0 -66269.492917015741 -36339.592221496627 0 -36339.592221496627 47282.893424248323 0 0 0 0 -22133265.844958745 -8466624.3316192627 0 -8466624.3316192627 4656829.1914596558 0 0 0 0 9670409.166869808 -22391219.331039429 0 -22391219.331039429 -18103617.911067963 0 0 0 0 21457251.62986733 -7407268.8284568787 0 -7407268.8284568787 -4673430.8442230225 0 0 0 0 41788636.735679373 -17038103.61819458 0 -17038103.61819458 -10741831.73576355 0 0 0 0 -3177413.1793327481 -1337498.4721565247 0 -1337498.4721565247 -4252920.0492095947 0 0 0 0 -8437242.9927021042 -11182713.057994843 0 -11182713.057994843 4097766.6014842987 0 0 0 0 354001.74470581842 -83516.030739352107 0 -83516.030739352107 73817.248569554649 0 0 0 0 14320002.74199146 -2138064.4421539307 0 -2138064.4421539307 33719352.319328308 0 0 0 0 136264.16043645539 -29305.532147526741 0 -29305.532147526741 26804.988469174132 0 0 0 0 -3185255.9417035058 -18550295.156957626 0 -18550295.156957626 116227017.3792038 0 0 0 0 50553313.452359289 865115.95304870605 0 865115.95304870605 -22914771.532108307 0 0 0 0 30296007.091718912 -45716179.091625214 0 -45716179.091625214 89632811.207931519 0 0 0 0 34119117.114282012 -1060470.1606369019 0 -1060470.1606369019 62068557.223976135 0 0 0 0 8620999.1536184251 23372578.391052246 0 23372578.391052246 84460518.092323303 0 0 0 0 18644113.622002602 14122734.168190002 0 14122734.168190002 65247976.676048279 0 0 0 0 7142323.5354395956 28100749.772374153 0 28100749.772374153 54290320.995574951 0 0 0 0 -4258176.8074305058 -3864774.2672462463 0 -3864774.2672462463 63920798.669944763 0 0 0 0 627216.6848557248 1084354.7829976156 0 1084354.7829976156 1899440.3482379317 0 0 0 0 8973362.1944429148 -3137725.379971087 0 -3137725.379971087 -22956580.454360962 0 0 0 0 -93302042.811992019 -12206694.880271912 0 -12206694.880271912 70709778.436660767 0 0 0 0 10373400.861564185 71951813.153477073 0 71951813.153477073 70235931.045089722 0 0 0 0 -1516422.7373905045 -8083827.1192692518 0 -8083827.1192692518 11552129.339119801 0 0 0 0 -23152153.028000176 5118981.0198326111 0 5118981.0198326111 56709286.047088623 0 0 0 0 -36364991.554201961 -42180582.428699493 0 -42180582.428699493 -17344186.472946167 0 0 0 0 -37554355.658352762 -28991293.473300934 0 -28991293.473300934 24713573.526992798 0 0 0 0 57994229.546257764 -59248236.686775208 0 -59248236.686775208 18419006.102684021 0 0 0 0 28173848.141165271 -36127847.577568054 0 -36127847.577568054 3805191.7947387695 0 0 0 0 29232454.330446213 -53543754.499977112 0 -53543754.499977112 -20781289.569007874 0 0 0 0 9390721.4947997332 -3076661.8226890564 0 -3076661.8226890564 -20513456.119544983 0 0 0 0 49914481.591097623 -22499011.371871948 0 -22499011.371871948 -12837701.743329048 0 0 0 0 40192522.811985984 -30355523.042568207 0 -30355523.042568207 -14205495.304405212 0 0 0 0 82704736.739561617 -32928663.616390228 0 -32928663.616390228 -19025759.644021988 0 0 0 0 42361354.650948077 -16911579.571853638 0 -16911579.571853638 -13652757.694869995 0 0 0 0 47071203.377050057 20839734.137261391 0 20839734.137261391 48767281.062805176 0 0 0 0 71548349.78209722 -31327551.199851036 0 -31327551.199851036 44593351.939826965 0 0 0 0 5825624.6230406463 3164205.837474823 0 3164205.837474823 50221028.332817078 0 0 0 0 4591691.3284295797 15590632.685413361 0 15590632.685413361 28052646.706642151 0 0 0 0 2186609.7585197687 -15766092.715675354 0 -15766092.715675354 81756774.295913696 0 0 0 0 3208992.704559952 -20753396.613333702 0 -20753396.613333702 9622972.9870147705 0 0 0 0 -28265600.064764261 -5495906.8517799377 0 -5495906.8517799377 47937051.159584045 0 0 0 0 -29319962.75719291 -12186263.357076645 0 -12186263.357076645 16853829.065109253 0 0 0 0 -19816486.55804944 9831220.4542236328 0 9831220.4542236328 16782542.317501068 0 0 0 0 -42523655.654018819 -5677440.6887207031 0 -5677440.6887207031 32958768.73783493 0 0 0 0 -42384928.293138146 -4484516.4427938461 0 -4484516.4427938461 8354414.0267791748 0 0 0 0 -51832978.110076368 -2596628.362953186 0 -2596628.362953186 16410381.385169983 0 0 0 0 -51182852.50710199 -20730486.647093773 0 -20730486.647093773 15288829.216163635 0 0 0 0 -47079287.081837714 -7340463.5019683838 0 -7340463.5019683838 23530959.414421082 0 0 0 0 -197116.34439493559 3021446.1022458263 0 3021446.1022458263 5579283.2482068166 0 0 0 0 -1133768.2914016056 -572915.21836049482 0 -572915.21836049482 5863970.0077225678 0 0 0 0 -691174.84170733159 -1564670.2073906837 0 -1564670.2073906837 4785264.8786573857 0 0 0 0 -9638626.3820528984 -1953916.6466064453 0 -1953916.6466064453 -7153918.3491668701 0 0 0 0 -51044179.580250263 10944033.429176331 0 10944033.429176331 485134.19189453125 0 0 0 0 -77232172.264277905 30653880.261013031 0 30653880.261013031 35013566.89491272 0 0 0 0 -11528669.965685844 16521106.01121521 0 16521106.01121521 44656757.979537964 0 0 0 0 -324884.71415021108 1922252.1870646444 0 1922252.1870646444 3150723.9044367298 0 0 0 0 10348990.119487822 45510670.741584778 0 45510670.741584778 -74182278.607643127 0 0 0 0 -24329852.140734166 30091200.603347778 0 30091200.603347778 25650812.651031494 0 0 0 0 -72279185.098751366 -28426071.683998108 0 -28426071.683998108 63135735.895774841 0 0 0 0 -41059133.248524636 24860711.737959385 0 24860711.737959385 -8046546.422958374 0 0 0 0 -421006.09440276027 946587.00210140762 0 946587.00210140762 3132422.8331507444 0 0 0 0 -36176091.854731157 1641970.5958719254 0 1641970.5958719254 -7636348.9606628418 0 0 0 0 -35895602.890601277 -1618689.1251263618 0 -1618689.1251263618 13147447.228515625 0 0 0 0 -40702673.663897865 21004110.465279579 0 21004110.465279579 19194503.179107666 0 0 0 0 -22037504.013682127 14342921.174316406 0 14342921.174316406 18934696.916595459 0 0 0 0 -23147417.995102048 14398909.070983887 0 14398909.070983887 34951233.767959595 0 0 0 0 -9025497.0499806106 22641151.723079681 0 22641151.723079681 27051368.976547241 0 0 0 0 -17691661.352601007 4173749.531627655 0 4173749.531627655 29817477.276657104 0 0 0 0 114701.93768088918 -17064.735183134675 0 -17064.735183134675 -5690.6528278961778 0 0 0 0 -22786775.075029612 7176789.6066818237 0 7176789.6066818237 -61576911.667634964 0 0 0 0 -17980392.549221456 17817275.061325073 0 17817275.061325073 50597390.591259003 0 0 0 0 -26095802.800307155 29316636.423080444 0 29316636.423080444 39794854.813308716 0 0 0 0 2602764.7001498342 13726781.611858368 0 13726781.611858368 33227784.271644592 0 0 0 0 1357847.1108882278 7387560.4250659943 0 7387560.4250659943 24847268.174552917 0 0 0 0 16734283.984629542 -16904169.541789055 0 -16904169.541789055 56161274.713386536 0 0 0 0 28289888.151200891 15106831.337524414 0 15106831.337524414 26686866.322265625 0 0 0 0 20240097.52369383 10284628.47592926 0 10284628.47592926 -1920557.8112945557 0 0 0 0 249356.96627041191 8344.3981040343642 0 8344.3981040343642 2152.0618600822054 0 0 0 0 43820755.372558594 54125606.173381805 0 54125606.173381805 -17634900.954605103 0 0 0 0 24986810.146134019 13974914.142227173 0 13974914.142227173 35809857.508449554 0 0 0 0 3660329.7022662163 74526084.024768829 0 74526084.024768829 146482651.54962921 0 0 0 0 35219280.334241629 89486788.33442688 0 89486788.33442688 142960238.06777763 0 0 0 0 68085866.310146809 45490428.005727768 0 45490428.005727768 10192485.902923584 0 0 0 0 64993453.395249128 97313498.600860596 0 97313498.600860596 124844796.99404526 0 0 0 0 54952219.521634459 109452299.78254318 0 109452299.78254318 117086276.47143555 0 0 0 0 -22889421.555981517 7994985.7337207794 0 7994985.7337207794 26185148.469062805 0 0 0 0 27082735.911854863 -13794515.54221344 0 -13794515.54221344 -52761237.90688324 0 0 0 0 -94386318.183534741 -39562238.003669739 0 -39562238.003669739 -9745580.5563049316 0 0 0 0 -53550576.32853806 1336010.4984474182 0 1336010.4984474182 -4221385.140335083 0 0 0 0 79575151.449359775 37817609.562850952 0 37817609.562850952 -60039877.942367554 0 0 0 0 35181.653053450311 -30650.502417308278 0 -30650.502417308278 753426.52236312255 0 0 0 0 86956898.019385457 131947913.03469086 0 131947913.03469086 111888371.67990112 0 0 0 0 29475699.782532454 36172937.74571228 0 36172937.74571228 -17127555.927070618 0 0 0 0 47182719.417826474 -531932.03765869141 0 -531932.03765869141 -62951638.030441284 0 0 0 0 -29706423.359330595 -32862123.718921661 0 -32862123.718921661 -59634673.026702881 0 0 0 0 82848818.856050253 -116599845.02427292 0 -116599845.02427292 131874969.06970215 0 0 0 0 1141241.0616641045 84478115.714202881 0 84478115.714202881 59708841.921131134 0 0 0 0 -541933.99627726362 -2214965.1693245741 0 -2214965.1693245741 1080300.901919011 0 0 0 0 52197013.463839769 -118262792.62467957 0 -118262792.62467957 215320860.11375427 0 0 0 0 9101347.3545122147 -46287669.368896484 0 -46287669.368896484 87819436.845184326 0 0 0 0 25279862.464945316 -90152438.418403625 0 -90152438.418403625 158908040.43624878 0 0 0 0 38153525.96573019 -78936180.968261719 0 -78936180.968261719 113396939.5322876 0 0 0 0 69103622.38838768 -96269777.840087891 0 -96269777.840087891 88687068.506652832 0 0 0 0 61559061.085221291 -62991523.948471069 0 -62991523.948471069 16472409.766937256 0 0 0 0 86092636.693447113 -84955821.053787231 0 -84955821.053787231 4376805.4053955078 0 0 0 0 80515936.60024333 -101186753.32738495 0 -101186753.32738495 35566467.41217041 0 0 0 0 -2299608.2827658453 576272.91832499113 0 576272.91832499113 9010864.0241008624 0 0 0 0 19388636.728325605 -29776668.743309021 0 -29776668.743309021 -18004659.525634766 0 0 0 0 -9786135.6154329777 -9903041.0556879044 0 -9903041.0556879044 16902066.115684509 0 0 0 0 -103743809.2859503 21077035.022766113 0 21077035.022766113 -14609630.05569458 0 0 0 0 5302.8228490372858 -249458.83522392996 0 -249458.83522392996 2361393.0278698578 0 0 0 0 -51828908.067276001 -65223637.48298645 0 -65223637.48298645 11790697.918909073 0 0 0 0 116891601.29089415 63135754.456832886 0 63135754.456832886 78331555.846891403 0 0 0 0 46380673.411531031 71541449.568891525 0 71541449.568891525 160459780.19319916 0 0 0 0 44858890.723267019 60080161.820316315 0 60080161.820316315 116604343.36196136 0 0 0 0 22185950.551537216 47470707.675552368 0 47470707.675552368 116597341.6607132 0 0 0 0 56874711.122934818 37334508.420921326 0 37334508.420921326 80176855.706614494 0 0 0 0 37894325.597601354 10222648.155008316 0 10222648.155008316 63109448.011833191 0 0 0 0 39823047.75576812 6337625.9072341919 0 6337625.9072341919 68739789.09141922 0 0 0 0 30883272.338083953 -26944444.038984299 0 -26944444.038984299 53402609.904052734 0 0 0 0 13833961.670299739 -27781709.005996704 0 -27781709.005996704 59164511.775234222 0 0 0 0 496435.4475132823 7741822.9800567627 0 7741822.9800567627 33366578.108779907 0 0 0 0 80915795.679596186 -19770979.126457214 0 -19770979.126457214 -1359735.093711853 0 0 0 0 137178.61692620162 12996.536079021171 0 12996.536079021171 10706.567176098935 0 0 0 0 79659382.763448417 107883630.39349556 0 107883630.39349556 159439521.82375336 0 0 0 0 -3512243.8036435843 37987148.80492115 0 37987148.80492115 177955950.44550323 0 0 0 0 4454949.3183801174 100243807.19289398 0 100243807.19289398 212384926.13677025 0 0 0 0 107206139.90733796 77746877.643959045 0 77746877.643959045 166541231.34308529 0 0 0 0 85314090.146330416 52764624.054328918 0 52764624.054328918 156343999.37609863 0 0 0 0 40068162.855797857 86390601.250692368 0 86390601.250692368 182473531.15931702 0 0 0 0 6589318.2496904135 66916373.849964142 0 66916373.849964142 175006354.35329151 0 0 0 0 -2796956.9247455597 55154861.797740936 0 55154861.797740936 176512749.44271278 0 0 0 0 5673759.7454371452 59918121.493320465 0 59918121.493320465 157972495.04460144 0 0 0 0 17731423.73239854 61358934.785541534 0 61358934.785541534 161268911.66616058 0 0 0 0 12411835.382396191 60373136.708976746 0 60373136.708976746 134540555.20754242 0 0 0 0 20457917.072286546 75343022.891796112 0 75343022.891796112 161177261.46250802 0 0 0 0 4947196.8767727464 72921684.904634476 0 72921684.904634476 153652774.133255 0 0 0 0 5282686.8407247365 50763476.458709717 0 50763476.458709717 121457075.977005 0 0 0 0 7037663.8462806344 55729137.731987 0 55729137.731987 135179119.01309252 0 0 0 0 25350754.792502522 52038989.930733681 0 52038989.930733681 104186725.5252533 0 0 0 0 -10122603.137483835 70152081.210708618 0 70152081.210708618 164608202.62839508 0 0 0 0 -9880950.7452529669 55144303.66973114 0 55144303.66973114 166188537.31752396 0 0 0 0 -10731800.072508872 44638494.246673584 0 44638494.246673584 175919617.07033539 0 0 0 0 -7261855.9089074135 51676195.819019318 0 51676195.819019318 137234218.42672729 0 0 0 0 -5482986.5406385064 56529715.351764679 0 56529715.351764679 147778344.19698751 0 0 0 0 -3186056.2354533076 65461523.922813416 0 65461523.922813416 147714252.87231201 0 0 0 0 -6401793.4900997877 70787725.692531586 0 70787725.692531586 158346541.72324753 0 0 0 0 -10564710.421303332 68182462.819599152 0 68182462.819599152 156725012.69373322 0 0 0 0 -7184943.6058357954 73034500.902561188 0 73034500.902561188 144778318.87129211 0 0 0 0 -9014385.752227813 73340623.304618835 0 73340623.304618835 156971830.33081055 0 0 0 0 1709481.070442915 69272691.98261261 0 69272691.98261261 140775763.08099747 0 0 0 0 -4563024.2916718125 38517082.240032196 0 38517082.240032196 168211773.87005234 0 0 0 0 -2457481.7402462363 37791388.564605713 0 37791388.564605713 101049251.17620087 0 0 0 0 5496854.9125718474 86058331.673210144 0 86058331.673210144 88598945.650302887 0 0 0 0 -6780035.7846260667 57629263.90363121 0 57629263.90363121 88268531.822509766 0 0 0 0 -4325755.6352470517 67017599.789337158 0 67017599.789337158 109790295.9630928 0 0 0 0 -3333726.7534116767 67403917.502227783 0 67403917.502227783 171191356.70028687 0 0 0 0 -8304313.0798988566 82958049.593175888 0 82958049.593175888 162327909.78172302 0 0 0 0 -12583958.171190381 69478233.905181885 0 69478233.905181885 155799326.86460114 0 0 0 0 -10441812.778459251 80239162.628929138 0 80239162.628929138 139403727.4210434 0 0 0 0 -15690757.346658647 76566795.399274826 0 76566795.399274826 149831064.63790894 0 0 0 0 -15895719.546819557 14189920.137809753 0 14189920.137809753 3209306.1289396286 0 0 0 0 10223416.988454461 4543511.8526992798 0 4543511.8526992798 3364338.8970718384 0 0 0 0 113249824.0769704 80929899.755523682 0 80929899.755523682 30595262.419830322 0 0 0 0 35722469.183735788 64401130.981170654 0 64401130.981170654 27989810.971004486 0 0 0 0 22630870.573099345 100654536.04585266 0 100654536.04585266 107410440.60804749 0 0 0 0 50733394.535027891 96020244.827590942 0 96020244.827590942 161985560.93851471 0 0 0 0 21696117.069542475 85974783.428471565 0 85974783.428471565 158543198.22297668 0 0 0 0 -45962692.800353527 -13588587.587116241 0 -13588587.587116241 10759544.781460762 0 0 0 0 148828999.26546338 143652867.62591934 0 143652867.62591934 133024868.33506775 0 0 0 0 -104620.36687179354 96577805.880649567 0 96577805.880649567 225647237.61395264 0 0 0 0 -13729.390753089727 32680.32659316482 0 32680.32659316482 144532.53431117535 0 0 0 0 50748813.010046124 125149152.96444702 0 125149152.96444702 279798657.05787659 0 0 0 0 25057737.202976495 58509960.023284912 0 58509960.023284912 224074370.17700148 0 0 0 0 69231719.004439548 52832254.521965027 0 52832254.521965027 224390750.74812317 0 0 0 0 31342007.794427171 43758048.39315033 0 43758048.39315033 284735270.20469666 0 0 0 0 27862405.430845909 28344322.483032227 0 28344322.483032227 214110072.74061692 0 0 0 0 32343415.282437623 64695133.743286133 0 64695133.743286133 214524997.11082304 0 0 0 0 11173342.924239134 65302493.213972092 0 65302493.213972092 242396203.7456665 0 0 0 0 10291138.686090574 73847434.219764709 0 73847434.219764709 174238634.71643448 0 0 0 0 20004478.277273327 38265962.059869766 0 38265962.059869766 197255127.53704834 0 0 0 0 21838711.77361013 40163258.189702988 0 40163258.189702988 194597520.09308624 0 0 0 0 32893778.759930953 31257604.523406982 0 31257604.523406982 194323640.52127671 0 0 0 0 94727.413262807575 35810921.016300201 0 35810921.016300201 209394789.81177521 0 0 0 0 -5293662.7113371491 76750914.523384094 0 76750914.523384094 160511056.89817047 0 0 0 0 -3911096.4968663156 62332166.468612671 0 62332166.468612671 171157797.06387329 0 0 0 0 -12291531.038874783 69210927.136852264 0 69210927.136852264 182548768.98002625 0 0 0 0 -324294.97120159864 63851835.11038208 0 63851835.11038208 168671578.54219055 0 0 0 0 -3127589.7009010315 63380581.47858429 0 63380581.47858429 202339948.93205261 0 0 0 0 6652941.018437326 53470616.702728271 0 53470616.702728271 181399344.07959127 0 0 0 0 16105538.980032146 35797138.950016022 0 35797138.950016022 192205363.00463867 0 0 0 0 4942834.8785248995 52787612.866622925 0 52787612.866622925 188783446.52627563 0 0 0 0 16002651.804799467 48687021.033550262 0 48687021.033550262 177234153.71797943 0 0 0 0 -5063793.6051233411 62965635.446216583 0 62965635.446216583 180195235.09906006 0 0 0 0 -5844966.6237846315 54447299.92952919 0 54447299.92952919 193971980.11881256 0 0 0 0 285542.35844412446 14961723.989688873 0 14961723.989688873 300766741.76650238 0 0 0 0 87701.957982821579 58375.343549603596 0 58375.343549603596 80015.023318272084 0 0 0 0 1391543.999037005 886749.49870681763 0 886749.49870681763 164974901.70262146 0 0 0 0 -1843157.5880371034 9312808.0726509094 0 9312808.0726509094 151673592.07027817 0 0 0 0 22123949.409226868 25518183.649013519 0 25518183.649013519 195120752.05963135 0 0 0 0 19753381.091995515 40760415.002902985 0 40760415.002902985 198802487.43598175 0 0 0 0 44220544.467990726 48922454.193202972 0 48922454.193202972 200846422.64984894 0 0 0 0 35657886.355088882 28552976.398456573 0 28552976.398456573 194383198.62525368 0 0 0 0 -37777.314943127341 7971950.9010429382 0 7971950.9010429382 182760996.79567337 0 0 0 0 26706814.66325058 80303919.2878685 0 80303919.2878685 106946519.09141922 0 0 0 0 46809549.871806391 31770902.086811066 0 31770902.086811066 3908983.8407745361 0 0 0 0 25462459.588678658 -5484864.0297393799 0 -5484864.0297393799 -10650245.204841614 0 0 0 0 -25632.774931899297 -761.14239338971674 0 -761.14239338971674 55839.778416392393 0 0 0 0 -7599661.792004386 8090379.401725769 0 8090379.401725769 60822884.594848633 0 0 0 0 56402.590737545062 3294054.1883392334 0 3294054.1883392334 10433306.539875031 0 0 0 0 245061.59852473153 163869.16911124438 0 163869.16911124438 206638.74636786617 0 0 0 0 1399593.2785049677 -489931.76134109497 0 -489931.76134109497 589831.78262329102 0 0 0 0 -7952905.3682152182 4570655.8306770325 0 4570655.8306770325 -1689907.3367004395 0 0 0 0 22003175.120346144 7153873.0923233032 0 7153873.0923233032 -14988958.331611633 0 0 0 0 -10441710.191661697 2030463.5264034271 0 2030463.5264034271 11917431.826385498 0 0 0 0 -3472112.1324657202 7887236.7913169861 0 7887236.7913169861 26124146.873703003 0 0 0 0 -7237549.5885205865 -7335890.6470832825 0 -7335890.6470832825 7632365.7836322784 0 0 0 0 -903151.27253026236 432857.76847839355 0 432857.76847839355 3221099.7322006226 0 0 0 0 -7139934.3176562786 -3740312.3863983154 0 -3740312.3863983154 -156363.23896789551 0 0 0 0 547973.4112983346 149584.52388000488 0 149584.52388000488 823855.40740966797 0 0 0 0 -86903.124076000662 26945.363485004753 0 26945.363485004753 189807.2279100623 0 0 0 0 -288677.15684297308 184340.79590606689 0 184340.79590606689 2874494.1200256348 0 0 0 0 -134046.83629031017 132319.02226526104 0 132319.02226526104 409589.36413306557 0 0 0 0 -3607472.0038353205 -11984815.951873779 0 -11984815.951873779 -21272109.950408936 0 0 0 0 -615171.81949430704 1512452.0692405701 0 1512452.0692405701 2195633.1242141724 0 0 0 0 8270819.8847931623 13763876.092525482 0 13763876.092525482 57461244.105602264 0 0 0 0 578570.75616312027 279724.31457519531 0 279724.31457519531 980558.9680480957 0 0 0 0 357577.02518465137 260865.45154288597 0 260865.45154288597 344577.11654797941 0 0 0 0 -3221927.0820632577 10827331.873004913 0 10827331.873004913 74108676.605148315 0 0 0 0 -11483713.863019228 -1351542.1688995361 0 -1351542.1688995361 -11850300.13092041 0 0 0 0 -145282.20339568678 -261975.25740648061 0 -261975.25740648061 534831.17235094402 0 0 0 0 656.33103883266449 -967.453369140625 0 -967.453369140625 90325.740600585938 0 0 0 0 -161454.88062160864 225.90012535080314 0 225.90012535080314 396398.55193084478 0 0 0 0 -1600747.50816679 -16202619.039932251 0 -16202619.039932251 -21653926.083694458 0 0 0 0 -10164952.914213836 -9444225.1327552795 0 -9444225.1327552795 -21934562.111206055 0 0 0 0 -3849691.3093891144 -7755647.9153747559 0 -7755647.9153747559 -23631596.498565674 0 0 0 0 -3995339.0961105824 -15838038.873275757 0 -15838038.873275757 -21586717.290405273 0 0 0 0 -9248070.1608809233 -6810539.6614608765 0 -6810539.6614608765 -20926878.679016113 0 0 0 0 -353246.18491519854 -434550.14931516349 0 -434550.14931516349 635850.63953724131 0 0 0 0 -7363914.127155304 -9317021.5984954834 0 -9317021.5984954834 -24062748.256622314 0 0 0 0 -2141182.0370012522 -11994722.848800659 0 -11994722.848800659 -21992983.286445618 0 0 0 0 -488675.23139798641 -13350932.976600647 0 -13350932.976600647 -22728782.840362549 0 0 0 0 -3873030.0112681389 -15128302.909370422 0 -15128302.909370422 -18597877.14239502 0 0 0 0 3963483.6306937933 -14289296.238586426 0 -14289296.238586426 -23032094.191604614 0 0 0 0 5898587.9832706451 4612671.5398406982 0 4612671.5398406982 -48079518.061878204 0 0 0 0 3881934.9210374355 -16847630.879653931 0 -16847630.879653931 -21048190.564758301 0 0 0 0 10625611.691251516 -4520611.6328430176 0 -4520611.6328430176 -48951163.828132629 0 0 0 0 -387532.30258018087 -319450.90746286698 0 -319450.90746286698 398425.79702030867 0 0 0 0 832341.2332713604 -6944042.9852218628 0 -6944042.9852218628 -30961904.413162231 0 0 0 0 9132809.4551501274 -10817323.998600006 0 -10817323.998600006 -35422540.463806152 0 0 0 0 1942370.2697626352 -916530.97453308105 0 -916530.97453308105 -37642199.522663116 0 0 0 0 -12281322.902914762 2438123.6938171387 0 2438123.6938171387 -22247710.171890259 0 0 0 0 -2040887.9154219627 -4256293.3862609863 0 -4256293.3862609863 -27700178.613037109 0 0 0 0 -5612601.2766313553 746304.47045898438 0 746304.47045898438 -33628767.015060425 0 0 0 0 -10676205.943881035 6105368.9975585938 0 6105368.9975585938 -29789649.785583496 0 0 0 0 2741877.5285310894 -6101327.1721839905 0 -6101327.1721839905 -30692955.947357178 0 0 0 0 3317709.8125546873 -13610467.829017639 0 -13610467.829017639 -39752396.183692932 0 0 0 0 4544325.7210415006 -6119471.1192321777 0 -6119471.1192321777 -29017846.122570038 0 0 0 0 649712.17810891569 -2748295.2870841026 0 -2748295.2870841026 962072.15539550781 0 0 0 0 1045704.4067563415 2203856.6345252991 0 2203856.6345252991 1260126.2762832642 0 0 0 0 -929978.18244969845 1880905.4596633911 0 1880905.4596633911 1503095.2669181824 0 0 0 0 1204754.4472568035 242941.19955444336 0 242941.19955444336 -745896.28379440308 0 0 0 0 548501.30667588697 -202320.57708730549 0 -202320.57708730549 278727.21538857557 0 0 0 0 -104752.53052937984 222413.33354949951 0 222413.33354949951 266034.14623260498 0 0 0 0 223681.98433868098 -66260.866222240031 0 -66260.866222240031 589107.65741594136 0 0 0 0 144452.74311375426 87720.30082009919 0 87720.30082009919 30919.570209659636 0 0 0 0 2132899.6133002043 -1435000.6072540283 0 -1435000.6072540283 46563748.628822327 0 0 0 0 -5856520.4992209077 25013258.872520447 0 25013258.872520447 104603003.77406311 0 0 0 0 9590199.8644907475 31942882.355773926 0 31942882.355773926 58446189.86041832 0 0 0 0 7872356.6201592684 34589827.556604385 0 34589827.556604385 97043946.193244934 0 0 0 0 11881240.113220215 31538942.137214661 0 31538942.137214661 95786184.134906769 0 0 0 0 40473.587654565752 23065.598218796775 0 23065.598218796775 21318.558999225497 0 0 0 0 8350178.5952635407 29784197.815979004 0 29784197.815979004 99178311.374267578 0 0 0 0 12717251.551872462 33204442.113033295 0 33204442.113033295 98781551.400939941 0 0 0 0 9524039.2980425358 31965745.508377075 0 31965745.508377075 102994937.7064085 0 0 0 0 -1311657.1483995318 32766997.317695618 0 32766997.317695618 103820043.4997406 0 0 0 0 -12179.387675642967 39025109.65162468 0 39025109.65162468 121308117.8914032 0 0 0 0 -11202928.007834643 30939149.363616943 0 30939149.363616943 115868668.51225281 0 0 0 0 -9622070.7914381027 38245542.343494415 0 38245542.343494415 138009096.32286644 0 0 0 0 -13871257.096779466 36620680.240600586 0 36620680.240600586 163993429.33294678 0 0 0 0 -10175442.06024316 47673430.929349899 0 47673430.929349899 143393149.51029205 0 0 0 0 -4632343.0322623849 -907009.31681442261 0 -907009.31681442261 114573307.7959137 0 0 0 0 2174481.7398604751 -409841.18189239502 0 -409841.18189239502 71447363.790412903 0 0 0 0 -5114853.6496108174 16362477.914958954 0 16362477.914958954 122059359.64082336 0 0 0 0 -1288339.7896236181 19108087.274475098 0 19108087.274475098 73354902.739058495 0 0 0 0 5747215.7480754852 -2637473.6341986656 0 -2637473.6341986656 -197163376.68422699 0 0 0 0 -48195925.639293671 30268161.811038971 0 30268161.811038971 36812298.557470322 0 0 0 0 -397724.18497168185 -652205.74902621703 0 -652205.74902621703 1196572.1197845233 0 0 0 0 -172689268.65199804 -57726126.774261475 0 -57726126.774261475 -41075323.131316185 0 0 0 0 -109663681.08984131 -189068374.16671133 0 -189068374.16671133 -127484170.77497864 0 0 0 0 15708864.461559772 -24205292.468345642 0 -24205292.468345642 -66136993.973968506 0 0 0 0 -17151359.807700634 -20635869.434675217 0 -20635869.434675217 -43069704.123027802 0 0 0 0 -25137597.476893768 -95462000.539121866 0 -95462000.539121866 -66852843.44903183 0 0 0 0 38968287.642409086 -93509905.287416458 0 -93509905.287416458 -106560809.93897629 0 0 0 0 44203031.234220743 -48503174.742424011 0 -48503174.742424011 -44227558.060590744 0 0 0 0 4255988.9859418869 -43824656.640956879 0 -43824656.640956879 -18337681.930717468 0 0 0 0 25617388.775502205 -4010169.147480011 0 -4010169.147480011 7203344.7115974426 0 0 0 0 -1490026.5065376759 -2612897.3058989048 0 -2612897.3058989048 42356594.957109451 0 0 0 0 21062145.127023697 -32155395.49719429 0 -32155395.49719429 -55772163.413246155 0 0 0 0 -11627063.002693176 -116794556.50775957 0 -116794556.50775957 -49800779.897731304 0 0 0 0 319950368.6126709 58141855.173625946 0 58141855.173625946 -155956568.3353014 0 0 0 0 55951055.825325012 50035752.267421722 0 50035752.267421722 38880359.303779602 0 0 0 0 63252554.310183883 14920286.584957004 0 14920286.584957004 -20088829.99092865 0 0 0 0 94019018.812522888 49777082.472833157 0 49777082.472833157 17475669.912432671 0 0 0 0 -447148.91294843797 1174811.3996831139 0 1174811.3996831139 730163.08166530821 0 0 0 0 179744188.86718941 34202727.52158165 0 34202727.52158165 -75630736.445465088 0 0 0 0 74606875.199626923 42830682.648966789 0 42830682.648966789 -91722563.834747791 0 0 0 0 -105896920.49232674 -166448578.0901866 0 -166448578.0901866 1140096.3717041016 0 0 0 0 33680313.312320709 2592700.8450994492 0 2592700.8450994492 -21532091.81542027 0 0 0 0 2305916.57970047 -64390049.254137516 0 -64390049.254137516 -133890628.85735822 0 0 0 0 438646.25608699257 -1692893.6777229346 0 -1692893.6777229346 2447071.3000961873 0 0 0 0 -825134.43003441254 191685.33929613535 0 191685.33929613535 986386.33814792195 0 0 0 0 1513291.3009514809 41109579.082905293 0 41109579.082905293 12819064.866346501 0 0 0 0 85136261.771101832 -55331096.054745674 0 -55331096.054745674 13418425.181197166 0 0 0 0 -77998.665405305335 -1423144.786060309 0 -1423144.786060309 2166946.8396893572 0 0 0 0 -46128526.186686516 -199939622.13184023 0 -199939622.13184023 -177404961.82187653 0 0 0 0 53839878.882344067 83770061.444257736 0 83770061.444257736 55603471.905455589 0 0 0 0 141698838.46181822 147477187.88586712 0 147477187.88586712 101161539.62959862 0 0 0 0 125807306.14484835 61702309.508765697 0 61702309.508765697 38508420.273892403 0 0 0 0 205732346.2866776 185179267.83147621 0 185179267.83147621 84004156.293779969 0 0 0 0 196423280.83259583 -25629456.113307953 0 -25629456.113307953 21703676.627284527 0 0 0 0 313930490.12181187 220096712.14956665 0 220096712.14956665 -5070877.6050658822 0 0 0 0 -212478798.04478365 20619078.805918694 0 20619078.805918694 198138945.50079536 0 0 0 0 257698581.40052509 368035950.50410271 0 368035950.50410271 348457181.14301682 0 0 0 0 -260956018.2837522 747630886.03695083 0 747630886.03695083 -1037943146.7297726 0 0 0 0 -14914.925769107416 -293980.88415752444 0 -293980.88415752444 897971.42990299501 0 0 0 0 -226135232.51520157 152712893.10089874 0 152712893.10089874 46287412.915180206 0 0 0 0 -29297349.574432373 51075216.247428894 0 51075216.247428894 638537780.31660271 0 0 0 0 164545666.06896019 -662020334.06736088 0 -662020334.06736088 1827780841.8717957 0 0 0 0 185487947.51448727 -358528846.38927364 0 -358528846.38927364 306330941.09077644 0 0 0 0 110054924.0908868 27033367.582048506 0 27033367.582048506 -187634379.37252045 0 0 0 0 95345288.88417244 -237270428.07767487 0 -237270428.07767487 247549619.27364445 0 0 0 0 129367982.37281179 62700102.132347107 0 62700102.132347107 15310188.109540939 0 0 0 0 149245125.00557041 37646220.429728508 0 37646220.429728508 -28525763.638923645 0 0 0 0 153738283.25210285 88747437.871891022 0 88747437.871891022 -48456233.89220047 0 0 0 0 -838123.1757201741 -189379.11358692963 0 -189379.11358692963 1425428.1099105692 0 0 0 0 210243829.10712481 98397138.430570602 0 98397138.430570602 -18243128.669248581 0 0 0 0 405333.22341935674 4148898.0266065244 0 4148898.0266065244 13594586.148723431 0 0 0 0 -35892789.4241786 26107171.939611435 0 26107171.939611435 -9007858.070356369 0 0 0 0 -40167351.248066425 32284481.31044507 0 32284481.31044507 9306469.5332317352 0 0 0 0 -17337231.080622673 46686111.600744724 0 46686111.600744724 4863206.0028400421 0 0 0 0 -10866802.046993256 124664231.61901569 0 124664231.61901569 -93069258.614364624 0 0 0 0 -25809284.388389587 66707391.267127991 0 66707391.267127991 -41974024.427268982 0 0 0 0 20288.997787817847 1579508.3859783532 0 1579508.3859783532 514551.96004708298 0 0 0 0 13639885.727991104 3030624.3057136536 0 3030624.3057136536 -219914.01797866821 0 0 0 0 56293126.178197861 75370378.216767311 0 75370378.216767311 -57512091.961733818 0 0 0 0 52927788.956665993 31998557.596758842 0 31998557.596758842 -35567098.804954648 0 0 0 0 -31706334.08308804 8938404.4364013672 0 8938404.4364013672 20022486.427055359 0 0 0 0 1068953.9150378723 5051669.0871504862 0 5051669.0871504862 14310838.588938508 0 0 0 0 -29159166.962679744 631478.25717926025 0 631478.25717926025 24128056.805519104 0 0 0 0 -21064872.639643431 -6433850.5156908035 0 -6433850.5156908035 26947709.881011963 0 0 0 0 -17184535.276949883 4467766.2479820251 0 4467766.2479820251 12017884.974697113 0 0 0 0 -1013843.4379692241 6628564.5668733949 0 6628564.5668733949 2691627.7793077361 0 0 0 0 201988185.83637047 -120466759.4034214 0 -120466759.4034214 -110543226.81723785 0 0 0 0 -7965193.7022800446 30686123.252652168 0 30686123.252652168 17394131.271422386 0 0 0 0 -3717468.1508294344 21735640.45240593 0 21735640.45240593 24387570.85307312 0 0 0 0 2590909.8562623719 4799867.0378440572 0 4799867.0378440572 11403697.849595364 0 0 0 0 -16025905.138053894 17665001.637776375 0 17665001.637776375 -85827580.478662968 0 0 0 0 53296091.595448494 130426870.81703568 0 130426870.81703568 49043728.37925005 0 0 0 0 -1359428.7685068501 5488788.8976316936 0 5488788.8976316936 4973775.6323206592 0 0 0 0 1311170.0925216675 -1935206.7585792542 0 -1935206.7585792542 14233803.232206345 0 0 0 0 -9079668.2965042591 -13872889.063499451 0 -13872889.063499451 20347299.975997925 0 0 0 0 -23252252.42495203 -11510740.635028839 0 -11510740.635028839 21681072.655250549 0 0 0 0 268751408.33251953 210086162.96920013 0 210086162.96920013 50984779.742528915 0 0 0 0 6818313.1623010635 -225948297.84482956 0 -225948297.84482956 -224025049.63212585 0 0 0 0 431877752.92521667 116554981.69189835 0 116554981.69189835 -59478968.32182312 0 0 0 0 390351396.61878204 -19460011.422857285 0 -19460011.422857285 3064136.699256897 0 0 0 0 149932409.46375656 -7927019.045671463 0 -7927019.045671463 73870764.368286133 0 0 0 0 406870800.90920448 -262776354.37692642 0 -262776354.37692642 157574712.24942017 0 0 0 0 556797427.44120026 -93439792.036140442 0 -93439792.036140442 -26711569.923782349 0 0 0 0 141865263.84288025 15873788.205076218 0 15873788.205076218 1532067.5648574829 0 0 0 0 341483778.42328644 134006861.23324394 0 134006861.23324394 -16956158.530851364 0 0 0 0 177268967.72663832 63221390.131302834 0 63221390.131302834 -22169392.130870819 0 0 0 0 -74875853.829565525 -72256748.773376465 0 -72256748.773376465 55771119.998920441 0 0 0 0 56060768.268098831 269990898.8858099 0 269990898.8858099 -165241314.42756647 0 0 0 0 -42527570.694101334 -97123688.921367645 0 -97123688.921367645 -28256454.98903656 0 0 0 0 -526059.48531283578 -85094.078158524353 0 -85094.078158524353 804557.07056821836 0 0 0 0 135089465.39863205 24327171.247495651 0 24327171.247495651 2907943.5245761871 0 0 0 0 -42973784.73724556 36910757.440057755 0 36910757.440057755 24616634.715702057 0 0 0 0 -3286880.046415329 -20757793.564300537 0 -20757793.564300537 -106123568.45036507 0 0 0 0 3950325.3514385223 -6319760.3989276886 0 -6319760.3989276886 30164473.444834232 0 0 0 0 41067478.162582397 -91360988.459402084 0 -91360988.459402084 15872139.353908539 0 0 0 0 39040243.604906201 -25248949.03118217 0 -25248949.03118217 9260579.5458984375 0 0 0 0 36140738.623903275 -62595866.964794159 0 -62595866.964794159 164895542.02510071 0 0 0 0 -1416749.76533808 2074888.0008451445 0 2074888.0008451445 3189211.3003620431 0 0 0 0 83839305.275712967 60225564.95627594 0 60225564.95627594 -99042605.870422363 0 0 0 0 -16074579.621356964 16804136.385642052 0 16804136.385642052 -65353837.530037642 0 0 0 0 119311191.90207171 44894797.331513405 0 44894797.331513405 -17700935.894393921 0 0 0 0 4633115.1531381607 -8018386.9643774033 0 -8018386.9643774033 -89194168.082434773 0 0 0 0 -893208.72121524811 -32294137.114964485 0 -32294137.114964485 -70632755.03294754 0 0 0 0 128224933.74310684 21759262.855010033 0 21759262.855010033 -89128511.296333313 0 0 0 0 163372705.45998335 -32934676.080068707 0 -32934676.080068707 -136732138.37133789 0 0 0 0 159698198.52447218 50840677.702982068 0 50840677.702982068 -178188810.95306396 0 0 0 0 131128680.91347313 -79881424.47580719 0 -79881424.47580719 -197726746.23064041 0 0 0 0 306038750.52180004 -63004071.973669052 0 -63004071.973669052 -220038278.02112579 0 0 0 0 -59246948.334445953 -127071310.92978668 0 -127071310.92978668 510148089.33720398 0 0 0 0 471216292.29590416 199126665.67246628 0 199126665.67246628 -142509744.63851929 0 0 0 0 19836606.513591766 137621051.54823303 0 137621051.54823303 66932795.024436951 0 0 0 0 43610834.356180668 -126695197.81381226 0 -126695197.81381226 -151344228.89515686 0 0 0 0 181389780.49965191 -129567306.7320137 0 -129567306.7320137 -253739795.93319511 0 0 0 0 121909905.07767296 -66066939.665588379 0 -66066939.665588379 -104954987.84255219 0 0 0 0 38396533.688261449 -55678373.674690247 0 -55678373.674690247 -40960463.85490799 0 0 0 0 75803622.697992802 -71021662.910072327 0 -71021662.910072327 -103808642.40585375 0 0 0 0 102791216.95017862 -26967783.436662674 0 -26967783.436662674 -44499583.475646973 0 0 0 0 61258582.646867707 -34288314.369688511 0 -34288314.369688511 -24938449.868652344 0 0 0 0 65064465.345689297 -44691574.633905411 0 -44691574.633905411 -50924555.532463074 0 0 0 0 48066424.538496792 -39974909.397846222 0 -39974909.397846222 2532047.3343162537 0 0 0 0 48406224.654128075 -37949680.12893486 0 -37949680.12893486 11799867.846027374 0 0 0 0 61738089.652479172 -27330221.656848907 0 -27330221.656848907 -14187081.940500259 0 0 0 0 82116756.667396069 -15304206.502596855 0 -15304206.502596855 -7116517.6933135986 0 0 0 0 72059469.221179962 4908155.3907001019 0 4908155.3907001019 30634069.914115906 0 0 0 0 34266411.979900837 -15631404.221063614 0 -15631404.221063614 20909323.18417263 0 0 0 0 2536755.9618666503 2256093.9720644169 0 2256093.9720644169 4391033.3696440868 0 0 0 0 2531221.8472052813 -919495.11185836792 0 -919495.11185836792 881805.08633422852 0 0 0 0 42377368.016453028 -34701517.168045998 0 -34701517.168045998 22692036.119255066 0 0 0 0 33217226.810925961 -21731516.652612686 0 -21731516.652612686 9330774.2568054199 0 0 0 0 2256963.4970188141 -16926196.960517883 0 -16926196.960517883 14681401.499654293 0 0 0 0 -187180.6378825318 1354938.7880646037 0 1354938.7880646037 1284762.4627005011 0 0 0 0 -16985224.408311844 -20776330.157814026 0 -20776330.157814026 14835368.148078918 0 0 0 0 -25157151.396477818 -9327280.4013824463 0 -9327280.4013824463 14941208.353223801 0 0 0 0 2626577.5724232197 -1474490.6652603149 0 -1474490.6652603149 757235.34609985352 0 0 0 0 -180334.82553679694 -48898.531690638047 0 -48898.531690638047 9650545.7669577301 0 0 0 0 26828485.12996304 111282668.32883453 0 111282668.32883453 51071215.498054504 0 0 0 0 72071834.873310089 -47706876.652677536 0 -47706876.652677536 22512207.894432068 0 0 0 0 160639298.16838551 -137148407.00753021 0 -137148407.00753021 -20990501.04199791 0 0 0 0 154316197.10136271 35182940.397590637 0 35182940.397590637 4913487.0444946289 0 0 0 0 30565328.801961899 81284988.729118347 0 81284988.729118347 98157540.893692017 0 0 0 0 -16959536.541156769 23206630.95388031 0 23206630.95388031 124842715.23188019 0 0 0 0 -9835380.9135804176 -9827305.872833252 0 -9827305.872833252 1152540.3292236328 0 0 0 0 10284770.480288982 -112363192.09036255 0 -112363192.09036255 1267031.2745056152 0 0 0 0 -1751670.3693697453 -12198790.981712341 0 -12198790.981712341 -8330125.2274932861 0 0 0 0 118576.87910449161 -1408446.6040686052 0 -1408446.6040686052 7726232.7927204706 0 0 0 0 -14255904.129353762 -27942407.57862854 0 -27942407.57862854 -36050662.957221985 0 0 0 0 -133366.39672951799 -67126.041606256738 0 -67126.041606256738 203719.96873921808 0 0 0 0 -24231079.837413311 47236885.864849091 0 47236885.864849091 -10386192.127563477 0 0 0 0 10215092.35054493 37674151.727752686 0 37674151.727752686 -11296584.505310059 0 0 0 0 -38348224.879491806 23631579.870727539 0 23631579.870727539 5906352.0070800781 0 0 0 0 -14589056.700963974 11753419.511066437 0 11753419.511066437 2526218.1873931885 0 0 0 0 6782104.5572674721 -4498265.1457595825 0 -4498265.1457595825 -9855430.0702562332 0 0 0 0 1269790.7292450666 -1711568.9074873924 0 -1711568.9074873924 789792.88251495361 0 0 0 0 5019041.055634737 -1909657.5444469452 0 -1909657.5444469452 -4088688.6912498474 0 0 0 0 5665686.9906070232 7913267.2614707947 0 7913267.2614707947 16125567.427963257 0 0 0 0 8600140.3217842579 2630374.8514938354 0 2630374.8514938354 4615038.3541107178 0 0 0 0 11466473.201966345 6040955.5358738899 0 6040955.5358738899 -657659.78141021729 0 0 0 0 9234003.801176155 -4282270.321808815 0 -4282270.321808815 -11731786.583053589 0 0 0 0 13330212.64476788 -10475205.607481003 0 -10475205.607481003 -13100762.51725769 0 0 0 0 26262321.147408903 14789102.595863342 0 14789102.595863342 -2743217.3609085083 0 0 0 0 -2789681.7731573582 -4179739.6945648193 0 -4179739.6945648193 1366098.1465072632 0 0 0 0 1767047.9251016378 -18667963.068904877 0 -18667963.068904877 -43206377.305374146 0 0 0 0 -10439886.645627499 -7113419.8992538452 0 -7113419.8992538452 -9853098.1144714355 0 0 0 0 -14268074.72930944 -28065247.154510498 0 -28065247.154510498 -30728830.011138916 0 0 0 0 -24607416.355024099 -45945902.295349121 0 -45945902.295349121 -44633139.793136597 0 0 0 0 476089.99874147924 -182956.80609974638 0 -182956.80609974638 -555902.00116943941 0 0 0 0 3088631.7522714757 2368491.4602001496 0 2368491.4602001496 1762135.1364796571 0 0 0 0 10788988.823160887 -4616815.8012733459 0 -4616815.8012733459 24293053.864372253 0 0 0 0 7020184.7107343674 1760672.4713935852 0 1760672.4713935852 409981.54086351395 0 0 0 0 4485753.3451592922 3415244.1219873428 0 3415244.1219873428 3351720.2227630615 0 0 0 0 -199487.34440852934 224133.68073646724 0 224133.68073646724 1525320.40283377 0 0 0 0 7190925.8378405571 6679999.6091804504 0 6679999.6091804504 5158791.4885749817 0 0 0 0 34259830.610181808 -36799586.288757324 0 -36799586.288757324 29788993.147750854 0 0 0 0 1561810.5853849223 1585492.9027719288 0 1585492.9027719288 883606.5161808487 0 0 0 0 99608964.207611561 72340778.284706116 0 72340778.284706116 57676061.594795227 0 0 0 0 146133278.26653719 146411419.3771286 0 146411419.3771286 83114577.893276215 0 0 0 0 -183890.96976295783 -655454.27662635688 0 -655454.27662635688 1927925.7360265469 0 0 0 0 130080423.35953617 -274037.95283508301 0 -274037.95283508301 3462988.6345405579 0 0 0 0 477659545.23567963 147805875.01496506 0 147805875.01496506 171827673.28290558 0 0 0 0 474312290.00671864 190005834.73616028 0 190005834.73616028 30231913.946367264 0 0 0 0 -452594.82698668609 1288385.3051569131 0 1288385.3051569131 723074.11445662379 0 0 0 0 269750088.3029331 201685825.98686123 0 201685825.98686123 107670893.99340057 0 0 0 0 146108581.04081535 -47090670.714703083 0 -47090670.714703083 341448917.08424377 0 0 0 0 -262839.95813967357 -422470.78681340348 0 -422470.78681340348 867539.47427333985 0 0 0 0 23464355.949239492 -101170167.15937424 0 -101170167.15937424 200922262.95721245 0 0 0 0 23179179.602027655 -16178889.268165588 0 -16178889.268165588 28345024.790721893 0 0 0 0 18225966.569527686 -21887095.352950096 0 -21887095.352950096 21918965.743865967 0 0 0 0 26633692.351896286 -38082690.269617081 0 -38082690.269617081 58927742.679954529 0 0 0 0 67557947.30313158 -61842073.4025383 0 -61842073.4025383 25825095.084648132 0 0 0 0 86299884.412778616 -27563283.34828186 0 -27563283.34828186 -10544464.263496399 0 0 0 0 247667792.32371235 -138767265.62888336 0 -138767265.62888336 -4664683.0366668701 0 0 0 0 291012428.05747747 -34867240.566643715 0 -34867240.566643715 -95079491.458808899 0 0 0 0 170321682.65768957 48193330.004386902 0 48193330.004386902 -115192163.91740799 0 0 0 0 138684999.34714508 -59995872.065042496 0 -59995872.065042496 -20663688.764772415 0 0 0 0 67791016.476996422 62287906.44569397 0 62287906.44569397 25543105.716295719 0 0 0 0 115065296.22026348 71513911.758660316 0 71513911.758660316 -33402145.9355793 0 0 0 0 63519223.320964932 -6548477.2852905989 0 -6548477.2852905989 -9915427.5254440308 0 0 0 0 44606348.531829357 -46782338.727935791 0 -46782338.727935791 -4224801.455904007 0 0 0 0 56414567.435441494 -24593051.638669968 0 -24593051.638669968 -6176690.6163692474 0 0 0 0 8517990.6014414877 -45861785.826607227 0 -45861785.826607227 -15048931.687133789 0 0 0 0 46459680.142992496 -15851337.471105576 0 -15851337.471105576 -9249167.968132019 0 0 0 0 218100830.58863115 277712763.73844767 0 277712763.73844767 257120157.69797897 0 0 0 0 37378419.579794884 -82029179.060943604 0 -82029179.060943604 446002615.27782297 0 0 0 0 -60399323.199638367 129776434.79173183 0 129776434.79173183 417957978.79232597 0 0 0 0 -780739.79809726449 2106648.2811582959 0 2106648.2811582959 1310598.2842191476 0 0 0 0 87853058.490365982 258704880.95713043 0 258704880.95713043 4943144.9745483398 0 0 0 0 1566341.1776930345 94685.96450420469 0 94685.96450420469 -73345.857075436041 0 0 0 0 90113984.391825616 288992518.74580079 0 288992518.74580079 -160128279.87748337 0 0 0 0 -213033243.77310181 91643213.037641525 0 91643213.037641525 83145036.127719879 0 0 0 0 145289956.97804794 120609645.30029154 0 120609645.30029154 -211874127.28348923 0 0 0 0 419925214.90700603 270606472.03567672 0 270606472.03567672 19835394.15870285 0 0 0 0 146387473.58879662 85315601.684762955 0 85315601.684762955 -35830942.98555851 0 0 0 0 30549022.380665779 120367585.39903641 0 120367585.39903641 228370850.0786171 0 0 0 0 104952179.70313072 55750689.457958221 0 55750689.457958221 225770224.14055252 0 0 0 0 3923128.9648551941 29311006.11485672 0 29311006.11485672 30558052.667272568 0 0 0 0 -121853229.20014763 80459728.693312645 0 80459728.693312645 136192725.54709244 0 0 0 0 19234880.253726959 -47557250.068985462 0 -47557250.068985462 74736579.571874619 0 0 0 0 -106309235.42266464 87711670.444835663 0 87711670.444835663 -60761392.958333969 0 0 0 0 2375004.1156190895 -540406.18570352439 0 -540406.18570352439 2278619.1998130418 0 0 0 0 -234850993.30409431 242613026.55817032 0 242613026.55817032 -38939904.020859003 0 0 0 0 -3759387.5410337653 -3602597.0865965998 0 -3602597.0865965998 13241951.468464101 0 0 0 0 -11333226.240028381 -34492992.090044022 0 -34492992.090044022 26960060.235259056 0 0 0 0 -42922593.654898405 -77146316.177658081 0 -77146316.177658081 -36458165.958600998 0 0 0 0 -169857685.80736256 -101342340.68981934 0 -101342340.68981934 -38225957.027370453 0 0 0 0 -5093588.9161034664 -4662236.7695189947 0 -4662236.7695189947 36073251.707222499 0 0 0 0 -35103807.438495636 -32525025.28379631 0 -32525025.28379631 46905610.653234482 0 0 0 0 -9101586.1989517212 -12240295.323821068 0 -12240295.323821068 31354896.046071053 0 0 0 0 -40958102.871353149 373276.2455291748 0 373276.2455291748 65512670.021812439 0 0 0 0 -48183334.898544312 17769796.659727097 0 17769796.659727097 50542275.508571625 0 0 0 0 -34788347.38290596 26611484.374518871 0 26611484.374518871 26168889.207077026 0 0 0 0 -3675812.373448845 654454.65912924986 0 654454.65912924986 9537141.9981792346 0 0 0 0 -34327190.946777821 -14871605.958045483 0 -14871605.958045483 115600877.65027809 0 0 0 0 -15858494.348014832 41876219.598945618 0 41876219.598945618 71403371.014383793 0 0 0 0 -16039777.560426712 48577087.268785477 0 48577087.268785477 212951811.00971889 0 0 0 0 10125677.538955688 -6208129.5693254471 0 -6208129.5693254471 72853830.83590126 0 0 0 0 35376821.62417984 -47011626.544567108 0 -47011626.544567108 127762399.02367783 0 0 0 0 -9094885.4378499985 7009679.8879966736 0 7009679.8879966736 12451063.613993645 0 0 0 0 -1906014.8391851988 -4953696.674276311 0 -4953696.674276311 1260328.0003907233 0 0 0 0 45236384.294321537 2486329.4937591553 0 2486329.4937591553 -27709312.199996948 0 0 0 0 -16591816.160447657 -25064447.226716995 0 -25064447.226716995 84844699.63494873 0 0 0 0 -12209249.941584826 -879349.40251922607 0 -879349.40251922607 54135443.499252319 0 0 0 0 9718921.31042099 -57327941.792410374 0 -57327941.792410374 101805670.13348389 0 0 0 0 -21155723.922544956 -20960238.548019409 0 -20960238.548019409 140235758.07698059 0 0 0 0 -26656634.558852196 -24294304.539585114 0 -24294304.539585114 170384104.06987 0 0 0 0 -18679245.187772751 -2461363.5440292358 0 -2461363.5440292358 95385438.071136475 0 0 0 0 8652492.2533481121 13660045.99079895 0 13660045.99079895 79883362.344657898 0 0 0 0 -23304562.508927822 -3417369.2573318481 0 -3417369.2573318481 128741895.85838318 0 0 0 0 7143383.475496769 -24802865.592502594 0 -24802865.592502594 12376750.580863953 0 0 0 0 5245751.3163795471 -9582534.3291778564 0 -9582534.3291778564 4009074.7632846832 0 0 0 0 -2842896.9151855391 -5833198.1974477088 0 -5833198.1974477088 3915274.618866086 0 0 0 0 3371924.3123502731 -23781546.930900574 0 -23781546.930900574 6642983.886505127 0 0 0 0 -4534479.9473204613 -12588538.713104248 0 -12588538.713104248 22746675.23336792 0 0 0 0 7801446.2525857389 -7461318.8598476648 0 -7461318.8598476648 13404334.381118774 0 0 0 0 29040036.126818419 57212574.043739319 0 57212574.043739319 94736150.306808472 0 0 0 0 18067984.137696028 13730030.966918945 0 13730030.966918945 -25217346.983394623 0 0 0 0 -26542727.006801605 -21033149.194160461 0 -21033149.194160461 20925958.221927643 0 0 0 0 -5567144.7856905758 -22007896.574260235 0 -22007896.574260235 1762177.3136062622 0 0 0 0 -25684472.300199509 7680469.7348041534 0 7680469.7348041534 34151736.748752594 0 0 0 0 -5265994.4263195563 -5651695.3237627679 0 -5651695.3237627679 32692498.577055126 0 0 0 0 -24673859.23075819 -40095829.264900208 0 -40095829.264900208 1759006.511161752 0 0 0 0 -14771899.879243851 -26697736.141410828 0 -26697736.141410828 22817376.740055084 0 0 0 0 -9851530.0134620667 -12455245.425086975 0 -12455245.425086975 56260814.298259735 0 0 0 0 -3412468.4943555873 -3749383.4854598297 0 -3749383.4854598297 21284881.638718411 0 0 0 0 6631958.5928287506 4497682.4403533936 0 4497682.4403533936 19610866.262241364 0 0 0 0 1424034.3398523331 -6616096.7405643463 0 -6616096.7405643463 29623413.710510254 0 0 0 0 -8269679.3068491593 -4772504.350588846 0 -4772504.350588846 14277815.754338009 0 0 0 0 -13753523.556795955 -22670536.489934921 0 -22670536.489934921 10662672.385101318 0 0 0 0 413972.31883907318 49946.51342010498 0 49946.51342010498 16943129.556156158 0 0 0 0 -6755436.0843076706 -10538302.684528351 0 -10538302.684528351 34702978.53811264 0 0 0 0 -11914458.815608978 -1214320.7587242126 0 -1214320.7587242126 23660780.532684326 0 0 0 0 -11811018.776176453 16011317.576805115 0 16011317.576805115 12245199.205783844 0 0 0 0 208250.55715346607 2114121.8354097637 0 2114121.8354097637 5107423.217059195 0 0 0 0 -47172917.50234586 11963939.674348116 0 11963939.674348116 618115.97486877441 0 0 0 0 -12509978.466592476 11045308.330015242 0 11045308.330015242 5595259.2565460205 0 0 0 0 -47358547.902328014 15122534.997306824 0 15122534.997306824 -3055001.4605102539 0 0 0 0 -15273739.334245682 -4965129.9181442261 0 -4965129.9181442261 17959402.575065613 0 0 0 0 -682112.07579851151 -3713448.4873218536 0 -3713448.4873218536 12040437.414337158 0 0 0 0 -22771360.838408947 4870266.3980007172 0 4870266.3980007172 19313922.879013062 0 0 0 0 7420537.5574904084 19953930.345405579 0 19953930.345405579 7441921.5107650757 0 0 0 0 -38714738.760637283 77502780.957931519 0 77502780.957931519 53794802.977143288 0 0 0 0 -8154703.4773592949 8374700.7130708694 0 8374700.7130708694 14834611.781730652 0 0 0 0 -1235780.1290656293 -2422974.5452360502 0 -2422974.5452360502 1451057.2584301755 0 0 0 0 28885523.020914078 -25054605.687965393 0 -25054605.687965393 -3437719.0144042969 0 0 0 0 -45327316.186471939 -81004299.858104706 0 -81004299.858104706 17778645.46241951 0 0 0 0 -2647998.4346577474 -1319540.5415674862 0 -1319540.5415674862 13909123.650547434 0 0 0 0 -9571892.6649904251 -41583.62024307251 0 -41583.62024307251 2007600.0867919922 0 0 0 0 -1309661.9106530598 -871524.44602308911 0 -871524.44602308911 7190327.3327011727 0 0 0 0 -9497829.1268959045 -218863.12564849854 0 -218863.12564849854 2257281.4741821289 0 0 0 0 -1354982.4819409428 3281670.3003101097 0 3281670.3003101097 11461885.990909748 0 0 0 0 -123324.47074192646 -32552.115443172166 0 -32552.115443172166 6445767.7727805302 0 0 0 0 -1554158.3532411857 -3390676.5826595346 0 -3390676.5826595346 3746173.7498090714 0 0 0 0 9214799.1358413696 12215110.61680603 0 12215110.61680603 -1996284.2831726074 0 0 0 0 -885143.09493723232 1175054.2950687762 0 1175054.2950687762 2070494.4500909373 0 0 0 0 -16242829.959151983 8653531.2968335152 0 8653531.2968335152 17739511.928070068 0 0 0 0 -14339286.033784866 11515831.645904541 0 11515831.645904541 10834409.763648987 0 0 0 0 -5571154.9692697525 -2588639.4537801743 0 -2588639.4537801743 24654590.453987122 0 0 0 0 -28515083.214957237 -4124494.3212795258 0 -4124494.3212795258 16078655.440040588 0 0 0 0 -17226240.145055771 8173577.814496994 0 8173577.814496994 30052367.487663269 0 0 0 0 -16441391.546738625 -22966671.666637421 0 -22966671.666637421 22650681.302874565 0 0 0 0 -4276845.9521095753 -1118970.0565643557 0 -1118970.0565643557 20383447.013795108 0 0 0 0 34458742.856445312 -42516082.416713715 0 -42516082.416713715 22208761.225097656 0 0 0 0 -32709473.807983398 -45279902.811687469 0 -45279902.811687469 32322073.051913261 0 0 0 0 -4001233.7651824951 16064291.654662132 0 16064291.654662132 17058267.913625717 0 0 0 0 6493909.8348388672 7427381.0880384445 0 7427381.0880384445 534075.82443475723 0 0 0 0 35994782.768427849 68143580.913548946 0 68143580.913548946 62343428.816849709 0 0 0 0 84139287.059799194 14903179.697585583 0 14903179.697585583 8265526.2644810677 0 0 0 0 1164129.8990713451 -97710.022366896272 0 -97710.022366896272 -842214.62069317466 0 0 0 0 14446571.541866302 -4344214.6954898834 0 -4344214.6954898834 3905438.0151064396 0 0 0 0 92502931.451546192 -5108048.1239404082 0 -5108048.1239404082 -54758.842918395996 0 0 0 0 12770706.405399323 30519668.339951038 0 30519668.339951038 18461759.412699699 0 0 0 0 12385828.444335938 27304770.696352005 0 27304770.696352005 17986632.574063838 0 0 0 0 -22060327.794563293 37524089.502500057 0 37524089.502500057 99861845.606197357 0 0 0 0 60662989.945960999 69844990.907119036 0 69844990.907119036 47318628.867537498 0 0 0 0 -26552025.11969471 -19269178.074045181 0 -19269178.074045181 22196983.993293762 0 0 0 0 -4127732.4555754834 1358364.9878779668 0 1358364.9878779668 18822752.56818996 0 0 0 0 -43929442.352186203 -3955960.3071883917 0 -3955960.3071883917 53597067.388495445 0 0 0 0 4257541.3589553833 26938471.762243748 0 26938471.762243748 25665117.177097321 0 0 0 0 8996867.7343883514 34946214.789041162 0 34946214.789041162 33094525.364519119 0 0 0 0 -20750726.265492439 -8343177.2144432068 0 -8343177.2144432068 224441.41282653809 0 0 0 0 -3450122.9642803026 4882112.5334911337 0 4882112.5334911337 18147952.938494634 0 0 0 0 -19346092.347342491 -7613483.8633613586 0 -7613483.8633613586 -442895.86092376709 0 0 0 0 2656097.8301963806 24434332.910614252 0 24434332.910614252 23329481.951980591 0 0 0 0 -20321668.506360054 -6807119.0176963806 0 -6807119.0176963806 -1082510.1956176758 0 0 0 0 -33932777.992158256 1596388.9975509644 0 1596388.9975509644 48426212.725280762 0 0 0 0 -18643376.146321297 -18454307.172811508 0 -18454307.172811508 22645688.29838562 0 0 0 0 -1677916.6666608222 -2839381.2366137812 0 -2839381.2366137812 12218813.75906135 0 0 0 0 -16776105.28747654 -9026532.0609016418 0 -9026532.0609016418 -1857722.048740387 0 0 0 0 -813576.11998516228 -2506943.0019978769 0 -2506943.0019978769 1047316.6906809229 0 0 0 0 21050214.309114456 69620622.96487999 0 69620622.96487999 41311416.908178329 0 0 0 0 69589839.862210274 60780286.100979865 0 60780286.100979865 -7697934.7090988159 0 0 0 0 12669248.491830826 56831707.39118433 0 56831707.39118433 57402661.042760611 0 0 0 0 91690225.578729153 110227477.29225564 0 110227477.29225564 75958662.363107681 0 0 0 0 -31593556.999956131 54335301.914166927 0 54335301.914166927 89195443.623614311 0 0 0 0 -30198700.092287064 37901525.609549046 0 37901525.609549046 48577258.112453461 0 0 0 0 7667375.3962364197 20964169.468302727 0 20964169.468302727 48491294.012505054 0 0 0 0 -7784940.974858284 30942158.097686291 0 30942158.097686291 25884402.626791 0 0 0 0 -26403450.553573608 36811237.378365993 0 36811237.378365993 92327018.546694756 0 0 0 0 -5895650.4707021713 23630761.945029378 0 23630761.945029378 -5233382.1598806381 0 0 0 0 2428445.5586120402 -208993.3300892273 0 -208993.3300892273 -1467612.0830846592 0 0 0 0 -5609307.5877819061 35656133.336542606 0 35656133.336542606 -10754491.328977704 0 0 0 0 -577386.25213432312 15344005.971272707 0 15344005.971272707 -32164102.263317823 0 0 0 0 24417743.813386917 41040410.618720531 0 41040410.618720531 -11233872.033083439 0 0 0 0 25432575.25343132 17680812.58117485 0 17680812.58117485 -45872356.999840736 0 0 0 0 23742841.016088247 51309055.007448673 0 51309055.007448673 -4127333.7789611816 0 0 0 0 22482810.70219326 14420696.67282033 0 14420696.67282033 -39573647.619186163 0 0 0 0 8112847.9777997732 -5476970.0030198097 0 -5476970.0030198097 -54600935.443327904 0 0 0 0 562194.10106546432 -1805191.4715065118 0 -1805191.4715065118 2958989.5889061121 0 0 0 0 2200618.4193320274 -735989.16472816467 0 -735989.16472816467 5150023.5487685204 0 0 0 0 -1668992.3719677925 -164772.6669242382 0 -164772.6669242382 7437640.504858017 0 0 0 0 4172626.0994186401 -1891982.9392428398 0 -1891982.9392428398 5988748.0869803429 0 0 0 0 3757204.9785060883 414672.85717087984 0 414672.85717087984 6155944.2582588196 0 0 0 0 6590849.8456201553 577250.86118125916 0 577250.86118125916 4970744.2980499268 0 0 0 0 6255360.4164962769 1742781.1999588013 0 1742781.1999588013 5871797.03251791 0 0 0 0 3559532.705291748 695670.51351070404 0 695670.51351070404 13528456.277639389 0 0 0 0 123559.11046262598 -68617.165656530764 0 -68617.165656530764 -3288.4121027054498 0 0 0 0 6345272.349090457 10833081.123510122 0 10833081.123510122 -29283345.22586441 0 0 0 0 3415870.1553634303 -431985.53304196056 0 -431985.53304196056 -1659806.1642917539 0 0 0 0 6882931.8505630493 -3822318.1790572405 0 -3822318.1790572405 896762.80204725266 0 0 0 0 13629305.755449295 -2582147.8406534195 0 -2582147.8406534195 511440.53768539429 0 0 0 0 8563131.6173171997 -690310.43702292442 0 -690310.43702292442 -4435499.2528567314 0 0 0 0 11839401.65177536 -3272463.388815403 0 -3272463.388815403 -2863185.2004749775 0 0 0 0 6440116.5307121277 -1667116.1329386234 0 -1667116.1329386234 -289568.48688745499 0 0 0 0 5172154.8415985107 -1263237.1208714843 0 -1263237.1208714843 274430.25085759163 0 0 0 0 6035151.229133606 -777676.17336797714 0 -777676.17336797714 265856.64810811356 0 0 0 0 5174420.3107566833 -2266137.6588068306 0 -2266137.6588068306 -377545.45771789551 0 0 0 0 5261638.2071788516 427778.24144114973 0 427778.24144114973 643716.96219359967 0 0 0 0 2253815.7922229767 2212637.0425648093 0 2212637.0425648093 3849279.5601926446 0 0 0 0 24745544.126711845 -22577842.24864006 0 -22577842.24864006 21804414.896445274 0 0 0 0 8702789.5261259079 9749768.9929628372 0 9749768.9929628372 13542449.680722713 0 0 0 0 8700192.3182543814 874378.26836302481 0 874378.26836302481 3146458.2202697108 0 0 0 0 1273103.7946239039 763488.28163366811 0 763488.28163366811 -111712.84803265147 0 0 0 0 14846290.77261591 -21711447.459373951 0 -21711447.459373951 57216649.890797138 0 0 0 0 7016971.010158062 -11997759.834647655 0 -11997759.834647655 67219293.554080009 0 0 0 0 10294514.602411091 -4426410.2828994989 0 -4426410.2828994989 15800697.516888618 0 0 0 0 7386370.1041691303 -33953532.30494976 0 -33953532.30494976 65816592.1727314 0 0 0 0 29542854.523980618 -2741930.2827019691 0 -2741930.2827019691 3362600.5080037117 0 0 0 0 3850883.542426609 807374.96030435152 0 807374.96030435152 911978.76228933851 0 0 0 0 283089.44293064764 311888.57893639058 0 311888.57893639058 413559.23043461703 0 0 0 0 26195449.692503214 57678008.952136517 0 57678008.952136517 177435525.21197605 0 0 0 0 3369631.250817616 581426.8792740549 0 581426.8792740549 -655103.46476354473 0 0 0 0 269401.68980121613 -253067.2107334137 0 -253067.2107334137 5717746.8039960861 0 0 0 0 1357873.4443542957 934884.11427879333 0 934884.11427879333 4760189.1479947567 0 0 0 0 -1259409.407452672 1626941.5471005165 0 1626941.5471005165 1740485.0854654987 0 0 0 0 2241503.8121471405 -1366560.9353809357 0 -1366560.9353809357 5848955.822725296 0 0 0 0 3027510.5700802803 1301752.3262708187 0 1301752.3262708187 3584695.1208028793 0 0 0 0 3194615.2197862947 14241.688710839488 0 14241.688710839488 3785692.3335916176 0 0 0 0 2955260.9935836792 1676088.1055350304 0 1676088.1055350304 4183318.2012662888 0 0 0 0 5074454.3918914795 -171361.50727462769 0 -171361.50727462769 4623997.8755683899 0 0 0 0 4190546.3352928162 785479.86722564697 0 785479.86722564697 5443289.1883401871 0 0 0 0 4434461.350151062 1891301.7956275046 0 1891301.7956275046 3697416.9938020706 0 0 0 0 2189556.0727558136 1120804.2644905746 0 1120804.2644905746 3567680.0148054808 0 0 0 0 2408379.161511898 2919340.5185302123 0 2919340.5185302123 -938815.27442449331 0 0 0 0 3669539.2891216278 257519.2462580204 0 257519.2462580204 1812596.9295452237 0 0 0 0 4647383.8750238419 -13888107.011346817 0 -13888107.011346817 7816649.4816048145 0 0 0 0 3634204.8238670891 -863659.01537865167 0 -863659.01537865167 9291077.7358233593 0 0 0 0 2491813.3930940628 -7583718.6997662187 0 -7583718.6997662187 9303937.0967159271 0 0 0 0 4939605.95378685 -11293804.342206001 0 -11293804.342206001 10861579.23406744 0 0 0 0 3266028.5953598022 -13490075.116803646 0 -13490075.116803646 10533520.84050709 0 0 0 0 -1307940.4306144714 509871.96524238586 0 509871.96524238586 3944897.0549163818 0 0 0 0 9398369.9962387085 16702177.024590015 0 16702177.024590015 27525773.18652916 0 0 0 0 9861509.7997940145 6663769.1322628707 0 6663769.1322628707 12601393.374875274 0 0 0 0 -18037977.732163429 -11248147.900871277 0 -11248147.900871277 2489157.5570831299 0 0 0 0 2139745.3432350159 23503198.392522097 0 23503198.392522097 14324579.070532799 0 0 0 0 6429783.5552635193 26279277.373885751 0 26279277.373885751 8545366.0199290514 0 0 0 0 13151284.927307129 27969010.863464355 0 27969010.863464355 15850535.067853451 0 0 0 0 9156646.6879131086 4657413.4343808303 0 4657413.4343808303 11183980.143739015 0 0 0 0 6383594.7711079121 -8330060.4562590122 0 -8330060.4562590122 12666581.228946686 0 0 0 0 11346391.167255402 -5631405.6079797745 0 -5631405.6079797745 -7518101.7227268219 0 0 0 0 10096971.750185259 2003734.7824498489 0 2003734.7824498489 5268242.017088877 0 0 0 0 24015587.727739334 14710330.50304389 0 14710330.50304389 -12496431.6567114 0 0 0 0 19858209.131231785 9870989.766749382 0 9870989.766749382 393383.18360805511 0 0 0 0 12170955.74055481 9780912.1819190979 0 9780912.1819190979 -5835824.1804611683 0 0 0 0 37284577.378745735 25698590.790291902 0 25698590.790291902 4071945.3478689194 0 0 0 0 37797934.899578333 1414615.2445718646 0 1414615.2445718646 -3233800.8912992477 0 0 0 0 7624939.5353813171 4845471.3484351635 0 4845471.3484351635 -3605440.3739743531 0 0 0 0 10652608.092430353 4410719.507642746 0 4410719.507642746 32109050.152962685 0 0 0 0 2988936.4541014433 -13717379.37299484 0 -13717379.37299484 24594909.302233696 0 0 0 0 -10049678.4626894 5515410.1426730156 0 5515410.1426730156 61712080.49807024 0 0 0 0 -2282471.90213871 6793395.4591884613 0 6793395.4591884613 60857290.030475378 0 0 0 0 21551859.899366379 18073949.937185287 0 18073949.937185287 49166907.160060644 0 0 0 0 -8512970.5556612015 15951861.696466446 0 15951861.696466446 82091246.690395355 0 0 0 0 17627689.807145119 13243636.589953423 0 13243636.589953423 48242127.635737896 0 0 0 0 46711523.300473452 45817693.857087374 0 45817693.857087374 83604284.818304062 0 0 0 0 16732169.690908432 -1381117.0539560318 0 -1381117.0539560318 17263937.301111221 0 0 0 0 11836134.053297281 -15727429.08146894 0 -15727429.08146894 19594382.626602173 0 0 0 0 11836415.673034668 -11006487.585341454 0 -11006487.585341454 8750320.0656625032 0 0 0 0 21935237.46990633 -8671631.4442548752 0 -8671631.4442548752 24274780.177610397 0 0 0 0 29475361.559256911 -10308459.867396116 0 -10308459.867396116 22665976.899084091 0 0 0 0 18473415.566448212 -9716111.2974982262 0 -9716111.2974982262 37477786.972011566 0 0 0 0 69191588.079701424 -3526102.5388936996 0 -3526102.5388936996 37910922.187820077 0 0 0 0 16654588.157836914 -4683480.73295784 0 -4683480.73295784 37478112.091814041 0 0 0 0 5958213.6809034348 -13723169.077692986 0 -13723169.077692986 42999887.106390476 0 0 0 0 3383673.2964458466 -6876383.3604917526 0 -6876383.3604917526 37615228.254513741 0 0 0 0 5089273.4213228226 -17496457.016442299 0 -17496457.016442299 28763418.231508255 0 0 0 0 2170508.4430081844 -16700724.091915846 0 -16700724.091915846 29992195.324857712 0 0 0 0 2379407.0139274597 -18707854.398264885 0 -18707854.398264885 28856876.97672081 0 0 0 0 13210544.664466858 -20926530.311231613 0 -20926530.311231613 29846803.198918343 0 0 0 0 5908936.6449041367 -12942586.3636446 0 -12942586.3636446 21507951.318499565 0 0 0 0 6849011.9089784622 -16313754.760642529 0 -16313754.760642529 19304276.553503036 0 0 0 0 3693982.1944570541 -13794780.446632385 0 -13794780.446632385 21160412.621536255 0 0 0 0 33202258.759646893 12401273.440543652 0 12401273.440543652 4297558.2090291977 0 0 0 0 29585721.954433441 6874323.3858976364 0 6874323.3858976364 -13580825.753090858 0 0 0 0 32791842.205774784 16109391.215443611 0 16109391.215443611 7692044.0680346489 0 0 0 0 4921865.488740921 7582794.6378676891 0 7582794.6378676891 51346884.49801445 0 0 0 0 9820721.1995205879 -10710510.694761276 0 -10710510.694761276 36532771.936826706 0 0 0 0 19298894.01386106 -17278303.894569635 0 -17278303.894569635 79790578.336069107 0 0 0 0 60189565.971668243 48522212.64250946 0 48522212.64250946 55775923.33292222 0 0 0 0 35719498.222584724 18074262.273878098 0 18074262.273878098 5002679.7596330643 0 0 0 0 32614743.601964474 12445857.426472187 0 12445857.426472187 16329093.457334518 0 0 0 0 -1455474.5447640419 -3408281.9526638985 0 -3408281.9526638985 -6875904.5088887215 0 0 0 0 -20793.349245232588 187240.68926840019 0 187240.68926840019 55347.461751157418 0 0 0 0 17748737.550252914 -8344795.7848315239 0 -8344795.7848315239 4899143.1654233932 0 0 0 0 61974327.951025024 5593574.8419321179 0 5593574.8419321179 -3965449.257774353 0 0 0 0 185507.34410631214 19068.371361210244 0 19068.371361210244 -115546.98802654026 0 0 0 0 -4577135.3328065872 -8036843.194861412 0 -8036843.194861412 113753132.61871338 0 0 0 0 -6230992.4970169067 -19604609.308054566 0 -19604609.308054566 55522369.021940231 0 0 0 0 -13202314.337726235 -59417.697963476181 0 -59417.697963476181 56559120.710708618 0 0 0 0 -4286315.6091709137 -1154094.940413475 0 -1154094.940413475 12769438.208322525 0 0 0 0 -16097193.061514378 -4020177.0053751469 0 -4020177.0053751469 57590766.171243668 0 0 0 0 428984.73022014124 132903.64774618368 0 132903.64774618368 14138.866436221637 0 0 0 0 -31147633.848183632 760843.80848813057 0 760843.80848813057 33958610.142942429 0 0 0 0 -15770523.678380489 20023313.140247345 0 20023313.140247345 13797203.15899536 0 0 0 0 12872099.690310597 -7769791.2249488831 0 -7769791.2249488831 -6032620.3337774277 0 0 0 0 11920273.219394684 -21407119.124643803 0 -21407119.124643803 6257755.8988761902 0 0 0 0 -49308.461336730339 190471.90967989247 0 190471.90967989247 187876.845032827 0 0 0 0 -20716518.599676371 -7908086.543410778 0 -7908086.543410778 4351883.1376867294 0 0 0 0 35548047.476488113 15445817.061079025 0 15445817.061079025 628962.78671550751 0 0 0 0 20124892.59180069 3994351.8839225769 0 3994351.8839225769 2589992.4357595444 0 0 0 0 33009311.318266273 20046884.664703369 0 20046884.664703369 22305666.774453163 0 0 0 0 56185156.694678783 -6685762.1944169998 0 -6685762.1944169998 12055587.628085375 0 0 0 0 90060078.202682078 69074119.998417765 0 69074119.998417765 60839490.804872513 0 0 0 0 76711168.557468414 65846439.614081383 0 65846439.614081383 63166894.769053459 0 0 0 0 73121777.536702663 85477946.218080848 0 85477946.218080848 115189246.19680691 0 0 0 0 15593314.473506927 22433605.410416126 0 22433605.410416126 124069389.47672653 0 0 0 0 52373124.082337379 20945618.199851513 0 20945618.199851513 68774956.524303436 0 0 0 0 48958311.000599861 21681925.649563313 0 21681925.649563313 110371415.49106359 0 0 0 0 36856328.140789986 511464.72835445404 0 511464.72835445404 46608580.927339554 0 0 0 0 14700756.582415581 -2542221.5268507004 0 -2542221.5268507004 89112458.553714752 0 0 0 0 808647.43714118004 -19699509.233904839 0 -19699509.233904839 72704187.000581741 0 0 0 0 -1779777.7504298687 -12424374.495858192 0 -12424374.495858192 52372452.573496819 0 0 0 0 -8659748.498755455 -14863543.64931488 0 -14863543.64931488 51782535.212989807 0 0 0 0 -1920676.8465709686 -223538.72831249237 0 -223538.72831249237 33023099.747487068 0 0 0 0 -747477.17262983322 -9812201.1060223579 0 -9812201.1060223579 4154052.4453773499 0 0 0 0 7763354.3493294716 9005609.5757923126 0 9005609.5757923126 28840593.805563927 0 0 0 0 93279327.15890646 29321591.157652855 0 29321591.157652855 14472187.975574493 0 0 0 0 7365782.1722025871 -4165321.719367981 0 -4165321.719367981 48215093.101332188 0 0 0 0 170239797.53442883 52846099.616929531 0 52846099.616929531 -25177983.553603172 0 0 0 0 13534547.632418096 -11696191.495509028 0 -11696191.495509028 -3059982.5465841293 0 0 0 0 -9688865.8845787048 42874886.69190979 0 42874886.69190979 -6101348.4472566843 0 0 0 0 433226.68047815212 132711.42647707462 0 132711.42647707462 -46843.710498484783 0 0 0 0 1267255.5652389526 12249744.751942873 0 12249744.751942873 -9243625.2526531219 0 0 0 0 43152550.715181351 10746020.892881393 0 10746020.892881393 -11120159.352454424 0 0 0 0 12486517.597915411 18694878.492079258 0 18694878.492079258 47132922.898924828 0 0 0 0 218830.22093290417 58139.881892039906 0 58139.881892039906 -47077.155542410444 0 0 0 0 46296511.13806653 126455710.55791616 0 126455710.55791616 129957080.03167629 0 0 0 0 124623098.68438166 133508267.08146012 0 133508267.08146012 97193363.781832695 0 0 0 0 93857549.042850018 90970397.574104309 0 90970397.574104309 43463622.195817471 0 0 0 0 94445923.474626303 82447204.042313039 0 82447204.042313039 30786563.863138199 0 0 0 0 95902303.640897274 65285227.232496262 0 65285227.232496262 58105536.865002155 0 0 0 0 49353777.0636428 1505084.4821939468 0 1505084.4821939468 -6453503.0930919647 0 0 0 0 151273.40870736295 44935.874234361108 0 44935.874234361108 -128588.588666989 0 0 0 0 36629135.556737006 16336724.640053272 0 16336724.640053272 10977836.95541954 0 0 0 0 153330577.37262368 -964600.3430378437 0 -964600.3430378437 -115867659.55956268 0 0 0 0 177315846.94134176 -40633631.307181358 0 -40633631.307181358 -95683372.394221306 0 0 0 0 193866720.02158356 82612094.847443104 0 82612094.847443104 -4608932.6607750654 0 0 0 0 133281536.90268922 126232407.29479933 0 126232407.29479933 75069757.63542366 0 0 0 0 -23364288.219952166 7769170.4845194817 0 7769170.4845194817 9310207.7119441032 0 0 0 0 -24764297.144659519 9049891.2499918938 0 9049891.2499918938 24551505.777996063 0 0 0 0 10050271.694704682 -43317220.069680691 0 -43317220.069680691 24437981.691149712 0 0 0 0 -66770187.595871061 -31256314.85863924 0 -31256314.85863924 28243908.887551308 0 0 0 0 -33828977.076408997 -17767590.718990326 0 -17767590.718990326 -1060253.2425861359 0 0 0 0 -13344261.929595739 12843936.533070326 0 12843936.533070326 11861913.88408947 0 0 0 0 -1412947.1281288471 1557102.2082419337 0 1557102.2082419337 10955922.553571783 0 0 0 0 -52213115.11229521 44483090.681504011 0 44483090.681504011 -6689759.5142250061 0 0 0 0 847387.40783603862 -4250982.3568784818 0 -4250982.3568784818 2783836.5069766035 0 0 0 0 -1462935.869250119 2342864.0129397251 0 2342864.0129397251 2547261.5077535156 0 0 0 0 132589.7427085638 -977029.91524612904 0 -977029.91524612904 500033.87973117828 0 0 0 0 -96134939.739538848 29619152.641664505 0 29619152.641664505 6459253.6687111855 0 0 0 0 728711.49308085116 -1161959.9126143004 0 -1161959.9126143004 3778935.4856409151 0 0 0 0 4892665.9857120514 -1578385.3649697304 0 -1578385.3649697304 8125032.3915405273 0 0 0 0 -132348361.18803054 -391511885.13931894 0 -391511885.13931894 -159289310.22533751 0 0 0 0 -232325415.02037933 -37475732.630714417 0 -37475732.630714417 1027910.4327448606 0 0 0 0 -131697388.39296043 -216796349.41083384 0 -216796349.41083384 -195881524.31996536 0 0 0 0 -250321473.31583267 44653718.44343698 0 44653718.44343698 -25115098.335731506 0 0 0 0 360861907.85493469 -49208365.448122025 0 -49208365.448122025 -387748800.06192875 0 0 0 0 -85619385.281260371 -16053113.535973728 0 -16053113.535973728 7482382.2995119095 0 0 0 0 -2218245.7389447987 303468036.14066768 0 303468036.14066768 878942815.92711067 0 0 0 0 473291693.69105196 -333055285.16082668 0 -333055285.16082668 155201941.68848896 0 0 0 0 -311141082.50286627 44269777.620374918 0 44269777.620374918 162053869.43941307 0 0 0 0 -7830885.7225253582 3454588.2718713284 0 3454588.2718713284 9954776.3338413239 0 0 0 0 -843765.1406435722 -1452346.9439827055 0 -1452346.9439827055 9692630.9681597762 0 0 0 0 236749964.84579372 130392714.98688889 0 130392714.98688889 -17237036.99603653 0 0 0 0 588252075.14583635 260457840.55716705 0 260457840.55716705 -144488887.90129185 0 0 0 0 1330900.2938489565 49905.737818928319 0 49905.737818928319 -316084.86527239415 0 0 0 0 124383583.10854661 286064683.36653733 0 286064683.36653733 624579396.02978849 0 0 0 0 52272565.241787195 83385274.644079208 0 83385274.644079208 118850817.31611824 0 0 0 0 11918637.863602161 5629849.8636471629 0 5629849.8636471629 26974438.676858902 0 0 0 0 11900500.809644222 6555270.4349147677 0 6555270.4349147677 548282.54607307911 0 0 0 0 202198539.1346525 108846298.40933684 0 108846298.40933684 -19738785.720841169 0 0 0 0 204686649.9029541 211396020.80903137 0 211396020.80903137 10986062.53960228 0 0 0 0 196829673.6079317 148263506.1377818 0 148263506.1377818 -77745347.774410725 0 0 0 0 250004378.55959082 146202083.00882697 0 146202083.00882697 -97904123.478042006 0 0 0 0 397955143.64929056 -119589015.36480618 0 -119589015.36480618 -6429239.7480864525 0 0 0 0 596372492.46828532 247493267.27017057 0 247493267.27017057 -85182061.851707458 0 0 0 0 -52863338.49327898 304188572.06394053 0 304188572.06394053 125961463.76184851 0 0 0 0 246598415.74164343 129172904.31668395 0 129172904.31668395 -181378040.01223755 0 0 0 0 -9379244.0714960098 -283614.94567918777 0 -283614.94567918777 8843447.9633140564 0 0 0 0 -206643719.21181321 119036921.69007075 0 119036921.69007075 -58174963.48842907 0 0 0 0 -1406819.767209053 -3069733.5613279343 0 -3069733.5613279343 6408074.7041492462 0 0 0 0 -119621.94422747663 -843379.34401927202 0 -843379.34401927202 7090031.2084127516 0 0 0 0 -7778802.3850069046 -2850376.9995312691 0 -2850376.9995312691 10450544.068691254 0 0 0 0 -4052172.1362686157 -9833660.9644012451 0 -9833660.9644012451 5897963.3572368622 0 0 0 0 -320240.79222679138 -7539693.2119817734 0 -7539693.2119817734 8646631.9310379028 0 0 0 0 -3707879.7921104431 -2588985.1013088226 0 -2588985.1013088226 2943097.5094490051 0 0 0 0 565965651.17205048 76185115.675189972 0 76185115.675189972 -23214127.015998602 0 0 0 0 252718679.06138539 269611273.62092036 0 269611273.62092036 -134160097.99555425 0 0 0 0 109725826.94831771 91207823.329660267 0 91207823.329660267 54781754.605255067 0 0 0 0 -789993.46015009494 273228.28380447987 0 273228.28380447987 881003.53020180389 0 0 0 0 206168935.6920383 204317991.19206011 0 204317991.19206011 14773533.926042557 0 0 0 0 243967.24564760053 -665203.92703011062 0 -665203.92703011062 564500.03702698264 0 0 0 0 348008872.66790569 58906292.556519926 0 58906292.556519926 202821214.06291389 0 0 0 0 202606410.07517123 315844831.5766356 0 315844831.5766356 183172657.32427931 0 0 0 0 442988915.62732947 289485156.17348361 0 289485156.17348361 25948156.665119886 0 0 0 0 3856644.1918777227 9561219.9207835793 0 9561219.9207835793 163718789.37470388 0 0 0 0 848915.57970156323 -2402255.9534239941 0 -2402255.9534239941 4498496.2143669305 0 0 0 0 312772914.72168756 171846482.13826668 0 171846482.13826668 123466957.94729853 0 0 0 0 -587407.30605731579 -80155.763436411507 0 -80155.763436411507 913216.55153383873 0 0 0 0 -1667265.3953895569 71216444.4310956 0 71216444.4310956 172529895.40750885 0 0 0 0 96333113.363363266 114010540.69103861 0 114010540.69103861 147250341.92976546 0 0 0 0 255889504.20896652 -95765131.8945508 0 -95765131.8945508 45706555.372743607 0 0 0 0 65542413.59612751 258071703.99997163 0 258071703.99997163 69146060.875266328 0 0 0 0 -6851484.9648333788 -15040503.095552057 0 -15040503.095552057 7103940.0660910606 0 0 0 0 -626855.20953178406 8384804.6574788094 0 8384804.6574788094 14020335.452599585 0 0 0 0 -2970245.0421097279 1873147.3317374587 0 1873147.3317374587 6426819.79190588 0 0 0 0 -30431603.565716505 -57270345.056850672 0 -57270345.056850672 99071133.881918907 0 0 0 0 146186916.56244922 91949557.669573069 0 91949557.669573069 -24834253.623545766 0 0 0 0 -1528414.7531073438 704689.99277493195 0 704689.99277493195 1805767.0050981736 0 0 0 0 66203517.47273016 134984824.49311018 0 134984824.49311018 76986260.054505348 0 0 0 0 -34075343.803230286 -21332580.07101059 0 -21332580.07101059 50669102.8620224 0 0 0 0 -42057097.759189606 -18800125.929232597 0 -18800125.929232597 50592383.522174835 0 0 0 0 -38799446.45939827 -7240557.7919559479 0 -7240557.7919559479 34250075.657678604 0 0 0 0 -41792496.256071329 -1114495.0500812531 0 -1114495.0500812531 20069330.370235443 0 0 0 0 -46258920.385046959 -7131610.2092299461 0 -7131610.2092299461 35683278.942737579 0 0 0 0 -48609235.150278091 -7295954.24223423 0 -7295954.24223423 46319877.444314957 0 0 0 0 -43345204.800742149 22047522.81423974 0 22047522.81423974 5204090.0480747223 0 0 0 0 -37118325.66133976 7987224.333533287 0 7987224.333533287 29312553.398361206 0 0 0 0 -46946452.143141747 24135246.158900738 0 24135246.158900738 52418241.11007309 0 0 0 0 -61333433.666074753 50059761.025841713 0 50059761.025841713 6404461.643545866 0 0 0 0 -59523132.561180115 8062338.2466602325 0 8062338.2466602325 38248521.842583656 0 0 0 0 -57624529.689977884 -7859685.6774381399 0 -7859685.6774381399 89530210.198736191 0 0 0 0 -90652901.464530945 38160967.905022621 0 38160967.905022621 110330566.25102329 0 0 0 0 -87321074.702887058 39556279.585151672 0 39556279.585151672 86267752.347370148 0 0 0 0 -172376644.61758375 -48461087.264025688 0 -48461087.264025688 226061681.90675926 0 0 0 0 45766329.531720161 -126407890.58516693 0 -126407890.58516693 129624997.07624149 0 0 0 0 395721.0713944165 -1238654.4088719052 0 -1238654.4088719052 2591862.2594834715 0 0 0 0 108970987.95780563 -31611245.593135357 0 -31611245.593135357 2832414.9436206818 0 0 0 0 93104988.638644218 213122081.10691166 0 213122081.10691166 204319675.66881466 0 0 0 0 -28021849.658820748 168893665.17061442 0 168893665.17061442 229407378.82211018 0 0 0 0 14242427.421281815 517498.3365020752 0 517498.3365020752 3978446.6559612155 0 0 0 0 -4517584.2839372158 -6569868.7967287302 0 -6569868.7967287302 11539245.639492035 0 0 0 0 29050238.549198151 -46699782.39672184 0 -46699782.39672184 31162388.03662014 0 0 0 0 -41935898.676053882 -42558502.972080767 0 -42558502.972080767 49880558.653423309 0 0 0 0 36559804.934216499 -9835979.6442528963 0 -9835979.6442528963 75485.986274719238 0 0 0 0 -6890007.3648290634 -16471110.802548409 0 -16471110.802548409 13580155.396366119 0 0 0 0 2613748.7354784012 -18054905.211180687 0 -18054905.211180687 13843931.104043961 0 0 0 0 10677822.690745354 -10665112.513402939 0 -10665112.513402939 8736488.7398519516 0 0 0 0 5105261.5267448425 -2614239.7962474823 0 -2614239.7962474823 7206088.8628768921 0 0 0 0 10369406.764543533 -9884734.3370380402 0 -9884734.3370380402 8077224.673330307 0 0 0 0 -1451201.3514194489 -6056289.1604194641 0 -6056289.1604194641 18281956.669973373 0 0 0 0 10490616.039463997 -23572678.184702873 0 -23572678.184702873 24545091.641000748 0 0 0 0 11446687.926132679 -13950796.594037771 0 -13950796.594037771 13739739.217472076 0 0 0 0 29530274.526191711 1134041.7750616074 0 1134041.7750616074 8443285.522179842 0 0 0 0 -68735296.521147728 -13286862.11693573 0 -13286862.11693573 33367758.072118282 0 0 0 0 -25464401.717745781 12078030.200667381 0 12078030.200667381 10876366.994134903 0 0 0 0 -48496434.986816406 -4589255.8399982452 0 -4589255.8399982452 35962019.924505234 0 0 0 0 -35608413.213917047 -17650629.656231821 0 -17650629.656231821 16495791.910575867 0 0 0 0 -35806778.062475204 -19971416.873483658 0 -19971416.873483658 23855241.406406403 0 0 0 0 -51450622.3705616 -17847164.240123749 0 -17847164.240123749 27408386.257699966 0 0 0 0 -61295202.089982033 -32551106.399253845 0 -32551106.399253845 17951987.664729118 0 0 0 0 -91228769.205607414 35464902.506063461 0 35464902.506063461 131081815.4773159 0 0 0 0 150534.59837805387 275482.4348996738 0 275482.4348996738 184448.63311423687 0 0 0 0 -112659.90520345466 264089.341759637 0 264089.341759637 1435501.030092699 0 0 0 0 -32046379.194263458 -10511144.70259285 0 -10511144.70259285 64811978.716848373 0 0 0 0 -26995838.815420628 -30123604.630937576 0 -30123604.630937576 -2925099.941991806 0 0 0 0 -56665927.430902451 -61854808.071466327 0 -61854808.071466327 -40412555.998565674 0 0 0 0 -63201964.425479174 -5967293.3352082968 0 -5967293.3352082968 10729812.011287689 0 0 0 0 -14122760.281130791 -32880735.67873621 0 -32880735.67873621 -36476026.369937897 0 0 0 0 -47046738.873099089 -6289953.7586550713 0 -6289953.7586550713 -69631.952877044678 0 0 0 0 -15691753.296113968 -28635043.766422272 0 -28635043.766422272 -18857857.151312828 0 0 0 0 -20131761.277394295 -21658081.712738037 0 -21658081.712738037 -14099307.349403381 0 0 0 0 -17063320.019485474 -20578833.894786835 0 -20578833.894786835 -21510015.738571167 0 0 0 0 -21230638.002425194 -24244672.861206055 0 -24244672.861206055 -7683146.655330658 0 0 0 0 -116300991.15214539 -7033759.7283248901 0 -7033759.7283248901 179169624.32414246 0 0 0 0 -143372.62120776065 239550.32379615353 0 239550.32379615353 338873.87597799627 0 0 0 0 17380532.725800514 -34781706.443523407 0 -34781706.443523407 27442647.725589752 0 0 0 0 -16583679.872777939 -23956483.918945312 0 -23956483.918945312 -7992621.9845466614 0 0 0 0 -32398433.015332699 -15597093.255446434 0 -15597093.255446434 -4737735.4899597168 0 0 0 0 13069217.121891499 -2488887.5901517868 0 -2488887.5901517868 -4045617.6845741272 0 0 0 0 -837256.27520706458 -653781.47536952328 0 -653781.47536952328 3496735.7795384941 0 0 0 0 -3404629.1988811493 -222239.90138053894 0 -222239.90138053894 10369465.893335342 0 0 0 0 -942307.73835372925 -3938764.8811035156 0 -3938764.8811035156 7315868.951713562 0 0 0 0 -658601.26279258728 1503268.7316913605 0 1503268.7316913605 11357373.143791199 0 0 0 0 -43965.383596420288 -3259129.5503644943 0 -3259129.5503644943 43648116.899935722 0 0 0 0 109400.34775348054 359010.22090630373 0 359010.22090630373 1095253.7416707994 0 0 0 0 -22187266.036449909 -15935917.679611325 0 -15935917.679611325 -139369.97691345215 0 0 0 0 -11258730.542142868 -8357347.030834198 0 -8357347.030834198 9819746.6493833065 0 0 0 0 -6323950.4604616165 -3718015.6295824051 0 -3718015.6295824051 9241641.4331111908 0 0 0 0 -6603063.8017444611 -3691350.6263751984 0 -3691350.6263751984 14486085.034193039 0 0 0 0 -1280121.2006759644 -448287.19882965088 0 -448287.19882965088 12412133.222993851 0 0 0 0 -6459089.2649867535 -3119798.8723983765 0 -3119798.8723983765 11047693.724437714 0 0 0 0 -2499789.2127423286 -532449.43131065369 0 -532449.43131065369 14701832.402072906 0 0 0 0 -4147421.285384655 112198.92865371704 0 112198.92865371704 17785469.674072266 0 0 0 0 -1143645.9532162393 -646913.03485065419 0 -646913.03485065419 3400815.5445321747 0 0 0 0 -2292475.8997335434 2776131.2627029419 0 2776131.2627029419 15707504.270927429 0 0 0 0 3596771.3668692112 -3735177.4433145523 0 -3735177.4433145523 6929221.8946743011 0 0 0 0 -11042770.074634552 -10879314.504071236 0 -10879314.504071236 5048921.7427282333 0 0 0 0 -6243899.361348629 -140233.15009212494 0 -140233.15009212494 9119466.7104091644 0 0 0 0 -1829770.6823167801 -409549.98419952393 0 -409549.98419952393 8764259.1971702576 0 0 0 0 -4054231.7960891724 57229257.843610764 0 57229257.843610764 -57340789.25061202 0 0 0 0 37773649.468556404 -147085425.91998959 0 -147085425.91998959 -31815451.411235809 0 0 0 0 -146779209.51378775 80967446.592890263 0 80967446.592890263 151600435.62414551 0 0 0 0 -37232474.569969177 70289838.84095192 0 70289838.84095192 -8901155.5506105423 0 0 0 0 -434752.49974410003 -86513.184964393266 0 -86513.184964393266 947353.22769911983 0 0 0 0 -21940551.880434036 -29300339.056753159 0 -29300339.056753159 -2689961.8250780106 0 0 0 0 -89506751.200965881 -26478016.393133163 0 -26478016.393133163 24518165.150585175 0 0 0 0 -27628313.840330124 -7031998.1287927628 0 -7031998.1287927628 28838024.034332275 0 0 0 0 -122144968.77568197 43448531.747793198 0 43448531.747793198 58153973.666751862 0 0 0 0 -6441071.0046038628 52208214.84030056 0 52208214.84030056 43628454.633563995 0 0 0 0 -2740435.3350281715 19866206.313439369 0 19866206.313439369 20305803.021362305 0 0 0 0 -52281880.488875866 21402424.381809235 0 21402424.381809235 29446940.800264359 0 0 0 0 -13979434.398832321 701923.25814723969 0 701923.25814723969 18039909.799886703 0 0 0 0 -24690108.858281851 -6237591.131963253 0 -6237591.131963253 16676125.945913315 0 0 0 0 -13639635.50502634 1157023.6511392593 0 1157023.6511392593 15709058.698200226 0 0 0 0 -12754602.470139503 2447633.7587680817 0 2447633.7587680817 16774287.370000839 0 0 0 0 8982849.2435464859 8332925.6936569214 0 8332925.6936569214 12029680.61585331 0 0 0 0 -10195887.854790926 12439881.709199429 0 12439881.709199429 14418698.24344635 0 0 0 0 -4024728.3632044792 5014739.3755693436 0 5014739.3755693436 17495857.124219894 0 0 0 0 -3616266.9624919891 4901789.8825712204 0 4901789.8825712204 13602448.636745453 0 0 0 0 -10897480.219799042 2919571.0866241455 0 2919571.0866241455 15464956.340610504 0 0 0 0 1962341.1931028366 4819908.1703898311 0 4819908.1703898311 9290370.360534668 0 0 0 0 -8906550.9162025452 561919.106508255 0 561919.106508255 13050123.783188581 0 0 0 0 -52723480.567615509 -8559577.7918071747 0 -8559577.7918071747 32066175.89894104 0 0 0 0 1387910.8221468925 11883536.345039368 0 11883536.345039368 16625015.791319728 0 0 0 0 -3034711.4201499987 -463362.33514983533 0 -463362.33514983533 8925157.2119075432 0 0 0 0 -21393671.175513268 22354067.978248596 0 22354067.978248596 -30832662.080443382 0 0 0 0 -6056989.1241033971 8036100.9047317505 0 8036100.9047317505 30009413.432540894 0 0 0 0 -14375507.409720421 -5271333.484588623 0 -5271333.484588623 8724964.8018798828 0 0 0 0 -21921503.165848479 20654135.516956091 0 20654135.516956091 33479253.205345154 0 0 0 0 -22919451.959663272 -15552157.185413361 0 -15552157.185413361 34339712.603072643 0 0 0 0 -36997386.637996435 -27543541.308206558 0 -27543541.308206558 -15760061.211771011 0 0 0 0 -22886113.948836565 -15459028.843397141 0 -15459028.843397141 18936176.482192993 0 0 0 0 -29824246.600889564 -10191419.914827347 0 -10191419.914827347 26200504.407222748 0 0 0 0 -11004620.987643242 5300252.6345558167 0 5300252.6345558167 7009758.8490428925 0 0 0 0 -16788837.437864304 -2378545.040102005 0 -2378545.040102005 10275701.919351578 0 0 0 0 -10717537.494880676 1523948.1887264252 0 1523948.1887264252 11109377.050666809 0 0 0 0 -21489135.142223358 -927208.68621635437 0 -927208.68621635437 14543489.890869141 0 0 0 0 -17484149.496596336 3175394.0735454559 0 3175394.0735454559 15002284.997825623 0 0 0 0 -23535789.628765345 3371913.084066391 0 3371913.084066391 15692183.966041565 0 0 0 0 -1277647.0762207038 250381.98382148554 0 250381.98382148554 12452531.744009905 0 0 0 0 -53953776.579799414 22771406.917024612 0 22771406.917024612 -4627752.0581989288 0 0 0 0 123794.78483046277 47995.46759282006 0 47995.46759282006 -97403.310267715249 0 0 0 0 -52525932.133901775 39678881.666144848 0 39678881.666144848 27852764.45984745 0 0 0 0 -8893455.8152256683 10038132.104497433 0 10038132.104497433 36950379.263929844 0 0 0 0 -14866124.094544411 -1095912.833738327 0 -1095912.833738327 14918095.006155491 0 0 0 0 -14888103.206745148 -197467.58072280884 0 -197467.58072280884 11770998.848827422 0 0 0 0 -15677660.061975479 406731.26965332031 0 406731.26965332031 15058254.579612315 0 0 0 0 -12266813.199206352 2312603.3019790649 0 2312603.3019790649 14289855.151847839 0 0 0 0 -18001385.485307693 4163144.7986602783 0 4163144.7986602783 11889065.837337494 0 0 0 0 -29154165.717917949 8881869.759090662 0 8881869.759090662 15906962.589910507 0 0 0 0 -1159982.9158832445 594554.7614618087 0 594554.7614618087 11833903.791439749 0 0 0 0 -12150418.671373367 -1040265.102039814 0 -1040265.102039814 10300737.552101135 0 0 0 0 -16924760.901791364 -4374034.3490772247 0 -4374034.3490772247 15302829.301500797 0 0 0 0 226825.11256805062 80541.02276331 0 80541.02276331 -178495.34929941688 0 0 0 0 2546708.2288555577 -11590891.975497216 0 -11590891.975497216 11635771.831272125 0 0 0 0 33679325.319092751 -24772205.255787849 0 -24772205.255787849 1359338.3329753876 0 0 0 0 4738813.7481993232 11241785.294639945 0 11241785.294639945 -8126777.7313461304 0 0 0 0 -16010255.397765964 5470751.1451387405 0 5470751.1451387405 -1275747.710767746 0 0 0 0 26447299.704376817 -11230341.807439804 0 -11230341.807439804 -13164072.342486858 0 0 0 0 40747962.413340807 10217172.95568037 0 10217172.95568037 32192351.746582031 0 0 0 0 45515180.077190995 8324657.7221460342 0 8324657.7221460342 30665131.572018623 0 0 0 0 25370706.826832175 -19526028.242070198 0 -19526028.242070198 1799430.6134963036 0 0 0 0 27099632.64558804 -27331028.581217289 0 -27331028.581217289 9675049.2827548981 0 0 0 0 32479381.352935195 -13241628.57252264 0 -13241628.57252264 13107246.895479202 0 0 0 0 19495926.310860515 -23468485.092847347 0 -23468485.092847347 19980241.393475771 0 0 0 0 -14658523.124841928 -11465683.42701292 0 -11465683.42701292 15078770.79557538 0 0 0 0 42565007.491602302 -33028709.086252213 0 -33028709.086252213 10987353.362338066 0 0 0 0 44290213.21619761 -54453918.907551765 0 -54453918.907551765 50953357.9746418 0 0 0 0 75309366.550563395 38977205.402828217 0 38977205.402828217 58557185.49949646 0 0 0 0 -1337145.623131752 -23612179.777944088 0 -23612179.777944088 36797612.576986313 0 0 0 0 9467055.4325787425 -17030822.366143703 0 -17030822.366143703 -5382537.8117723465 0 0 0 0 -7227646.3710891716 13262216.633202076 0 13262216.633202076 40802670.814746857 0 0 0 0 -1375806.5336017646 -11168798.790996909 0 -11168798.790996909 15734338.120414734 0 0 0 0 30661268.336892992 18464804.5968256 0 18464804.5968256 38759346.594995499 0 0 0 0 20190323.365153134 -12403631.190186024 0 -12403631.190186024 6863387.4308052063 0 0 0 0 35218997.873669952 -22436628.855377913 0 -22436628.855377913 20812010.064092636 0 0 0 0 46835307.354232281 -18656507.641394615 0 -18656507.641394615 6050401.9239066839 0 0 0 0 50981652.254228316 39978435.515259743 0 39978435.515259743 82387532.765174866 0 0 0 0 121032196.30704677 -13517788.458863258 0 -13517788.458863258 21609395.776058674 0 0 0 0 11014770.058944717 -18421781.221450806 0 -18421781.221450806 98449533.75767374 0 0 0 0 12396271.472204328 -14790021.659935951 0 -14790021.659935951 38197611.360298157 0 0 0 0 14229969.562967891 4013874.2978057861 0 4013874.2978057861 47827098.698317528 0 0 0 0 7872937.3282208294 15364543.492169857 0 15364543.492169857 51466118.188211441 0 0 0 0 -1205345.9847975969 1774952.6810474396 0 1774952.6810474396 31631036.314619064 0 0 0 0 757968.47308927774 -19957416.078811646 0 -19957416.078811646 47171725.65877533 0 0 0 0 -8173511.5114101171 -10928681.674068928 0 -10928681.674068928 40435911.154605865 0 0 0 0 1772692.8915631771 -26895656.529285431 0 -26895656.529285431 28359667.428954124 0 0 0 0 -8217092.730371803 -17174066.927892685 0 -17174066.927892685 22744918.208698273 0 0 0 0 23487237.561751168 -30964677.479186058 0 -30964677.479186058 18583884.986165047 0 0 0 0 2226592.5681500994 -24155943.822592974 0 -24155943.822592974 44889800.809265137 0 0 0 0 -8772.3955355038397 -582264.16354079219 0 -582264.16354079219 290583.96640533954 0 0 0 0 85786632.483105719 34252714.907449245 0 34252714.907449245 19169757.329055786 0 0 0 0 44186563.896765262 -41317744.406321526 0 -41317744.406321526 42051493.436603546 0 0 0 0 -106634.98358932397 -76552.904418749502 0 -76552.904418749502 367149.25667258538 0 0 0 0 28893713.126090836 -16790429.419468641 0 -16790429.419468641 4347296.9979896545 0 0 0 0 32040755.127650589 -27707836.313176155 0 -27707836.313176155 -65416675.369495392 0 0 0 0 -14372842.41752895 71490633.123781681 0 71490633.123781681 159942758.86876297 0 0 0 0 -4266793.2904192507 -545878.44911885262 0 -545878.44911885262 4583572.5637331009 0 0 0 0 -759516.96352392645 230926.58196677172 0 230926.58196677172 2922012.4407077376 0 0 0 0 -5203229.5218900442 -10607883.515285492 0 -10607883.515285492 12112621.168653488 0 0 0 0 -1948593.1732262364 -2296741.0375319547 0 -2296741.0375319547 2889173.2335597416 0 0 0 0 3413005.0203778148 -16347944.218416214 0 -16347944.218416214 13012673.856363297 0 0 0 0 13145377.740265995 -7872100.1839256287 0 -7872100.1839256287 4120647.8195818365 0 0 0 0 -695536.32421858981 -1892140.5520191505 0 -1892140.5520191505 1307325.4989739135 0 0 0 0 4958027.3087603003 -19292160.402542114 0 -19292160.402542114 13462278.642760754 0 0 0 0 493570.05914151168 186245.38470680988 0 186245.38470680988 -61825.208569481038 0 0 0 0 -35638362.479190439 48082742.619732141 0 48082742.619732141 -11307855.76291275 0 0 0 0 -12031645.724009514 41883667.534907341 0 41883667.534907341 -40380121.047327042 0 0 0 0 -678260.05775916576 -28351198.181340218 0 -28351198.181340218 -764680.3057346344 0 0 0 0 -28697314.89691335 19346410.758500099 0 19346410.758500099 93043693.69890976 0 0 0 0 65326894.219374478 49515383.655324936 0 49515383.655324936 -52047080.516775131 0 0 0 0 247202.3726986284 69711.949031013064 0 69711.949031013064 -58366.802661168855 0 0 0 0 -33017681.791258007 4747179.8893857002 0 4747179.8893857002 65132632.276948929 0 0 0 0 -17443989.330158353 -26163475.479162216 0 -26163475.479162216 65427772.865882874 0 0 0 0 -2319918.474101752 14334566.872249603 0 14334566.872249603 26849586.761930466 0 0 0 0 -26439097.807444513 -676664.86888217926 0 -676664.86888217926 57651841.518787384 0 0 0 0 -2185333.9085719506 20326170.694261223 0 20326170.694261223 16233870.521461487 0 0 0 0 22678830.646268725 72217363.008899689 0 72217363.008899689 77393498.785799026 0 0 0 0 28829966.394729652 16508791.180679321 0 16508791.180679321 3765278.90092659 0 0 0 0 6412715.2908491194 4442573.1351809502 0 4442573.1351809502 3219297.4109115601 0 0 0 0 3430331.0125729758 -2643074.3317537308 0 -2643074.3317537308 -1416265.6554450989 0 0 0 0 3888251.4675408602 1594803.3724944592 0 1594803.3724944592 3737994.433095932 0 0 0 0 2353256.9437599778 -794582.83442497253 0 -794582.83442497253 17014078.608132839 0 0 0 0 -3313842.3193729818 1993515.9358940125 0 1993515.9358940125 3421137.2830901146 0 0 0 0 -97544.000182277756 2110610.7773215319 0 2110610.7773215319 4161871.2148245922 0 0 0 0 -2868716.9389653802 1160293.7449537516 0 1160293.7449537516 4277834.7294988632 0 0 0 0 -1362553.5823511779 -1625368.8178117275 0 -1625368.8178117275 4949513.2483949661 0 0 0 0 -1512400.7684102096 -391822.61698949337 0 -391822.61698949337 1457776.6939544678 0 0 0 0 -932628.85605013778 -206195.59639274044 0 -206195.59639274044 3713476.0659012515 0 0 0 0 -31897210.294256508 -13371964.957442284 0 -13371964.957442284 319459.25403404236 0 0 0 0 117167603.89530069 49348024.673192024 0 49348024.673192024 -88569679.430356979 0 0 0 0 12059263.42161338 -28255323.257566452 0 -28255323.257566452 -39482968.400640488 0 0 0 0 2137709.2693980783 -2959983.1715779305 0 -2959983.1715779305 1328895.0584831238 0 0 0 0 -1346076.9130587578 556359.68320012093 0 556359.68320012093 3475138.1125860326 0 0 0 0 58581.044435977936 1108420.2853138447 0 1108420.2853138447 3464096.3734147586 0 0 0 0 -1178796.2842574716 2305687.9163651019 0 2305687.9163651019 2031795.3204469681 0 0 0 0 642486.15341281891 1573796.7566223145 0 1573796.7566223145 3725604.0113866329 0 0 0 0 -2232409.0934967995 1201087.5190443993 0 1201087.5190443993 3893608.6011009216 0 0 0 0 -381466.88070620073 483361.39387464791 0 483361.39387464791 3552645.2434774926 0 0 0 0 -2175654.8709497452 1893962.6518239975 0 1893962.6518239975 5279020.184071064 0 0 0 0 -5399251.9796805382 2013336.8749732971 0 2013336.8749732971 1651680.3106968403 0 0 0 0 -3191139.9672727585 3894170.4598670006 0 3894170.4598670006 4172325.5029783249 0 0 0 0 -2084807.3355154991 2454678.2544233799 0 2454678.2544233799 1229275.8585472107 0 0 0 0 -486741.94566693204 194650.33520381525 0 194650.33520381525 3732361.2430489836 0 0 0 0 -47152.267854462378 2591795.4683001479 0 2591795.4683001479 1210416.6969715948 0 0 0 0 -3069172.358905077 2698152.4170835018 0 2698152.4170835018 1514829.5119903088 0 0 0 0 -2266443.4170999378 2908775.4645181634 0 2908775.4645181634 3681155.4306364059 0 0 0 0 2792820.6108093262 9873003.8658256531 0 9873003.8658256531 -3068100.5753526688 0 0 0 0 -4250011.2904448509 3062062.7217168808 0 3062062.7217168808 3630192.4863495827 0 0 0 0 10490326.238068104 11435197.853877068 0 11435197.853877068 1101980.0330286026 0 0 0 0 -7445060.7737753391 6423837.1188807487 0 6423837.1188807487 3327453.6219787598 0 0 0 0 8171807.4541904926 5087064.577147007 0 5087064.577147007 -1817965.1083364487 0 0 0 0 -1248303.8254227638 10212056.099462509 0 10212056.099462509 14013882.275205612 0 0 0 0 -308400.33226271649 589736.35282135569 0 589736.35282135569 373469.82565795351 0 0 0 0 10171117.982270837 11046654.78490746 0 11046654.78490746 6678165.7832517624 0 0 0 0 -2396072.511566937 8442079.2542114258 0 8442079.2542114258 8842431.6088123322 0 0 0 0 7328829.6647830009 3374313.8510894775 0 3374313.8510894775 5013818.2887363434 0 0 0 0 4576463.6137034893 8332547.9806118011 0 8332547.9806118011 4264776.1121311188 0 0 0 0 6854926.4344124794 14200143.988771439 0 14200143.988771439 15118057.628939629 0 0 0 0 2759929.2121600001 4921837.0661009736 0 4921837.0661009736 5992477.694383543 0 0 0 0 -2100508.0716669559 2710713.1420388222 0 2710713.1420388222 -2085501.6043224335 0 0 0 0 -2268871.2136224508 -3012340.6711258888 0 -3012340.6711258888 7603753.4148311615 0 0 0 0 -6190052.0137367249 8772819.8375453949 0 8772819.8375453949 24964246.889228821 0 0 0 0 470653.77532231715 5152805.5064033056 0 5152805.5064033056 10381763.289002582 0 0 0 0 -2885421.6910274029 13360122.562145233 0 13360122.562145233 8553150.62084198 0 0 0 0 -3858437.4129061699 10585392.188453674 0 10585392.188453674 24707986.348186493 0 0 0 0 -9950825.9534430504 15942066.231388092 0 15942066.231388092 32673319.722854614 0 0 0 0 -5425693.4328793064 1509574.7952216682 0 1509574.7952216682 13412588.001784574 0 0 0 0 -8958456.0485838652 12426187.206455708 0 12426187.206455708 24370633.081142426 0 0 0 0 -7957640.9956560135 9038093.7088074684 0 9038093.7088074684 26579460.821418762 0 0 0 0 -15686956.233633041 6979888.1689786911 0 6979888.1689786911 12129535.023630142 0 0 0 0 -56077043.843298256 -11270162.727752447 0 -11270162.727752447 29734946.676958084 0 0 0 0 -2665195.6381536466 -1607347.8584771361 0 -1607347.8584771361 13692748.641591331 0 0 0 0 -14460963.437520027 4575249.2330055237 0 4575249.2330055237 13249480.05777055 0 0 0 0 -47157838.443128079 -1235626.1880750954 0 -1235626.1880750954 29543009.838657379 0 0 0 0 -46349993.985627711 -19105671.445890307 0 -19105671.445890307 30337837.0546875 0 0 0 0 -25159828.375212193 -15159702.094390869 0 -15159702.094390869 28269642.190750122 0 0 0 0 -14797891.191954494 -21610356.816244125 0 -21610356.816244125 27119310.454799652 0 0 0 0 -9027486.0448598266 -14411408.728535652 0 -14411408.728535652 26471707.646362305 0 0 0 0 -27935795.654890299 -17962283.860582352 0 -17962283.860582352 31654644.797075272 0 0 0 0 -37136776.993725784 2399330.5477425456 0 2399330.5477425456 19462445.070491791 0 0 0 0 -25480389.941627979 -11766870.925017357 0 -11766870.925017357 23666310.408908844 0 0 0 0 -34980466.278590083 -15301794.783697128 0 -15301794.783697128 29713082.319696426 0 0 0 0 -20489770.903704643 -14323729.221473694 0 -14323729.221473694 23884281.595027924 0 0 0 0 -31022010.413623214 -8085363.7431793213 0 -8085363.7431793213 24925760.762744904 0 0 0 0 -2715413.6854934692 3746722.361758709 0 3746722.361758709 4166150.6652588844 0 0 0 0 -15737562.490000725 -5736044.4910163879 0 -5736044.4910163879 17827429.039188385 0 0 0 0 -1331087.7091590508 1621016.7501013642 0 1621016.7501013642 11923312.478934335 0 0 0 0 -15961127.20965445 -8900924.6577186584 0 -8900924.6577186584 21961558.88495636 0 0 0 0 -5103784.8199122688 -7421321.4426490515 0 -7421321.4426490515 18037014.012491226 0 0 0 0 -7872871.6092815995 -20840346.190882683 0 -20840346.190882683 22045829.171373844 0 0 0 0 -8502240.7312372327 -14240806.634949684 0 -14240806.634949684 19718058.121097565 0 0 0 0 -2272069.052271843 3072114.112121582 0 3072114.112121582 3925121.5343589783 0 0 0 0 7431577.2474822998 1914540.2063751221 0 1914540.2063751221 27239530.435213089 0 0 0 0 -303229.24810451118 3044550.4008128811 0 3044550.4008128811 2027956.6393332509 0 0 0 0 -20694346.398378491 -2445056.7261457443 0 -2445056.7261457443 5310176.0877799988 0 0 0 0 -1775571.2266288148 -371877.49326844933 0 -371877.49326844933 12119749.157577742 0 0 0 0 -798667.22831657808 318336.99675159156 0 318336.99675159156 1822427.116418248 0 0 0 0 -2069744.9238061905 -14106233.520309448 0 -14106233.520309448 -63336.641067504883 0 0 0 0 -5296060.8582972698 2928353.7189958077 0 2928353.7189958077 13198043.513238152 0 0 0 0 -4012584.0776219368 678448.64003944397 0 678448.64003944397 3017832.5221939087 0 0 0 0 -3067072.3551038471 787897.76462244953 0 787897.76462244953 9137773.8517299555 0 0 0 0 -31121527.242954731 -82368363.682316542 0 -82368363.682316542 40775750.152956009 0 0 0 0 143401396.03549099 -6383795.9213418961 0 -6383795.9213418961 24050950.286160469 0 0 0 0 14267965.824455738 -31052072.532815456 0 -31052072.532815456 69530167.494623184 0 0 0 0 -44177278.474830627 29048703.105528831 0 29048703.105528831 20010279.358644485 0 0 0 0 -38753.423843687517 129191.25692338124 0 129191.25692338124 124493.56119568553 0 0 0 0 165585445.78538656 -14466708.068426132 0 -14466708.068426132 -9943781.9280872345 0 0 0 0 -7053423.8117006421 5553681.3797875643 0 5553681.3797875643 41269806.9758358 0 0 0 0 68538856.821286678 -99128186.924676895 0 -99128186.924676895 7615633.6596012115 0 0 0 0 19124371.860904217 -42180934.218188167 0 -42180934.218188167 35620347.710150719 0 0 0 0 -59255.339536708256 195183.0059661225 0 195183.0059661225 234330.80017472059 0 0 0 0 55357007.278211355 -31656651.084402561 0 -31656651.084402561 -12577420.199327111 0 0 0 0 -12356782.265776336 -5689889.6320556402 0 -5689889.6320556402 13996222.319749832 0 0 0 0 54843518.271947384 41553603.567536354 0 41553603.567536354 19367007.360824585 0 0 0 0 77567820.333925247 78610843.970329762 0 78610843.970329762 31268992.729804993 0 0 0 0 220580248.03233504 126745094.28702021 0 126745094.28702021 47006181.379149437 0 0 0 0 249928383.13045955 -23814669.183829308 0 -23814669.183829308 34282721.92159462 0 0 0 0 91484902.512623787 70301053.563529015 0 70301053.563529015 22019257.512102187 0 0 0 0 76459859.994127989 53707495.596686363 0 53707495.596686363 13063862.484138489 0 0 0 0 -13541701.374574184 -613554.22783613205 0 -613554.22783613205 40191333.557990074 0 0 0 0 265891.42952108022 78611.409642779734 0 78611.409642779734 -55224.131382261869 0 0 0 0 116016795.68570505 28000022.628513753 0 28000022.628513753 -78721586.260139465 0 0 0 0 97480057.192977488 120667299.59553421 0 120667299.59553421 81878042.758529663 0 0 0 0 133141172.39262891 115231055.20936251 0 115231055.20936251 36848944.133106232 0 0 0 0 51876838.630500793 31877388.699128866 0 31877388.699128866 80790420.650845528 0 0 0 0 142973466.80666089 88853346.721466064 0 88853346.721466064 62323745.5721066 0 0 0 0 138118499.43080866 116787777.77895641 0 116787777.77895641 52615099.201102257 0 0 0 0 2061255.7466728687 83904495.813798904 0 83904495.813798904 140782621.34900761 0 0 0 0 131053665.30215994 132106694.76135612 0 132106694.76135612 70200883.058682442 0 0 0 0 82998440.446516991 38094573.826065063 0 38094573.826065063 99882043.590395778 0 0 0 0 77646222.620136738 54123416.06898284 0 54123416.06898284 60815783.189040184 0 0 0 0 2830231.2968246937 6601632.8155012131 0 6601632.8155012131 68683711.602957845 0 0 0 0 -1111627.6561330557 33062449.688441277 0 33062449.688441277 -25684378.949512005 0 0 0 0 15306600.394880652 -11340978.94047451 0 -11340978.94047451 14239640.457090378 0 0 0 0 -15820394.23854816 48699329.856147766 0 48699329.856147766 -52598688.1017313 0 0 0 0 516557.16892313591 193863.35074549378 0 193863.35074549378 -62968.753047257662 0 0 0 0 -21310024.361590713 49345584.156532288 0 49345584.156532288 53688037.021007538 0 0 0 0 1649289.4311555028 -23856294.899998188 0 -23856294.899998188 21469349.4635396 0 0 0 0 -12066545.702495575 -2508493.5426187515 0 -2508493.5426187515 72696948.426281929 0 0 0 0 87940.943146718448 401450.98224478576 0 401450.98224478576 287722.93219515495 0 0 0 0 14225069.925962627 -19600005.535743713 0 -19600005.535743713 17538692.603212357 0 0 0 0 -742084.61650490761 5920483.1847553253 0 5920483.1847553253 3118124.1324939728 0 0 0 0 -6900022.0581106544 2557694.9248781204 0 2557694.9248781204 5743720.2881298065 0 0 0 0 57404.400967195863 1561143.531720716 0 1561143.531720716 1199336.1002410939 0 0 0 0 2866813.724578023 5506107.509847641 0 5506107.509847641 2066180.2813220024 0 0 0 0 918497.57587834203 331461.8724151731 0 331461.8724151731 -1146438.4701948063 0 0 0 0 7169983.5967074037 1611688.7978849411 0 1611688.7978849411 -3446801.2654342651 0 0 0 0 15021356.119936645 27840565.382713318 0 27840565.382713318 48374515.952362061 0 0 0 0 7631591.8547972441 1856317.9773826599 0 1856317.9773826599 4004681.5804662704 0 0 0 0 5385138.3028630018 9262418.7366094589 0 9262418.7366094589 22797750.758301735 0 0 0 0 6607627.9231493473 2768266.0197067261 0 2768266.0197067261 -3287369.2340202332 0 0 0 0 14471821.073393703 2909531.1120562553 0 2909531.1120562553 -5275359.0261440277 0 0 0 0 16146319.70586288 4438829.7881402969 0 4438829.7881402969 -8771526.7258815765 0 0 0 0 10589360.761955738 5310965.6680397987 0 5310965.6680397987 16140847.342449188 0 0 0 0 15617464.829527378 961657.94753074646 0 961657.94753074646 15719950.242169738 0 0 0 0 4971019.402626276 -4537044.0857748985 0 -4537044.0857748985 53229673.442834854 0 0 0 0 41596069.711160898 15789530.469918251 0 15789530.469918251 47514516.118765831 0 0 0 0 -10373944.217754662 -7810277.1452223063 0 -7810277.1452223063 52056036.701519012 0 0 0 0 9280839.226016283 -8188822.9358658791 0 -8188822.9358658791 45468604.223602295 0 0 0 0 30140888.127371311 4315928.2169475555 0 4315928.2169475555 19977848.243268967 0 0 0 0 22817958.92312175 29106501.656419396 0 29106501.656419396 82647704.517541885 0 0 0 0 108326038.01822495 152932415.22671032 0 152932415.22671032 138732588.36232471 0 0 0 0 157760.55393402319 488076.14128519857 0 488076.14128519857 317519.17202462256 0 0 0 0 -58944968.632044554 -27540500.245994568 0 -27540500.245994568 102416033.43652725 0 0 0 0 717235445.67366791 75152871.936774135 0 75152871.936774135 35121499.547676086 0 0 0 0 -14690450.070465088 62383701.465774536 0 62383701.465774536 185234233.76906872 0 0 0 0 -6283566.3646341562 26393583.796221256 0 26393583.796221256 -921478.40193271637 0 0 0 0 29792773.381743431 2833265.2816214561 0 2833265.2816214561 -5243483.4752006531 0 0 0 0 -38948081.127422094 10927526.568778038 0 10927526.568778038 3712916.921479702 0 0 0 0 325724.14703501802 1298719.6674992121 0 1298719.6674992121 1069822.0513759516 0 0 0 0 725448605.60931504 -180380100.02303672 0 -180380100.02303672 -88616339.907756805 0 0 0 0 121103158.69121265 -178776064.8441658 0 -178776064.8441658 195860572.9195118 0 0 0 0 239977712.0935421 -26252663.464385033 0 -26252663.464385033 116575189.03828812 0 0 0 0 393121501.02714872 70830305.674560547 0 70830305.674560547 28328154.968347549 0 0 0 0 101852446.22853661 -4224245.4479560852 0 -4224245.4479560852 51930003.982927322 0 0 0 0 125989799.26411486 213791110.8407383 0 213791110.8407383 -124503269.71309471 0 0 0 0 124018334.72272503 8179112.2512207031 0 8179112.2512207031 -206048823.82044029 0 0 0 0 -60274393.171136856 67121731.806918144 0 67121731.806918144 13841560.899416327 0 0 0 0 193284304.2457068 123094056.03252792 0 123094056.03252792 62652386.380475998 0 0 0 0 39681749.088222504 14943675.186184883 0 14943675.186184883 17826917.239786744 0 0 0 0 4708395.9877586365 40753505.885686874 0 40753505.885686874 78629119.309112549 0 0 0 0 -87189838.160583496 -49732519.030231476 0 -49732519.030231476 112999898.19021559 0 0 0 0 12267476.839337707 11978614.761323929 0 11978614.761323929 182666359.80822754 0 0 0 0 201096694.28499746 100877783.9700861 0 100877783.9700861 231274052.42817879 0 0 0 0 129333754.47573948 -41179278.822689056 0 -41179278.822689056 99184634.6031847 0 0 0 0 169249099.10934281 -65086261.485867023 0 -65086261.485867023 139512230.07584572 0 0 0 0 19348705.720229626 -60230261.753170013 0 -60230261.753170013 107615374.40542412 0 0 0 0 22843835.41356802 27869455.403600693 0 27869455.403600693 112521176.52334976 0 0 0 0 3171048.5221209596 267999.76335831918 0 267999.76335831918 441413.85059435759 0 0 0 0 -25631497.013349533 62878594.334541321 0 62878594.334541321 -60401566.103992462 0 0 0 0 6004993.7971248627 -30632559.624526978 0 -30632559.624526978 65970193.02318716 0 0 0 0 -53127517.561565399 17373059.410083771 0 17373059.410083771 19139096.370437622 0 0 0 0 -65331779.924344063 65871141.481750488 0 65871141.481750488 56022971.962134123 0 0 0 0 -20793356.640543938 -77881072.48128891 0 -77881072.48128891 110612335.02502441 0 0 0 0 339249466.08345795 -145262354.05332565 0 -145262354.05332565 -34278644.373935699 0 0 0 0 650643794.57979667 11517654.476249695 0 11517654.476249695 -26561298.321591377 0 0 0 0 572226945.28112161 63926250.520965576 0 63926250.520965576 -35229096.751663208 0 0 0 0 318552941.62128067 -122032320.02097321 0 -122032320.02097321 -39967113.645194054 0 0 0 0 246456272.87398529 -8084526.9148292542 0 -8084526.9148292542 31630679.015151978 0 0 0 0 111729239.98087883 -49036161.287471771 0 -49036161.287471771 60267461.746395111 0 0 0 0 246148192.64495945 -16923045.479511261 0 -16923045.479511261 2066045.5442352295 0 0 0 0 89347113.221418858 -33483915.414834023 0 -33483915.414834023 31627170.564292908 0 0 0 0 245701437.61345521 41967351.475371495 0 41967351.475371495 21717967.963699341 0 0 0 0 424762289.7345829 -4258127.7511825562 0 -4258127.7511825562 -34363086.853713989 0 0 0 0 197063003.17866898 -309078.46245574951 0 -309078.46245574951 -21185898.29268074 0 0 0 0 331378630.77871704 39666611.345436096 0 39666611.345436096 -16490327.338157654 0 0 0 0 178537729.13128167 40283446.582923889 0 40283446.582923889 16417827.235519409 0 0 0 0 109431103.1207819 22961375.81231308 0 22961375.81231308 26377768.4112854 0 0 0 0 26651387.770158768 14952303.799621582 0 14952303.799621582 25642172.412193298 0 0 0 0 77046750.023236275 15369351.735928535 0 15369351.735928535 35834532.285583496 0 0 0 0 -7810151.9655742645 -34764821.937994003 0 -34764821.937994003 32293458.378807068 0 0 0 0 -42501116.169128418 15922842.716796875 0 15922842.716796875 16094477.352844238 0 0 0 0 -39912794.900745392 24499091.652135849 0 24499091.652135849 43521334.516487122 0 0 0 0 -48565157.016719818 25566722.236398697 0 25566722.236398697 9702643.9305419922 0 0 0 0 -47945882.379581451 -16527363.815368652 0 -16527363.815368652 1070767.4866371155 0 0 0 0 -46341785.645391464 -9584108.9992713928 0 -9584108.9992713928 28769866.873451233 0 0 0 0 -40880374.674012184 -23215031.709533691 0 -23215031.709533691 -183366.41390609741 0 0 0 0 -29497278.041601181 -37708939.129547119 0 -37708939.129547119 18231856.79871273 0 0 0 0 -31747617.645200729 -6318868.27394104 0 -6318868.27394104 37149610.871902466 0 0 0 0 -20913009.08465445 26483780.361694098 0 26483780.361694098 42250670.097026825 0 0 0 0 -19958284.462116241 40914630.888870239 0 40914630.888870239 1112064.1860466003 0 0 0 0 -11993240.066216469 4069155.3742790222 0 4069155.3742790222 27507069.080394745 0 0 0 0 -20333740.742607355 -4741772.9784326553 0 -4741772.9784326553 59409455.321376801 0 0 0 0 -532023.0868976037 -601454.04755503731 0 -601454.04755503731 771780.15515873604 0 0 0 0 51894110.474996567 29595498.402158737 0 29595498.402158737 70090631.298718333 0 0 0 0 201307368.10168982 121546588.09670067 0 121546588.09670067 -329108395.84883881 0 0 0 0 199168582.25600863 -4022646.0018196106 0 -4022646.0018196106 30755010.585540771 0 0 0 0 101892743.48877931 32099420.718229294 0 32099420.718229294 -13220962.995121002 0 0 0 0 -123673.20568216778 -539772.03353155311 0 -539772.03353155311 692536.55740295851 0 0 0 0 159377760.24125576 75842020.67029953 0 75842020.67029953 32650268.231040955 0 0 0 0 91163722.801538467 -7274301.8574419022 0 -7274301.8574419022 -68381213.189651489 0 0 0 0 300262488.47446942 111494084.80464554 0 111494084.80464554 -12615572.186877251 0 0 0 0 276445280.50904727 -52913652.021657944 0 -52913652.021657944 37889404.197746277 0 0 0 0 354751040.03447866 92025107.485809326 0 92025107.485809326 -33227747.636291504 0 0 0 0 -18638227.184960723 11170981.559550762 0 11170981.559550762 3815544.5641326904 0 0 0 0 703621960.20207047 14458105.139693975 0 14458105.139693975 -158128967.99002838 0 0 0 0 304775.55970339855 2140987.2487494955 0 2140987.2487494955 2387589.9931858927 0 0 0 0 355392335.26395941 303244644.73270035 0 303244644.73270035 -190323303.72279358 0 0 0 0 -948252.57058596611 8224695.8646531105 0 8224695.8646531105 -2329382.62657547 0 0 0 0 -4835867.2985129356 14503683.333979607 0 14503683.333979607 -1870042.8477125168 0 0 0 0 -801818.95809435844 10827082.714403152 0 10827082.714403152 -2616848.110206604 0 0 0 0 -8090875.8051688671 3553843.092508316 0 3553843.092508316 1915199.0025672913 0 0 0 0 -656176.05241155624 5989233.8147792816 0 5989233.8147792816 1160358.8375167847 0 0 0 0 -747399.40564632416 4880730.6920704842 0 4880730.6920704842 6609006.9351940155 0 0 0 0 -1824788.0642631054 7973716.0375175476 0 7973716.0375175476 5433842.9105606079 0 0 0 0 1176079091.0875435 -972794478.48968506 0 -972794478.48968506 260407366.1617074 0 0 0 0 1572059.1083946284 1663577.9814885771 0 1663577.9814885771 -2180330.6049854513 0 0 0 0 -2285518.7556312084 7932124.0419578552 0 7932124.0419578552 7623353.4305877686 0 0 0 0 342945036.73228145 101698331.01322651 0 101698331.01322651 18565602.237464905 0 0 0 0 66304.6571389374 3148119.9455559603 0 3148119.9455559603 4331328.4167848332 0 0 0 0 308431554.24812794 101171539.68877411 0 101171539.68877411 30690618.814949036 0 0 0 0 381618336.52147388 107740503.44608688 0 107740503.44608688 -1999182.4889907837 0 0 0 0 369474931.91721535 129913754.29618073 0 129913754.29618073 61030244.252319336 0 0 0 0 345349634.99387193 153389006.73562336 0 153389006.73562336 125687740.07550049 0 0 0 0 -162391841.16530132 204320348.28876495 0 204320348.28876495 282652740.47261047 0 0 0 0 248390.34604592674 450773.27840793692 0 450773.27840793692 -114298.89458524808 0 0 0 0 -4054883.3797359467 -15777211.021377563 0 -15777211.021377563 -49987369.049125671 0 0 0 0 240566515.12957478 39821834.49937439 0 39821834.49937439 -130787569.13999557 0 0 0 0 557871435.64345288 174633643.63885117 0 174633643.63885117 9616547.7367095947 0 0 0 0 -101983.8920677061 256818.84299831744 0 256818.84299831744 1188527.3822940653 0 0 0 0 440549927.42189074 242825247.02636147 0 242825247.02636147 112656148.54892731 0 0 0 0 810041609.73662603 267832496.33348846 0 267832496.33348846 -53696103.549179077 0 0 0 0 -69328.492794923251 -710108.35087576159 0 -710108.35087576159 1803315.6324716974 0 0 0 0 379340771.91556835 -389277501.60118103 0 -389277501.60118103 218923950.85931778 0 0 0 0 -87682217.189479828 948172756.7206974 0 948172756.7206974 -8241078.5343551636 0 0 0 0 426363911.00146961 -132354304.86928177 0 -132354304.86928177 50155255.3853302 0 0 0 0 -1623507544.3788185 1170550536.0422897 0 1170550536.0422897 106227967.60336447 0 0 0 0 -184618086.94771099 -29712462.984687805 0 -29712462.984687805 204849016.88990402 0 0 0 0 -99869160.089015961 -401292478.60565186 0 -401292478.60565186 792277433.86749268 0 0 0 0 97178439.183959007 -251596391.9247036 0 -251596391.9247036 196510596.52090454 0 0 0 0 -45678275.32903862 -164235465.03233719 0 -164235465.03233719 311764109.13499069 0 0 0 0 -71664137.035104513 -65943597.150382042 0 -65943597.150382042 94066097.904167175 0 0 0 0 -1981741.5424785614 -204886862.5573349 0 -204886862.5573349 200550638.7963562 0 0 0 0 -14617653.602714539 -120587758.76638794 0 -120587758.76638794 -850694.45138162374 0 0 0 0 -131889680.80903256 67333148.34428215 0 67333148.34428215 2693447.589630127 0 0 0 0 -73971082.267727613 -31512799.883119583 0 -31512799.883119583 161319011.18102646 0 0 0 0 -124074028.44491291 93378792.613845825 0 93378792.613845825 76933480.918792725 0 0 0 0 -121180401.08566558 67632189.276823997 0 67632189.276823997 -44108895.805957794 0 0 0 0 -260817194.95601177 412912387.59721375 0 412912387.59721375 -76492835.143779755 0 0 0 0 -109029509.02736282 35866919.185367584 0 35866919.185367584 261744526.47916412 0 0 0 0 -430081539.17695045 115626236.21590805 0 115626236.21590805 619260678.35934925 0 0 0 0 7019152.8001286983 8508824.9150094986 0 8508824.9150094986 -103391.1489315033 0 0 0 0 5725630.9161958694 10423802.630931377 0 10423802.630931377 241731.19893836975 0 0 0 0 1851731.9341627592 2530203.7157986304 0 2530203.7157986304 -3034228.3186443066 0 0 0 0 1722051.0907411575 11526412.891015053 0 11526412.891015053 -4139497.0182657242 0 0 0 0 7272849.7052154541 9889874.3738369942 0 9889874.3738369942 -4558019.75548172 0 0 0 0 8637256.6223974228 6885556.6640000343 0 6885556.6640000343 -349707.80594444275 0 0 0 0 772793.96575641632 8160855.6842556 0 8160855.6842556 345256.18132352829 0 0 0 0 5368570.8285725117 2757856.4036188126 0 2757856.4036188126 -3158960.9734249115 0 0 0 0 5978198.1428200603 1739540.0873847008 0 1739540.0873847008 -3390136.3069458008 0 0 0 0 11813608.668286247 3116827.4274220467 0 3116827.4274220467 -20074104.430339813 0 0 0 0 -7225381.4977984428 82224402.145273209 0 82224402.145273209 -237131885.7728796 0 0 0 0 -14641296.481075883 13771145.441495895 0 13771145.441495895 17645010.920164108 0 0 0 0 1557122.4822639823 6670239.426779747 0 6670239.426779747 3313511.0881824493 0 0 0 0 -169691.60130152697 1728240.4427857774 0 1728240.4427857774 4882810.2370072138 0 0 0 0 320816.82716995123 3345217.8535632337 0 3345217.8535632337 -2284440.7541192397 0 0 0 0 -2094368.2322553396 3632836.1772193909 0 3632836.1772193909 3008388.9730901718 0 0 0 0 292853.31442828849 1067628.3412130908 0 1067628.3412130908 3540558.3363196831 0 0 0 0 -1922097.0862197876 4425449.7254629135 0 4425449.7254629135 4680005.2166538239 0 0 0 0 -2247850.8437261581 2896704.6105642319 0 2896704.6105642319 2789656.9853553772 0 0 0 0 -1526710.7574059367 2220741.603074789 0 2220741.603074789 1393223.1668567657 0 0 0 0 -4637231.9876640663 1800430.4828150272 0 1800430.4828150272 11049800.20124054 0 0 0 0 -4402144.5674422383 3271891.7664833069 0 3271891.7664833069 7017639.3770294189 0 0 0 0 -89737.891145333764 967874.05936177284 0 967874.05936177284 4085522.1908526151 0 0 0 0 -2491665.0579508543 1140031.3485603333 0 1140031.3485603333 5745248.5333824158 0 0 0 0 -369566.45672297478 -2340594.2295417786 0 -2340594.2295417786 5377718.7556381226 0 0 0 0 -2039839.1832826138 -2123663.3080291748 0 -2123663.3080291748 10353640.85503006 0 0 0 0 -3198658.7331911325 101962.66184043884 0 101962.66184043884 7419458.446472168 0 0 0 0 328839.0833122154 -376866.75457141246 0 -376866.75457141246 2464898.1476242356 0 0 0 0 -164575177.10934645 56306018.984558105 0 56306018.984558105 41084415.984851837 0 0 0 0 -210979.71416091919 -2973786.552236557 0 -2973786.552236557 7567742.9530982971 0 0 0 0 22134294.222236872 40490187.892766476 0 40490187.892766476 10427901.691516876 0 0 0 0 114039615.17464995 -45625440.423847198 0 -45625440.423847198 -5037764.3305587769 0 0 0 0 -30973781.459130049 8502248.7814216614 0 8502248.7814216614 43130056.806993484 0 0 0 0 -262376.21279884403 527920.4518021401 0 527920.4518021401 1208032.2721712878 0 0 0 0 -31216456.482609987 5368565.7900466919 0 5368565.7900466919 15458256.359138489 0 0 0 0 15645.719528843707 261237.4049422238 0 261237.4049422238 876933.47779892758 0 0 0 0 -1202584.3411545753 23454521.347324371 0 23454521.347324371 -657214.97772979736 0 0 0 0 10184376.279030442 7083626.8102264404 0 7083626.8102264404 13789711.227333069 0 0 0 0 -1016695.3441852961 2016923.0493618296 0 2016923.0493618296 2399062.3710592566 0 0 0 0 6894355.8006327152 5360603.4056091309 0 5360603.4056091309 6121474.4380426407 0 0 0 0 12467446.069235586 33205634.500760198 0 33205634.500760198 92191540.175662994 0 0 0 0 3570506.8624535799 -11157068.875938416 0 -11157068.875938416 33651727.666606903 0 0 0 0 -1720804.7514901161 6829208.5559425354 0 6829208.5559425354 37051765.967664242 0 0 0 0 10197965.464675367 14172118.648744345 0 14172118.648744345 16410362.464019775 0 0 0 0 -42399696.345898628 -31950835.258935928 0 -31950835.258935928 16071970.619014263 0 0 0 0 -84170498.982317209 -2548077.1476783752 0 -2548077.1476783752 99191015.702026367 0 0 0 0 -16807139.179668546 -51987539.246376038 0 -51987539.246376038 132134952.39478683 0 0 0 0 9332.2540162137011 561258.92946359795 0 561258.92946359795 327496.17228184268 0 0 0 0 -5235493.6441391706 255477025.77836466 0 255477025.77836466 167993258.99829102 0 0 0 0 -72191169.918961644 -60930345.363605499 0 -60930345.363605499 132399671.46545982 0 0 0 0 -116552073.95396528 -262591534.3152895 0 -262591534.3152895 602694046.55303192 0 0 0 0 110685314.23910153 -202947413.10767365 0 -202947413.10767365 207813707.27727127 0 0 0 0 90941244.348157749 -238464702.96725559 0 -238464702.96725559 503509944.41362 0 0 0 0 8245072.7299441099 -15516820.833662033 0 -15516820.833662033 25829494.139743805 0 0 0 0 -93559.450013772963 -306713.27178212209 0 -306713.27178212209 567347.66951504163 0 0 0 0 7322128.9266980886 -10832342.174289703 0 -10832342.174289703 27446184.274139404 0 0 0 0 -30864413.473272778 -32290040.775000095 0 -32290040.775000095 650792593.5805645 0 0 0 0 -444080960.71162564 -19448454.019430161 0 -19448454.019430161 2206859983.0490437 0 0 0 0 137955925.65723783 -425696237.50069237 0 -425696237.50069237 985582290.7214222 0 0 0 0 -380278487.88010174 163371572.40929508 0 163371572.40929508 1563727018.1596622 0 0 0 0 -48225194.495348871 36404771.343715668 0 36404771.343715668 423018005.23615932 0 0 0 0 -265742.88769202307 134756.06143617071 0 134756.06143617071 553474.17954597669 0 0 0 0 32659454.174493551 -5079557.6634654999 0 -5079557.6634654999 -132026808.25537109 0 0 0 0 -654169.02372384071 134771623.37973976 0 134771623.37973976 104968453.50188446 0 0 0 0 -14467394.347545385 -97620374.043275833 0 -97620374.043275833 209713599.02916336 0 0 0 0 49386610.783905983 85229598.227474213 0 85229598.227474213 -159211826.22703362 0 0 0 0 -1364684.3052689615 142484.93548379187 0 142484.93548379187 1545446.4409424779 0 0 0 0 -338854006.16826057 358742192.88945246 0 358742192.88945246 2199844070.1578484 0 0 0 0 588731872.25393653 449747120.45178413 0 449747120.45178413 344327930.74455261 0 0 0 0 -1260801.4614487642 437155.26467060135 0 437155.26467060135 1526563.7172757648 0 0 0 0 514184607.24865019 -716389829.93798018 0 -716389829.93798018 967662547.92324829 0 0 0 0 -2053463.886462759 1040267.9559576428 0 1040267.9559576428 3738223.426921376 0 0 0 0 -3054950.2031513453 229943.27707743645 0 229943.27707743645 -8504932.7243041992 0 0 0 0 -13758655.708944321 -39201406.106025696 0 -39201406.106025696 -20621383.612480164 0 0 0 0 -581381.27212926326 631979.52299863286 0 631979.52299863286 -162646.9121617917 0 0 0 0 -200824737.63955891 67286432.074154377 0 67286432.074154377 150429372.5110321 0 0 0 0 328140256.49695182 4954477.8745422363 0 4954477.8745422363 34792552.492538452 0 0 0 0 287513088.35388398 -259503051.04134941 0 -259503051.04134941 214471257.15334707 0 0 0 0 -17359395.766886711 -13480737.133283615 0 -13480737.133283615 419583726.90589142 0 0 0 0 -14501976.357564926 -240746869.09877396 0 -240746869.09877396 263056332.29007721 0 0 0 0 33403884.160084367 -221529839.67075491 0 -221529839.67075491 134178897.00237274 0 0 0 0 214135.43438905571 -358404.41701717558 0 -358404.41701717558 745704.59591286629 0 0 0 0 189586307.60583621 153997030.64211416 0 153997030.64211416 13125110.607566833 0 0 0 0 22023785.257549763 -201381604.88393211 0 -201381604.88393211 182405976.28765869 0 0 0 0 99019317.434800908 -184214859.24224657 0 -184214859.24224657 79299513.209480286 0 0 0 0 -14411912.038764715 2111433.4456987381 0 2111433.4456987381 7412686.8003997803 0 0 0 0 -256501.42689407163 -28601.302040888229 0 -28601.302040888229 67058.913706324995 0 0 0 0 -17239020.283380508 -196483160.49461365 0 -196483160.49461365 216139077.84265137 0 0 0 0 -21887439.045322657 -216908920.80507469 0 -216908920.80507469 188288397.79764175 0 0 0 0 131993925.85610485 -135285664.89177132 0 -135285664.89177132 134875396.74012375 0 0 0 0 60810366.530792236 60288404.864303589 0 60288404.864303589 -33981489.937791824 0 0 0 0 -46681014.550051689 659637.67196083069 0 659637.67196083069 23356598.662479401 0 0 0 0 -305114419.64808172 -99158892.990837097 0 -99158892.990837097 247999935.63710785 0 0 0 0 107153306.1416502 439783802.53920174 0 439783802.53920174 456303037.11975098 0 0 0 0 546705718.6932739 -526835726.39619064 0 -526835726.39619064 430930213.4899286 0 0 0 0 -516641.6171119847 -2053673.6162787082 0 -2053673.6162787082 4965930.3717248179 0 0 0 0 -2556340.7153231525 308306.94082762767 0 308306.94082762767 4044279.2827678733 0 0 0 0 1486225.3843259811 15353782.991197586 0 15353782.991197586 -5151168.1415958405 0 0 0 0 4542896.0950994492 -6576534.3969211578 0 -6576534.3969211578 -2890055.3455047607 0 0 0 0 234704390.3654789 43147819.625398636 0 43147819.625398636 -119249103.34920692 0 0 0 0 5375526.2851677239 -341930363.91721725 0 -341930363.91721725 672773130.07495117 0 0 0 0 -207653251.62139988 18397151.933691025 0 18397151.933691025 1034545144.4479027 0 0 0 0 -296590482.40919691 -342479405.72097397 0 -342479405.72097397 2202189574.1368856 0 0 0 0 -56503688.925347954 836844184.52783966 0 836844184.52783966 2268775677.8944969 0 0 0 0 -213055187.47114089 -26032201.652394772 0 -26032201.652394772 669668062.02252579 0 0 0 0 -771880.38688886759 -67512.957200417295 0 -67512.957200417295 3638477.4258429091 0 0 0 0 -46582146.786086462 50095169.630008698 0 50095169.630008698 655576526.79709244 0 0 0 0 20259995.390375912 -54420401.78524971 0 -54420401.78524971 -50913953.1459198 0 0 0 0 -428481383.72839612 -13654124.579801559 0 -13654124.579801559 77273105.695068359 0 0 0 0 390730505.76456642 -202039085.4360466 0 -202039085.4360466 -216667743.68956184 0 0 0 0 -364480624.94475746 127789885.50683212 0 127789885.50683212 371845582.8412056 0 0 0 0 461564864.87443316 -1022432683.6091957 0 -1022432683.6091957 759692024.6692009 0 0 0 0 -64614.304991531229 -250775.74718966288 0 -250775.74718966288 1423357.5525531042 0 0 0 0 249165358.68569577 -1334005127.9057074 0 -1334005127.9057074 1175265020.2444992 0 0 0 0 -65045299.959269531 -784342523.83091736 0 -784342523.83091736 2259836231.9244404 0 0 0 0 77566858.41559796 -307608199.37263107 0 -307608199.37263107 1251009030.8986154 0 0 0 0 202300699.17548984 -549808071.06126595 0 -549808071.06126595 1369320544.4840336 0 0 0 0 284034176.10602081 70599432.437065125 0 70599432.437065125 108423551.00730515 0 0 0 0 362705583.53345215 191205585.74207115 0 191205585.74207115 -166899128.17993546 0 0 0 0 -159934179.47852278 267755209.17932892 0 267755209.17932892 -200660516.63497734 0 0 0 0 -449984.3098006025 -319894.81674690638 0 -319894.81674690638 1008897.2431614343 0 0 0 0 -50149517.517115533 478958348.25615311 0 478958348.25615311 205203463.86524963 0 0 0 0 466930703.77157992 357676596.14879036 0 357676596.14879036 -57799642.652427673 0 0 0 0 -150750721.40683484 -467886.47076225281 0 -467886.47076225281 264931805.76812935 0 0 0 0 1230056.4551728382 -252104.81009591371 0 -252104.81009591371 29627.473761535715 0 0 0 0 9002144.5316547006 444850954.21323919 0 444850954.21323919 959681756.81060028 0 0 0 0 25578786.693820715 322574270.20407486 0 322574270.20407486 76735678.276287079 0 0 0 0 122982704.9649123 188413980.51065636 0 188413980.51065636 258706887.58763123 0 0 0 0 4366228.4521651268 -5438557.7588274479 0 -5438557.7588274479 7540093.8888971806 0 0 0 0 -415488.89178371429 -527317.27789163589 0 -527317.27789163589 9553414.3501620889 0 0 0 0 -1060535.8581991196 2057893.0579240322 0 2057893.0579240322 1756232.1146761179 0 0 0 0 -445516.19458198547 -5721359.4706294239 0 -5721359.4706294239 18981229.947317362 0 0 0 0 -1270587.2022931576 -4263878.745836854 0 -4263878.745836854 20475239.774640322 0 0 0 0 11173485.31255722 -22830619.397556901 0 -22830619.397556901 21255166.099937968 0 0 0 0 -39256359.769607067 -33700378.4489007 0 -33700378.4489007 55465641.138420105 0 0 0 0 -1393840.7660033703 -1561563.4062271118 0 -1561563.4062271118 12126103.819453716 0 0 0 0 10409581.723706722 -11226017.59506005 0 -11226017.59506005 2884764.620980978 0 0 0 0 -2143329.5608850466 1416462.0875420892 0 1416462.0875420892 5106068.1351041542 0 0 0 0 9958568.4816389084 6011930.3996719122 0 6011930.3996719122 2194527.9664516449 0 0 0 0 -43269409.589292049 24309728.683579922 0 24309728.683579922 155546723.80506986 0 0 0 0 -19984644.63879776 -76649106.713062614 0 -76649106.713062614 36088081.730979651 0 0 0 0 2895123.7710137367 7230139.1472561359 0 7230139.1472561359 5378690.730386734 0 0 0 0 -245081.65158418473 611395.32758020121 0 611395.32758020121 5806454.7935189251 0 0 0 0 -9453262.1067276001 2146358.7670792341 0 2146358.7670792341 24247109.362264991 0 0 0 0 6629298.0737204552 616459.57497191429 0 616459.57497191429 266521.44400978088 0 0 0 0 359532.33146184776 887215.48885016143 0 887215.48885016143 -6317.6904034609906 0 0 0 0 6449479.024520874 4384417.6106109619 0 4384417.6106109619 -193148.74733924866 0 0 0 0 8207229.0778684616 856816.16923427582 0 856816.16923427582 6352881.9703445435 0 0 0 0 4360380.3911819458 6837356.8835887909 0 6837356.8835887909 13910190.268104553 0 0 0 0 4575227.5211198926 4046201.7354710102 0 4046201.7354710102 5267896.8786430359 0 0 0 0 -309058.54684012313 333133.69139397005 0 333133.69139397005 1872845.5416499828 0 0 0 0 -2537065.862787962 -3995139.9758235812 0 -3995139.9758235812 6947547.3089933395 0 0 0 0 23596877.278009892 15969958.619094849 0 15969958.619094849 11976965.787641525 0 0 0 0 154965678.75131655 16505193.454117298 0 16505193.454117298 -57509293.846290112 0 0 0 0 1476.8326651851239 -46084.862568563549 0 -46084.862568563549 50477.881692952942 0 0 0 0 -74080.203445699415 279714.93972632685 0 279714.93972632685 2482645.3848082088 0 0 0 0 -913463.3175560236 2706816.3231105804 0 2706816.3231105804 245631.37196350098 0 0 0 0 -5269141.3549013138 2387505.0508405566 0 2387505.0508405566 4298453.329668045 0 0 0 0 41094479.709614038 29791472.161689758 0 29791472.161689758 -3973602.8550157547 0 0 0 0 -592951.42201735242 1239491.0179293244 0 1239491.0179293244 832088.61789058102 0 0 0 0 -28731663.990092516 54816393.038609028 0 54816393.038609028 17313943.390633583 0 0 0 0 11143404.580978394 10234006.968144417 0 10234006.968144417 7280243.3662052155 0 0 0 0 -31248135.117718577 -4896699.9078541398 0 -4896699.9078541398 18258858.581259727 0 0 0 0 -2129316.0398423932 1388462.5676999434 0 1388462.5676999434 6319745.2142868191 0 0 0 0 12459510.842713356 6687333.4600296021 0 6687333.4600296021 4963037.8494873047 0 0 0 0 9032346.2772010937 -3376802.3836529255 0 -3376802.3836529255 -3137543.4839134216 0 0 0 0 10624187.622611284 -7864605.3014268875 0 -7864605.3014268875 9391185.2128620148 0 0 0 0 918969.88910359144 8139421.5155172348 0 8139421.5155172348 17164508.5534935 0 0 0 0 3616807.0587273836 10606611.364233375 0 10606611.364233375 15160698.925298691 0 0 0 0 -4248138.3270003796 12448331.896974564 0 12448331.896974564 4143376.3449230194 0 0 0 0 401698.56368684769 5784517.6533069611 0 5784517.6533069611 13461097.818244934 0 0 0 0 4612129.3296699524 7845819.6389017105 0 7845819.6389017105 7605703.3284101486 0 0 0 0 -4988938.8880069256 1928410.8897957802 0 1928410.8897957802 8541444.0023288727 0 0 0 0 -109028.2624717562 1036520.0775330829 0 1036520.0775330829 3369382.8608486131 0 0 0 0 -1776588.8773889542 -613171.17728424072 0 -613171.17728424072 4967877.5057201385 0 0 0 0 -2344735.3386821747 1261403.4759845734 0 1261403.4759845734 7088261.5489578247 0 0 0 0 866496.39405441284 11933707.490949631 0 11933707.490949631 -2170089.3282642365 0 0 0 0 -358546.96080345893 -44227.770717608742 0 -44227.770717608742 561661.86500558443 0 0 0 0 -405455.29869222641 -84191.200513362885 0 -84191.200513362885 4350175.7257900238 0 0 0 0 -2476739.353053093 1470049.1720812321 0 1470049.1720812321 3938474.4639020562 0 0 0 0 -3600823.23670578 2203286.3065891266 0 2203286.3065891266 4514722.1401190758 0 0 0 0 -2073831.0845017433 2274669.5666460991 0 2274669.5666460991 5539995.0378928185 0 0 0 0 -1821831.8361649513 1464968.1726039648 0 1464968.1726039648 3948154.9764261246 0 0 0 0 -2353751.9020924568 419604.01647102833 0 419604.01647102833 2558089.5291862488 0 0 0 0 864456.50628709793 -1168395.470682025 0 -1168395.470682025 3285704.0645928383 0 0 0 0 -1590967.2938084602 -2079477.1952352524 0 -2079477.1952352524 2800157.0149037242 0 0 0 0 362934.86501264572 -1861525.6618275642 0 -1861525.6618275642 7189568.3742856979 0 0 0 0 2538598.9270377159 120970.53108966351 0 120970.53108966351 3485712.7352650166 0 0 0 0 -1012530.7479672432 97208.420263826847 0 97208.420263826847 7010035.1490235329 0 0 0 0 -1163107.8176527023 2364622.3083188534 0 2364622.3083188534 7646687.955927074 0 0 0 0 -428461.39397678321 734905.50984435121 0 734905.50984435121 3283619.8482161183 0 0 0 0 496495.37925505638 -3118949.0775179863 0 -3118949.0775179863 142527.25127482414 0 0 0 0 -38218.70859980071 165654.1570545435 0 165654.1570545435 827460.96660788229 0 0 0 0 -315288.67335915565 2106953.909822464 0 2106953.909822464 5805873.781607151 0 0 0 0 512883.87079259008 1567817.8966233134 0 1567817.8966233134 3275242.2101144791 0 0 0 0 174822.77158745783 676375.1087836998 0 676375.1087836998 3312939.20459005 0 0 0 0 -1242108.897911787 -4070842.7296295166 0 -4070842.7296295166 1933364.8362350464 0 0 0 0 699726.5242357254 9895719.9906902313 0 9895719.9906902313 5024977.4072027206 0 0 0 0 -544927.1818740801 -473405.25066705979 0 -473405.25066705979 4022062.3234059028 0 0 0 0 -2154244.7632764578 -2201931.8998355865 0 -2201931.8998355865 7532789.7780795097 0 0 0 0 2438516.5495147705 -3917417.4394261837 0 -3917417.4394261837 -25133751.559503555 0 0 0 0 -2997375.8201475143 -5263410.0241138935 0 -5263410.0241138935 -8869338.7248833179 0 0 0 0 -4551532.1517057419 1303227.6540720463 0 1303227.6540720463 5813613.4025979042 0 0 0 0 1390881.1806125641 67147.179224252701 0 67147.179224252701 -1455192.0736300945 0 0 0 0 -4960228.3238582611 -3726536.1581611633 0 -3726536.1581611633 210273.33367788792 0 0 0 0 -5749371.8851127625 -5763965.4467411041 0 -5763965.4467411041 -7642831.2658190727 0 0 0 0 -137914.79362998685 -448911.00846698222 0 -448911.00846698222 133586.54596144508 0 0 0 0 1976224.7535262704 3937087.9641914368 0 3937087.9641914368 2147439.9764633179 0 0 0 0 1772786.3394551873 283046.59802722931 0 283046.59802722931 2482482.5352947712 0 0 0 0 527908.3095959723 1694370.6406373978 0 1694370.6406373978 892979.64530181885 0 0 0 0 3364407.1859041452 919950.08871030807 0 919950.08871030807 166599.38326072693 0 0 0 0 498218.7085771542 -613975.15080709755 0 -613975.15080709755 12959201.611854553 0 0 0 0 -86485.871336240263 194295.93342779833 0 194295.93342779833 449470.19999003317 0 0 0 0 -754283.57988715172 2187402.8364543915 0 2187402.8364543915 1284324.6473121643 0 0 0 0 -214866.4766277661 867732.40236094454 0 867732.40236094454 2623308.1010298198 0 0 0 0 -359256.12019741535 503010.73590946198 0 503010.73590946198 946287.70173987746 0 0 0 0 3078897.2753267288 4150823.5648136139 0 4150823.5648136139 4130829.7269821167 0 0 0 0 -729463.71755111217 30476.651498794556 0 30476.651498794556 1897876.2380599976 0 0 0 0 -1060547.8103628675 -176741.28263300471 0 -176741.28263300471 3718158.9106964413 0 0 0 0 520305.44635058171 1789089.220561251 0 1789089.220561251 2120026.0160991275 0 0 0 0 -1536693.557138443 1137053.3694610596 0 1137053.3694610596 2608989.0421829224 0 0 0 0 92633.362236833666 -353285.89040710265 0 -353285.89040710265 3077185.2614334687 0 0 0 0 -1602355.1662625214 909706.02504372085 0 909706.02504372085 9121569.5557879023 0 0 0 0 -152916090.12690639 15411268.640053391 0 15411268.640053391 7761926.4063193798 0 0 0 0 -215995.66453642223 -796047.62425256602 0 -796047.62425256602 5587068.1638486311 0 0 0 0 424099.15073895454 105441008.06919146 0 105441008.06919146 2716131.6162456051 0 0 0 0 119955322.1983366 -69127612.089619398 0 -69127612.089619398 -25356340.207608461 0 0 0 0 -11190501.464125156 -52147349.880436301 0 -52147349.880436301 84972894.252738088 0 0 0 0 -57259469.849984169 1312762.4489586353 0 1312762.4489586353 76519878.059781075 0 0 0 0 -9943432.4627289772 29688048.584501028 0 29688048.584501028 -14318467.118309863 0 0 0 0 1561033.8933367552 -27114419.769112639 0 -27114419.769112639 -12044449.982187748 0 0 0 0 167678.15813666862 159909.53250838476 0 159909.53250838476 -106685.99957120279 0 0 0 0 -1488580.0550844669 12256630.228441238 0 12256630.228441238 2223478.8209495544 0 0 0 0 -520846.82341020019 2778935.7669443083 0 2778935.7669443083 8641832.4190681148 0 0 0 0 -365731.11917519569 6877012.1499443054 0 6877012.1499443054 5831340.696144104 0 0 0 0 -1812959.6525478363 4656892.69871521 0 4656892.69871521 3280487.6375222206 0 0 0 0 -443409.27853274345 9643920.5748882294 0 9643920.5748882294 15392375.469085693 0 0 0 0 -2645236.2204837799 -3205063.741345048 0 -3205063.741345048 27429303.73976177 0 0 0 0 -7565463.249341011 -733501.55307471752 0 -733501.55307471752 39902988.269575834 0 0 0 0 -971652.2673368454 4053039.1212685108 0 4053039.1212685108 12619620.953989983 0 0 0 0 344785.081138134 849167.49775224924 0 849167.49775224924 5768985.9654083252 0 0 0 0 -9178960.7304406166 4346735.7560300827 0 4346735.7560300827 26014710.329644203 0 0 0 0 7687994.2384786606 -12011591.250827432 0 -12011591.250827432 30939222.675059468 0 0 0 0 -12335915.838009834 3815542.7184882164 0 3815542.7184882164 37206785.782082081 0 0 0 0 -6477252.2852711678 9853320.9246163368 0 9853320.9246163368 3172019.2942432165 0 0 0 0 -21526813.31991291 31515309.249284267 0 31515309.249284267 -19669332.206343174 0 0 0 0 -2703198.467373848 -1744456.9098498225 0 -1744456.9098498225 32269395.41516757 0 0 0 0 -25120.227472564671 462479.7593007203 0 462479.7593007203 522409.62187031371 0 0 0 0 1621063.2105128765 5041733.5710605383 0 5041733.5710605383 27624528.025650561 0 0 0 0 3321131.4406776428 11385697.208379209 0 11385697.208379209 37663435.559268072 0 0 0 0 302590.0000942219 1379144.5778366751 0 1379144.5778366751 2147536.7197855376 0 0 0 0 -2399059.7698111534 8233925.6575303078 0 8233925.6575303078 -5090194.1468556821 0 0 0 0 820783.53190626833 512446.81975308916 0 512446.81975308916 -686699.22359992005 0 0 0 0 5311707.9524009228 180849.80527627468 0 180849.80527627468 -4839715.7796385288 0 0 0 0 -4337143.5530240759 458272.3433675468 0 458272.3433675468 9888491.6398925781 0 0 0 0 -554081.62648758059 1862885.4516500938 0 1862885.4516500938 7688718.1732556866 0 0 0 0 -1196609.2290883064 -2002860.1056365967 0 -2002860.1056365967 11237431.456388474 0 0 0 0 -1189843.6597920656 1643416.3155014515 0 1643416.3155014515 2775156.7309141159 0 0 0 0 -1003520.0508620739 798375.02577018738 0 798375.02577018738 2995353.4303221703 0 0 0 0 -357977.65454562532 -84540.918184152571 0 -84540.918184152571 2378191.1092104218 0 0 0 0 -224973.92860393965 3580462.8542597978 0 3580462.8542597978 1881348.9156482629 0 0 0 0 -1033188.2026674747 2650644.5005254745 0 2650644.5005254745 16488486.234645844 0 0 0 0 -5601135.4439415932 5917401.705406189 0 5917401.705406189 17994974.187526703 0 0 0 0 -352268.61041107331 2435591.3433490852 0 2435591.3433490852 7918028.2701191753 0 0 0 0 -8514030.3280301094 8901539.7049160004 0 8901539.7049160004 8055321.9073219299 0 0 0 0 -8242754.2670869827 2788769.6038303375 0 2788769.6038303375 14318843.317802429 0 0 0 0 -4212977.1414732933 -427540.525390625 0 -427540.525390625 12116833.530534744 0 0 0 0 -4377202.7982587814 -1068552.4229363203 0 -1068552.4229363203 14392153.607032776 0 0 0 0 -2317765.345495224 -3976031.4286804199 0 -3976031.4286804199 11318928.708244324 0 0 0 0 -611035.0424118042 -7709878.7961368561 0 -7709878.7961368561 17828619.646680117 0 0 0 0 -5025272.5365540385 -1619003.0611743927 0 -1619003.0611743927 17132323.543281555 0 0 0 0 9491493.9958146811 -13711029.277601242 0 -13711029.277601242 17759692.617996216 0 0 0 0 -1651559.3838171959 -4739237.5121841431 0 -4739237.5121841431 19067389.468675137 0 0 0 0 -1880921.3965864182 -3845260.1575603485 0 -3845260.1575603485 23875242.137756348 0 0 0 0 1957786.0277676582 -4996681.181804657 0 -4996681.181804657 8498879.0933656693 0 0 0 0 4292373.7606489658 -6399138.3526096344 0 -6399138.3526096344 8983952.3319892883 0 0 0 0 642063.98808050156 -6323724.2714614868 0 -6323724.2714614868 9591694.2257518768 0 0 0 0 -2305832.3578002453 -4035005.5209350586 0 -4035005.5209350586 10908462.423530579 0 0 0 0 -3026638.7544455528 -3365354.005657196 0 -3365354.005657196 10816855.498603821 0 0 0 0 -1159036.2524909973 -4873344.7112579346 0 -4873344.7112579346 11407190.966079712 0 0 0 0 -1688062.6072814465 -3299881.6515264511 0 -3299881.6515264511 8820442.3994674683 0 0 0 0 387873.13610541821 -5338757.7586503029 0 -5338757.7586503029 8655065.1815261841 0 0 0 0 -3020702.6960029602 -2991930.779045105 0 -2991930.779045105 7783989.3459854126 0 0 0 0 2205439.2814397812 -5667982.479642868 0 -5667982.479642868 7843873.8062286377 0 0 0 0 -295284.82591092587 -4214756.2044136524 0 -4214756.2044136524 8160091.3660926819 0 0 0 0 1408933.9337100983 -841611.05616378784 0 -841611.05616378784 342941.32450866699 0 0 0 0 378605116.19360888 -709742961.81990433 0 -709742961.81990433 1333492072.091156 0 0 0 0 1009999.6730855702 -844201.62754448503 0 -844201.62754448503 2555526.7744842796 0 0 0 0 2736417.5757792485 1941845.0487133558 0 1941845.0487133558 1370452.4645406175 0 0 0 0 257842360.40294445 -841760056.63699126 0 -841760056.63699126 2295015880.4797039 0 0 0 0 -180356.49635789817 -1093496.5316174738 0 -1093496.5316174738 1329833.3808480809 0 0 0 0 812320.39352416992 263565.99824047089 0 263565.99824047089 4154614.6126263142 0 0 0 0 22216.180156368762 -21965.525887910742 0 -21965.525887910742 3183677.4467560234 0 0 0 0 1807165.3968892097 1711639.3447742462 0 1711639.3447742462 5474559.5911684036 0 0 0 0 -161053.7839230299 -472126.38959312439 0 -472126.38959312439 7878252.4084911346 0 0 0 0 53428.80114126252 -8126.6091634538025 0 -8126.6091634538025 -20360.250386520755 0 0 0 0 505372.71453142352 -611643.22800553124 0 -611643.22800553124 5047288.5346751763 0 0 0 0 -471614.69578957558 256620.08142137527 0 256620.08142137527 1628056.3023738861 0 0 0 0 -2579366.8046877384 -4525765.3223443031 0 -4525765.3223443031 7264059.5656433105 0 0 0 0 -44895.310043049976 -166261.74422091618 0 -166261.74422091618 494742.6531175815 0 0 0 0 786432.78858494759 958951.18337440491 0 958951.18337440491 4996221.8848490715 0 0 0 0 24573048.905690379 276371950.80205584 0 276371950.80205584 2205048407.5371046 0 0 0 0 619446.3365473696 642819.03159414325 0 642819.03159414325 2897102.2666431526 0 0 0 0 -38220310.41193819 152035722.82558823 0 152035722.82558823 2186386914.7872949 0 0 0 0 757598.04255104065 905417.40165424347 0 905417.40165424347 5070903.4462490082 0 0 0 0 1413408.7871270375 -196993.27009177068 0 -196993.27009177068 5045904.127142814 0 0 0 0 -42465118.388731882 148004734.4116478 0 148004734.4116478 2203208306.5420837 0 0 0 0 537319.36508054729 266716.93501253286 0 266716.93501253286 2563522.5584871368 0 0 0 0 1635950.1445630789 1078420.797970295 0 1078420.797970295 4634793.3147058487 0 0 0 0 789567.59038523957 1056437.0540985763 0 1056437.0540985763 5198137.1443271637 0 0 0 0 46690391.338029988 -309675804.67959213 0 -309675804.67959213 2063983245.3173876 0 0 0 0 427306.56198644638 676856.85316371918 0 676856.85316371918 5415708.4326267242 0 0 0 0 1431330.7652036692 427775.38763450319 0 427775.38763450319 -307814.75385092199 0 0 0 0 -56812875.195780776 13709640.871358871 0 13709640.871358871 2187009017.4945388 0 0 0 0 330502.60788345337 1115006.8540439606 0 1115006.8540439606 5325716.4418926239 0 0 0 0 9987016.4953334928 3530429.7726038694 0 3530429.7726038694 4662843.1577682495 0 0 0 0 1974514.5850549936 3470712.4714097977 0 3470712.4714097977 5898230.9580717087 0 0 0 0 -34412.709070618788 359484.62025564502 0 359484.62025564502 2932702.3472928479 0 0 0 0 433764927.379632 942429094.98412323 0 942429094.98412323 2204687295.5569592 0 0 0 0 921287.40944470197 1275416.9036544047 0 1275416.9036544047 3260680.6008075648 0 0 0 0 1543704.3018612792 724543.50311367866 0 724543.50311367866 1491320.629938005 0 0 0 0 501037.51908576488 1358228.3570156097 0 1358228.3570156097 4970266.2272720337 0 0 0 0 751395.69203111099 984415.85183428007 0 984415.85183428007 2110096.4081988824 0 0 0 0 -196889.79649734497 512987.201390028 0 512987.201390028 2014441.3434991837 0 0 0 0 187016380.02084541 -67898019.590092182 0 -67898019.590092182 -172893356.35611117 0 0 0 0 576014.345644966 837563.23044146097 0 837563.23044146097 4264413.3487879476 0 0 0 0 1312544.6866155968 2217262.1014178474 0 2217262.1014178474 4151303.3478136063 0 0 0 0 1130359.2217853069 795730.06453347206 0 795730.06453347206 2196769.2019333839 0 0 0 0 1387100.9650290608 2143032.0167376995 0 2143032.0167376995 4961513.5633811951 0 0 0 0 430077.79159784317 1016456.0680084229 0 1016456.0680084229 5857934.753692627 0 0 0 0 153193.83683258889 822240.69119539624 0 822240.69119539624 4359630.9243593141 0 0 0 0 1628533.764277637 502414.8721472621 0 502414.8721472621 5613761.8845748901 0 0 0 0 -258856.5507581234 337005.54978990555 0 337005.54978990555 2918070.6700778008 0 0 0 0 -57103315.797713757 -17090015.129001915 0 -17090015.129001915 1113525.2989391387 0 0 0 0 -34063284.235040665 126221051.31900537 0 126221051.31900537 -39129341.135448575 0 0 0 0 518781.88020656793 1143832.154525734 0 1143832.154525734 1707135.5892235972 0 0 0 0 20562.430935796932 763550.37290043733 0 763550.37290043733 853588.12755228952 0 0 0 0 55412039.04955411 -330324282.40229249 0 -330324282.40229249 334760236.25193155 0 0 0 0 32564100.295274734 96632405.85055837 0 96632405.85055837 25789476.361337066 0 0 0 0 -72914890.384939194 38139332.149507076 0 38139332.149507076 -42076966.163255394 0 0 0 0 -98113046.988130569 23197511.567869306 0 23197511.567869306 127565052.24203217 0 0 0 0 26820378.267445564 102864638.18929386 0 102864638.18929386 -7993092.1843420863 0 0 0 0 -72908.16441898921 87354.253348717582 0 87354.253348717582 566259.75350029883 0 0 0 0 -21175370.288550377 -44715916.163797498 0 -44715916.163797498 181623425.06763875 0 0 0 0 71881917.449271679 -34257219.988591969 0 -34257219.988591969 6295917.1504807472 0 0 0 0 -24081145.290540949 5484386.3264242169 0 5484386.3264242169 9865749.5004397631 0 0 0 0 -32737628.956618547 -13410032.215020955 0 -13410032.215020955 5329825.2610291243 0 0 0 0 -58751403.92739439 29791293.82421869 0 29791293.82421869 2429601.3634251356 0 0 0 0 -751000.39094209671 -3500705.1528253555 0 -3500705.1528253555 8543091.0672016144 0 0 0 0 12489831.691958427 8796718.4092264175 0 8796718.4092264175 13634952.029083252 0 0 0 0 12075595.794938385 4158229.1452115178 0 4158229.1452115178 9533876.8130836487 0 0 0 0 14857795.912022233 26769311.856793381 0 26769311.856793381 6956881.7857114375 0 0 0 0 176349305.99389267 99081571.64922139 0 99081571.64922139 -183179642.61695576 0 0 0 0 -10865726.757232666 -11339208.894491702 0 -11339208.894491702 27173130.697693735 0 0 0 0 1809162.6165403624 447003.50184214266 0 447003.50184214266 -591229.35723692202 0 0 0 0 6271624.6003379822 2464888.7784051895 0 2464888.7784051895 6748112.7861318588 0 0 0 0 -1876836.3244330995 1384514.5379910357 0 1384514.5379910357 3963934.2082616338 0 0 0 0 -118385267.56243706 233674118.93359178 0 233674118.93359178 -129195652.11253262 0 0 0 0 -114083.19009328843 826657.17389623204 0 826657.17389623204 5331555.1660103286 0 0 0 0 4008270.6547498703 4309106.9930047989 0 4309106.9930047989 12587519.859656334 0 0 0 0 10924026.784683228 9221723.9660186768 0 9221723.9660186768 16177500.934295654 0 0 0 0 -173547.60032536229 259914.36413469561 0 259914.36413469561 612540.99401131412 0 0 0 0 38094469.826479197 36503081.741389036 0 36503081.741389036 -3763629.168322444 0 0 0 0 -326294.8188707527 1651221.3735070389 0 1651221.3735070389 6754109.5021928949 0 0 0 0 -89340400.47978878 -72377896.51665926 0 -72377896.51665926 -24668724.14127183 0 0 0 0 7614738.8478398323 3282015.1959934235 0 3282015.1959934235 11028193.340731621 0 0 0 0 5689548.2605934143 3229482.0920372009 0 3229482.0920372009 14555393.790189743 0 0 0 0 6142797.7677974403 -1338227.2359215617 0 -1338227.2359215617 10051821.191934586 0 0 0 0 -23089.179268039763 -631254.69882739335 0 -631254.69882739335 4213529.240314126 0 0 0 0 971197.24980226159 1765100.8287452161 0 1765100.8287452161 2211246.924110651 0 0 0 0 349247163.87795812 906253063.69779813 0 906253063.69779813 1668266290.2626064 0 0 0 0 543994.52895998955 -40660.828320503235 0 -40660.828320503235 2162441.3323073573 0 0 0 0 -385457.97811231401 151712.30612647597 0 151712.30612647597 3222568.3007565252 0 0 0 0 -20274.661222219467 653613.52695512772 0 653613.52695512772 4216799.2992754579 0 0 0 0 928947936.26822281 1053068523.6003613 0 1053068523.6003613 1196812682.1321015 0 0 0 0 1796623.2131080159 1589578.6830279264 0 1589578.6830279264 1582411.4865293552 0 0 0 0 654719.79776763916 -190653.70701146126 0 -190653.70701146126 3051528.6808097363 0 0 0 0 -242134.60004138947 374604.38501477242 0 374604.38501477242 2851869.1806629896 0 0 0 0 92215.224249839783 1306035.929574728 0 1306035.929574728 2192806.0479749292 0 0 0 0 508926358.77161992 1226989481.5459542 0 1226989481.5459542 2686226361.3277907 0 0 0 0 -6292.1262330766622 49066.519577443716 0 49066.519577443716 216499.56207472691 0 0 0 0 616727545.06997001 893541138.94313824 0 893541138.94313824 1969052396.8597822 0 0 0 0 131991528.18791485 713598137.33597875 0 713598137.33597875 2032891161.1228399 0 0 0 0 246993584.82856712 868049085.03645611 0 868049085.03645611 2204751365.6744328 0 0 0 0 353565633.27365553 869498436.9620316 0 869498436.9620316 1969477710.314748 0 0 0 0 121132711.46370816 629409540.04926503 0 629409540.04926503 1774150072.6456401 0 0 0 0 -121224241.58988184 362222575.42305589 0 362222575.42305589 1886020250.882401 0 0 0 0 -73105264.503703535 575621318.14888442 0 575621318.14888442 2204624197.6769819 0 0 0 0 216550151.90756252 476065793.96251178 0 476065793.96251178 1344713180.8073568 0 0 0 0 320168907.61110425 654716841.86145782 0 654716841.86145782 1385316885.5949755 0 0 0 0 347487574.38656253 746053601.56632495 0 746053601.56632495 1518707060.6651125 0 0 0 0 366716990.18104184 739144540.60859299 0 739144540.60859299 1482850262.2804232 0 0 0 0 329766787.23720795 666969754.10398912 0 666969754.10398912 1351926072.8727627 0 0 0 0 -120869.65672547175 -225381.20130206319 0 -225381.20130206319 2939100.5206255829 0 0 0 0 232307600.34532708 579373401.43682873 0 579373401.43682873 1715636361.1642556 0 0 0 0 -557489704.24849916 -327646819.42957544 0 -327646819.42957544 1200985082.842351 0 0 0 0 -222991818.50664669 102122802.91084862 0 102122802.91084862 1420028003.0843735 0 0 0 0 -469558660.18315762 103804137.53441858 0 103804137.53441858 2204281145.1897912 0 0 0 0 -43556142.350587487 332798366.06133223 0 332798366.06133223 1484782518.8317819 0 0 0 0 -387043537.95707744 220482985.10706151 0 220482985.10706151 1337622707.1719961 0 0 0 0 -424341908.53182125 -304979923.50634241 0 -304979923.50634241 -28029178.338212654 0 0 0 0 -227622440.97292238 1201857657.008949 0 1201857657.008949 -59820566.282369614 0 0 0 0 -192792764.21079203 9933548.335757494 0 9933548.335757494 799447301.99526978 0 0 0 0 112803285.3964386 870820831.72418308 0 870820831.72418308 349068232.30450964 0 0 0 0 126017788.46844479 751019001.70266771 0 751019001.70266771 1338620192.4141388 0 0 0 0 -164260.55936293898 161839.55219697836 0 161839.55219697836 709684.64223427372 0 0 0 0 -498466408.16082823 661255843.4654026 0 661255843.4654026 513603147.60850334 0 0 0 0 -94968499.926475108 439495409.29541945 0 439495409.29541945 -67383180.012756348 0 0 0 0 -199445442.8564381 393032199.61599874 0 393032199.61599874 727318815.79769897 0 0 0 0 403484283.01670766 -154612662.31483936 0 -154612662.31483936 433791579.35962868 0 0 0 0 217382832.78870583 -639075605.98742485 0 -639075605.98742485 1373023467.6740758 0 0 0 0 75665863.765104771 120495347.81158733 0 120495347.81158733 1369195735.3476393 0 0 0 0 -16219.342704894836 423158.40527005121 0 423158.40527005121 953509.38938360848 0 0 0 0 -6310334.7517299652 2229277.224342823 0 2229277.224342823 19137355.198559761 0 0 0 0 1083546.5713111267 1051971.1922621252 0 1051971.1922621252 596906.01691716828 0 0 0 0 7805358.0707936287 4855096.3585424423 0 4855096.3585424423 9660877.8595406115 0 0 0 0 339066390.47538471 642457103.74088383 0 642457103.74088383 1326412223.5928955 0 0 0 0 -198386.07927151443 497675.24378698855 0 497675.24378698855 2009650.485833189 0 0 0 0 331246649.07946074 640503319.8409071 0 640503319.8409071 1356724541.0347567 0 0 0 0 306892186.66410458 420813676.74544859 0 420813676.74544859 962821896.24284458 0 0 0 0 -3248179.1344138384 23457183.033047199 0 23457183.033047199 -13026415.212701797 0 0 0 0 7749583.3734279871 36751525.058588028 0 36751525.058588028 -7654452.9275369644 0 0 0 0 14728948.343649387 65966704.862205505 0 65966704.862205505 -321456197.92296314 0 0 0 0 -168994244.41665506 107375956.05230522 0 107375956.05230522 241821396.14475632 0 0 0 0 -140312534.91256201 65154288.815340042 0 65154288.815340042 69698478.205595016 0 0 0 0 -36897193.84606123 191694.64658927917 0 191694.64658927917 11045916.686077118 0 0 0 0 -58213044.181144714 51339658.088730812 0 51339658.088730812 2462727.2901375294 0 0 0 0 -5092555.0381064415 38267429.782446861 0 38267429.782446861 4477766.7284927368 0 0 0 0 -38140567.078898907 17491135.565164566 0 17491135.565164566 10053517.198963076 0 0 0 0 11170671.73794651 11856258.933984756 0 11856258.933984756 -6462669.6468324661 0 0 0 0 -406601.35869026184 -8105681.772942543 0 -8105681.772942543 9681980.4985027313 0 0 0 0 -54108960.920615673 -32534515.810955048 0 -32534515.810955048 2537928.0871524811 0 0 0 0 510650.17767524719 4389039.4349555969 0 4389039.4349555969 7869813.9602661133 0 0 0 0 4579986.7164773941 6366297.1172790527 0 6366297.1172790527 4773265.2661933899 0 0 0 0 652677.3659734726 -380384.26618099213 0 -380384.26618099213 4062033.2286911011 0 0 0 0 -789575.62233080762 1209717.4754761127 0 1209717.4754761127 2136481.0643288819 0 0 0 0 74426.001826587832 201526.52251755353 0 201526.52251755353 2745203.302417255 0 0 0 0 5446614.8667449951 5308656.3601226807 0 5308656.3601226807 1488978.5115652084 0 0 0 0 6399767.6188335419 8204658.7330608368 0 8204658.7330608368 8849322.3832855225 0 0 0 0 4038134.5536146164 695981.644115448 0 695981.644115448 -1372221.9504547119 0 0 0 0 -99023.114117914462 363975.92501524976 0 363975.92501524976 94824.425562655553 0 0 0 0 -291286503.27865505 -238353183.15354121 0 -238353183.15354121 66333692.364646912 0 0 0 0 3229962.8663597107 311570.95413208008 0 311570.95413208008 6100228.2125835419 0 0 0 0 -97692.571148112533 388739.73657464143 0 388739.73657464143 1955690.1745319599 0 0 0 0 -142267598.95366699 -217865956.96736836 0 -217865956.96736836 -53106443.976596832 0 0 0 0 -246283290.69679117 2057888.7153501511 0 2057888.7153501511 72120872.159280777 0 0 0 0 -106672007.09043217 11066738.38482666 0 11066738.38482666 -64705687.5995785 0 0 0 0 -140369576.05694386 -21397597.541895866 0 -21397597.541895866 199795389.48262024 0 0 0 0 -30397858.613586843 108489041.2986474 0 108489041.2986474 313783630.33766937 0 0 0 0 -29254136.314776301 -102378364.19447899 0 -102378364.19447899 327681732.54731548 0 0 0 0 -50779549.033726156 38963068.468435287 0 38963068.468435287 142886243.64874458 0 0 0 0 235664851.9393307 -88711282.787903786 0 -88711282.787903786 104271930.34194183 0 0 0 0 -38766234.931810975 -35948213.76792717 0 -35948213.76792717 87099688.846414566 0 0 0 0 -173630503.17709708 -128729023.40561867 0 -128729023.40561867 180407669.98855209 0 0 0 0 136620233.44139624 27333377.324687958 0 27333377.324687958 509040108.04659498 0 0 0 0 480961719.37511921 401383862.49098188 0 401383862.49098188 484010512.07748795 0 0 0 0 178611514.5090661 112046638.91607094 0 112046638.91607094 317647571.45676041 0 0 0 0 190123633.47099653 183705512.95385897 0 183705512.95385897 418840764.44092369 0 0 0 0 242388201.36734056 -30507096.699009895 0 -30507096.699009895 251619709.03502083 0 0 0 0 173869787.98147976 -30577480.644342422 0 -30577480.644342422 -95012784.220500946 0 0 0 0 287993375.4830792 39954509.745539665 0 39954509.745539665 63171950.31312561 0 0 0 0 99925850.583539128 13495022.936757088 0 13495022.936757088 73086168.345859528 0 0 0 0 -61481884.472843051 -171974309.38677692 0 -171974309.38677692 37955725.634641647 0 0 0 0 -71284126.955401897 -41188225.890379906 0 -41188225.890379906 147188887.03546715 0 0 0 0 -60166115.071198463 -68629630.553623199 0 -68629630.553623199 -69974802.155389786 0 0 0 0 134789935.13489863 -65324891.662450075 0 -65324891.662450075 -99337639.379722595 0 0 0 0 -98207626.508852363 -23796787.356369019 0 -23796787.356369019 -109564324.74485016 0 0 0 0 -206318766.82904911 -232672594.2427597 0 -232672594.2427597 -300747743.87018967 0 0 0 0 -260635859.42641759 -42031104.989954352 0 -42031104.989954352 -14414017.747642517 0 0 0 0 -131789.91365373664 -55596.667579429224 0 -55596.667579429224 -15956.154114491306 0 0 0 0 30958.225449833713 2518930.8817444132 0 2518930.8817444132 457764.60802944656 0 0 0 0 2553190.6069229841 5960705.9797439575 0 5960705.9797439575 4439002.0903511047 0 0 0 0 -156097536.89357424 -33347589.033740044 0 -33347589.033740044 -8927940.8097457886 0 0 0 0 -3656635.7599072456 -71902344.376441956 0 -71902344.376441956 -174170086.83929634 0 0 0 0 29736893.89230442 -121278352.56520844 0 -121278352.56520844 -123345806.70467567 0 0 0 0 -109127184.63293421 -128248307.84311008 0 -128248307.84311008 -90654370.942155838 0 0 0 0 95059210.012447059 -9654641.2696614265 0 -9654641.2696614265 -86986939.820907593 0 0 0 0 31376613.767984629 -56794022.455557823 0 -56794022.455557823 -98516770.875383139 0 0 0 0 85498731.196429968 -145157.6531996727 0 -145157.6531996727 -79164266.293718338 0 0 0 0 750682.06234687567 -4840659.0074572563 0 -4840659.0074572563 -32806165.64978981 0 0 0 0 4175351.7690215111 -1030410.345079422 0 -1030410.345079422 -79149559.038917899 0 0 0 0 2914238.5975563824 3755676.44739151 0 3755676.44739151 3866278.1832122803 0 0 0 0 -590471.94172417279 4493343.6735234018 0 4493343.6735234018 564213.97342540789 0 0 0 0 -18365627.26484561 -30336705.856257439 0 -30336705.856257439 -48515864.678751945 0 0 0 0 4883082.4442727566 7394816.5540847778 0 7394816.5540847778 3520526.8173484802 0 0 0 0 3189616.7192487717 5960669.4039916992 0 5960669.4039916992 2611011.951675415 0 0 0 0 -6966834.3460887074 -42112442.344857216 0 -42112442.344857216 -43156751.395448685 0 0 0 0 4062854.701985836 3434174.5429458618 0 3434174.5429458618 3516138.5312271118 0 0 0 0 8739937.9556080103 6737167.1912002563 0 6737167.1912002563 600619.70624542236 0 0 0 0 6809005.3502715826 3541703.547252655 0 3541703.547252655 3145788.7910385132 0 0 0 0 7558851.4607377052 7987018.5740470886 0 7987018.5740470886 -626405.89782714844 0 0 0 0 8033248.8119492531 12156510.397304535 0 12156510.397304535 -3432251.1063340902 0 0 0 0 14216113.633265495 5854138.0015640259 0 5854138.0015640259 56878.084766387939 0 0 0 0 7451689.2397670746 9435609.9410438538 0 9435609.9410438538 321048.61422729492 0 0 0 0 5051947.6014037132 9991778.8489570618 0 9991778.8489570618 652876.02639389038 0 0 0 0 5228457.0892131329 7893220.6226596832 0 7893220.6226596832 1544328.2981843948 0 0 0 0 5108576.644641161 10829660.941305161 0 10829660.941305161 2482668.2058410645 0 0 0 0 7868359.1985664368 12319540.646270752 0 12319540.646270752 -282026.46516036987 0 0 0 0 2711299.2314968109 13049936.159366608 0 13049936.159366608 523914.74479675293 0 0 0 0 4214965.4971618652 15898865.036352158 0 15898865.036352158 -3605994.3314704895 0 0 0 0 3795142.3851499557 9726329.0169906616 0 9726329.0169906616 2114555.9245986938 0 0 0 0 -9900120.6895217896 8911979.2584819794 0 8911979.2584819794 24205314.147361755 0 0 0 0 3942734.133764267 -1092317.2627639771 0 -1092317.2627639771 15405911.414365768 0 0 0 0 -8803295.739058733 18293169.726801395 0 18293169.726801395 8786989.6634063721 0 0 0 0 -1154119.0620918274 19063373.826293945 0 19063373.826293945 -862642.39295578003 0 0 0 0 -113635.38864517212 7903799.2105789185 0 7903799.2105789185 13933974.115831375 0 0 0 0 2628785.9012663364 13286665.432198524 0 13286665.432198524 5686879.076713562 0 0 0 0 2768242.6915483475 8340151.2751274109 0 8340151.2751274109 8047304.3291473389 0 0 0 0 -746056.48998069763 11935611.811424255 0 11935611.811424255 5178827.516582489 0 0 0 0 3701323.7217521667 4675171.0965576172 0 4675171.0965576172 9312077.8081912994 0 0 0 0 2795528.1935791969 6748512.2639389038 0 6748512.2639389038 6018326.1791381836 0 0 0 0 11641727.406243324 2067403.1839427948 0 2067403.1839427948 7478091.9704933167 0 0 0 0 2182009.7798023224 6652658.4252662659 0 6652658.4252662659 8794911.1882705688 0 0 0 0 4861390.3931846619 4378204.8433504105 0 4378204.8433504105 5716528.8416213989 0 0 0 0 6453343.6682834625 7080419.9863166809 0 7080419.9863166809 5974182.0684432983 0 0 0 0 2969713.9904503822 6725572.6471691132 0 6725572.6471691132 5965472.2741622925 0 0 0 0 -571507.52718455449 473303.94899752876 0 473303.94899752876 970433.19146647677 0 0 0 0 2574291.5947191715 6064840.7439556122 0 6064840.7439556122 4590724.7033586502 0 0 0 0 2896141.9629306793 7287263.6628303528 0 7287263.6628303528 4697851.5345993042 0 0 0 0 2481334.2055902481 9629799.018787384 0 9629799.018787384 2318414.1010055542 0 0 0 0 4262904.7411975861 5489607.760093689 0 5489607.760093689 5603088.8786058426 0 0 0 0 -2146599.8156044483 -15854737.054645538 0 -15854737.054645538 11455572.905948639 0 0 0 0 -112598.26067631901 76193.113720024005 0 76193.113720024005 889197.95964472881 0 0 0 0 1486397.5444993973 5150010.2375450134 0 5150010.2375450134 3374219.1236562729 0 0 0 0 -13861654.412800074 -11851143.490392685 0 -11851143.490392685 -3525648.7755889893 0 0 0 0 -539326.87080024579 -534877.99085575249 0 -534877.99085575249 1248174.2682249062 0 0 0 0 -16533190.431052685 2695862.5597991943 0 2695862.5597991943 12354897.492874146 0 0 0 0 -62976288.868339777 110498833.29119635 0 110498833.29119635 -63506235.803704262 0 0 0 0 -1756641.0132306661 -334513.89622508641 0 -334513.89622508641 4973386.1472423431 0 0 0 0 320750.77589226182 4792280.363550921 0 4792280.363550921 9869620.668364225 0 0 0 0 15115129.402430773 17000355.092460632 0 17000355.092460632 -49925313.513906479 0 0 0 0 -9670069.2930773497 31092327.466258526 0 31092327.466258526 -57846587.144456863 0 0 0 0 76250333.596345663 14975215.14938736 0 14975215.14938736 -67278306.836907387 0 0 0 0 49305008.069873393 49019718.473135471 0 49019718.473135471 -85663341.745920181 0 0 0 0 65590550.217577934 89644994.075876236 0 89644994.075876236 -93346975.242975712 0 0 0 0 -72168197.146875024 -1107803.7136983871 0 -1107803.7136983871 90302138.736269951 0 0 0 0 104225218.31233943 129789.86622428894 0 129789.86622428894 132386452.05484724 0 0 0 0 136893376.55341783 107247262.0594188 0 107247262.0594188 54435363.928991318 0 0 0 0 -7674677.1907782555 -107378566.9847517 0 -107378566.9847517 351618624.43888736 0 0 0 0 31471870.13461104 144081319.49828649 0 144081319.49828649 292942405.05738449 0 0 0 0 167094389.9289887 1299173.8708868027 0 1299173.8708868027 433984372.34947395 0 0 0 0 -54471886.477328897 -212995918.89490986 0 -212995918.89490986 147159492.33740306 0 0 0 0 -58085070.708910465 11339399.928529739 0 11339399.928529739 39341603.63973999 0 0 0 0 51586.910618215363 3460134.7944942485 0 3460134.7944942485 10340738.855476758 0 0 0 0 -163983792.08889771 187046569.15240049 0 187046569.15240049 46131580.289188385 0 0 0 0 17187631.436218739 -47790722.614760399 0 -47790722.614760399 58818337.175476074 0 0 0 0 82496.635775197763 -77421.65132535249 0 -77421.65132535249 127434.56090883538 0 0 0 0 -8044972.6608257294 18041744.477197647 0 18041744.477197647 82520584.682746887 0 0 0 0 -5720571.7791900635 -2771397.7540855408 0 -2771397.7540855408 3545120.576171875 0 0 0 0 2355720.8150706291 41182532.550987244 0 41182532.550987244 -2927069.9069404602 0 0 0 0 6643129.7673182786 12828855.810763836 0 12828855.810763836 673752.80191802979 0 0 0 0 -6127563.8239240646 6189080.8352718353 0 6189080.8352718353 -12095493.212104797 0 0 0 0 -36030170.850139141 35593591.893358231 0 35593591.893358231 5926852.5392112732 0 0 0 0 -239838.67742155297 149497.86022395082 0 149497.86022395082 493744.52631093934 0 0 0 0 -106091910.12978089 -166571273.05477238 0 -166571273.05477238 352730174.78948212 0 0 0 0 14691199.883262396 -691600.2206325531 0 -691600.2206325531 12204084.601913452 0 0 0 0 -243362.2861372921 2721567.2841462209 0 2721567.2841462209 9686995.553113142 0 0 0 0 -108932354.66122593 -268080968.09169388 0 -268080968.09169388 478904031.69136047 0 0 0 0 -101855679.14815164 -288046265.7358346 0 -288046265.7358346 508020811.83991623 0 0 0 0 46219784.863479972 -193158686.01220322 0 -193158686.01220322 232563124.48637772 0 0 0 0 396735402.52904725 -580082156.12474823 0 -580082156.12474823 303729109.16419029 0 0 0 0 45849589.675727785 -309114000.62489414 0 -309114000.62489414 688349598.23857117 0 0 0 0 11160127.281145304 -391957833.37768936 0 -391957833.37768936 554826547.78598785 0 0 0 0 287941837.3903423 -369689819.81817627 0 -369689819.81817627 597068941.85357094 0 0 0 0 -123305711.01776206 -281639316.54374647 0 -281639316.54374647 567039599.2841568 0 0 0 0 -88407649.241277456 -331996547.05543709 0 -331996547.05543709 537016005.33720779 0 0 0 0 -50305634.060470104 -309956850.44099045 0 -309956850.44099045 445499068.16639328 0 0 0 0 -116089508.00197774 -314887064.11767578 0 -314887064.11767578 664227769.02910805 0 0 0 0 66531185.223879009 -350640212.76782417 0 -350640212.76782417 575114982.77560043 0 0 0 0 96744475.654827848 -293276223.72022247 0 -293276223.72022247 676376559.35817719 0 0 0 0 1667788.2299665872 3407612.0961561156 0 3407612.0961561156 4902293.7520174747 0 0 0 0 274106981.77387518 -395439050.77269697 0 -395439050.77269697 685410632.91886139 0 0 0 0 239828594.19771087 -308089234.50566101 0 -308089234.50566101 632935186.74486542 0 0 0 0 213101087.05812368 -360676227.90021515 0 -360676227.90021515 773856493.30038071 0 0 0 0 105808247.60223681 -289843934.46369791 0 -289843934.46369791 850482205.80098724 0 0 0 0 286635345.82819426 -359069494.89497662 0 -359069494.89497662 779914694.8063221 0 0 0 0 409511654.2153796 -691517177.53479338 0 -691517177.53479338 834332218.49591064 0 0 0 0 744089655.50958776 -888421058.18683624 0 -888421058.18683624 912469540.13120317 0 0 0 0 369865.94768050348 481408.13132890454 0 481408.13132890454 -358487.07511902973 0 0 0 0 244320858.38449243 -349377790.12032986 0 -349377790.12032986 946760292.48889923 0 0 0 0 282677604.1953702 -413419942.5815773 0 -413419942.5815773 616893978.00444698 0 0 0 0 -8332566.9332309961 -63651438.825069427 0 -63651438.825069427 923523647.52733231 0 0 0 0 -96908382.64838779 -137716402.54307556 0 -137716402.54307556 380568811.64618301 0 0 0 0 -99200224.888039768 -130093333.1692009 0 -130093333.1692009 592126077.61395645 0 0 0 0 -121846555.42520487 -312697642.12700939 0 -312697642.12700939 584712203.67827177 0 0 0 0 -111918146.02474022 -301519879.79556847 0 -301519879.79556847 497859210.9294548 0 0 0 0 -119473957.52866417 -304218090.84623671 0 -304218090.84623671 532706491.79659653 0 0 0 0 -114646958.4292748 -288215783.04784679 0 -288215783.04784679 515486554.68157959 0 0 0 0 -183055564.32770085 -157765356.61742401 0 -157765356.61742401 462354130.97646987 0 0 0 0 83728937.262562871 -208795948.09593105 0 -208795948.09593105 465222988.5675602 0 0 0 0 -452300166.14877975 128733636.64078256 0 128733636.64078256 911846758.34736443 0 0 0 0 -268818.05503653636 821587.59892009408 0 821587.59892009408 2172458.6731326589 0 0 0 0 -194127559.20877528 -328718922.59660625 0 -328718922.59660625 495232085.28231239 0 0 0 0 305451617.25062424 -762626842.14627409 0 -762626842.14627409 1041432116.8553061 0 0 0 0 -195649.28385107542 376172.83064569626 0 376172.83064569626 1203292.4252565932 0 0 0 0 147852065.11850709 -881599324.77168941 0 -881599324.77168941 2601183325.1182766 0 0 0 0 -579984170.13784921 -360496330.16284239 0 -360496330.16284239 2204882135.0772409 0 0 0 0 7845150.5940932035 -100599490.45979309 0 -100599490.45979309 1426485774.795639 0 0 0 0 17833211.746676862 -6611119.8389091492 0 -6611119.8389091492 997192924.40320778 0 0 0 0 196492745.65127859 -367143226.49063158 0 -367143226.49063158 1151864681.3566952 0 0 0 0 179769215.09204137 -304617059.36200142 0 -304617059.36200142 760225627.18572235 0 0 0 0 74298521.866258681 -253290811.06870461 0 -253290811.06870461 745754072.0664711 0 0 0 0 196537541.66294202 -282876468.05342197 0 -282876468.05342197 753903826.44248199 0 0 0 0 -45008970.57533735 -121130580.35614586 0 -121130580.35614586 771015953.38382149 0 0 0 0 -16234922.141272128 -109748203.79201603 0 -109748203.79201603 22317167.619766235 0 0 0 0 81985565.256602377 -202259737.8701458 0 -202259737.8701458 563692787.05440378 0 0 0 0 41185369.27151072 -30757987.640025139 0 -30757987.640025139 545173993.34372711 0 0 0 0 -311261764.37457418 521167719.22882843 0 521167719.22882843 1340164835.5436478 0 0 0 0 -268810157.82960045 670794375.05665588 0 670794375.05665588 244398828.32213497 0 0 0 0 479850469.92863572 126100328.29124069 0 126100328.29124069 2205605006.3713465 0 0 0 0 -324901641.83732414 65550582.669561386 0 65550582.669561386 2209748148.5125704 0 0 0 0 -240152630.01641554 -13535148.714974403 0 -13535148.714974403 1399956800.8472366 0 0 0 0 -197950687.7810899 -379191741.16415119 0 -379191741.16415119 2205008426.6074257 0 0 0 0 250882545.39922118 -431515688.47267723 0 -431515688.47267723 836247226.50036812 0 0 0 0 169696219.99413747 -294944673.65563965 0 -294944673.65563965 1003879820.3545809 0 0 0 0 631838.28327407804 3078268.6402986133 0 3078268.6402986133 5206519.5699417517 0 0 0 0 236806457.04895088 -624438046.75854111 0 -624438046.75854111 1221063651.6388674 0 0 0 0 463097563.38633525 -1095858214.4913645 0 -1095858214.4913645 2201186911.8593435 0 0 0 0 714391.08651291393 2089571.0427193576 0 2089571.0427193576 98845.675184432417 0 0 0 0 220040055.36740702 57921499.24312377 0 57921499.24312377 -30014050.118110657 0 0 0 0 2115154.2737468705 1586223.7185938237 0 1586223.7185938237 494283.38409520313 0 0 0 0 -370843783.86077255 386300419.02327347 0 386300419.02327347 2201512928.7485809 0 0 0 0 158899960.14546868 184805215.66778374 0 184805215.66778374 820394298.95380402 0 0 0 0 4599137.0779916756 1128260766.3394318 0 1128260766.3394318 1010149015.8122482 0 0 0 0 -124471.9695537541 688963.32508554473 0 688963.32508554473 -11324.98829372786 0 0 0 0 -136186231.23058879 -146957455.98566055 0 -146957455.98566055 509996767.60300827 0 0 0 0 -137850191.66378963 -12577639.395702362 0 -12577639.395702362 81852966.546257019 0 0 0 0 -469109.39145744196 2802109.1027547652 0 2802109.1027547652 780041.61061559245 0 0 0 0 21786694.627399504 -19930482.211081028 0 -19930482.211081028 23249606.59569931 0 0 0 0 -448706.25023207546 1082916.0346821873 0 1082916.0346821873 3151851.737239792 0 0 0 0 -418798.13970720768 3612065.0279579163 0 3612065.0279579163 -466098.55999183655 0 0 0 0 184021.68748746812 4093289.8791999817 0 4093289.8791999817 -1095358.8903274536 0 0 0 0 1595453.6847399473 1453720.3503913879 0 1453720.3503913879 -1199606.5492401123 0 0 0 0 -609410.31490244903 1607991.3219390376 0 1607991.3219390376 1112040.2048424035 0 0 0 0 504476.18246257305 596970.40853118896 0 596970.40853118896 -602848.99359321594 0 0 0 0 61592.058324217796 950036.81569480896 0 950036.81569480896 -529866.06552124023 0 0 0 0 -4664166.2774822712 2454016.3255081177 0 2454016.3255081177 -4309104.40747118 0 0 0 0 237958.78325486183 646292.37566661835 0 646292.37566661835 -5796396.957233429 0 0 0 0 308989.78336989571 388807.88480119221 0 388807.88480119221 -609748.58841550723 0 0 0 0 19989102.743205786 21910356.81521225 0 21910356.81521225 -9840774.2948493958 0 0 0 0 -5667143.6650360078 19681205.684335589 0 19681205.684335589 -6737092.550567627 0 0 0 0 29568934.974076271 -7343465.6367683411 0 -7343465.6367683411 -9666311.6551551819 0 0 0 0 6710154.0141639709 19265214.443840027 0 19265214.443840027 -20614456.160438538 0 0 0 0 -8274663.9683878422 5253868.8312358856 0 5253868.8312358856 1723245.3615264893 0 0 0 0 -1247966.2927424312 5439619.7402915955 0 5439619.7402915955 -4052011.8708343506 0 0 0 0 7067296.4325883389 5104959.1633033752 0 5104959.1633033752 -16149939.640930176 0 0 0 0 1336614.2955816677 1494930.4261558214 0 1494930.4261558214 -2389756.5643283874 0 0 0 0 -156238709.87973404 -116761516.38342285 0 -116761516.38342285 1560204153.1319389 0 0 0 0 71391114.806554794 -119723015.95103073 0 -119723015.95103073 738069405.36545563 0 0 0 0 -60506238.946401477 287245749.37856531 0 287245749.37856531 1216833878.4214478 0 0 0 0 -348554.57455308363 1671.7570012519136 0 1671.7570012519136 654140.24137716845 0 0 0 0 -312975231.19160014 663490767.90499496 0 663490767.90499496 1636288345.500248 0 0 0 0 -374758731.07781935 298472888.9811039 0 298472888.9811039 1945649715.9561005 0 0 0 0 -539246588.30724204 899404154.97456169 0 899404154.97456169 2201154506.776577 0 0 0 0 -91473993.251248628 553545736.25938702 0 553545736.25938702 796731433.17076111 0 0 0 0 -89239151.485987946 623979030.64954948 0 623979030.64954948 1158412411.3488579 0 0 0 0 -101315495.02885348 116327458.80283976 0 116327458.80283976 939819477.58843994 0 0 0 0 -12648559.661627293 342146313.92751312 0 342146313.92751312 719133466.61458588 0 0 0 0 35563920.759676993 88919443.046855927 0 88919443.046855927 287017770.6513443 0 0 0 0 170200224.59609056 -81827156.496041775 0 -81827156.496041775 66404062.420787811 0 0 0 0 432836001.72938132 496234892.3492775 0 496234892.3492775 551772521.75524521 0 0 0 0 726266693.69623685 1421037421.6549301 0 1421037421.6549301 1192538273.0714226 0 0 0 0 875904723.090204 565121557.88560176 0 565121557.88560176 -277954463.25522614 0 0 0 0 975103.60889435816 480911.94189738762 0 480911.94189738762 171099.25507648848 0 0 0 0 4327444.527013571 -623604493.22308731 0 -623604493.22308731 2204684648.1246824 0 0 0 0 -30856177.001093209 -420788473.4094696 0 -420788473.4094696 1038378469.7565117 0 0 0 0 -135391033.29963207 103138763.74418068 0 103138763.74418068 -68687078.889129639 0 0 0 0 -142610782.65783548 57495953.128593445 0 57495953.128593445 172574677.88038635 0 0 0 0 12032641.867267132 -139978220.65324402 0 -139978220.65324402 151638591.51497221 0 0 0 0 -103480808.81428039 -7455934.7506446838 0 -7455934.7506446838 5123355.2712097168 0 0 0 0 -43003004.84540987 -44246336.792388916 0 -44246336.792388916 -46771622.266921997 0 0 0 0 4309812.8687624931 -84224780.474702835 0 -84224780.474702835 -13063901.495974541 0 0 0 0 -217773.83613190049 -272601.6599098295 0 -272601.6599098295 -71219.992563043721 0 0 0 0 62875908.222514629 -38496868.370733261 0 -38496868.370733261 -315320011.31082535 0 0 0 0 -6170366.2964808941 -32907771.355571747 0 -32907771.355571747 -103083513.38108826 0 0 0 0 21712734.422772661 -4556108.0725545883 0 -4556108.0725545883 25447447.026954651 0 0 0 0 13768201.923888445 -137261012.96679306 0 -137261012.96679306 28807643.143661499 0 0 0 0 118355370.06414121 -16820262.698478699 0 -16820262.698478699 80825863.674591064 0 0 0 0 6508343.7809696048 39400774.597763062 0 39400774.597763062 332167676.81038666 0 0 0 0 98101266.010696411 -77659519.226089478 0 -77659519.226089478 320260100.70825195 0 0 0 0 -40006524.006331727 228422864.77245665 0 228422864.77245665 46397884.006637573 0 0 0 0 18305055.901987553 -96543808.288333893 0 -96543808.288333893 119276248.80364227 0 0 0 0 -35898614.229010969 -104369499.40584183 0 -104369499.40584183 -72050970.432159424 0 0 0 0 -16459415.318188667 -100813301.08062744 0 -100813301.08062744 -1587190.5633330345 0 0 0 0 -147790.61158065902 74209.68703708332 0 74209.68703708332 55612.785521322861 0 0 0 0 79732267.799550742 328306496.99545574 0 328306496.99545574 -61684982.982658386 0 0 0 0 90453938.398582458 48341526.638933182 0 48341526.638933182 -130023861.93361664 0 0 0 0 5739633.6926043034 29703358.738319397 0 29703358.738319397 -15888741.390228271 0 0 0 0 44327404.284510255 -251768708.23789024 0 -251768708.23789024 -144731057.36727524 0 0 0 0 36851803.991311073 -19120980.146392822 0 -19120980.146392822 52711277.805015564 0 0 0 0 206511146.09318662 -126238223.99891663 0 -126238223.99891663 68977749.393760681 0 0 0 0 -23570506.738250256 66088900.687767029 0 66088900.687767029 649969515.69802856 0 0 0 0 16352161.378816292 1214495.2552002668 0 1214495.2552002668 21804530.182876587 0 0 0 0 17781134.6104213 -14138688.807777405 0 -14138688.807777405 26115301.13470459 0 0 0 0 111270477.99644719 38890184.584544182 0 38890184.584544182 16909045.250427246 0 0 0 0 88607949.833684906 -71314374.778137207 0 -71314374.778137207 -27869971.350952148 0 0 0 0 -9375077.314614743 -22197405.798429489 0 -22197405.798429489 19795408.353111267 0 0 0 0 -124081209.09438753 -47681052.033424377 0 -47681052.033424377 42739399.74080658 0 0 0 0 -18541270.210995376 -33435888.433956146 0 -33435888.433956146 24662630.104193687 0 0 0 0 -35967696.022084653 -3794742.6202259064 0 -3794742.6202259064 28801711.208934784 0 0 0 0 -17723177.911833316 1284433.5395336151 0 1284433.5395336151 6586874.5524520874 0 0 0 0 -90978248.843448192 57792691.344880104 0 57792691.344880104 -29789647.678581238 0 0 0 0 -25563701.106703371 7659636.1729660034 0 7659636.1729660034 8579583.897277832 0 0 0 0 -21262132.02552247 13269341.080348969 0 13269341.080348969 -6749992.1552696228 0 0 0 0 -972123.77514228912 -487070.13164802454 0 -487070.13164802454 166351.15169158764 0 0 0 0 -322527.21092095197 385878.18786718883 0 385878.18786718883 402189.7765173167 0 0 0 0 -19475639.341566503 5379590.4452819824 0 5379590.4452819824 1452477.6361618042 0 0 0 0 -22254574.380646408 5816877.0808925629 0 5816877.0808925629 7724954.3916702271 0 0 0 0 -12362770.077873349 -22421478.500860214 0 -22421478.500860214 15155126.264429092 0 0 0 0 -110123.1595960855 143170.27645167336 0 143170.27645167336 150367.93989793584 0 0 0 0 27580264.471268922 41569159.145648003 0 41569159.145648003 48925814.06269455 0 0 0 0 -11408619.595719099 9355226.864648819 0 9355226.864648819 35085439.541814804 0 0 0 0 -6892106.253528066 23450224.402980804 0 23450224.402980804 70957044.124503613 0 0 0 0 -19856334.750928894 -20322459.660351753 0 -20322459.660351753 31777748.038230896 0 0 0 0 -24840045.087867156 -17014323.318681717 0 -17014323.318681717 62551815.803070068 0 0 0 0 -17146905.958145455 -13941317.209273815 0 -13941317.209273815 29397897.542625427 0 0 0 0 -18602715.275786966 -9318908.1670608521 0 -9318908.1670608521 55212339.538818359 0 0 0 0 -2556607.4584792852 902166.46251678467 0 902166.46251678467 27260625.563148499 0 0 0 0 -10537878.625125885 -560580.01892089844 0 -560580.01892089844 36315987.12097168 0 0 0 0 364.5248076915741 -11005.606773376465 0 -11005.606773376465 36206400.884754181 0 0 0 0 4676600.3040856123 1160675.47996521 0 1160675.47996521 22924703.584617615 0 0 0 0 21722348.877821535 903171.65414953232 0 903171.65414953232 -2107569.1893539429 0 0 0 0 226264.4049708157 -69153.025814555585 0 -69153.025814555585 -125710.85033014882 0 0 0 0 -7278797.7222959995 13714879.842140198 0 13714879.842140198 102061176.94465637 0 0 0 0 -23748664.424645424 10962257.412643433 0 10962257.412643433 123114057.87883759 0 0 0 0 38641477.954968452 36095980.140781403 0 36095980.140781403 36681357.91759491 0 0 0 0 29303803.715172291 2498010.4195423126 0 2498010.4195423126 688034.37000274658 0 0 0 0 34545664.753211975 37091576.604782104 0 37091576.604782104 19881402.277297974 0 0 0 0 14020572.188695431 17818876.272819519 0 17818876.272819519 -10847536.935668945 0 0 0 0 13944781.83361721 -2394034.3023338318 0 -2394034.3023338318 -5058259.6388030052 0 0 0 0 -209654.64015138149 -3639030.5488739014 0 -3639030.5488739014 4399698.3730049133 0 0 0 0 -1754204.6067681313 -93875.837783813477 0 -93875.837783813477 -662592.59036827087 0 0 0 0 365846.34318631171 104860.23177682701 0 104860.23177682701 -124114.00151027367 0 0 0 0 -430779.68667399883 1520383.6881465912 0 1520383.6881465912 -90774.435483932495 0 0 0 0 6241702.3971081972 12981446.234207153 0 12981446.234207153 15116762.915464401 0 0 0 0 1696302.5979270339 6778470.464205265 0 6778470.464205265 19817019.790969849 0 0 0 0 -471980.79714918137 21246247.889911652 0 21246247.889911652 53096522.863796234 0 0 0 0 -4431481.6313235164 9587303.429189682 0 9587303.429189682 58600930.695167542 0 0 0 0 -9179071.0926737785 -1078388.8318157196 0 -1078388.8318157196 27449309.261751175 0 0 0 0 -9818957.7750104666 7123685.9682693481 0 7123685.9682693481 72369741.232388496 0 0 0 0 15117762.793882728 -9536483.9824371338 0 -9536483.9824371338 -12432665.646686554 0 0 0 0 4571755.4026749134 7965473.7235298157 0 7965473.7235298157 21464163.654323578 0 0 0 0 8458741.6483542919 6778241.4576644897 0 6778241.4576644897 21726618.267662048 0 0 0 0 28675055.797036171 46087522.710617065 0 46087522.710617065 59285956.159038544 0 0 0 0 -1229518.2555904388 12376733.072193146 0 12376733.072193146 22216931.714267731 0 0 0 0 -29339932.275933743 42803624.077812195 0 42803624.077812195 25111023.321228027 0 0 0 0 -9119414.5078125 -19378501.762115479 0 -19378501.762115479 6799676.2943286896 0 0 0 0 52491731.071418881 3871368.9318809509 0 3871368.9318809509 12520202.684364319 0 0 0 0 -12788151.200421572 -9431531.4038028717 0 -9431531.4038028717 6979043.6831436157 0 0 0 0 -361935.92520584702 -205502.99784746766 0 -205502.99784746766 856441.51867176488 0 0 0 0 22037086.528428078 -26852287.758060455 0 -26852287.758060455 -9773996.532283783 0 0 0 0 -102225.1102670473 -21018.309639163315 0 -21018.309639163315 152760.07634408027 0 0 0 0 2546139.31945014 16032027.637664795 0 16032027.637664795 24609305.424016953 0 0 0 0 535605.50405883789 -36082109.238422394 0 -36082109.238422394 -5939670.898727417 0 0 0 0 -3080061.5923066139 8625045.0324668884 0 8625045.0324668884 28172982.610804558 0 0 0 0 -10883001.210245073 -842066.63184452057 0 -842066.63184452057 20087078.889759064 0 0 0 0 9385108.1731774211 3925001.1652669907 0 3925001.1652669907 -6862752.4505386353 0 0 0 0 -200329.55046486662 -272168.5555483941 0 -272168.5555483941 387713.17688681558 0 0 0 0 -568271.80898329616 -190375.19513511658 0 -190375.19513511658 11544350.973342896 0 0 0 0 -2999305.0296183825 -3081898.7777137756 0 -3081898.7777137756 8674589.5129179955 0 0 0 0 -37764.137022837996 1266190.36419034 0 1266190.36419034 8344680.6755714417 0 0 0 0 -651176.67169028521 -1927694.7995471954 0 -1927694.7995471954 11163432.385372162 0 0 0 0 111230.13601614436 -159150.68138189614 0 -159150.68138189614 -62776.013725313358 0 0 0 0 -167047.29255659878 608191.13720226288 0 608191.13720226288 6300302.5554847717 0 0 0 0 -1751393.0849933028 3289034.6020278931 0 3289034.6020278931 -2010424.395980835 0 0 0 0 342312.28726089001 5024904.8210678101 0 5024904.8210678101 -654956.44367980957 0 0 0 0 2898.314809559728 -10864.224817892537 0 -10864.224817892537 -259.68519294075668 0 0 0 0 -19547290.243779063 -12015352.796152115 0 -12015352.796152115 71132722.01235199 0 0 0 0 -18019586.850738049 -21498003.131336212 0 -21498003.131336212 21993070.230545044 0 0 0 0 -18324263.850815892 -11808677.629400253 0 -11808677.629400253 -7241815.5683937073 0 0 0 0 -238221.36670279037 -41809.339372893795 0 -41809.339372893795 316596.32100644894 0 0 0 0 39283825.116932988 30577675.531449318 0 30577675.531449318 7537159.5391807556 0 0 0 0 12200606.22091198 36193950.738838196 0 36193950.738838196 85067256.152488708 0 0 0 0 27786679.661591053 -16149214.866195679 0 -16149214.866195679 -20583389.336174011 0 0 0 0 4435832.5232520103 7182233.2417068481 0 7182233.2417068481 12235910.256792068 0 0 0 0 -11398894.969197288 -5569347.0558753014 0 -5569347.0558753014 18320435.688560486 0 0 0 0 -8074539.7091787457 -5226346.4898700714 0 -5226346.4898700714 11840435.575271606 0 0 0 0 -6879127.4838610291 7203305.8618927002 0 7203305.8618927002 18564809.591644287 0 0 0 0 -11847079.495063543 2653923.6204414368 0 2653923.6204414368 32560889.273490906 0 0 0 0 -8339365.4861898404 598663.01061916351 0 598663.01061916351 15226656.381328583 0 0 0 0 -27517.881152361064 -137435.96584227867 0 -137435.96584227867 54351.343404714949 0 0 0 0 -12407422.34638232 -1360156.3788261414 0 -1360156.3788261414 18612069.549842834 0 0 0 0 -2464419.8418901423 499781.81584358215 0 499781.81584358215 14809203.570827484 0 0 0 0 370682.54191881418 -130466.22199821472 0 -130466.22199821472 13338840.78729248 0 0 0 0 -91482.85112356671 -253424.52151124366 0 -253424.52151124366 173143.70539699402 0 0 0 0 21248681.44119963 -540591.68468093872 0 -540591.68468093872 -2403708.414516449 0 0 0 0 -192795.62059184909 -824567.59135055542 0 -824567.59135055542 12510804.764708519 0 0 0 0 131096.04200576799 -161084.51920879632 0 -161084.51920879632 -104025.55526989512 0 0 0 0 -25232.911390148103 -888406.23892593384 0 -888406.23892593384 11773562.454719543 0 0 0 0 4495797.0325978398 2393847.4152832031 0 2393847.4152832031 -5431998.7369422913 0 0 0 0 -3262760.7933729291 95247.145355224609 0 95247.145355224609 5813246.3892440796 0 0 0 0 -1657520.1153113991 -1800938.3536376953 0 -1800938.3536376953 3022100.6102867126 0 0 0 0 1664810.7580456436 -2102387.9953842163 0 -2102387.9953842163 12643849.924436569 0 0 0 0 -3082741.8637790978 -5477097.1037654877 0 -5477097.1037654877 20406060.617424011 0 0 0 0 76729.02808780325 -92200.830207061023 0 -92200.830207061023 -67630.227374157868 0 0 0 0 -983745.29066836834 1417135.0175743103 0 1417135.0175743103 -4672672.7133522034 0 0 0 0 -8148483.7263484001 -5392436.3632698059 0 -5392436.3632698059 -2610259.3767056465 0 0 0 0 427366.45461583138 1723485.2737922668 0 1723485.2737922668 -678897.56696414948 0 0 0 0 -11869421.595042109 -5403123.7342319489 0 -5403123.7342319489 11964827.192638397 0 0 0 0 802835.03709736466 -1648315.4951586723 0 -1648315.4951586723 6132459.310962677 0 0 0 0 -9805029.5698081255 -2853060.7910518646 0 -2853060.7910518646 6172381.8824729919 0 0 0 0 -2850473.6908770725 5755392.1559071541 0 5755392.1559071541 18556854.120101929 0 0 0 0 -2543323.0500770956 -1952800.0444984436 0 -1952800.0444984436 11055646.062683105 0 0 0 0 -76452.86372355491 -213297.00502108596 0 -213297.00502108596 72767.548283696175 0 0 0 0 6961312.5584064424 906314.98217391968 0 906314.98217391968 13331688.951331139 0 0 0 0 5935215.412539199 16799044.150894165 0 16799044.150894165 26232841.673847198 0 0 0 0 4527436.5496693924 2879747.5241851807 0 2879747.5241851807 5399119.9903068542 0 0 0 0 -36855.130208540329 -121204.53667697683 0 -121204.53667697683 41455.743646454997 0 0 0 0 -3474739.8945078552 1367049.9970722198 0 1367049.9970722198 23976312.87322998 0 0 0 0 6000934.4089602232 -7228548.7359848022 0 -7228548.7359848022 5816904.3013556357 0 0 0 0 -11075121.577859282 -17265665.250007629 0 -17265665.250007629 52832728.855781555 0 0 0 0 12499204.267005444 -2091010.2398605347 0 -2091010.2398605347 8984882.9574928284 0 0 0 0 16788332.107776761 27155964.143093109 0 27155964.143093109 47578927.900726318 0 0 0 0 15753287.94635582 26175248.245868683 0 26175248.245868683 38085944.991291046 0 0 0 0 4230437.2815470546 19407048.347251892 0 19407048.347251892 44783407.616744995 0 0 0 0 14230971.38151025 24126276.31493187 0 24126276.31493187 36275022.777881622 0 0 0 0 4972268.1409101486 20371952.433450699 0 20371952.433450699 41774225.491796494 0 0 0 0 18450717.893887758 13303844.727891445 0 13303844.727891445 35524110.00138092 0 0 0 0 -3634395.4834133387 12001418.769245148 0 12001418.769245148 36107274.300983429 0 0 0 0 1514502.3577042818 6751805.7573280334 0 6751805.7573280334 29868784.25182724 0 0 0 0 14010739.447644055 12889065.627946854 0 12889065.627946854 25992290.542495728 0 0 0 0 5190141.0950544477 16051494.257709503 0 16051494.257709503 59785665.453575134 0 0 0 0 4442006.0015231371 6926559.3541412354 0 6926559.3541412354 36772713.766191483 0 0 0 0 -1097312.0886297226 16055402.737953186 0 16055402.737953186 21762250.738769531 0 0 0 0 295675.84721778333 217133.28675556183 0 217133.28675556183 20555830.018013 0 0 0 0 -1205314.5145827532 23734864.123590469 0 23734864.123590469 45254065.87134552 0 0 0 0 -1319242.8222419024 24033964.604133606 0 24033964.604133606 46042663.554237366 0 0 0 0 -1877274.9743432999 19895809.112258911 0 19895809.112258911 24087335.958086014 0 0 0 0 7257670.4921474457 13570247.758657455 0 13570247.758657455 27145855.892074585 0 0 0 0 27362756.479495972 41747464.286338806 0 41747464.286338806 34077809.394256592 0 0 0 0 -7416084.066160202 42197166.256629944 0 42197166.256629944 60016863.082326889 0 0 0 0 -5129783.1369390488 33855940.76259613 0 33855940.76259613 32962114.856735229 0 0 0 0 10597213.568650961 9485040.539642334 0 9485040.539642334 18665218.149829865 0 0 0 0 -290484.38663768768 27881855.536045074 0 27881855.536045074 39415550.2843647 0 0 0 0 -21612494.198394656 28590053.714138031 0 28590053.714138031 40543348.704490662 0 0 0 0 -129754.81907373259 -16485.105422375724 0 -16485.105422375724 270217.43994824402 0 0 0 0 -5108730.5118813515 185176.40142059326 0 185176.40142059326 -1118962.9825639725 0 0 0 0 7586333.1604283154 19123626.557785988 0 19123626.557785988 30873608.445777893 0 0 0 0 8974569.5027148724 17221122.761665344 0 17221122.761665344 31791167.592636108 0 0 0 0 -1879996.1470401287 30157636.069301605 0 30157636.069301605 52136358.223480225 0 0 0 0 -4183896.0718618631 2200128.8901062012 0 2200128.8901062012 1725222.9955406189 0 0 0 0 -9352078.1135457754 -13011275.559509277 0 -13011275.559509277 6957299.0848121643 0 0 0 0 1802975.0655497909 2886609.6245536804 0 2886609.6245536804 -1614156.1911239624 0 0 0 0 -75236.223938775889 -1027.0713601475582 0 -1027.0713601475582 124820.7582263872 0 0 0 0 28822470.802975535 52264649.514190674 0 52264649.514190674 77866263.30242157 0 0 0 0 12199112.513191938 16462672.984882355 0 16462672.984882355 82300756.12472105 0 0 0 0 15586561.362667799 16707158.330890656 0 16707158.330890656 49096750.260219574 0 0 0 0 27517924.253954709 13776193.839279175 0 13776193.839279175 44872362.586906433 0 0 0 0 1111531.1639144421 21302955.865299225 0 21302955.865299225 47682812.40341568 0 0 0 0 28637883.302679457 31717200.993452609 0 31717200.993452609 41860527.61932373 0 0 0 0 2213914.2738287449 26466003.018959045 0 26466003.018959045 69353006.6717453 0 0 0 0 1419190.4111388624 19441526.742468834 0 19441526.742468834 49299357.377037048 0 0 0 0 -1649393.4231137037 9071723.8543300629 0 9071723.8543300629 40039272.542541504 0 0 0 0 15362601.47022897 15821963.460926056 0 15821963.460926056 37400436.043903351 0 0 0 0 10466774.292111754 22180631.115810394 0 22180631.115810394 45614948.124120712 0 0 0 0 -6925668.9130717516 15839513.031995773 0 15839513.031995773 38348368.502696991 0 0 0 0 -11410654.137708783 -2385403.677116394 0 -2385403.677116394 25504194.777797699 0 0 0 0 -5376962.6180071831 10663312.968214035 0 10663312.968214035 39682672.442184448 0 0 0 0 -4444000.5649384111 2995052.2149236202 0 2995052.2149236202 22637116.657558441 0 0 0 0 -5825884.5977129936 4946845.4469928741 0 4946845.4469928741 28609664.582557678 0 0 0 0 -4475159.6007902622 3488668.2692699432 0 3488668.2692699432 22600881.726094723 0 0 0 0 -1501367.1449041367 9627763.7084941864 0 9627763.7084941864 23189129.080421448 0 0 0 0 732863.07508707047 9077747.758644104 0 9077747.758644104 18300645.321670532 0 0 0 0 -10035278.025440097 8052919.9496452808 0 8052919.9496452808 41309193.683067322 0 0 0 0 -8337125.7742631435 2025941.588186264 0 2025941.588186264 24251264.481594086 0 0 0 0 -5410937.4333059788 4661877.0615253448 0 4661877.0615253448 26620289.791379929 0 0 0 0 -4068562.2190656662 312866.40265274048 0 312866.40265274048 11643052.756942749 0 0 0 0 -8750475.001329422 2387135.0654716492 0 2387135.0654716492 24105113.507094383 0 0 0 0 -5488435.5623035431 3104843.6901845932 0 3104843.6901845932 13175862.235858917 0 0 0 0 376296.00186377647 -1185.9861390702426 0 -1185.9861390702426 -4462.8228156510741 0 0 0 0 19562287.406113148 18005182.595317841 0 18005182.595317841 -5095508.4737358093 0 0 0 0 151385.70373071416 -37304.404553491622 0 -37304.404553491622 -19299.701704764739 0 0 0 0 -35863636.522910118 -654561.03906822205 0 -654561.03906822205 40807253.356254578 0 0 0 0 -10007406.603475571 12394575.858831406 0 12394575.858831406 20877193.074249268 0 0 0 0 3652676.6428413391 -16288939.726478577 0 -16288939.726478577 58768524.971822739 0 0 0 0 7626848.5488500595 -3010449.015586853 0 -3010449.015586853 28794558.90385437 0 0 0 0 -13801401.700740814 -5177906.6490573883 0 -5177906.6490573883 25501004.447225571 0 0 0 0 176013672.51316071 3084995.6936798096 0 3084995.6936798096 19784613.398086548 0 0 0 0 550609.49736776983 72931.022526089102 0 72931.022526089102 22599.831087065861 0 0 0 0 -50534059.152787685 26040455.045093536 0 26040455.045093536 18143892.628098488 0 0 0 0 -12981627.577896319 26002124.41104266 0 26002124.41104266 84088701.161968231 0 0 0 0 57143367.242863655 47982353.69667244 0 47982353.69667244 36867165.494140625 0 0 0 0 -309168.34602575941 -122314.91346677672 0 -122314.91346677672 179990.31142731756 0 0 0 0 1089724.3890094757 9789670.4669818878 0 9789670.4669818878 17357882.692970276 0 0 0 0 10019552.119841099 19975997.642118454 0 19975997.642118454 27073673.822696686 0 0 0 0 -991152.55083611817 -715814.48412554362 0 -715814.48412554362 375171.19642071798 0 0 0 0 15675065.631780624 11915377.006809235 0 11915377.006809235 12593889.278980255 0 0 0 0 9593191.1363765597 13724160.795473814 0 13724160.795473814 12936813.27960968 0 0 0 0 2709331.4491946697 6013881.9025287628 0 6013881.9025287628 -37030426.82705307 0 0 0 0 -1325756.3351306915 7995473.0826511383 0 7995473.0826511383 605999.70049667358 0 0 0 0 -35177368.818742335 7264319.0420644283 0 7264319.0420644283 39563527.558113098 0 0 0 0 26365263.100068092 94347179.700145721 0 94347179.700145721 80510542.363382339 0 0 0 0 -59001643.728950024 -393483.25246810913 0 -393483.25246810913 165203539.76669502 0 0 0 0 18036170.537601948 -28457608.279521942 0 -28457608.279521942 43415866.054447174 0 0 0 0 221195.33205395937 34919312.765833855 0 34919312.765833855 14469661.512546539 0 0 0 0 30861058.077314377 22075922.406227112 0 22075922.406227112 958518.18737220764 0 0 0 0 8379976.6243286133 -27460921.529348373 0 -27460921.529348373 -33379147.829960048 0 0 0 0 -11938042.145244479 -129823585.76524663 0 -129823585.76524663 -81631356.981742859 0 0 0 0 -2380014.294729677 -2035787.5096806185 0 -2035787.5096806185 7782312.5769606736 0 0 0 0 -137895962.51447916 18874413.679133177 0 18874413.679133177 166137500.44785309 0 0 0 0 208643243.06446362 -20372071.836883545 0 -20372071.836883545 -132030407.34680748 0 0 0 0 9014744.6027380005 11613646.076675266 0 11613646.076675266 -1659801.2534255981 0 0 0 0 -127525035.75199795 -112279301.71760941 0 -112279301.71760941 17976776.102531433 0 0 0 0 -8685392.3090906143 -15095714.660388947 0 -15095714.660388947 -21028397.450269699 0 0 0 0 -2596533.3206621241 -1547551.9083522577 0 -1547551.9083522577 8010293.9218086125 0 0 0 0 -35034781.729013443 32493845.924152374 0 32493845.924152374 53879709.52041626 0 0 0 0 42839880.226130486 66040682.642562866 0 66040682.642562866 49818263.929420471 0 0 0 0 49003207.937643051 49178408.289018631 0 49178408.289018631 62248688.701782227 0 0 0 0 58046067.57533145 70918471.125573158 0 70918471.125573158 42029470.612548828 0 0 0 0 8634888.2286214828 25281071.258060455 0 25281071.258060455 74288345.902770996 0 0 0 0 71052404.245492458 47982379.588486671 0 47982379.588486671 35836365.25894928 0 0 0 0 -11565050.922938347 6520586.0325012207 0 6520586.0325012207 69344448.528666496 0 0 0 0 -25794858.198297024 30913745.563170433 0 30913745.563170433 30457927.325920105 0 0 0 0 -99526141.919260979 -102605988.33176041 0 -102605988.33176041 139390053.52540588 0 0 0 0 -6920637.0173816681 -195602042.40861511 0 -195602042.40861511 45463129.664588928 0 0 0 0 -164684373.34158659 -73250409.903686523 0 -73250409.903686523 77747413.6822052 0 0 0 0 -139599159.22476292 10504163.798622131 0 10504163.798622131 58970483.924804688 0 0 0 0 258892572.47681808 33685166.619186401 0 33685166.619186401 -9268648.6417388916 0 0 0 0 331196.66464836779 28296.299530036747 0 28296.299530036747 4969.9629346029833 0 0 0 0 56507157.588040352 61669248.774551392 0 61669248.774551392 81745489.641929626 0 0 0 0 83134289.759523392 89123991.198753357 0 89123991.198753357 64625801.40536499 0 0 0 0 222661213.69608879 -52793714.874984741 0 -52793714.874984741 -27960900.715393066 0 0 0 0 -22845.41379734606 281284.1324212607 0 281284.1324212607 504908.24880374223 0 0 0 0 77354527.010652542 76029253.104694366 0 76029253.104694366 39683308.530380249 0 0 0 0 5899942.787027359 -19464430.362262726 0 -19464430.362262726 16475278.86291635 0 0 0 0 -22039470.67537117 -25147186.572807312 0 -25147186.572807312 47835576.660293579 0 0 0 0 61920521.062795639 -31157002.589042664 0 -31157002.589042664 16790311.360435486 0 0 0 0 -7941463.7958555222 -104643454.57250977 0 -104643454.57250977 72517920.408905029 0 0 0 0 -71965620.007289886 -15893793.19228363 0 -15893793.19228363 49940527.519989014 0 0 0 0 3796810.971227169 -6331158.6652832031 0 -6331158.6652832031 13027521.149513245 0 0 0 0 -3981442.3226456642 -7209444.2341804504 0 -7209444.2341804504 20836303.5887146 0 0 0 0 -24642.471967935562 -16680266.549600601 0 -16680266.549600601 21819569.514640808 0 0 0 0 -5455179.4797598124 -5246341.4218769073 0 -5246341.4218769073 18434119.572311401 0 0 0 0 2890045.3686599731 1150836.6013221741 0 1150836.6013221741 4593883.0985422134 0 0 0 0 21797515.448535204 -7560682.5261459351 0 -7560682.5261459351 7173803.3620147705 0 0 0 0 -165341.30930405075 971755.09141388256 0 971755.09141388256 1634137.7926612087 0 0 0 0 1700867.690579386 2836617.6810887353 0 2836617.6810887353 1635737.6447906457 0 0 0 0 2361049.8129388094 3424107.1704311371 0 3424107.1704311371 794890.62777900696 0 0 0 0 1224540.5781841278 4634039.304274559 0 4634039.304274559 205016.42629241943 0 0 0 0 28675.496847242117 4586255.855483532 0 4586255.855483532 5733778.7042999268 0 0 0 0 797795.73758935928 6643112.5731201172 0 6643112.5731201172 3955042.9986877441 0 0 0 0 2259197.1898743506 3737710.3184713903 0 3737710.3184713903 2214800.5465041362 0 0 0 0 55206.005568504333 8476090.4086799622 0 8476090.4086799622 3451570.8848209381 0 0 0 0 -10873973.306072235 11242372.913291931 0 11242372.913291931 15145842.118560791 0 0 0 0 629613.59478616714 9866140.8069190979 0 9866140.8069190979 91281.759956359863 0 0 0 0 -4465275.1160769463 63335.595664978027 0 63335.595664978027 16309356.841171265 0 0 0 0 -3112810.9399251938 -2270153.8712310791 0 -2270153.8712310791 20182372.095386505 0 0 0 0 -24176.867910861969 543782.21799850464 0 543782.21799850464 2546616.1028747559 0 0 0 0 14350900.122089386 58522206.279724121 0 58522206.279724121 60839125.739348412 0 0 0 0 -15945568.936552048 23081517.909816742 0 23081517.909816742 25464028.124229431 0 0 0 0 72148438.509809971 22227348.54785347 0 22227348.54785347 -5881426.5737419128 0 0 0 0 703042.31156995532 136427.00266999844 0 136427.00266999844 -734555.88861894608 0 0 0 0 483275.41150789708 3274615.1541215763 0 3274615.1541215763 -906243.12032290362 0 0 0 0 12527334.66387558 13653092.664876938 0 13653092.664876938 6001494.7923278809 0 0 0 0 19292124.160374165 18546046.444486618 0 18546046.444486618 2269138.4879302979 0 0 0 0 5200051.5371751785 25094732.721496582 0 25094732.721496582 24733941.45434761 0 0 0 0 1107524.0789732933 9634996.7050609589 0 9634996.7050609589 2311080.7253421471 0 0 0 0 5545100.6122865677 16881892.158555984 0 16881892.158555984 5250166.0830230713 0 0 0 0 -456166.61743957305 5327780.7955495566 0 5327780.7955495566 -169884.23482749611 0 0 0 0 1503036.8238287568 6528915.8101930618 0 6528915.8101930618 4687161.188621521 0 0 0 0 -1003217.2421619892 2793066.4461560249 0 2793066.4461560249 6911163.1458587646 0 0 0 0 5434870.2810769677 7131833.4029712677 0 7131833.4029712677 8450546.3252868652 0 0 0 0 27056098.121930122 -7538927.2509155273 0 -7538927.2509155273 9511801.5441589355 0 0 0 0 -1343746.6517372131 8047668.7597198486 0 8047668.7597198486 20852697.495796204 0 0 0 0 -663019.54313778598 -271008.71573859686 0 -271008.71573859686 1298903.8501113495 0 0 0 0 4240177.079190731 50150.583221435547 0 50150.583221435547 15743918.609062195 0 0 0 0 1989976.8740959167 4994025.3180236816 0 4994025.3180236816 11589815.907989502 0 0 0 0 2532842.3361464739 1877932.11632061 0 1877932.11632061 14850539.135139465 0 0 0 0 7484298.0081334114 1450669.0184860229 0 1450669.0184860229 13394041.459407806 0 0 0 0 -914718.32856655121 8795933.8785991669 0 8795933.8785991669 3905459.9355239868 0 0 0 0 -203295.37114802306 90405.321134768426 0 90405.321134768426 421855.37854347564 0 0 0 0 4186831.6376218796 6378231.7783718109 0 6378231.7783718109 18071261.619007111 0 0 0 0 -2116052.2945899582 1798242.52746399 0 1798242.52746399 7765424.9391474212 0 0 0 0 -8353390.8493346572 2693688.7952358723 0 2693688.7952358723 11178767.753097534 0 0 0 0 -390268.207159549 1027321.2334182262 0 1027321.2334182262 7115958.6551399231 0 0 0 0 -3299.2639381885529 4647933.9462585449 0 4647933.9462585449 12487531.943710327 0 0 0 0 -14407.148511588573 857024.52574920654 0 857024.52574920654 1698212.2225418091 0 0 0 0 -28747.984715586907 1502019.1538423235 0 1502019.1538423235 3664233.086705897 0 0 0 0 -960928.37165164948 875889.38818359375 0 875889.38818359375 1768513.1265563965 0 0 0 0 -828560.30631429097 2339478.7982539823 0 2339478.7982539823 4066660.3633671217 0 0 0 0 1364538.663418293 5434703.8257675171 0 5434703.8257675171 7206692.3115081787 0 0 0 0 373837.18106641702 2427965.6201554062 0 2427965.6201554062 2844405.4698739648 0 0 0 0 -427372.87716296467 788497.58857356152 0 788497.58857356152 834921.06870977581 0 0 0 0 -14144836.569731236 8209030.210899353 0 8209030.210899353 8413381.2555541992 0 0 0 0 2457401.5006988049 1307120.2546844482 0 1307120.2546844482 3024765.1938476562 0 0 0 0 1008122.4694581032 5101272.4744491577 0 5101272.4744491577 5463834.7900066376 0 0 0 0 963393.68356227875 7767581.7801742554 0 7767581.7801742554 11849986.864234924 0 0 0 0 2502175.1434496641 4536821.845199585 0 4536821.845199585 7182795.348903656 0 0 0 0 1422755.7639480829 7416351.8871841431 0 7416351.8871841431 10351274.340324402 0 0 0 0 4497827.9313750267 2634706.4421844482 0 2634706.4421844482 16278184.140171051 0 0 0 0 32736.689799123851 119093.4885332454 0 119093.4885332454 635205.97489313665 0 0 0 0 -681263.59715217259 228986.36419945862 0 228986.36419945862 2997776.9200809496 0 0 0 0 -3723855.1275978088 5849957.052734375 0 5849957.052734375 27849879.315830231 0 0 0 0 6175498.6489400864 3150318.3149080276 0 3150318.3149080276 3393009.0071563721 0 0 0 0 7728677.771590542 4921940.3375816345 0 4921940.3375816345 9845994.2709503174 0 0 0 0 4363446.4967222214 7478360.5075912476 0 7478360.5075912476 9648830.1828918457 0 0 0 0 -36971127.481387377 34851604.593639374 0 34851604.593639374 12928772.088539124 0 0 0 0 6727452.065284729 -2496459.077583313 0 -2496459.077583313 11527875.404708862 0 0 0 0 -108085.23828268575 252914.80822792649 0 252914.80822792649 332803.85615539784 0 0 0 0 333368.1748634855 2769588.6819332056 0 2769588.6819332056 3375725.3456358067 0 0 0 0 -134736.30877240896 140522.54396479484 0 140522.54396479484 2207772.9682370317 0 0 0 0 -158941.703748703 -237460.16526985168 0 -237460.16526985168 3280894.6094970703 0 0 0 0 -1916990.6273719941 2874671.2104373826 0 2874671.2104373826 5166659.8225679509 0 0 0 0 -540677.41457564256 1882704.4130521147 0 1882704.4130521147 4135714.3179532848 0 0 0 0 -463157.10639409721 890917.2811832428 0 890917.2811832428 2481533.5381317139 0 0 0 0 1403643.3849773407 6106688.4705696106 0 6106688.4705696106 12489575.619636536 0 0 0 0 -301884.11891156435 606029.0225944519 0 606029.0225944519 2715731.4473304749 0 0 0 0 -158027.09000204335 418783.57039077487 0 418783.57039077487 1147839.211651573 0 0 0 0 -283439.68139463663 610687.71201515198 0 610687.71201515198 2336282.5094261169 0 0 0 0 -156974.61999511719 425383.68804931641 0 425383.68804931641 3134757.4609107971 0 0 0 0 -470280.69154858589 539589.61417007446 0 539589.61417007446 485687.39407348633 0 0 0 0 60577.585207939148 417150.32270812988 0 417150.32270812988 3133782.8293895721 0 0 0 0 8166.8413456454873 549624.94241148233 0 549624.94241148233 2235070.7786102295 0 0 0 0 756781.86894161452 3477225.9884799258 0 3477225.9884799258 4175008.6887637856 0 0 0 0 -51958.207953430247 368513.18942217622 0 368513.18942217622 4450977.5463869292 0 0 0 0 15189.648465434031 17412.165842045099 0 17412.165842045099 -45448.968300573528 0 0 0 0 3380182.5014057159 37785551.997051239 0 37785551.997051239 22499525.256128311 0 0 0 0 -370573.15385973139 1680502.7014000746 0 1680502.7014000746 3002762.6100692842 0 0 0 0 -537944.97711098194 431235.12627983093 0 431235.12627983093 946277.37836074829 0 0 0 0 61300582.157634735 -7634132.498878479 0 -7634132.498878479 -53208793.122070312 0 0 0 0 -118808520.50491428 -67037471.708732605 0 -67037471.708732605 -29327894.183753967 0 0 0 0 -14749.009655209258 53484.324946685694 0 53484.324946685694 189366.32620024867 0 0 0 0 1684185.582285881 7069732.854019165 0 7069732.854019165 -538541.36304473877 0 0 0 0 476735.11161151831 2361834.3051752988 0 2361834.3051752988 2401189.68903956 0 0 0 0 669907.65411209827 577919.94293434173 0 577919.94293434173 -1044042.7292353492 0 0 0 0 -6025913.2297911644 11635508.668437958 0 11635508.668437958 21701176.125747681 0 0 0 0 6646502.5465459824 26047213.917373657 0 26047213.917373657 28954982.274795532 0 0 0 0 -2749975.366361618 18027553.576759338 0 18027553.576759338 22294009.399032593 0 0 0 0 37580435.533957481 36702054.13760376 0 36702054.13760376 15267442.766845703 0 0 0 0 -334487.75013685226 1850278.8317070007 0 1850278.8317070007 1243193.540058136 0 0 0 0 -2672628.697201103 334005.0805683136 0 334005.0805683136 -5711863.183303833 0 0 0 0 514338.96576499939 2068672.9436798096 0 2068672.9436798096 -749129.19578552246 0 0 0 0 -224251.63165430073 838377.27687191591 0 838377.27687191591 5377094.7013055468 0 0 0 0 2351635.6951788282 2147055.3496740917 0 2147055.3496740917 -631090.39193804562 0 0 0 0 2010140.8972043991 165828.07255172729 0 165828.07255172729 1196759.5205688477 0 0 0 0 88299.828499078751 1986263.21941185 0 1986263.21941185 979589.04396057129 0 0 0 0 581399.20831625839 2620819.1599008068 0 2620819.1599008068 5397602.711564471 0 0 0 0 -577406.1093812047 105155.27873568982 0 105155.27873568982 1910072.4195506833 0 0 0 0 -711562.21511695185 1709630.5469264537 0 1709630.5469264537 2165275.4899916574 0 0 0 0 -6719406.3311917782 -5247063.5651283264 0 -5247063.5651283264 -3431011.4952278137 0 0 0 0 10018575.298921585 9894409.8679046631 0 9894409.8679046631 -28283122.437934875 0 0 0 0 -2226625.6274268627 549898.00397396088 0 549898.00397396088 9043968.8669281006 0 0 0 0 -4471061.5458774567 28419350.42880249 0 28419350.42880249 -5298249.5239334106 0 0 0 0 -15778948.883857965 23104026.20737648 0 23104026.20737648 21790922.897293091 0 0 0 0 -11365767.553335667 93012.842903137207 0 93012.842903137207 37574043.622142792 0 0 0 0 -2032673.9671597481 5857621.0227966309 0 5857621.0227966309 2528567.0965976715 0 0 0 0 11833074.706637859 8395873.6913337708 0 8395873.6913337708 18155604.690841675 0 0 0 0 6321205.7526397705 -12694681.256347656 0 -12694681.256347656 23737512.749145508 0 0 0 0 1741661.4795470238 12008495.393344879 0 12008495.393344879 13433226.674922943 0 0 0 0 -4305475.5638873577 2484817.1516151428 0 2484817.1516151428 16067872.815551758 0 0 0 0 -3638863.7725377083 8397258.7396621704 0 8397258.7396621704 20605161.303321838 0 0 0 0 7199595.18972826 11352205.334945679 0 11352205.334945679 21140800.172035217 0 0 0 0 2755523.6025209427 10041184.511472702 0 10041184.511472702 27335777.669555664 0 0 0 0 11302659.212970734 9994020.9621925354 0 9994020.9621925354 27330665.222905874 0 0 0 0 5768964.555505991 -5876306.4850234985 0 -5876306.4850234985 11031412.960445404 0 0 0 0 19371287.033483505 5866448.9355201721 0 5866448.9355201721 29754687.351261139 0 0 0 0 23848022.192402214 12006879.669630766 0 12006879.669630766 22897553.702972412 0 0 0 0 -4453399.4926481247 -7736413.5721168518 0 -7736413.5721168518 125516706.2348423 0 0 0 0 10339985.778341055 -9963663.4675102234 0 -9963663.4675102234 65415839.152168274 0 0 0 0 11445092.740648508 17361807.665589333 0 17361807.665589333 49539217.538505554 0 0 0 0 8133802.9959574938 -1413986.126950264 0 -1413986.126950264 44530911.013259888 0 0 0 0 404179.15741539001 1167173.6254291534 0 1167173.6254291534 48060954.920066833 0 0 0 0 1640595.0454702377 11333880.287485123 0 11333880.287485123 44505663.702423096 0 0 0 0 -710461.91822147369 -2950088.7686805725 0 -2950088.7686805725 37357582.981866837 0 0 0 0 -4528960.1757779121 5477955.4819393158 0 5477955.4819393158 35236152.883407593 0 0 0 0 -14960591.838095188 6112911.3320388794 0 6112911.3320388794 38620026.096408844 0 0 0 0 -14700715.238425732 -3511149.4194946289 0 -3511149.4194946289 35647060.558578491 0 0 0 0 -7001732.0559391975 -2019511.6208610535 0 -2019511.6208610535 35920826.270448685 0 0 0 0 -5670832.0289414525 -4807489.4015655518 0 -4807489.4015655518 24218592.791549683 0 0 0 0 -9391988.0457463264 1502320.0419311523 0 1502320.0419311523 32370457.226783752 0 0 0 0 2391377.7033321708 14360950.399244606 0 14360950.399244606 29142493.313873291 0 0 0 0 -13184476.010748386 7531737.6742019653 0 7531737.6742019653 30998198.728702545 0 0 0 0 2711307.0140986443 1239572.2424316406 0 1239572.2424316406 20009323.344009399 0 0 0 0 -4947956.0138370991 1816797.2515869141 0 1816797.2515869141 25332795.620666504 0 0 0 0 -6171412.4636790752 2949162.1530132294 0 2949162.1530132294 24620781.95942688 0 0 0 0 2860561.9021658897 19954847.036571503 0 19954847.036571503 10838634.113258362 0 0 0 0 23219723.698151588 9993016.253112793 0 9993016.253112793 -166984.87753295898 0 0 0 0 -57062478.684716225 6240360.2009620667 0 6240360.2009620667 33760136.967697144 0 0 0 0 -11654949.212596893 14557997.719978333 0 14557997.719978333 -4594476.070892334 0 0 0 0 626083.76413911534 731961.29336390644 0 731961.29336390644 -621964.29268756323 0 0 0 0 -30720584.908585787 -39865316.73078537 0 -39865316.73078537 -12033739.818466187 0 0 0 0 8308654.2922315598 -829672.80080032349 0 -829672.80080032349 18741259.53894043 0 0 0 0 10578455.707728386 10715471.459777832 0 10715471.459777832 -2417158.2286453247 0 0 0 0 11963883.20826149 19178054.241104126 0 19178054.241104126 22194504.212946892 0 0 0 0 3444967.302934885 15741769.925928116 0 15741769.925928116 23111124.73109436 0 0 0 0 2851586.6481211185 6359073.6445331573 0 6359073.6445331573 25892750.088188171 0 0 0 0 1493631.1601419449 7500221.9074516296 0 7500221.9074516296 30725066.669042587 0 0 0 0 -4428037.69860816 -1006888.2441291809 0 -1006888.2441291809 18788094.636108398 0 0 0 0 -63563.305072835094 -20645834.30773735 0 -20645834.30773735 34458865.75233078 0 0 0 0 -19592113.024972387 -7997645.0891914368 0 -7997645.0891914368 97119907.391418457 0 0 0 0 14894.98245388609 182478.12936761556 0 182478.12936761556 317369.93640909344 0 0 0 0 -53008293.098807231 -57508710.142635345 0 -57508710.142635345 35611302.773365021 0 0 0 0 141230344.2865088 66168878.112266541 0 66168878.112266541 -27546898.528450012 0 0 0 0 27829942.617110968 5834148.665353775 0 5834148.665353775 27613397.358001709 0 0 0 0 -13398752.934467785 653897.38689422607 0 653897.38689422607 -8924696.9201545715 0 0 0 0 -105624292.79756841 -24291724.609995365 0 -24291724.609995365 49688966.065513611 0 0 0 0 3931047.7000505924 19200949.50548172 0 19200949.50548172 9725066.0401010513 0 0 0 0 55592.079601502097 602403.55666519701 0 602403.55666519701 939261.06410615146 0 0 0 0 39419600.848362193 35343777.217035294 0 35343777.217035294 3430763.354927063 0 0 0 0 -73102341.724282593 26760560.945487976 0 26760560.945487976 33079914.753746033 0 0 0 0 11104.400645922327 1948078.5942581499 0 1948078.5942581499 1700687.291008234 0 0 0 0 -6586491.0702971071 10314509.331813812 0 10314509.331813812 12845933.506118774 0 0 0 0 -18559047.542196989 19169930.143669128 0 19169930.143669128 10150489.953216553 0 0 0 0 -17503352.484704554 43899165.321414948 0 43899165.321414948 -2300747.7767562866 0 0 0 0 30669421.347105451 110333753.63538361 0 110333753.63538361 130060268.51257896 0 0 0 0 3363087.9336194135 15560450.137042999 0 15560450.137042999 30501722.212097168 0 0 0 0 -12546602.641440529 -11689918.741441727 0 -11689918.741441727 85871574.517822266 0 0 0 0 173998834.09425643 121361944.61626053 0 121361944.61626053 44838886.335323334 0 0 0 0 625286.16799367964 130211114.77694416 0 130211114.77694416 972430526.08426666 0 0 0 0 165599942.05165112 16173727.134553194 0 16173727.134553194 64088120.993499756 0 0 0 0 -278941282.70339513 656665261.82017517 0 656665261.82017517 2199399875.0057812 0 0 0 0 -113441475.79964805 99477590.59173584 0 99477590.59173584 805732466.67529869 0 0 0 0 830278035.30082142 1239910313.9647179 0 1239910313.9647179 1039025682.1143723 0 0 0 0 324157001.6351465 -460619611.84986639 0 -460619611.84986639 502674565.67494202 0 0 0 0 3762.7545086814825 420301.69631034322 0 420301.69631034322 1926599.0309439972 0 0 0 0 107395908.85874832 157746270.22256088 0 157746270.22256088 405866925.80419159 0 0 0 0 -307418.76071039122 -107905.88158324198 0 -107905.88158324198 4352071.9855019115 0 0 0 0 -70726075.565302327 57181456.014401436 0 57181456.014401436 -46377483.691635132 0 0 0 0 -6122694.4297314882 -6948212.4455299377 0 -6948212.4455299377 13397765.855416149 0 0 0 0 -15518399.033752441 -43720712.77488327 0 -43720712.77488327 558692607.51559448 0 0 0 0 127900043.63351446 17853388.24181366 0 17853388.24181366 -199296873.87205505 0 0 0 0 -145580.26254009537 157232.84969329648 0 157232.84969329648 780469.21756387933 0 0 0 0 -19237590.250087399 38500292.076020956 0 38500292.076020956 -41349419.872146606 0 0 0 0 -15112392.03012228 77923812.739974976 0 77923812.739974976 70036012.655014038 0 0 0 0 -1355415.8682570457 4099636.8473358154 0 4099636.8473358154 1447714.5113372803 0 0 0 0 -2325.2417549810489 1383271.6513882466 0 1383271.6513882466 5144204.3973948034 0 0 0 0 -37896132.62158823 -27840389.942047119 0 -27840389.942047119 -18890141.70904541 0 0 0 0 266925807.54801989 9168479.9976348877 0 9168479.9976348877 -41805129.257888794 0 0 0 0 -946257.48325318936 3124173.6068274658 0 3124173.6068274658 1351414.948845125 0 0 0 0 -69760769.202702045 116720304.97637558 0 116720304.97637558 68425258.804580688 0 0 0 0 -68808017.685229957 33367526.842559814 0 33367526.842559814 47498203.975616455 0 0 0 0 -179147288.75796533 -52651324.351654053 0 -52651324.351654053 -10521372.153747559 0 0 0 0 -243784.47978018748 167980.51614005305 0 167980.51614005305 418044.8414432779 0 0 0 0 -2369808.5357331038 -101032476.56518173 0 -101032476.56518173 55088384.682994843 0 0 0 0 -21730967.276713789 34150242.011539459 0 34150242.011539459 43094839.007270813 0 0 0 0 106452.73731924381 -642391.38443792053 0 -642391.38443792053 5085304.9024059735 0 0 0 0 -36725480.991666317 10446843.819507599 0 10446843.819507599 10651631.540711917 0 0 0 0 -6090320.1732240915 -7797880.0611419678 0 -7797880.0611419678 -126272468.84783936 0 0 0 0 73397070.387286574 166907611.11513138 0 166907611.11513138 -22053424.566146851 0 0 0 0 210390777.04122466 30732380.579971313 0 30732380.579971313 -152786202.72254181 0 0 0 0 -112305274.75359464 -43630952.751844406 0 -43630952.751844406 30914213.393470764 0 0 0 0 1185321.4280734283 -906478.88779735751 0 -906478.88779735751 2961338.2717124186 0 0 0 0 -74401396.205825806 -226558116.80384254 0 -226558116.80384254 547166086.70333862 0 0 0 0 -27625049.949220877 673874834.98775482 0 673874834.98775482 2203088380.2961121 0 0 0 0 -130014400.15078829 114597780.68471527 0 114597780.68471527 507787391.2452507 0 0 0 0 -235235517.998151 -253280372.39582253 0 -253280372.39582253 2200510162.6716614 0 0 0 0 83813727.98936297 -766648793.98415756 0 -766648793.98415756 1458158082.5306168 0 0 0 0 -478473998.60276097 -349541057.10710144 0 -349541057.10710144 2200355212.8615074 0 0 0 0 591371973.65572369 -447246416.66601753 0 -447246416.66601753 27248887.852409363 0 0 0 0 841332.57282760227 -137694.39304021467 0 -137694.39304021467 1448137.4458393827 0 0 0 0 -51431960.322290897 80135923.798664093 0 80135923.798664093 270716446.71341705 0 0 0 0 -9379241.3907858133 -380775677.66183472 0 -380775677.66183472 733149810.17327118 0 0 0 0 224624982.16028425 85356088.46846199 0 85356088.46846199 7431978.8152084351 0 0 0 0 137677998.02080557 -154921166.63730907 0 -154921166.63730907 49499003.028717041 0 0 0 0 30534388.471377492 50579454.804828644 0 50579454.804828644 -65503672.941772461 0 0 0 0 -28514247.704287052 9602678.9259414673 0 9602678.9259414673 -12559532.059545517 0 0 0 0 -9019081.9267725945 2358444.3933334351 0 2358444.3933334351 -3448246.3625073284 0 0 0 0 -39435.302986464347 3697175.7046054807 0 3697175.7046054807 943921.58501382521 0 0 0 0 -39815741.310058236 7100242.9491949081 0 7100242.9491949081 26875890.607711792 0 0 0 0 -19099872.381927073 71441226.110058784 0 71441226.110058784 50238017.074020386 0 0 0 0 626516.61546244938 3521918.8681804035 0 3521918.8681804035 926909.06223063485 0 0 0 0 266823915.41475296 -88951385.532897949 0 -88951385.532897949 33628555.685623169 0 0 0 0 25051039.409168243 77044166.842735291 0 77044166.842735291 30236362.251220703 0 0 0 0 99155613.573075414 -23401566.981790543 0 -23401566.981790543 -116999256.94485474 0 0 0 0 -17387646.007725846 -7448934.7655641772 0 -7448934.7655641772 -24931160.436767578 0 0 0 0 91472.483707278909 -86282.842738877051 0 -86282.842738877051 165649.66152285039 0 0 0 0 32555396.614453077 -18970242.172302246 0 -18970242.172302246 -3230365.0864562988 0 0 0 0 -3376.771047781629 377369.98776635062 0 377369.98776635062 500845.99195161089 0 0 0 0 12512843.386487007 2114786.7414741516 0 2114786.7414741516 -24663966.300811768 0 0 0 0 4491956.3066772223 147776416.68635559 0 147776416.68635559 11434927.120941162 0 0 0 0 15243755.149703503 -38398040.898284912 0 -38398040.898284912 17746504.092330933 0 0 0 0 12396273.791301012 -38587743.460899353 0 -38587743.460899353 56274333.946350098 0 0 0 0 -24364388.775225908 -41705640.535630226 0 -41705640.535630226 10470785.288658142 0 0 0 0 -96933.849035874591 -126717.46286796778 0 -126717.46286796778 878644.36749828234 0 0 0 0 -26456659.641465187 -19673211.704025269 0 -19673211.704025269 11995310.441329956 0 0 0 0 -9524323.8975601196 -3400431.787311554 0 -3400431.787311554 29449468.984931946 0 0 0 0 37704507.969306111 18450504.129453659 0 18450504.129453659 17103526.840530396 0 0 0 0 -28009405.060469389 6578582.1045913696 0 6578582.1045913696 26778434.953445435 0 0 0 0 69296.761750020873 156385.60236893315 0 156385.60236893315 140939.61136513203 0 0 0 0 95082427.816560507 58033719.603622437 0 58033719.603622437 -12417250.378326416 0 0 0 0 17902745.197955132 27141168.08738327 0 27141168.08738327 -479684.45543670654 0 0 0 0 5858906.2717753649 49057252.662826538 0 49057252.662826538 36821427.223911285 0 0 0 0 3674584.5389295816 16496892.521965027 0 16496892.521965027 -1762192.5381402969 0 0 0 0 -300341.70027077198 1946839.9057540894 0 1946839.9057540894 28824424.235580921 0 0 0 0 -19778273.069310844 23057037.158118248 0 23057037.158118248 15221778.19959259 0 0 0 0 6696.2848542886204 272444.8195616072 0 272444.8195616072 577667.68286932632 0 0 0 0 -679980.07888234954 697099.47761809453 0 697099.47761809453 689339.59596281126 0 0 0 0 -53788840.50487709 -13044075.288654327 0 -13044075.288654327 9204896.5884833336 0 0 0 0 -18167061.81982404 54049310.410730362 0 54049310.410730362 40937956.557098389 0 0 0 0 -1732332.5338845849 3258527.0815029144 0 3258527.0815029144 1227068.8551025391 0 0 0 0 -10374281.090280056 14538985.435930252 0 14538985.435930252 -15846797.887214661 0 0 0 0 -32317865.820808291 25395866.802978516 0 25395866.802978516 12015164.375366211 0 0 0 0 -462479.72492414591 -128871.12073232792 0 -128871.12073232792 2238126.4974331371 0 0 0 0 -36648917.468726337 -93473206.359548569 0 -93473206.359548569 18076790.232055664 0 0 0 0 -9866556.5208570957 21738945.677024841 0 21738945.677024841 1259123.0268859863 0 0 0 0 -812355.15922366071 973742.66148675606 0 973742.66148675606 5696348.173991669 0 0 0 0 -50292275.655077696 15842922.464496613 0 15842922.464496613 7220694.9679718018 0 0 0 0 61009271.426229239 61147271.96408844 0 61147271.96408844 71852969.876266479 0 0 0 0 -3415433.7596383095 2386900.6812362671 0 2386900.6812362671 18313984.190834045 0 0 0 0 254521913.28977156 -172679638.13015366 0 -172679638.13015366 -22876184.556427002 0 0 0 0 -7235197.2030034065 -13155104.708061218 0 -13155104.708061218 100285687.70451355 0 0 0 0 -4650364.8332109451 -3887519.6426086426 0 -3887519.6426086426 50864749.232200623 0 0 0 0 -14490156.184309483 30569469.395469666 0 30569469.395469666 8996363.3321228027 0 0 0 0 -8578661.256248951 -19407360.416061401 0 -19407360.416061401 -7208829.9178237915 0 0 0 0 30702917.385932922 37881345.894775391 0 37881345.894775391 50615171.453125 0 0 0 0 -1045740.2692556381 5481009.1672286987 0 5481009.1672286987 10102668.111329079 0 0 0 0 -769957.1857053712 803023.33298696391 0 803023.33298696391 2740247.690881528 0 0 0 0 -2429561.4634457827 -14635026.404514313 0 -14635026.404514313 26184332.071014404 0 0 0 0 35544062.237381279 47644201.904258728 0 47644201.904258728 27647505.442260742 0 0 0 0 -253464.50909280777 3080211.8000106812 0 3080211.8000106812 10640323.602104187 0 0 0 0 24809038.228900433 10918180.972816467 0 10918180.972816467 16573208.97039032 0 0 0 0 37289233.039365053 26601935.106651306 0 26601935.106651306 6373856.928314209 0 0 0 0 -6466946.4868770838 19405198.250526428 0 19405198.250526428 35272132.859642029 0 0 0 0 -3528598.7798416018 23414556.013908386 0 23414556.013908386 13213972.930740356 0 0 0 0 -60381512.475218296 -271439.83465576172 0 -271439.83465576172 18333225.365611076 0 0 0 0 -71733480.977394581 -15598204.069419861 0 -15598204.069419861 24752806.039123535 0 0 0 0 -42190701.250228047 -14292685.676418304 0 -14292685.676418304 23571675.955383301 0 0 0 0 -60375723.410601139 -27492512.865264893 0 -27492512.865264893 -23333247.540557861 0 0 0 0 -60501105.288852692 2151283.9746017456 0 2151283.9746017456 6435464.7076187134 0 0 0 0 -63398202.854305267 2791985.5499954224 0 2791985.5499954224 33457090.844070435 0 0 0 0 -49057219.310710907 6605357.9956588745 0 6605357.9956588745 27008987.815500259 0 0 0 0 -49209626.950651884 -4503019.9978103638 0 -4503019.9978103638 2654883.0161743164 0 0 0 0 -55723150.434276104 6322580.0438194275 0 6322580.0438194275 30011374.117685318 0 0 0 0 -33260064.615876436 34765303.59538269 0 34765303.59538269 -8747849.9626083374 0 0 0 0 2856446.2207093239 15842861.744419098 0 15842861.744419098 -11934998.126792908 0 0 0 0 -482537.3672663609 201844.93523854204 0 201844.93523854204 1046171.6568156108 0 0 0 0 -60680822.784043789 12904345.9790802 0 12904345.9790802 23068321.354011536 0 0 0 0 -63243064.244148731 30980526.697067261 0 30980526.697067261 -10458785.743499756 0 0 0 0 3183472.6087970734 3293948.3378372192 0 3293948.3378372192 -775066.47057342529 0 0 0 0 2996781.7268783022 1289597.6831605434 0 1289597.6831605434 3448761.9955596924 0 0 0 0 -690817.55324935913 1978386.1299514771 0 1978386.1299514771 -11952796.597471714 0 0 0 0 -528373.52862381935 5151643.5125083923 0 5151643.5125083923 3786467.1345367432 0 0 0 0 -294625.9811165866 -241021.45377933374 0 -241021.45377933374 240087.36950464919 0 0 0 0 11806434.933405399 -35166323.749481201 0 -35166323.749481201 -31811275.314094543 0 0 0 0 -65284410.912168026 -23978721.686271667 0 -23978721.686271667 -4759282.2149353027 0 0 0 0 -45976108.178112984 -45728010.353506088 0 -45728010.353506088 -54988835.726623535 0 0 0 0 -1439916.4023635387 -5257904.2890262604 0 -5257904.2890262604 -164208.41535186768 0 0 0 0 -47925229.506078005 -5333674.670498848 0 -5333674.670498848 9421166.1363830566 0 0 0 0 -5939795.740500927 -302274.13412094116 0 -302274.13412094116 -3478374.0972518921 0 0 0 0 -24680110.436664104 -3348114.2419586182 0 -3348114.2419586182 1208131.4812545776 0 0 0 0 -136798.43448761507 1914369.9626707393 0 1914369.9626707393 5598096.332229916 0 0 0 0 -1307305.8898886561 -1112025.5747008985 0 -1112025.5747008985 1167015.2071571127 0 0 0 0 -5087041.3121728897 -751607.99729156494 0 -751607.99729156494 -2649101.7312011719 0 0 0 0 -12441959.152397633 -2533892.5937957764 0 -2533892.5937957764 13480307.478767395 0 0 0 0 -1350574.037129879 4479938.1675338745 0 4479938.1675338745 7864464.990524292 0 0 0 0 3536628.1920204163 988207.56015014648 0 988207.56015014648 2153534.6979980469 0 0 0 0 5955.0823568494525 139527.58261861652 0 139527.58261861652 444789.57523575984 0 0 0 0 32550609.967810631 28832328.515487671 0 28832328.515487671 22704749.290527344 0 0 0 0 39211738.662255287 15808304.498062134 0 15808304.498062134 8809291.3813781738 0 0 0 0 16783542.80166626 13197600.00453186 0 13197600.00453186 11031566.639968872 0 0 0 0 37017021.350003719 18016472.755661011 0 18016472.755661011 6873850.4716339111 0 0 0 0 38739877.558717728 -11965494.605957031 0 -11965494.605957031 33891768.936920166 0 0 0 0 42241600.331940114 12146498.58394146 0 12146498.58394146 -1089562.6009521484 0 0 0 0 11270690.537883759 4465751.3491973877 0 4465751.3491973877 26292620.021728516 0 0 0 0 -543386.80275886238 1082325.4457294322 0 1082325.4457294322 2752387.1976299174 0 0 0 0 6600534.1423244476 11150059.706710815 0 11150059.706710815 16826681.226226807 0 0 0 0 -2341988.3710119724 114934.56878852844 0 114934.56878852844 701035.74407958984 0 0 0 0 -430715.85746399389 2256110.6325778812 0 2256110.6325778812 6048773.651642872 0 0 0 0 14031441.067807913 -3031596.5399303436 0 -3031596.5399303436 2253024.3943481445 0 0 0 0 -703655.99776738801 1610746.8964403067 0 1610746.8964403067 4634878.3708204608 0 0 0 0 -1160158.38002811 -381499.24989756057 0 -381499.24989756057 2671626.1807737686 0 0 0 0 -328957.74502835795 1327615.551643474 0 1327615.551643474 760719.35808318853 0 0 0 0 -7816968.7368287072 6286955.898733139 0 6286955.898733139 -1152578.0041427612 0 0 0 0 -182886.32013380527 -4909486.4054698944 0 -4909486.4054698944 -2222004.7884216309 0 0 0 0 56942916.400793076 -25888837.160293579 0 -25888837.160293579 22961463.016296387 0 0 0 0 68762208.199181318 -8271434.2880210876 0 -8271434.2880210876 4699577.7484741211 0 0 0 0 18164.44845199585 1941763.3723754883 0 1941763.3723754883 7343764.8686828613 0 0 0 0 -2896361.9305143356 5628426.8353881836 0 5628426.8353881836 4174764.579498291 0 0 0 0 -253586.8946137678 529912.80251578242 0 529912.80251578242 2488981.4519735593 0 0 0 0 1978989.7597250938 3189337.1483154297 0 3189337.1483154297 3901076.9983825684 0 0 0 0 -13494446.809550285 -2837231.8560028076 0 -2837231.8560028076 701036.0435256958 0 0 0 0 -4520699.568315506 -4971496.2454795837 0 -4971496.2454795837 -2932221.446395874 0 0 0 0 -6878931.107837677 1170036.0354385376 0 1170036.0354385376 5385034.9036979675 0 0 0 0 4747696.5986523628 -8471399.2692909241 0 -8471399.2692909241 159822.68170166016 0 0 0 0 6175.8812605356798 -41005.936854267493 0 -41005.936854267493 -63059.094187092036 0 0 0 0 6990260.9638338089 4505884.4864120483 0 4505884.4864120483 10635353.305618286 0 0 0 0 10365603.170633562 10085503.572424173 0 10085503.572424173 -44196137.898788452 0 0 0 0 9713804.9195398986 15296462.723981857 0 15296462.723981857 -5563713.900642395 0 0 0 0 1730375.8065379262 2466564.0123138428 0 2466564.0123138428 4190430.1997413635 0 0 0 0 462238.91994120285 991365.60608711373 0 991365.60608711373 326273.51582653634 0 0 0 0 -3538489.2741642594 5534378.3089828491 0 5534378.3089828491 -1238048.0389809608 0 0 0 0 -3178901.0042556226 21575229.699569702 0 21575229.699569702 553398.55120849609 0 0 0 0 -6929430.1969778538 -1834732.5075149536 0 -1834732.5075149536 -52001122.320831299 0 0 0 0 -290071.81403569406 346297.28421495587 0 346297.28421495587 2041054.1548725963 0 0 0 0 -16221574.653893173 17547795.64323616 0 17547795.64323616 4721067.7048950195 0 0 0 0 107353205.48396158 -14048049.42111969 0 -14048049.42111969 -11592092.477890015 0 0 0 0 -20562079.238960922 7981453.4823703766 0 7981453.4823703766 5023174.4430847168 0 0 0 0 -335208.40919983183 280404.49528689031 0 280404.49528689031 1862637.9321392402 0 0 0 0 -3940208.2970330268 -2526943.3931736946 0 -2526943.3931736946 -6768459.0413665771 0 0 0 0 62720354.094944954 84434115.977462769 0 84434115.977462769 82587169.280822754 0 0 0 0 -169748079.93131125 -46582097.456809998 0 -46582097.456809998 154750647.38396263 0 0 0 0 -143567535.58220416 -46230692.831878662 0 -46230692.831878662 98729123.440658569 0 0 0 0 -69329882.991231441 28103816.31854248 0 28103816.31854248 172492256.34916687 0 0 0 0 -13883782.975396872 7749781.1564369202 0 7749781.1564369202 11400244.428161621 0 0 0 0 -24364617.998874187 21493340.902526855 0 21493340.902526855 10584643.280883789 0 0 0 0 -81979500.539327681 -532815.71112060547 0 -532815.71112060547 9924396.5465545654 0 0 0 0 124080480.63963974 35637515.059221268 0 35637515.059221268 -7181325.7008666992 0 0 0 0 49890528.003582478 48835392.28704071 0 48835392.28704071 -3783308.029964447 0 0 0 0 56338952.654470444 1228416.2811508179 0 1228416.2811508179 -10085595.28187561 0 0 0 0 49169846.016569138 18638549.658584595 0 18638549.658584595 -10518465.084021807 0 0 0 0 31903695.631855011 7025437.557510376 0 7025437.557510376 -2735437.7326049805 0 0 0 0 -18205597.645534277 17095629.497932434 0 17095629.497932434 -2945294.5307006836 0 0 0 0 -26797881.837542906 38168240.637390137 0 38168240.637390137 -43656404.59387207 0 0 0 0 22531809.922667027 31581837.158325195 0 31581837.158325195 -16041812.779953003 0 0 0 0 -32975225.027285337 31882601.248296738 0 31882601.248296738 2708679.8252868652 0 0 0 0 17928137.709406376 19555670.155227661 0 19555670.155227661 -740365.06519317627 0 0 0 0 -45205699.574554622 5580636.2143783569 0 5580636.2143783569 7684866.4030456543 0 0 0 0 -54015697.214176416 23632007.764503479 0 23632007.764503479 8659294.2812347412 0 0 0 0 -20880011.842839479 3376022.467628479 0 3376022.467628479 11378953.872488022 0 0 0 0 -11547959.672530055 28354480.20913887 0 28354480.20913887 10794659.539550781 0 0 0 0 36405303.679813385 16562243.368057251 0 16562243.368057251 3482437.2723655701 0 0 0 0 21816225.850030422 27298177.608543396 0 27298177.608543396 362843.65423583984 0 0 0 0 -22286805.49715367 -32506790.069559574 0 -32506790.069559574 10613388.595657349 0 0 0 0 -919243.55387941655 258460.15981250349 0 258460.15981250349 6933476.3614748791 0 0 0 0 -156819623.43354583 -21191733.092170715 0 -21191733.092170715 31607809.644165039 0 0 0 0 -100880827.77693248 -48626747.819862366 0 -48626747.819862366 11057578.93460083 0 0 0 0 -123450548.67751074 6515761.3091659546 0 6515761.3091659546 29634008.765380859 0 0 0 0 -76079868.060321212 -21833779.732765198 0 -21833779.732765198 19053785.741633892 0 0 0 0 -99484579.646542519 17444852.722061157 0 17444852.722061157 14221861.580703735 0 0 0 0 -123746533.67898574 53043164.090000153 0 53043164.090000153 -30857708.766860962 0 0 0 0 -63326394.532711267 18016974.23891449 0 18016974.23891449 4868115.401550293 0 0 0 0 -459385.19009067304 2306062.0309248283 0 2306062.0309248283 2063964.9771888107 0 0 0 0 2936634.3217482567 31006257.075382233 0 31006257.075382233 12888817.526955366 0 0 0 0 -879861.95553757832 -464210.26053217659 0 -464210.26053217659 7625605.7167438827 0 0 0 0 -173263364.37481725 -116154892.43708038 0 -116154892.43708038 72816012.47442627 0 0 0 0 -126649277.10652655 -98039372.365634918 0 -98039372.365634918 -26879190.794006348 0 0 0 0 -67488017.780516148 -3623372.0941467285 0 -3623372.0941467285 -94929923.367874146 0 0 0 0 -8185997.3238245249 1396217.7373542786 0 1396217.7373542786 8329366.7142028809 0 0 0 0 -17096780.175015792 -183869176.28918612 0 -183869176.28918612 72122261.865386963 0 0 0 0 -192052150.31159866 -100240842.59057617 0 -100240842.59057617 75066619.795532227 0 0 0 0 1219478.3511591449 1726042.5253918767 0 1726042.5253918767 3194108.9253187757 0 0 0 0 3377589.756456852 2741271.4962234497 0 2741271.4962234497 2333931.8790796399 0 0 0 0 16743998.963501751 -32215521.685100555 0 -32215521.685100555 112798703.3354187 0 0 0 0 63910.609127120173 225039.87058386207 0 225039.87058386207 396033.67349670455 0 0 0 0 217586773.01668859 -95672156.731544495 0 -95672156.731544495 -582339320.38618469 0 0 0 0 -153054703.65240896 -87853988.76599884 0 -87853988.76599884 98828975.389907837 0 0 0 0 -160223265.40132421 -34035643.382118225 0 -34035643.382118225 -250512455.17889404 0 0 0 0 -33549.246601728548 42575.048085546121 0 42575.048085546121 194038.76539976901 0 0 0 0 -55758071.217300177 430432096.49216461 0 430432096.49216461 -1467532321.5571401 0 0 0 0 -207897995.90847397 -199581046.18355942 0 -199581046.18355942 563413419.23130798 0 0 0 0 -46291.892157972135 1338147.1741493642 0 1338147.1741493642 5082022.5922060646 0 0 0 0 91195.708045005798 358832.47193908691 0 358832.47193908691 1338006.845539093 0 0 0 0 -285873853.71579957 48708432.465637207 0 48708432.465637207 141665062.22068024 0 0 0 0 -121017151.66455066 -14847013.445503235 0 -14847013.445503235 165346737.03953552 0 0 0 0 3496219.5796549618 -439894.6854801178 0 -439894.6854801178 -1170089.3401947021 0 0 0 0 -102219940.73083889 -61121558.404937744 0 -61121558.404937744 13498633.861976624 0 0 0 0 304745.71868861787 2236914.2949156249 0 2236914.2949156249 -611529.45431348681 0 0 0 0 5079841.3287144899 2606730.9771537781 0 2606730.9771537781 197069.1823425293 0 0 0 0 -172375110.1342541 104038152.44516754 0 104038152.44516754 551089198.86959457 0 0 0 0 -3590735.9681477696 17378758.718829155 0 17378758.718829155 -13515931.727966309 0 0 0 0 107724.31778104976 647283.23361372389 0 647283.23361372389 -185881.88976504654 0 0 0 0 125078.98777809557 158163.74812867865 0 158163.74812867865 1915022.0628842451 0 0 0 0 497163383.12464124 807831396.09877396 0 807831396.09877396 1384735011.5663376 0 0 0 0 466404332.95133758 657542168.59959793 0 657542168.59959793 729940149.50055695 0 0 0 0 10463505.957800269 151093213.32428741 0 151093213.32428741 1023076268.1832123 0 0 0 0 -100496329.75587919 79507427.442306519 0 79507427.442306519 2206480300.0855751 0 0 0 0 83898089.703538984 498422296.54239655 0 498422296.54239655 2394605966.3941498 0 0 0 0 1237370455.3663893 -1035740644.7709045 0 -1035740644.7709045 3100976533.2149429 0 0 0 0 -597506102.72406816 52862199.474338531 0 52862199.474338531 1271634989.960125 0 0 0 0 -743522380.69468212 -83246921.780838013 0 -83246921.780838013 2219376686.7274284 0 0 0 0 -313783059.75214392 -214206406.81341743 0 -214206406.81341743 1729099246.0421295 0 0 0 0 -331812960.34599108 -146813444.65346241 0 -146813444.65346241 1560817494.9326401 0 0 0 0 36454844.776247762 -626031302.95302963 0 -626031302.95302963 2204546379.053515 0 0 0 0 835817461.69249272 23996798.559520721 0 23996798.559520721 2488993056.1173859 0 0 0 0 45657.816065360661 -322095.18072836369 0 -322095.18072836369 585154.11233538389 0 0 0 0 223250788.39188489 -968021174.66870022 0 -968021174.66870022 1265348444.2266388 0 0 0 0 222968772.48769617 108363926.1542244 0 108363926.1542244 -137875071.4684906 0 0 0 0 369796284.81429529 -628486906.360672 0 -628486906.360672 705733087.94134521 0 0 0 0 -253567989.54018393 -434878635.01873016 0 -434878635.01873016 1762402801.2198181 0 0 0 0 -256836083.6753934 -377008120.47313046 0 -377008120.47313046 1566346616.5105286 0 0 0 0 312696463.46768028 -223632513.38597679 0 -223632513.38597679 72892933.150081635 0 0 0 0 105170671.17376494 111881641.43060684 0 111881641.43060684 12274070.528072357 0 0 0 0 -176321327.84511924 147289341.1503067 0 147289341.1503067 61266993.399993896 0 0 0 0 -37380751.188692212 116636512.45445251 0 116636512.45445251 66994556.904977798 0 0 0 0 -46212.337831111683 -300465.10856888007 0 -300465.10856888007 1469505.9898978882 0 0 0 0 53610366.841180682 56501425.884887218 0 56501425.884887218 70650830.910903931 0 0 0 0 -86404819.519162253 20597059.545149565 0 20597059.545149565 1284315.7870559692 0 0 0 0 9834906.3059593439 -3087054.3753738403 0 -3087054.3753738403 -7485009.1215381622 0 0 0 0 -13033641.905055508 95825805.925861359 0 95825805.925861359 30090304.995204926 0 0 0 0 67089307.617138684 14458090.357288361 0 14458090.357288361 -67086403.679367065 0 0 0 0 102620.6581612092 167168.90071967524 0 167168.90071967524 245342.84330438636 0 0 0 0 -145736.89178269508 361089.10362449009 0 361089.10362449009 860384.07186387293 0 0 0 0 -16825350.606330395 -120176126.99998856 0 -120176126.99998856 -112927306.52005005 0 0 0 0 -42858065.729845405 -36194892.854404449 0 -36194892.854404449 -43944472.494045258 0 0 0 0 8704569.9381887913 -1283438.5642795563 0 -1283438.5642795563 9900677.1016273499 0 0 0 0 41396070.837471247 -35545717.543447495 0 -35545717.543447495 -71064101.751113892 0 0 0 0 88257791.923355103 -59917579.681175232 0 -59917579.681175232 -105084480.50331116 0 0 0 0 90963136.229020119 -19608969.467506409 0 -19608969.467506409 -212749405.63597107 0 0 0 0 -34350807.571761608 79328880.903266907 0 79328880.903266907 -138480660.23609924 0 0 0 0 18311621.454365492 -49341469.681949615 0 -49341469.681949615 110375809.67918396 0 0 0 0 61129178.602463365 25119577.171546936 0 25119577.171546936 14660985.486938477 0 0 0 0 15047.693031948642 43792.291178271174 0 43792.291178271174 276597.88346479274 0 0 0 0 2295403.2076015472 4778322.8925285339 0 4778322.8925285339 26580818.216547012 0 0 0 0 -54813194.326151609 -26928585.298839569 0 -26928585.298839569 -22179399.882255554 0 0 0 0 -3272919.3586673737 -5527252.6058197021 0 -5527252.6058197021 20108391.235809326 0 0 0 0 -893472.58230495453 -2107711.8002548218 0 -2107711.8002548218 18692235.646179199 0 0 0 0 -6653713.5596022606 -326653.81037902832 0 -326653.81037902832 28544485.349212646 0 0 0 0 -9441719.1109120846 -3862410.2568130493 0 -3862410.2568130493 27318852.144859314 0 0 0 0 21032897.356103897 23386744.827648163 0 23386744.827648163 -23156125.043449402 0 0 0 0 -99476839.540161774 -137092609.98630619 0 -137092609.98630619 226620220.38047791 0 0 0 0 -107840.63885560603 9865.1904445653781 0 9865.1904445653781 1024633.3096298855 0 0 0 0 -135449988.38465714 106753654.59254456 0 106753654.59254456 97067037.658172607 0 0 0 0 37817953.22922802 -93932364.691990852 0 -93932364.691990852 155252243.21574402 0 0 0 0 178405075.08153081 -91927655.432402611 0 -91927655.432402611 86922750.93687439 0 0 0 0 -132494686.57908988 58502231.006202698 0 58502231.006202698 228109469.06867981 0 0 0 0 1041245.2013735771 -56769343.462364197 0 -56769343.462364197 301503871.75044632 0 0 0 0 -762730.506696105 129293990.41940117 0 129293990.41940117 585668386.04747009 0 0 0 0 -21747226.176860571 -296998864.05434608 0 -296998864.05434608 714246351.71138 0 0 0 0 -18033136.136279345 38885169.517860413 0 38885169.517860413 458194617.86657715 0 0 0 0 -321061273.8017931 -122437550.33080673 0 -122437550.33080673 1455060522.9098558 0 0 0 0 -143103351.82410884 35115968.404396057 0 35115968.404396057 987822614.33632278 0 0 0 0 -268331237.49132073 -172371472.15083313 0 -172371472.15083313 1075676978.9561214 0 0 0 0 -131609720.19005275 -17925627.24156189 0 -17925627.24156189 652598570.01268768 0 0 0 0 38869283.091001749 254940093.05406952 0 254940093.05406952 362110261.39648056 0 0 0 0 -358868270.72540563 180541471.33654213 0 180541471.33654213 1793785520.1510696 0 0 0 0 -93666538.290152788 406796186.50008774 0 406796186.50008774 1317208019.2731628 0 0 0 0 150787388.98631144 689360543.68990231 0 689360543.68990231 1319829155.5580215 0 0 0 0 20661947.262207747 174341693.2929039 0 174341693.2929039 1412578226.3920727 0 0 0 0 -206524006.04018325 -133114566.27735329 0 -133114566.27735329 1865137757.2501907 0 0 0 0 -253123.4880108267 38498.017249519005 0 38498.017249519005 646395.60653977189 0 0 0 0 -598770347.40940273 -195486436.32338333 0 -195486436.32338333 2204840449.0855355 0 0 0 0 -25795109.790910777 132151768.27616882 0 132151768.27616882 2205262771.907547 0 0 0 0 392134569.36722708 70156846.70375061 0 70156846.70375061 1992718942.9173899 0 0 0 0 -11253970.910779089 144682988.50990105 0 144682988.50990105 2215237627.5382919 0 0 0 0 -594752.02327059035 90158.743168134242 0 90158.743168134242 1190389.6396410067 0 0 0 0 14483165.115292089 142724346.13552761 0 142724346.13552761 2204703522.1780243 0 0 0 0 -111952.32736371714 -7135.2362584648654 0 -7135.2362584648654 606395.12515380234 0 0 0 0 145972575.43692613 691572728.5891633 0 691572728.5891633 1750685753.707016 0 0 0 0 -26706.243510364744 -58659.769379866542 0 -58659.769379866542 654123.15969929099 0 0 0 0 256057092.8446064 271131707.53048706 0 271131707.53048706 2111377417.6783676 0 0 0 0 -465804658.49691248 114403480.28203583 0 114403480.28203583 2503488990.2787094 0 0 0 0 -249893327.34673214 -70803809.170639038 0 -70803809.170639038 211407727.88861084 0 0 0 0 -56304229.988694429 -354808294.98874092 0 -354808294.98874092 681142541.02836609 0 0 0 0 4950588.6615087986 153821100.05978012 0 153821100.05978012 374590947.18135834 0 0 0 0 19047359.335709684 207984730.46688962 0 207984730.46688962 2108832751.8378448 0 0 0 0 -45383194.972938538 234861502.19184113 0 234861502.19184113 1933252350.378994 0 0 0 0 -122050909.51016068 -218740715.80636978 0 -218740715.80636978 1479430065.0038147 0 0 0 0 51184600.109596252 -82816795.259563446 0 -82816795.259563446 1277603903.816391 0 0 0 0 -58712482.778747559 -132771040.88729858 0 -132771040.88729858 1285782474.8274946 0 0 0 0 77449123.971780777 -215679952.40696526 0 -215679952.40696526 543946480.99362946 0 0 0 0 115638575.24539685 -83822468.922271729 0 -83822468.922271729 550489125.77006054 0 0 0 0 220471696.18242395 -98443254.923885345 0 -98443254.923885345 -181913377.18559265 0 0 0 0 55607070.716238499 184611216.04673767 0 184611216.04673767 -147980172.15819216 0 0 0 0 33402591.743087351 13123854.060194969 0 13123854.060194969 -125770088.95560455 0 0 0 0 -62636947.035767555 -80256721.306083679 0 -80256721.306083679 -58039572.096363068 0 0 0 0 -17606419.77167058 51870732.72360611 0 51870732.72360611 -78932738.248718262 0 0 0 0 -95468.262052079663 -3703.1086858692579 0 -3703.1086858692579 1332006.5278856941 0 0 0 0 -150437918.7284708 95207462.502073288 0 95207462.502073288 -49672098.057792664 0 0 0 0 -124884586.20245218 -55138390.774604797 0 -55138390.774604797 43692444.068069458 0 0 0 0 -84706163.398145318 184334.61246395111 0 184334.61246395111 -23056161.273834229 0 0 0 0 137157660.81003952 -10502526.221446991 0 -10502526.221446991 -73168966.978622437 0 0 0 0 6531155.8713579178 13719161.421972275 0 13719161.421972275 -141617137.77346516 0 0 0 0 -195065.22278683376 220140.42243395746 0 220140.42243395746 -21766.65584419854 0 0 0 0 6681238.0180110261 9158520.0507764816 0 9158520.0507764816 -6469545.5936050415 0 0 0 0 30615719.371997952 18023167.379676819 0 18023167.379676819 17242021.858352661 0 0 0 0 28161159.235012293 6287198.7779922485 0 6287198.7779922485 5300640.9723300934 0 0 0 0 -128405.40376913306 87305.206583565567 0 87305.206583565567 1343438.156533096 0 0 0 0 -331911.81920443766 341120.70775950048 0 341120.70775950048 100335.71952943504 0 0 0 0 -5320530.4107586145 6636974.8617229462 0 6636974.8617229462 -4609726.934879303 0 0 0 0 -44965235.772447109 -21737372.553506851 0 -21737372.553506851 -9030602.013420105 0 0 0 0 -43014421.990961552 -17475007.308773041 0 -17475007.308773041 -19374413.813637733 0 0 0 0 -13701100.492722511 -30688485.239112854 0 -30688485.239112854 -23813363.42240715 0 0 0 0 -43883998.359079838 -24958935.226509094 0 -24958935.226509094 -8702389.7084274292 0 0 0 0 249209.23249925009 242986.1415586751 0 242986.1415586751 761905.470605148 0 0 0 0 -9111652.2893958092 -2071439.2840423584 0 -2071439.2840423584 -2753857.0202102661 0 0 0 0 4964782.3965303898 5910340.3621673584 0 5910340.3621673584 3918809.2640838623 0 0 0 0 2894863.6074619293 3094176.8430099487 0 3094176.8430099487 5441473.9878997803 0 0 0 0 1296890.4636237621 -8796939.2064933777 0 -8796939.2064933777 -15447788.466278076 0 0 0 0 -780598.52817668591 239628.62758035585 0 239628.62758035585 1117865.1560219731 0 0 0 0 -19282012.136401653 -11923576.569389343 0 -11923576.569389343 2941853.6248512268 0 0 0 0 -10585588.61849308 -11237621.456626892 0 -11237621.456626892 -1420618.814699173 0 0 0 0 -18435184.604738116 -17966269.055662394 0 -17966269.055662394 -10567655.842460632 0 0 0 0 -10992007.741040051 -11995047.002321243 0 -11995047.002321243 -5425780.7711334229 0 0 0 0 -40293441.240106106 -17639251.805662155 0 -17639251.805662155 -7895677.9619827271 0 0 0 0 -26219220.712611198 -26897382.4582901 0 -26897382.4582901 -10811533.691770554 0 0 0 0 -24208237.736171246 -18692935.782421112 0 -18692935.782421112 -7318948.1182365417 0 0 0 0 223486.34152364731 3216028.795425415 0 3216028.795425415 33837343.714050293 0 0 0 0 -168161.92184946605 -79469.792883085087 0 -79469.792883085087 736397.68385856226 0 0 0 0 -31551887.598424196 -21457503.433731079 0 -21457503.433731079 -6181659.1086406708 0 0 0 0 -30952280.25958395 -22889197.605442047 0 -22889197.605442047 -10361124.849228859 0 0 0 0 -25677614.295593798 -33202112.583645821 0 -33202112.583645821 -27413863.677997589 0 0 0 0 -23784954.404787779 -16432955.813310623 0 -16432955.813310623 -15473538.421157837 0 0 0 0 -24986133.912240975 -20476602.454733312 0 -20476602.454733312 -5681472.2052459717 0 0 0 0 17214010.672168016 30008252.31962204 0 30008252.31962204 37458101.572052002 0 0 0 0 -44712666.787518978 -39287282.48727417 0 -39287282.48727417 -22980052.21254921 0 0 0 0 -123493.83985956677 -77693.156008958817 0 -77693.156008958817 436536.1371680554 0 0 0 0 16650813.919079661 31405250.008933067 0 31405250.008933067 34176741.143348694 0 0 0 0 18403449.174296856 29448284.077327728 0 29448284.077327728 28471213.79152298 0 0 0 0 23567884.314917803 19788611.053371429 0 19788611.053371429 32139171.226529121 0 0 0 0 8310934.7642361522 10299165.3647995 0 10299165.3647995 38869111.60735321 0 0 0 0 9751063.1801378727 6667610.4365234375 0 6667610.4365234375 29343323.128440857 0 0 0 0 -4141407.4713542461 9051300.0951404572 0 9051300.0951404572 32519073.423103333 0 0 0 0 19989976.490822554 15987675.522220612 0 15987675.522220612 16852120.203475952 0 0 0 0 14294880.543139338 15833361.862222672 0 15833361.862222672 35777641.282562256 0 0 0 0 33082720.539394855 33142911.994134903 0 33142911.994134903 39319753.880302429 0 0 0 0 2225.5534135809867 76103.465751370881 0 76103.465751370881 40807.195448257029 0 0 0 0 -14394990.523108006 2954424.796251297 0 2954424.796251297 28393840.234405518 0 0 0 0 4776050.4534007907 8050498.1630725861 0 8050498.1630725861 23195893.531429291 0 0 0 0 147361.18415677547 12133667.197908401 0 12133667.197908401 30402264.824288368 0 0 0 0 11034189.460864067 25064766.332447052 0 25064766.332447052 34549262.89613986 0 0 0 0 7201495.9297893047 25225799.653972626 0 25225799.653972626 38045394.22543335 0 0 0 0 23101430.111258268 26420754.542243958 0 26420754.542243958 38992912.161148071 0 0 0 0 37340412.962198734 32536756.582351685 0 32536756.582351685 41368824.496902466 0 0 0 0 16158542.847817898 31442049.330898285 0 31442049.330898285 41829347.654914856 0 0 0 0 20019330.537403584 25109373.288684845 0 25109373.288684845 40473174.292656898 0 0 0 0 8159072.3986053467 24898236.205322266 0 24898236.205322266 46617228.388813019 0 0 0 0 19982802.541275155 28434716.638624519 0 28434716.638624519 53256314.538673401 0 0 0 0 25071254.05511713 19096017.414264679 0 19096017.414264679 33161431.891529083 0 0 0 0 26842330.939146459 12184925.067409515 0 12184925.067409515 51769546.030357361 0 0 0 0 25238307.210115433 19568407.751441956 0 19568407.751441956 46583877.217346191 0 0 0 0 9010779.8588757515 19558682.144561768 0 19558682.144561768 29599179.719192505 0 0 0 0 -4839592.9129734039 7313482.4809875488 0 7313482.4809875488 34199458.180565834 0 0 0 0 4886789.5519911051 24267341.425070763 0 24267341.425070763 35414539.275787354 0 0 0 0 -2641211.1560794115 294197.55971908569 0 294197.55971908569 13019242.47088623 0 0 0 0 66502.387239592412 377925.94343118771 0 377925.94343118771 43209.531544804573 0 0 0 0 50582391.491647035 27404078.308049172 0 27404078.308049172 5612342.4937591553 0 0 0 0 -6928865.9079241753 324151.22886657715 0 324151.22886657715 19337050.884536743 0 0 0 0 3129885.7865865231 4587781.2323455811 0 4587781.2323455811 -1485935.3634185791 0 0 0 0 2961269.5681774616 1994511.5650749207 0 1994511.5650749207 -695684.76543712616 0 0 0 0 -16198507.031632423 15585045.723342896 0 15585045.723342896 -3276718.0439887047 0 0 0 0 1392708.8375861645 5565875.204864502 0 5565875.204864502 -5141734.8727250099 0 0 0 0 -7160163.6068599224 14688768.976381302 0 14688768.976381302 18552116.270866394 0 0 0 0 -9343557.6367986202 -684525.07771515846 0 -684525.07771515846 15754087.026145935 0 0 0 0 -36107737.53861779 1214260.8484020233 0 1214260.8484020233 18458584.497207642 0 0 0 0 -18937698.314513445 -17884086.106554031 0 -17884086.106554031 -10010216.064629555 0 0 0 0 -14423005.685262918 8275591.9610061646 0 8275591.9610061646 -18091652.931870461 0 0 0 0 -49904581.796368241 -250372.5319519043 0 -250372.5319519043 41153969.736946106 0 0 0 0 -27446240.630424976 -23323107.901439667 0 -23323107.901439667 -4379792.6487503052 0 0 0 0 -124162.99068900838 176186.68254880793 0 176186.68254880793 542426.63983221538 0 0 0 0 -7659023.6311423779 2674624.3952293396 0 2674624.3952293396 8305815.1556091309 0 0 0 0 -3225787.9759111404 1801583.7197551727 0 1801583.7197551727 5412973.0786247253 0 0 0 0 -1947430.7647235394 24192432.192178726 0 24192432.192178726 17379148.876272202 0 0 0 0 -38143991.084915161 -32156577.82635498 0 -32156577.82635498 -14131120.314697266 0 0 0 0 -48409728.849298239 -27005771.434848785 0 -27005771.434848785 -9982647.973274231 0 0 0 0 -6809447.5592460632 -1389059.7720069885 0 -1389059.7720069885 3454899.7571563721 0 0 0 0 -150906.53948815429 72448.684824467637 0 72448.684824467637 176668.02434131503 0 0 0 0 -50100233.973133326 -25339473.145000458 0 -25339473.145000458 3899272.9703025818 0 0 0 0 -16967585.405481339 3149559.5393371582 0 3149559.5393371582 16973056.379644394 0 0 0 0 -52214.741306677461 -134383.77930309996 0 -134383.77930309996 44328.964436910115 0 0 0 0 -3288578.4774512053 7391002.4996185303 0 7391002.4996185303 6479868.2542724609 0 0 0 0 -23756470.915761709 -558884.76885986328 0 -558884.76885986328 23820528.607192993 0 0 0 0 -252747.69767134392 115960.35623348784 0 115960.35623348784 314144.84817907028 0 0 0 0 -30414957.882866561 -4417449.3322443962 0 -4417449.3322443962 18908936.426452637 0 0 0 0 -26424609.829247475 7413126.604183197 0 7413126.604183197 5403596.6665725708 0 0 0 0 -10396338.206899166 -5038689.1129684448 0 -5038689.1129684448 1934916.2557449341 0 0 0 0 -22007277.844675541 -1964114.5654067993 0 -1964114.5654067993 14480135.561100006 0 0 0 0 -7393141.5344545841 9950905.6584243774 0 9950905.6584243774 17668058.752628326 0 0 0 0 -11488479.622303009 10696032.795125961 0 10696032.795125961 33105441.65234375 0 0 0 0 3098900.5646367073 -6628535.0968093872 0 -6628535.0968093872 12349923.767242432 0 0 0 0 18092275.195665121 12180185.512283325 0 12180185.512283325 -2965612.0396270752 0 0 0 0 7556595.6029405594 16834271.199310303 0 16834271.199310303 4344876.2113342285 0 0 0 0 2713097.303027153 16401886.048980713 0 16401886.048980713 2653015.7254676819 0 0 0 0 -4375831.4651913643 5842569.3677787781 0 5842569.3677787781 -8180488.0861768723 0 0 0 0 -11710910.544172525 3084348.4986724854 0 3084348.4986724854 14838953.065063477 0 0 0 0 -26435416.714647532 -9576502.2948074341 0 -9576502.2948074341 9521550.7048416138 0 0 0 0 -10539279.9910326 37442.525611877441 0 37442.525611877441 8807281.6683044434 0 0 0 0 -25801044.092375278 4628798.6042518616 0 4628798.6042518616 13138896.500991821 0 0 0 0 -15554993.136921883 -1014753.6366386414 0 -1014753.6366386414 8303349.9515380859 0 0 0 0 -10629620.999009132 4750106.1825408936 0 4750106.1825408936 10000524.494878769 0 0 0 0 -8181203.1300048828 2553008.9818382263 0 2553008.9818382263 8780304.2757720947 0 0 0 0 5120937.0244894028 4681192.0789871216 0 4681192.0789871216 6695777.8371124268 0 0 0 0 5134684.8745250702 4697506.5184173584 0 4697506.5184173584 4817455.9454193115 0 0 0 0 5077585.836935997 10149756.535369873 0 10149756.535369873 9498272.764755249 0 0 0 0 -1275319.6871519089 5391049.8584976196 0 5391049.8584976196 8400952.3526687622 0 0 0 0 -2278618.6920566559 6996347.910861969 0 6996347.910861969 9848807.8765258789 0 0 0 0 209864.92952013016 12015961.127490997 0 12015961.127490997 14193854.979286194 0 0 0 0 16888201.193317674 -11942988.067614317 0 -11942988.067614317 666743.1120300293 0 0 0 0 22575763.99425602 4408985.2740859985 0 4408985.2740859985 7469798.0431518555 0 0 0 0 1103.4091526083739 -638119.65153782594 0 -638119.65153782594 4715.9880271889269 0 0 0 0 21457629.876533508 6860635.6194610596 0 6860635.6194610596 9260695.0463562012 0 0 0 0 -695008.14562127739 -2979844.2831989797 0 -2979844.2831989797 1004764.9379976541 0 0 0 0 23445628.81921196 1479476.9187164307 0 1479476.9187164307 3207284.3149414062 0 0 0 0 -107464.95058207843 -65456.34070894774 0 -65456.34070894774 163031.56702301651 0 0 0 0 -1627731.364849549 450139.40130480623 0 450139.40130480623 3276583.887691766 0 0 0 0 -3645606.0549979955 -62721.909634947777 0 -62721.909634947777 2732776.6165466309 0 0 0 0 -4937863.2211275101 774368.16798400879 0 774368.16798400879 6147442.576877594 0 0 0 0 7738277.5750246048 3130606.7510566711 0 3130606.7510566711 3673768.4765853882 0 0 0 0 -1076662.5935296766 3519260.2547073513 0 3519260.2547073513 5665997.0329307429 0 0 0 0 3223898.73869133 313080.59775543213 0 313080.59775543213 6001384.1712341309 0 0 0 0 -3361069.6249632835 3682070.1088027954 0 3682070.1088027954 7240480.6160926819 0 0 0 0 -8410488.4866900444 2539915.249961853 0 2539915.249961853 7453874.4973011017 0 0 0 0 -3550375.7726708651 4452167.6798477173 0 4452167.6798477173 7165639.7912902832 0 0 0 0 -8438642.2621078491 2428535.0354576111 0 2428535.0354576111 8177073.2195663452 0 0 0 0 -8188830.5924296379 2618095.787940979 0 2618095.787940979 8117570.5360326767 0 0 0 0 -8154854.8765497208 2203409.9187889099 0 2203409.9187889099 8240178.5868434906 0 0 0 0 -8830412.7307841778 2488947.727306366 0 2488947.727306366 8129191.9945373535 0 0 0 0 15903505.663340449 12823570.108291239 0 12823570.108291239 -6145166.9991455078 0 0 0 0 222177.8332918493 1892854.628904128 0 1892854.628904128 147452.62202496082 0 0 0 0 -468192.87345002685 588697.63885217812 0 588697.63885217812 2004181.8470177334 0 0 0 0 -862128.57216273248 4272643.4394694567 0 4272643.4394694567 3285205.1957473755 0 0 0 0 709221.98951084598 3474248.143618919 0 3474248.143618919 9358805.2220098339 0 0 0 0 -3500301.3121480942 9033138.8119697571 0 9033138.8119697571 -5466822.9958126545 0 0 0 0 1420533.5024852753 19931011.501930237 0 19931011.501930237 -5874349.8632440567 0 0 0 0 3669520.072486341 19387336.344528198 0 19387336.344528198 -181218.89615631104 0 0 0 0 1421674.3279843926 1420685.9499797821 0 1420685.9499797821 9508874.2244262695 0 0 0 0 -15807430.2627244 17974207.470672607 0 17974207.470672607 36194012.250152588 0 0 0 0 81294079.98682183 52794243.610290527 0 52794243.610290527 -1539049.1033554077 0 0 0 0 -17947370.321052551 -25692210.609313965 0 -25692210.609313965 -4099744.6736450195 0 0 0 0 -69339407.110473156 -9786705.5870285034 0 -9786705.5870285034 24753573.914203644 0 0 0 0 -30473146.376089841 85261477.47756958 0 85261477.47756958 36602036.925888062 0 0 0 0 -18973315.804157853 5820212.5135631561 0 5820212.5135631561 11497076.299530029 0 0 0 0 -10946984.14101696 16928974.035491943 0 16928974.035491943 -2780882.7821044922 0 0 0 0 -7585106.499311924 -123864.57334899902 0 -123864.57334899902 10829551.455032349 0 0 0 0 -3160757.4831190109 1380600.0110397339 0 1380600.0110397339 2392361.1115112305 0 0 0 0 -5632202.4886546135 9470694.6996307373 0 9470694.6996307373 8777896.0613327026 0 0 0 0 -449506.2510657222 521457.54034880828 0 521457.54034880828 697760.4256015718 0 0 0 0 2766016.577706337 2755634.4339981079 0 2755634.4339981079 11870452.677499771 0 0 0 0 -1273554.4636409022 -220629.05992313288 0 -220629.05992313288 6791873.8220177256 0 0 0 0 -387187.55668119993 461794.36339564621 0 461794.36339564621 7414575.2946517039 0 0 0 0 -2081822.3612639904 -199560.84672546387 0 -199560.84672546387 2176245.7681503296 0 0 0 0 -1626394.7163985672 -731014.66991549637 0 -731014.66991549637 7742972.431257356 0 0 0 0 -243961.67989253998 -10332353.947494507 0 -10332353.947494507 992196.05458068848 0 0 0 0 -1384821.4286772013 -5735885.5838279724 0 -5735885.5838279724 6812371.0445404053 0 0 0 0 823085.26272296906 -8919971.7990951538 0 -8919971.7990951538 1549837.6754264832 0 0 0 0 -24953145.915111423 -30219190.87828064 0 -30219190.87828064 -24567890.844329834 0 0 0 0 1083536.7740926743 -1538728.5366592407 0 -1538728.5366592407 15266618.107574463 0 0 0 0 -781334.37882709503 -17033763.02468586 0 -17033763.02468586 -6479155.3922119141 0 0 0 0 1153393.1814732552 -3632521.3839302063 0 -3632521.3839302063 -8536395.9630126953 0 0 0 0 1354765.0278491974 -2621669.2882461548 0 -2621669.2882461548 -11751581.098098755 0 0 0 0 -18929150.16514349 -11803048.109775543 0 -11803048.109775543 4848090.173500061 0 0 0 0 -725991.37962826167 -1260827.1540856175 0 -1260827.1540856175 10284073.93085367 0 0 0 0 -771289.61208257126 533539.2333329767 0 533539.2333329767 2540556.0067677498 0 0 0 0 -133697986.38407958 -45604669.192550659 0 -45604669.192550659 -7051844.248456955 0 0 0 0 -144203899.8209722 71380746.23690033 0 71380746.23690033 136042.82704162598 0 0 0 0 -238179121.84390318 74731364.143997192 0 74731364.143997192 36139298.077255249 0 0 0 0 -160792417.67580178 -202169914.8947525 0 -202169914.8947525 63811649.995048523 0 0 0 0 -76282766.499222517 -136300951.37564087 0 -136300951.37564087 8039508.3766860962 0 0 0 0 -265655933.0902825 -10811359.087799072 0 -10811359.087799072 130444437.29418945 0 0 0 0 -67825551.763162613 131975929.85782623 0 131975929.85782623 27775542.410087585 0 0 0 0 -4889084.806643486 29615928.512947083 0 29615928.512947083 -7704725.8712730408 0 0 0 0 4703540.0680818558 24849794.363670349 0 24849794.363670349 -5462486.8536834717 0 0 0 0 7642243.8097928762 15544720.871850967 0 15544720.871850967 -18317333.63420105 0 0 0 0 -4680557.1436901093 -21258197.972999573 0 -21258197.972999573 -55307397.855377197 0 0 0 0 20213190.065368652 28552244.845375061 0 28552244.845375061 -90648373.054225922 0 0 0 0 174716138.85708147 146987996.17051697 0 146987996.17051697 208270663.7922287 0 0 0 0 43680751.828493036 12762792.354669571 0 12762792.354669571 71336041.310592651 0 0 0 0 91719192.728649557 81484033.562911987 0 81484033.562911987 25582811.954273224 0 0 0 0 72874192.094047129 -115506646.69813538 0 -115506646.69813538 -11204468.521547318 0 0 0 0 7334649.8713874221 -264237317.24297714 0 -264237317.24297714 158651356.54292297 0 0 0 0 339259011.42436743 -67325264.062400818 0 -67325264.062400818 -3255115.6317043304 0 0 0 0 355591148.61105943 8147120.6513652802 0 8147120.6513652802 -73461972.47845459 0 0 0 0 -56128365.421030045 133993089.6566391 0 133993089.6566391 406301335.55499649 0 0 0 0 -71939097.17767781 12838733.243717194 0 12838733.243717194 -66517755.260612488 0 0 0 0 -217522528.54052389 126788150.01473999 0 126788150.01473999 167056419.93081665 0 0 0 0 190181.14869556532 349888.68653109949 0 349888.68653109949 484444.24234898761 0 0 0 0 118767565.15684351 -130763625.61323547 0 -130763625.61323547 87032843.398925781 0 0 0 0 19395435.277586222 -16982035.383544922 0 -16982035.383544922 266729638.76910973 0 0 0 0 65707793.065115094 -46126748.582603455 0 -46126748.582603455 -40111579.862047195 0 0 0 0 14749642.323649764 99541726.772445679 0 99541726.772445679 14952903.047021866 0 0 0 0 17634820.809519947 -47863426.3332901 0 -47863426.3332901 -38768068.242752075 0 0 0 0 51833.757162081056 1035412.8817139016 0 1035412.8817139016 -28250.966275990009 0 0 0 0 -303112974.10333204 84236877.439727783 0 84236877.439727783 79255022.261535645 0 0 0 0 71113831.072173327 143971304.72618866 0 143971304.72618866 -167622655.32893372 0 0 0 0 15931163.239923283 -57841369.934463501 0 -57841369.934463501 43752789.802581787 0 0 0 0 -65347088.375155449 58945770.813293457 0 58945770.813293457 -10496171.892738342 0 0 0 0 -100079248.84810734 -20496220.889476776 0 -20496220.889476776 -21708778.756896973 0 0 0 0 172705.6541258638 3637475.6856808891 0 3637475.6856808891 -63655.919828739017 0 0 0 0 -135331652.9103632 33962889.628067017 0 33962889.628067017 20011680.836257935 0 0 0 0 1171560.6383136511 12634094.953533173 0 12634094.953533173 -8437077.3334655762 0 0 0 0 127731922.10641813 -25534626.304660797 0 -25534626.304660797 -30594209.143104553 0 0 0 0 451439.12345151801 1044112.691785831 0 1044112.691785831 1555866.015409071 0 0 0 0 -23107193.250077546 32982667.606689453 0 32982667.606689453 201736002.31155396 0 0 0 0 -7704787.9717552662 6801973.3308639526 0 6801973.3308639526 33709707.797111511 0 0 0 0 23948107.175174713 37509071.209091187 0 37509071.209091187 9671002.4124488831 0 0 0 0 -7651491.9682571888 11628985.88640976 0 11628985.88640976 -1204744.8055419922 0 0 0 0 -12381260.403488159 38922403.380508423 0 38922403.380508423 -5219299.5633192062 0 0 0 0 1719164.3150755167 -19439618.146672249 0 -19439618.146672249 13241748.35760498 0 0 0 0 -62450866.407087773 15472041.057331085 0 15472041.057331085 -2773126.3968734741 0 0 0 0 -27948723.032798767 23666408.901296616 0 23666408.901296616 13496158.393409729 0 0 0 0 -17800437.784197986 29138709.293214798 0 29138709.293214798 -49203868.19379425 0 0 0 0 -638031.71905146155 -733395.5582150612 0 -733395.5582150612 1401903.2999205142 0 0 0 0 -14360383.405686617 -7938072.3275432587 0 -7938072.3275432587 12652433.412345886 0 0 0 0 -73073699.304762185 56367840.923771858 0 56367840.923771858 -9566828.8319778442 0 0 0 0 -66131212.513859987 22156978.073440552 0 22156978.073440552 -14126985.704650879 0 0 0 0 -42586553.669442892 47818276.798927307 0 47818276.798927307 2673943.2247886658 0 0 0 0 553183.71250501054 3128938.4419853706 0 3128938.4419853706 9421026.8422631547 0 0 0 0 -21826096.791760445 27146835.416009903 0 27146835.416009903 -55701.905555725098 0 0 0 0 2666433.4230444431 19599533.696109772 0 19599533.696109772 -3508531.3018131256 0 0 0 0 656411.28478288651 15896817.661634445 0 15896817.661634445 5817058.7111740112 0 0 0 0 8687844.3410100937 1318092.8034820557 0 1318092.8034820557 3904998.3868141174 0 0 0 0 -64554150.533727169 35686396.404937744 0 35686396.404937744 27142511.577339172 0 0 0 0 -34794348.347006798 8025982.9929733276 0 8025982.9929733276 26034920.559043884 0 0 0 0 -343491.9313533433 2875578.3812343008 0 2875578.3812343008 8926219.4465758279 0 0 0 0 -82125995.375192642 -51859520.659606934 0 -51859520.659606934 88533275.857963562 0 0 0 0 -1183741.1124734879 1442731.6012687683 0 1442731.6012687683 -48343167.82283783 0 0 0 0 11872300.385849953 25121649.642063141 0 25121649.642063141 16076128.370437622 0 0 0 0 19796108.801395178 4754693.9270210266 0 4754693.9270210266 43960453.100349426 0 0 0 0 11015012.428713799 32711774.330352783 0 32711774.330352783 94798381.897512436 0 0 0 0 -6120050.0856945515 -10084734.545313835 0 -10084734.545313835 84964485.53528595 0 0 0 0 33726835.824958801 54828595.069854736 0 54828595.069854736 77006623.275455475 0 0 0 0 -73219.128462647088 -31668.48959174566 0 -31668.48959174566 172102.94451654702 0 0 0 0 -57032052.116838455 -61807388.967712402 0 -61807388.967712402 -56314827.404464722 0 0 0 0 -33804705.482777596 -55706157.083148956 0 -55706157.083148956 -40930328.058807373 0 0 0 0 -85616773.587943435 -29148365.691491604 0 -29148365.691491604 10425194.139846802 0 0 0 0 -81456610.446459293 -54011136.119812012 0 -54011136.119812012 -28429888.532974243 0 0 0 0 -215303.7852807696 1839324.0055271778 0 1839324.0055271778 7257111.1591970362 0 0 0 0 -55542215.666841984 -12747707.748756409 0 -12747707.748756409 -13491873.570972443 0 0 0 0 -20761234.523448944 9524898.8844127655 0 9524898.8844127655 12081297.224113464 0 0 0 0 -5231215.9702997208 9324694.0185089111 0 9324694.0185089111 -1107181.547544241 0 0 0 0 -4782500.3426168561 11714946.940461159 0 11714946.940461159 9908656.8754272461 0 0 0 0 -39155188.502972364 22877385.702163696 0 22877385.702163696 26643520.207237244 0 0 0 0 -70263186.349763632 17369015.208835602 0 17369015.208835602 23535906.101425171 0 0 0 0 -24504885.609681129 8700415.4514923096 0 8700415.4514923096 25032434.000991821 0 0 0 0 -9893652.2162182331 -9961623.607673645 0 -9961623.607673645 46991570.746273041 0 0 0 0 -63626832.240255594 79806704.292510986 0 79806704.292510986 -26091634.231409073 0 0 0 0 13500734.705889016 -30556753.475933075 0 -30556753.475933075 30931819.344299316 0 0 0 0 340256.40971263475 -59055.538692664355 0 -59055.538692664355 -112832.73542673513 0 0 0 0 9402114.9512595534 -9406032.3513717651 0 -9406032.3513717651 5168584.0631103516 0 0 0 0 -17501315.544677854 13454870.714290619 0 13454870.714290619 16818017.466903687 0 0 0 0 -11974100.969706059 6039827.5378036499 0 6039827.5378036499 623073.52118682861 0 0 0 0 -55161096.522391617 10937893.658278465 0 10937893.658278465 17455474.885444641 0 0 0 0 -911952.04248670395 2421593.9793707719 0 2421593.9793707719 4663860.6995008215 0 0 0 0 12257169.71214509 4921694.3984451294 0 4921694.3984451294 3045084.0151062012 0 0 0 0 -14435366.319634914 14513475.407936096 0 14513475.407936096 11870728.29114151 0 0 0 0 -34701060.9947052 -25623330.156791687 0 -25623330.156791687 14946420.637149811 0 0 0 0 -909669.70247901883 -493780.66213062406 0 -493780.66213062406 2867297.0999061726 0 0 0 0 -5751838.5682733059 1260813.3974494934 0 1260813.3974494934 -17138511.366152525 0 0 0 0 -7229067.3066772819 5644832.8864803314 0 5644832.8864803314 -454998.7160949707 0 0 0 0 -4931988.5858870149 3028892.8850631714 0 3028892.8850631714 1213719.3074326515 0 0 0 0 3365913.154511869 2461950.2977714539 0 2461950.2977714539 -9632686.2788238525 0 0 0 0 2953363.6390279699 -3134035.9565005302 0 -3134035.9565005302 -16093827.933700562 0 0 0 0 -190894.57085666165 126695.77290757373 0 126695.77290757373 432413.22470758855 0 0 0 0 28680720.441541076 17467717.562473297 0 17467717.562473297 -13697667.117744446 0 0 0 0 9099800.8917264342 3951640.6937494278 0 3951640.6937494278 -21072710.525848389 0 0 0 0 -9735079.3713416457 21088820.019668579 0 21088820.019668579 -3277562.3292541504 0 0 0 0 12767473.784852922 12090591.520088196 0 12090591.520088196 -9385130.5151433945 0 0 0 0 -20075168.540316552 38520334.788784027 0 38520334.788784027 -1794346.7380142212 0 0 0 0 13660786.064057052 16742691.87165451 0 16742691.87165451 -8045140.0572052002 0 0 0 0 9870525.1619770974 10446971.910317421 0 10446971.910317421 18095962.726974487 0 0 0 0 75995207.783140123 12659743.463401794 0 12659743.463401794 16283170.230630875 0 0 0 0 -3763111.2356005013 -16328922.386768341 0 -16328922.386768341 -22662500.617790222 0 0 0 0 4216909.2800002992 16398928.244574547 0 16398928.244574547 111002288.32337952 0 0 0 0 27856332.798334181 29723655.271980286 0 29723655.271980286 64336762.657897949 0 0 0 0 50942897.47274828 24461991.143890381 0 24461991.143890381 -16596658.271690369 0 0 0 0 -857735.42279179394 1641136.0174369812 0 1641136.0174369812 -17076163.71572876 0 0 0 0 -49114148.090412945 9375532.1310691833 0 9375532.1310691833 9610708.375328064 0 0 0 0 -208362.63749499532 1215011.9442060199 0 1215011.9442060199 1205541.1289259419 0 0 0 0 47610.212250614539 1768211.5471780659 0 1768211.5471780659 4074789.0787812807 0 0 0 0 30047627.188251495 2866775.4583778381 0 2866775.4583778381 -16178099.60666275 0 0 0 0 66596735.702177048 -12224054.080018997 0 -12224054.080018997 -13483288.789558411 0 0 0 0 510644.54946301715 1622332.1951778186 0 1622332.1951778186 2673414.3622369096 0 0 0 0 -9578447.8750168681 6370914.9544906616 0 6370914.9544906616 -19371809.122253418 0 0 0 0 -31470731.104972482 54925763.858112335 0 54925763.858112335 11813581.996627808 0 0 0 0 12594510.284423292 22252729.914710999 0 22252729.914710999 -58600697.42640686 0 0 0 0 15337744.559473097 -190885134.87874603 0 -190885134.87874603 85845546.145565033 0 0 0 0 -75744116.660582125 -40513775.97794342 0 -40513775.97794342 309326856.74635696 0 0 0 0 20577572.385185301 -24737566.994987488 0 -24737566.994987488 88877065.125 0 0 0 0 31195394.728119344 47262052.089767456 0 47262052.089767456 131105109.45330811 0 0 0 0 59317.449227487159 153411.58899208903 0 153411.58899208903 270582.17378591746 0 0 0 0 -17260695.019369841 9970422.9885253906 0 9970422.9885253906 177061675.76283312 0 0 0 0 -3642006.5188682675 -3062110.0202178955 0 -3062110.0202178955 175948911.61930847 0 0 0 0 -33591682.55687815 26428974.429534912 0 26428974.429534912 202630100.49342346 0 0 0 0 -16168047.82299757 826298.02938079834 0 826298.02938079834 -80577705.625282288 0 0 0 0 -4853531.9122774601 -39843957.867958069 0 -39843957.867958069 2298820.7713928223 0 0 0 0 -46446419.118512988 -22525292.018888474 0 -22525292.018888474 -4534268.5674743652 0 0 0 0 236221.1531038332 -35656.361299861223 0 -35656.361299861223 31980.757940845564 0 0 0 0 41978887.271589756 -66448883.21105957 0 -66448883.21105957 -118489368.5883255 0 0 0 0 18658280.313724518 -87120994.465339661 0 -87120994.465339661 -37961551.588287354 0 0 0 0 36161326.740970492 -82876297.666183472 0 -82876297.666183472 -92575809.835540771 0 0 0 0 64412445.256748438 -89837308.979240417 0 -89837308.979240417 -41307616.645370483 0 0 0 0 -3238762.5426806211 -36032195.554340363 0 -36032195.554340363 62529937.985420227 0 0 0 0 -3223318.0314750373 -36218489.472479105 0 -36218489.472479105 -814212.43296813965 0 0 0 0 12249988.255146503 -56004501.384016037 0 -56004501.384016037 87381415.72845459 0 0 0 0 -35104409.909279183 -18072025.185899734 0 -18072025.185899734 15663318.593307495 0 0 0 0 -34242272.258531928 -4634504.2792472839 0 -4634504.2792472839 73020597.499824524 0 0 0 0 -18836450.36059463 16034272.776668549 0 16034272.776668549 25466632.541152954 0 0 0 0 -20196021.672762632 12809997.082645416 0 12809997.082645416 38481270.24180603 0 0 0 0 -5287556.6324619055 19094041.672138214 0 19094041.672138214 51444545.179771423 0 0 0 0 -10040987.089517117 29040656.207382202 0 29040656.207382202 44541809.614505768 0 0 0 0 21465875.904243931 71385555.077232361 0 71385555.077232361 145953888.68659973 0 0 0 0 -6706195.5312438011 -2960822.7549095154 0 -2960822.7549095154 3965035.6985435486 0 0 0 0 -15482426.227944478 -9089322.1898341179 0 -9089322.1898341179 862333.72313690186 0 0 0 0 -23249248.639650226 -415142.01204681396 0 -415142.01204681396 10332202.330703735 0 0 0 0 -15135928.174169779 -4224525.6382141113 0 -4224525.6382141113 11013782.317176819 0 0 0 0 -7857146.3839075565 -13678579.207359314 0 -13678579.207359314 -22880604.127952576 0 0 0 0 -29078408.705340981 -21209041.279998779 0 -21209041.279998779 2162182.1934814453 0 0 0 0 -24441367.639901638 -13614564.769866943 0 -13614564.769866943 -3855296.9497680664 0 0 0 0 -3810612.1913824081 -4883955.561416626 0 -4883955.561416626 -5678102.7632217407 0 0 0 0 -18086571.541230321 12986793.531047821 0 12986793.531047821 4429313.8079986572 0 0 0 0 523945.12378308503 -135438.12378798239 0 -135438.12378798239 112324.74308227282 0 0 0 0 -18979458.942118526 -30202359.139038086 0 -30202359.139038086 -30756603.312034607 0 0 0 0 6604181.0786473751 -42462393.407897949 0 -42462393.407897949 105385473.84689331 0 0 0 0 88889885.802017093 -1992166.1181182861 0 -1992166.1181182861 26972554.164390564 0 0 0 0 -48907703.635927111 -66848442.036701202 0 -66848442.036701202 76038562.091453552 0 0 0 0 -38488256.334344864 -45525386.892364502 0 -45525386.892364502 105339111.04418182 0 0 0 0 -12464547.638201475 -76551184.512466431 0 -76551184.512466431 142116691.67163086 0 0 0 0 33221176.044501722 -51755096.067459106 0 -51755096.067459106 59150203.62096405 0 0 0 0 -25501935.790964067 59909480.338172913 0 59909480.338172913 228864903.4020462 0 0 0 0 121661.0064409911 -85688.551577301696 0 -85688.551577301696 79744.205079324543 0 0 0 0 3740770.8638495207 -4889627.4013519287 0 -4889627.4013519287 -13719098.496513367 0 0 0 0 -7506337.873068966 -48309415.933662415 0 -48309415.933662415 111747556.38685989 0 0 0 0 -16757439.129006267 24274589.264469147 0 24274589.264469147 148795065.81406975 0 0 0 0 -1706487.6351742744 1759814.9636688232 0 1759814.9636688232 3826270.9752960205 0 0 0 0 334311.93113396026 -268759.56614452414 0 -268759.56614452414 224073.46061333455 0 0 0 0 -303702.27773505449 -9565025.6522140503 0 -9565025.6522140503 -4482214.1169891357 0 0 0 0 4396412.9263620377 2251388.3596572876 0 2251388.3596572876 2400898.2411880493 0 0 0 0 1250032.4311759472 5589863.6418418884 0 5589863.6418418884 -5403799.5302467346 0 0 0 0 -6266437.5736205578 -2199227.7889175415 0 -2199227.7889175415 10467774.348358154 0 0 0 0 -3047350.5916140079 -538156.67164611816 0 -538156.67164611816 9011640.2130432129 0 0 0 0 559320.0693908633 -283589.26222046465 0 -283589.26222046465 286982.19332459383 0 0 0 0 -4728410.1055777073 -4617522.6742248535 0 -4617522.6742248535 -2213761.6605319977 0 0 0 0 18626.361077203874 -30228.995162178762 0 -30228.995162178762 -2896.0219869278371 0 0 0 0 -396949.1761713028 1035463.8335876465 0 1035463.8335876465 2867836.8435516357 0 0 0 0 24870.041677895017 -666979.27407276118 0 -666979.27407276118 1240785.6809166968 0 0 0 0 -3790517.9401843008 750644.72383213043 0 750644.72383213043 1742284.6750488281 0 0 0 0 -1364162.5572349951 2746165.0864486694 0 2746165.0864486694 3001480.2802824974 0 0 0 0 -6587398.6766347885 -3925388.6009368896 0 -3925388.6009368896 763647.92426300049 0 0 0 0 -1876336.2930069864 -2923804.5477523804 0 -2923804.5477523804 -1269708.4424285889 0 0 0 0 197645.216336963 -1246170.0666046143 0 -1246170.0666046143 3079347.9967346191 0 0 0 0 969881.05107961933 -1507460.6080093384 0 -1507460.6080093384 2548667.4607086182 0 0 0 0 196328.84055333305 -1751546.7330551147 0 -1751546.7330551147 3948286.7969512939 0 0 0 0 -22845.217168935691 38458.42055827938 0 38458.42055827938 -34398.988184828311 0 0 0 0 414251.90508278366 714773.45385742188 0 714773.45385742188 136674.22352600098 0 0 0 0 1479797.0088935762 -2926759.9008636475 0 -2926759.9008636475 4752280.222026825 0 0 0 0 -1118592.3731438499 387541.61037063599 0 387541.61037063599 302482.3729019165 0 0 0 0 -721190.13109909068 131089.88424165361 0 131089.88424165361 649434.05458762869 0 0 0 0 -2175069.9981880188 565815.81356048584 0 565815.81356048584 2795539.838809967 0 0 0 0 -250566.81902004778 -130559.7698059082 0 -130559.7698059082 17818.662456512451 0 0 0 0 -3573513.0870332718 634116.85908508301 0 634116.85908508301 3832718.8400421143 0 0 0 0 -4093726.5956859589 -1217017.8365478516 0 -1217017.8365478516 1718621.9720840454 0 0 0 0 -486833.02278232574 401893.20874786377 0 401893.20874786377 2158194.2329425812 0 0 0 0 -152351.83920645408 -287577.25538134575 0 -287577.25538134575 613113.05504168943 0 0 0 0 295337.94040734274 -453373.65502166748 0 -453373.65502166748 1089805.8284454346 0 0 0 0 731336.02699041367 -1262639.8675479889 0 -1262639.8675479889 -55637.42741394043 0 0 0 0 -409.38585394382699 -757906.31536102295 0 -757906.31536102295 1876567.6741638184 0 0 0 0 860772.94766647741 -1174569.8753051758 0 -1174569.8753051758 700534.16705322266 0 0 0 0 518369.01507716777 -577965.23236083984 0 -577965.23236083984 1378301.3231506348 0 0 0 0 -49401.119685801663 86870.455773565918 0 86870.455773565918 -79368.345997218043 0 0 0 0 216534.18390026214 -958203.86691474915 0 -958203.86691474915 1357628.2544555664 0 0 0 0 -230920.55320686329 -77284.27385668084 0 -77284.27385668084 616409.05752587318 0 0 0 0 -339.61396566567851 -65994.588218688965 0 -65994.588218688965 375511.10984802246 0 0 0 0 99301.043398395181 -506174.3966255188 0 -506174.3966255188 -4622946.0980682373 0 0 0 0 264092.6740891533 -273118.12267912924 0 -273118.12267912924 234261.97623565421 0 0 0 0 33454580.675754987 15117765.245544434 0 15117765.245544434 -5498292.9309780598 0 0 0 0 382804.26832365594 -490626.69261330552 0 -490626.69261330552 441688.55787821859 0 0 0 0 -1390177.2856884003 -2678927.5934829712 0 -2678927.5934829712 -243188.6296005249 0 0 0 0 -5311697.0096530914 -587691.63466644287 0 -587691.63466644287 3547854.7498722076 0 0 0 0 -4800916.2454018593 -1928271.7474822998 0 -1928271.7474822998 2331232.3788375854 0 0 0 0 5927.5408499256519 -16161929.878656387 0 -16161929.878656387 61407230.136247635 0 0 0 0 8644531.2257663719 -23553480.325533867 0 -23553480.325533867 -29017475.139392853 0 0 0 0 -7178.4029404299508 -50820.327294992283 0 -50820.327294992283 166086.75027863681 0 0 0 0 -33855472.216896862 27178669.158157349 0 27178669.158157349 148955577.37356186 0 0 0 0 37753089.578555003 -54087448.105525017 0 -54087448.105525017 154086931.23351288 0 0 0 0 33050742.130263269 23196925.823829651 0 23196925.823829651 -6099104.2976150513 0 0 0 0 -15819.336236878313 -92550.459521664307 0 -92550.459521664307 356540.26289199665 0 0 0 0 -7965335.3420394659 -43981870.663700104 0 -43981870.663700104 -297697.96990561485 0 0 0 0 -40386324.841261655 -94394857.502453804 0 -94394857.502453804 -71421165.658905029 0 0 0 0 -71463968.079491019 29032252.312461197 0 29032252.312461197 188831725.32460022 0 0 0 0 -73885105.424919605 -96996840.939739227 0 -96996840.939739227 -21741199.906003952 0 0 0 0 82939829.174256504 2418903.4712257385 0 2418903.4712257385 -82760208.423229694 0 0 0 0 3148788.2360233776 49575271.825498581 0 49575271.825498581 86602797.630027771 0 0 0 0 -7978806.5897609992 -8622896.8074841499 0 -8622896.8074841499 6944707.7108840942 0 0 0 0 -20444306.274277765 -14638295.725148678 0 -14638295.725148678 45512897.215408325 0 0 0 0 -2368927.1057199356 26530627.684389114 0 26530627.684389114 27071611.704055786 0 0 0 0 -4467633.9251706824 -556581.28146362305 0 -556581.28146362305 4076300.1682434082 0 0 0 0 -35768.327830087641 94350.112348049413 0 94350.112348049413 33275.98273858428 0 0 0 0 2739556.7225872986 791522.06923675537 0 791522.06923675537 3035104.6661529541 0 0 0 0 2009630.9315821277 -2235910.04322052 0 -2235910.04322052 6847545.3798217773 0 0 0 0 -3051373.4367047101 1704564.1946868896 0 1704564.1946868896 5359057.1714324951 0 0 0 0 -582984.75008596294 2580785.4211425781 0 2580785.4211425781 5143656.9031829834 0 0 0 0 -1278529.7891826425 -1394255.6628341675 0 -1394255.6628341675 -197088.13990783691 0 0 0 0 -76296.550305809826 521486.93048095703 0 521486.93048095703 2571153.2368774414 0 0 0 0 -464893.11773166154 -858082.20587921143 0 -858082.20587921143 2919717.8784790039 0 0 0 0 1332363.6889775023 -548378.62108612061 0 -548378.62108612061 1235885.3333435059 0 0 0 0 1112515.5772716182 -529456.49411773682 0 -529456.49411773682 3004243.3071289062 0 0 0 0 2268692.4701893963 -613805.5954208374 0 -613805.5954208374 1649668.4813995361 0 0 0 0 1927393.9751495947 433758.78228759766 0 433758.78228759766 3454311.0672607422 0 0 0 0 2461601.4201455796 -62498.135780334473 0 -62498.135780334473 2320169.4463348389 0 0 0 0 2547.6135330856059 -225207.99794387817 0 -225207.99794387817 9994782.7467956543 0 0 0 0 612957.96268501598 -3145618.7373580933 0 -3145618.7373580933 3600380.8280067444 0 0 0 0 -564811.88023575395 -2517688.6322364807 0 -2517688.6322364807 20222106.008544922 0 0 0 0 1390753.1436604154 -521195.06133651733 0 -521195.06133651733 8236912.4494628906 0 0 0 0 2099538.7309773881 -3637444.4009933472 0 -3637444.4009933472 19458922.514864177 0 0 0 0 -4816820.2817892786 -14404293.252883911 0 -14404293.252883911 15045992.99370575 0 0 0 0 920444.77586180344 -4221054.0130691528 0 -4221054.0130691528 19459842.060836792 0 0 0 0 5716131.6174019203 -1964597.9251251221 0 -1964597.9251251221 5608218.2343673706 0 0 0 0 19003277.172707051 -11708714.539779663 0 -11708714.539779663 -5998971.6020507812 0 0 0 0 18486166.358262055 20936396.414512634 0 20936396.414512634 21280982.586425781 0 0 0 0 -47397.789534998119 39648.530646136031 0 39648.530646136031 47793.795465100557 0 0 0 0 11377532.947579244 16506056.94562149 0 16506056.94562149 11983606.470062256 0 0 0 0 4318177.7285395022 9029337.8281707764 0 9029337.8281707764 8775240.0001831055 0 0 0 0 9400143.560723396 4699103.9378051758 0 4699103.9378051758 -1233523.8818817139 0 0 0 0 12687592.516209709 10709568.04646492 0 10709568.04646492 4977041.8775939941 0 0 0 0 85041.889624802396 16912420.637802124 0 16912420.637802124 29182346.476646423 0 0 0 0 1848127.0378235355 12430968.683486938 0 12430968.683486938 14541926.602127075 0 0 0 0 5265971.8226390332 10267518.03238678 0 10267518.03238678 8472835.6760559082 0 0 0 0 -3800630.8719845898 9131106.1357650757 0 9131106.1357650757 19732889.243247986 0 0 0 0 -3820750.3493009843 9397080.80909729 0 9397080.80909729 18364475.526191711 0 0 0 0 -983807.9489178285 5565860.6178665161 0 5565860.6178665161 8116534.3621826172 0 0 0 0 670522.99832882173 5594360.2965164185 0 5594360.2965164185 5693033.5914611816 0 0 0 0 224720.84884724393 8025786.2792358398 0 8025786.2792358398 12613377.063034058 0 0 0 0 1889039.75944441 4908117.2701454163 0 4908117.2701454163 6053344.0627746582 0 0 0 0 582829.47295442596 2455878.7476501465 0 2455878.7476501465 2628996.2395706177 0 0 0 0 318081.54747217894 2526362.3876342773 0 2526362.3876342773 3212484.8781585693 0 0 0 0 84451.551190655679 4693007.3635635376 0 4693007.3635635376 8310071.3222312927 0 0 0 0 -9332019.2585496567 -3244664.2308731079 0 -3244664.2308731079 5895261.0432739258 0 0 0 0 3755407.9902563058 20704883.286144257 0 20704883.286144257 -3513584.9635310173 0 0 0 0 -174380.37913758765 180783.09785058349 0 180783.09785058349 126267.59013512358 0 0 0 0 -4885805.4229637124 1196193.3754234314 0 1196193.3754234314 3554429.1348571777 0 0 0 0 595920.29819833301 -1109847.2189254761 0 -1109847.2189254761 1707656.2792549133 0 0 0 0 -3490790.6523013208 -867201.17490005493 0 -867201.17490005493 -619777.88906860352 0 0 0 0 -431243.59433626902 614491.3702467652 0 614491.3702467652 250050.56193147972 0 0 0 0 2020673.9919191748 4764764.0452346802 0 4764764.0452346802 -3473596.3977813721 0 0 0 0 -284192.87669358309 2190920.4189758301 0 2190920.4189758301 -1275383.581451416 0 0 0 0 -320003.86543245241 -719103.89757537842 0 -719103.89757537842 -1915373.3872413635 0 0 0 0 -673325.54510770366 2190459.6397829056 0 2190459.6397829056 3310383.7168884277 0 0 0 0 -890336.68516961113 2727995.2364883423 0 2727995.2364883423 2858393.9143066406 0 0 0 0 -1366841.7209078111 -351577.1921081543 0 -351577.1921081543 605414.4493637085 0 0 0 0 -910400.29952458153 1017452.8218894396 0 1017452.8218894396 494779.89559875545 0 0 0 0 -3222650.9453186989 -1075063.596206665 0 -1075063.596206665 6501047.313621521 0 0 0 0 10681.672302979976 403221.11752510071 0 403221.11752510071 -3160189.3641967773 0 0 0 0 -2694643.2500932179 588735.79113388062 0 588735.79113388062 1884711.9129333496 0 0 0 0 -715866.45798301767 371982.54888209514 0 371982.54888209514 799283.17947832495 0 0 0 0 -298453.88444352156 307142.30975597957 0 307142.30975597957 830953.09611586854 0 0 0 0 -1412057.3011000492 -256333.81677246094 0 -256333.81677246094 -1836631.2022705078 0 0 0 0 -1001591.8313584396 625994.13866479509 0 625994.13866479509 1082648.2252608351 0 0 0 0 -602333.37283182144 154295.59764862061 0 154295.59764862061 1018518.3013916016 0 0 0 0 -770015.71287904633 734335.68923734268 0 734335.68923734268 811077.38753251731 0 0 0 0 -738290.99860146409 187004.83353770897 0 187004.83353770897 813907.73793279205 0 0 0 0 -546517.24302887917 18547.334457397461 0 18547.334457397461 778815.97787475586 0 0 0 0 -978431.54160478024 115992.34098078124 0 115992.34098078124 1534866.8750536367 0 0 0 0 -334075.32447722554 -359169.02896499634 0 -359169.02896499634 614888.58547973633 0 0 0 0 -322634.92848546337 -482865.30700683594 0 -482865.30700683594 1549188.3547563553 0 0 0 0 4386.3033924866122 -175182.95808929019 0 -175182.95808929019 1045865.6243103569 0 0 0 0 -200049.66670263815 17248.209587097168 0 17248.209587097168 1625647.0582101345 0 0 0 0 -50272.443337156612 163136.09699249268 0 163136.09699249268 1320365.1862945557 0 0 0 0 -129453.31319825312 374294.75349621894 0 374294.75349621894 121198.1536632739 0 0 0 0 -231965.7361214493 22438.731867622584 0 22438.731867622584 439593.94185690582 0 0 0 0 -1241927.2001121473 1346412.5045166016 0 1346412.5045166016 510122.42321777344 0 0 0 0 -128860.13792546571 -106547.86505889893 0 -106547.86505889893 1303196.6029510498 0 0 0 0 -238659.26122762606 124716.52174758911 0 124716.52174758911 1337238.1480560303 0 0 0 0 517977.21517909877 1222945.365737915 0 1222945.365737915 630452.58255004883 0 0 0 0 498354.08067216352 941228.67191314697 0 941228.67191314697 -799217.48640441895 0 0 0 0 507.83344737282459 -26559.610210418701 0 -26559.610210418701 1461987.3236083984 0 0 0 0 -153887.9163903447 -182150.7017288208 0 -182150.7017288208 2858349.3753890991 0 0 0 0 -156164.84044544038 -451751.07216644287 0 -451751.07216644287 867219.82781219482 0 0 0 0 -54941.144666023167 11750.313472924754 0 11750.313472924754 119730.6945134066 0 0 0 0 1135973.9733169544 53083.634552001953 0 53083.634552001953 1601573.3246650696 0 0 0 0 2311.1904541620465 -92863.871230522171 0 -92863.871230522171 855866.99051625421 0 0 0 0 -97545.681283534592 -31596.791725158691 0 -31596.791725158691 1805336.1168899536 0 0 0 0 -18711.086545585276 69455.326835632324 0 69455.326835632324 1349680.7210693359 0 0 0 0 25109.636099540396 -923671.11975860596 0 -923671.11975860596 810399.58047866821 0 0 0 0 -161.53772614698744 -974646.227684021 0 -974646.227684021 957784.22786712646 0 0 0 0 -456881.88129591802 -637845.04803848267 0 -637845.04803848267 1375040.8301086426 0 0 0 0 105718.2453040242 -698516.8121509552 0 -698516.8121509552 1175855.1107177734 0 0 0 0 -459619.67595406156 -956600.03188323975 0 -956600.03188323975 1069663.8012466431 0 0 0 0 -409770.16608139966 -637099.83398199081 0 -637099.83398199081 1324134.5672149658 0 0 0 0 -46391.593834902393 -1075420.6930847168 0 -1075420.6930847168 978295.62496185303 0 0 0 0 -1253948.1315354863 -703813.63362503052 0 -703813.63362503052 1322316.4590148926 0 0 0 0 -697644.69780458452 -1421145.2261428833 0 -1421145.2261428833 915220.09417724609 0 0 0 0 371.31675724863521 -1007431.2368774414 0 -1007431.2368774414 932832.77429199219 0 0 0 0 -49537.276792266406 -1000584.8425559998 0 -1000584.8425559998 944973.5528793335 0 0 0 0 94099.520203155698 -545892.45621490479 0 -545892.45621490479 1824605.7670898438 0 0 0 0 -705494.72196577117 -1875374.3020401001 0 -1875374.3020401001 514763.75008392334 0 0 0 0 240774.98783618468 -979961.38529968262 0 -979961.38529968262 706756.14038848877 0 0 0 0 -358104.48633890646 -678242.61116790771 0 -678242.61116790771 5388739.6179542542 0 0 0 0 185446.56824335689 -187949.80983352661 0 -187949.80983352661 1590605.1017379761 0 0 0 0 -22.374062524539621 -935990.85374440474 0 -935990.85374440474 2159825.0159835815 0 0 0 0 -93768.10755564901 -184646.76947402954 0 -184646.76947402954 3764561.9974737167 0 0 0 0 -7014338.8010143042 -3742235.9462909698 0 -3742235.9462909698 2139291.1579208374 0 0 0 0 -2860629.7273945808 -601340.98619651794 0 -601340.98619651794 2278555.0390396118 0 0 0 0 -9.6695097637515346 -713312.47630092292 0 -713312.47630092292 1482534.9234932885 0 0 0 0 -8443258.5851061344 -4288086.3015785217 0 -4288086.3015785217 2252073.4761123657 0 0 0 0 -3813992.589766833 -3465106.7256622314 0 -3465106.7256622314 3258113.6523373127 0 0 0 0 -5282973.383146286 -4078699.5008888245 0 -4078699.5008888245 -421707.2960357666 0 0 0 0 -6804579.5978283882 766441.17986297607 0 766441.17986297607 2455824.9704627991 0 0 0 0 -1993421.293118149 -1866315.960392952 0 -1866315.960392952 3448705.8199005127 0 0 0 0 -2094049.3480863571 4076901.3116989136 0 4076901.3116989136 9967337.0902099609 0 0 0 0 -16336825.822841883 -6566868.9161987305 0 -6566868.9161987305 6161750.6203842163 0 0 0 0 -2332565.090156327 -1430813.8749923706 0 -1430813.8749923706 1567746.6110229492 0 0 0 0 -94311.413979214325 -682941.52525798965 0 -682941.52525798965 1729150.7288887128 0 0 0 0 2147989.5498404503 -7914578.1909198761 0 -7914578.1909198761 -1374676.3099822998 0 0 0 0 -2616879.7141029835 -407727.29899215698 0 -407727.29899215698 2138988.1025319099 0 0 0 0 -381221.52693300892 604320.29459716659 0 604320.29459716659 208102.6707291007 0 0 0 0 -10098983.447502613 8467973.3790893555 0 8467973.3790893555 7832699.099105835 0 0 0 0 -175714.03558301926 1956477.240272522 0 1956477.240272522 -1058937.5240670443 0 0 0 0 -323799.99964151916 -442860.88880991412 0 -442860.88880991412 1994367.3026049957 0 0 0 0 -626477.47154453234 -3120.6066131405532 0 -3120.6066131405532 1111810.0020336322 0 0 0 0 -2766907.583706677 494835.14364671707 0 494835.14364671707 6774658.9894943237 0 0 0 0 -1065492.6130905151 3809102.5313262939 0 3809102.5313262939 10021584.384952545 0 0 0 0 -54077.160859626485 33219.991214908659 0 33219.991214908659 200998.02505916357 0 0 0 0 1591713.1820144653 1179348.8130187988 0 1179348.8130187988 2682192.6345682144 0 0 0 0 -137988.57359242439 -6156061.4600982666 0 -6156061.4600982666 1567038.7856655121 0 0 0 0 811902.22074520588 -2923733.4479179382 0 -2923733.4479179382 6741893.05103302 0 0 0 0 1349197.3239161968 -3627019.893283844 0 -3627019.893283844 7314364.8990859985 0 0 0 0 2647518.6454536915 -9398.6996154785156 0 -9398.6996154785156 8457509.5398483276 0 0 0 0 515700.88324028254 7969803.8540229797 0 7969803.8540229797 14281565.302833557 0 0 0 0 -2449579.9780325294 1223058.6432514191 0 1223058.6432514191 13857035.024559021 0 0 0 0 3537892.4040703773 -1585554.8284645081 0 -1585554.8284645081 4262058.6268844604 0 0 0 0 -4330641.2161588669 207789.77117538452 0 207789.77117538452 3977098.0138349533 0 0 0 0 4235278.9906171709 4155559.1512794495 0 4155559.1512794495 -288115.52871704102 0 0 0 0 -2064580.1615331173 7746956.8631744385 0 7746956.8631744385 529283.20768737793 0 0 0 0 -9062545.7263867259 8085630.6205482483 0 8085630.6205482483 15382719.777084351 0 0 0 0 -1005883.851051569 9982659.1967544556 0 9982659.1967544556 4473659.0521011353 0 0 0 0 -11763475.548697114 239690.21468734741 0 239690.21468734741 5223627.2515563965 0 0 0 0 -429467.5952693224 4619960.6578941345 0 4619960.6578941345 6405902.8211898804 0 0 0 0 12102236.036068559 20431190.167549133 0 20431190.167549133 -14635342.498847961 0 0 0 0 4294316.9951697588 35656540.644828796 0 35656540.644828796 -18330913.353134155 0 0 0 0 7754833.5746876001 68206125.281051636 0 68206125.281051636 47550953.061559677 0 0 0 0 1415348.0078232288 32160687.057380676 0 32160687.057380676 20561674.441770554 0 0 0 0 -980754.00528491498 17772862.701449484 0 17772862.701449484 -2896430.5760498047 0 0 0 0 6173309.4644287825 -3863304.7731513977 0 -3863304.7731513977 -12060989.551994324 0 0 0 0 9043674.0948118567 17821048.400188446 0 17821048.400188446 -15482581.280601501 0 0 0 0 -14837628.912979901 -36253611.731552124 0 -36253611.731552124 -51198195.253555298 0 0 0 0 34354650.974678159 18876371.764205933 0 18876371.764205933 -85337942.671005249 0 0 0 0 6963989.2981632948 -5830177.5117530823 0 -5830177.5117530823 -14937898.655181885 0 0 0 0 -20719372.047442615 -12570038.249023438 0 -12570038.249023438 3840074.9295578003 0 0 0 0 -4118387.5352526307 -5773901.3565406799 0 -5773901.3565406799 4985435.1723098755 0 0 0 0 2680927.4064700603 380220.84828567505 0 380220.84828567505 -3186972.0005340576 0 0 0 0 1164449.5714838505 -1036470.2397422791 0 -1036470.2397422791 13295515.650341034 0 0 0 0 -1561296.1732248068 -8661377.4394378662 0 -8661377.4394378662 5927185.181022644 0 0 0 0 -3990003.7972733825 -1648336.4994707108 0 -1648336.4994707108 12740066.917327881 0 0 0 0 3739919.2394165993 -3087098.6491851807 0 -3087098.6491851807 12909083.771598816 0 0 0 0 -1503268.0387431383 4042506.0671024323 0 4042506.0671024323 3768445.49609375 0 0 0 0 1888639.0206757486 6768271.6666107178 0 6768271.6666107178 6813868.5801086426 0 0 0 0 736287.50916649401 4388951.1078071594 0 4388951.1078071594 3727885.4657058716 0 0 0 0 4646408.2801962793 3310196.1315002441 0 3310196.1315002441 2002988.7305607796 0 0 0 0 -1907428.1566803604 3712065.8541069031 0 3712065.8541069031 2042565.9829177856 0 0 0 0 1135381.9137888066 2214038.1483149529 0 2214038.1483149529 6552077.0177764893 0 0 0 0 2665996.044959873 3165227.8484802246 0 3165227.8484802246 -4243535.8401107788 0 0 0 0 -359096.49084146222 1152349.8627418429 0 1152349.8627418429 804632.30037671747 0 0 0 0 -3602356.6969300508 -4340591.9075489044 0 -4340591.9075489044 21546309.374542236 0 0 0 0 -634262.30713441793 1106653.1154945418 0 1106653.1154945418 517361.68630809872 0 0 0 0 37033.689865604043 -1782829.4999389648 0 -1782829.4999389648 -166627.13558197021 0 0 0 0 -1174196.0196328163 -1400072.5025672913 0 -1400072.5025672913 12360121.499214172 0 0 0 0 2110955.2569182962 1879053.8129272461 0 1879053.8129272461 -6117443.554662466 0 0 0 0 -2367332.2547978163 -741476.99626159668 0 -741476.99626159668 200040.94309234619 0 0 0 0 1338538.9168184921 912992.26103210449 0 912992.26103210449 174195.84689259529 0 0 0 0 -1599196.1540015414 -392507.66000366211 0 -392507.66000366211 6320520.3958206177 0 0 0 0 1930371.0051447302 1966116.0410003662 0 1966116.0410003662 1209557.7456245422 0 0 0 0 -392827.68906609714 592993.82537460327 0 592993.82537460327 7388071.967086792 0 0 0 0 3528371.7082279474 824400.54512786865 0 824400.54512786865 7396641.7605895996 0 0 0 0 -1216095.8415092458 -325360.57879114151 0 -325360.57879114151 14696560.871826172 0 0 0 0 -964998.28873280808 1820439.1382889748 0 1820439.1382889748 13421136.683654785 0 0 0 0 2579290.4964035898 -1178223.0661392212 0 -1178223.0661392212 14755731.627368927 0 0 0 0 -170929.20579167455 2823640.0739135742 0 2823640.0739135742 7474668.1775627136 0 0 0 0 -1060057.235239733 2466589.3733100891 0 2466589.3733100891 10345011.404830933 0 0 0 0 -2734250.3069322258 2751883.4474334717 0 2751883.4474334717 14813018.613930941 0 0 0 0 -1589165.8717707656 6544796.7883911133 0 6544796.7883911133 13382095.869750977 0 0 0 0 -6208763.6778876018 7738049.6020851135 0 7738049.6020851135 24341131.109313965 0 0 0 0 -3791376.5903615057 4783998.6489944458 0 4783998.6489944458 15648075.400115967 0 0 0 0 -3903438.339146331 4575768.4409255981 0 4575768.4409255981 21343317.07434082 0 0 0 0 -6953301.6294283569 6186746.5277633667 0 6186746.5277633667 21142465.443289757 0 0 0 0 -2363568.5751310438 3371465.3487854004 0 3371465.3487854004 22410692.8371315 0 0 0 0 -2215934.8053605109 510886.90578460693 0 510886.90578460693 23926667.468231201 0 0 0 0 -5598495.3843704313 3488834.4881668091 0 3488834.4881668091 25895872.800857544 0 0 0 0 -2471087.7718640342 4276131.92837286 0 4276131.92837286 33809229.361816406 0 0 0 0 15156047.605954811 62420.46849822998 0 62420.46849822998 10054008.285919189 0 0 0 0 -2589020.2889879793 -278383.85062408447 0 -278383.85062408447 43074931.502380371 0 0 0 0 7203721.7258598804 -9704997.480430603 0 -9704997.480430603 33261046.665878296 0 0 0 0 6569080.8457338661 -5024927.1814193726 0 -5024927.1814193726 19718370.457969666 0 0 0 0 831914.90502040088 5714284.2716293335 0 5714284.2716293335 11122050.271987915 0 0 0 0 -2839207.6333560944 -24506595.310020447 0 -24506595.310020447 -871921.24808502197 0 0 0 0 2134303.5439318717 5374769.4785346985 0 5374769.4785346985 11737657.890426636 0 0 0 0 1869745.0864415094 3658349.0776939392 0 3658349.0776939392 7483304.6825866699 0 0 0 0 8839276.9902861714 4098000.1943664551 0 4098000.1943664551 6979750.8739700317 0 0 0 0 3743624.6743745804 -1847264.0542030334 0 -1847264.0542030334 13390643.003250122 0 0 0 0 1993525.9751260821 865075.87863922119 0 865075.87863922119 15957663.936386108 0 0 0 0 -1115933.7543687597 2207527.5157012939 0 2207527.5157012939 4387041.0295562744 0 0 0 0 -480818.95401060581 2354580.8775863647 0 2354580.8775863647 4001673.1210174561 0 0 0 0 -671457.41632990539 5600380.6189899445 0 5600380.6189899445 9297160.6040344238 0 0 0 0 -3024849.1143563539 3158410.1033706665 0 3158410.1033706665 6793503.1889352798 0 0 0 0 -2482268.2347778082 -1433605.1161613464 0 -1433605.1161613464 2158979.9140701294 0 0 0 0 -18832.31377398684 56180.583842311054 0 56180.583842311054 179330.27993317321 0 0 0 0 -6218294.6458502859 326341.94837188721 0 326341.94837188721 9601245.614025116 0 0 0 0 -556369.80988195539 928227.59608459473 0 928227.59608459473 4759037.2204704285 0 0 0 0 -55104.560438583736 142773.5884140525 0 142773.5884140525 360369.95662928838 0 0 0 0 -252483.58538534679 813287.99300670624 0 813287.99300670624 1938059.1939315796 0 0 0 0 13061987.671863109 23919251.68963623 0 23919251.68963623 64143523.450647354 0 0 0 0 116701256.12789068 98799896.135978699 0 98799896.135978699 83011333.164260864 0 0 0 0 90545196.458310038 101718105.47504807 0 101718105.47504807 150912847.73297119 0 0 0 0 162007378.33003891 133470897.66196442 0 133470897.66196442 109344221.48809814 0 0 0 0 23628.304261467038 106638.17609777534 0 106638.17609777534 116837.88775228709 0 0 0 0 -35447274.024193764 31747129.40901947 0 31747129.40901947 -41030937.619869232 0 0 0 0 102101.57844500322 -25852.674752194434 0 -25852.674752194434 7024.2936318982393 0 0 0 0 40584111.716869377 144562738.77333736 0 144562738.77333736 -215946883.02401733 0 0 0 0 -36765443.04274559 25072487.665065765 0 25072487.665065765 -11067590.617843628 0 0 0 0 342536.51678474463 1112039.6016967765 0 1112039.6016967765 517791.03438338637 0 0 0 0 19340943.561074376 107911952.95281982 0 107911952.95281982 97720730.385223389 0 0 0 0 5557567.4735444784 109393916.73547363 0 109393916.73547363 295665535.71687317 0 0 0 0 177092.65789940953 1802940.5445327759 0 1802940.5445327759 2932816.2307434082 0 0 0 0 235389.55692022294 1843873.4855918884 0 1843873.4855918884 2917701.8871459961 0 0 0 0 133065.71359335631 1887097.2842826843 0 1887097.2842826843 3025176.2452545166 0 0 0 0 -9030.991070792079 1777691.146812439 0 1777691.146812439 2976132.9885253906 0 0 0 0 783594.83570778091 3117184.178851936 0 3117184.178851936 585936.67866086587 0 0 0 0 402919.1235653162 2702950.7959289551 0 2702950.7959289551 2703152.2690849304 0 0 0 0 1431395.0351710021 4066323.7896003723 0 4066323.7896003723 4162228.8832092285 0 0 0 0 -45645771.524584293 -17576927.731765747 0 -17576927.731765747 4665805.3912506104 0 0 0 0 57762173.683858812 56394705.55248642 0 56394705.55248642 59289333.48538208 0 0 0 0 149821896.72692728 145750461.07157898 0 145750461.07157898 106824940.73141479 0 0 0 0 38014423.045297384 -4682207.979385376 0 -4682207.979385376 57112513.933822632 0 0 0 0 10891904.923583269 -79852439.65284729 0 -79852439.65284729 6433217.3903579712 0 0 0 0 207746800.26000023 24698597.87197876 0 24698597.87197876 -123269991.68495178 0 0 0 0 -24828772.899731636 -1131533.4511184692 0 -1131533.4511184692 43139904.665267944 0 0 0 0 43149029.479909539 -13260454.829734802 0 -13260454.829734802 -44809664.445236206 0 0 0 0 31382253.478352129 15524115.125116348 0 15524115.125116348 22340773.177032471 0 0 0 0 928685.26929145854 241438.67364504561 0 241438.67364504561 -1478378.4101495966 0 0 0 0 -49137.537050783634 18333460.067127228 0 18333460.067127228 -56828574.786407471 0 0 0 0 6651189.935318768 3431167.804233551 0 3431167.804233551 -27016476.34173584 0 0 0 0 1429506.2441488232 4350383.0317939185 0 4350383.0317939185 510986.09376040474 0 0 0 0 -140851.83381198766 2296022.5917989463 0 2296022.5917989463 4771912.7238390874 0 0 0 0 6099.5842700004578 4127888.1016159058 0 4127888.1016159058 -2541076.1023571491 0 0 0 0 204792.09643728228 1580091.3693663646 0 1580091.3693663646 3046376.1600241754 0 0 0 0 -2912723.0226601362 3991659.5598144531 0 3991659.5598144531 16892891.857196808 0 0 0 0 -130054.29874560982 4080894.4229278564 0 4080894.4229278564 6097522.8495941162 0 0 0 0 1321170.3805703386 5916712.0764787737 0 5916712.0764787737 2193788.3984071985 0 0 0 0 -321402.27885789424 3465544.8895339966 0 3465544.8895339966 5057828.560585022 0 0 0 0 597373.73834781349 3476494.4888000488 0 3476494.4888000488 4016457.9276970625 0 0 0 0 -488206.3595906049 5599650.3583450317 0 5599650.3583450317 6357601.9396762848 0 0 0 0 -233693.77906551585 4258289.1450545788 0 4258289.1450545788 4223526.4916992188 0 0 0 0 -80887.189208078693 1238049.0517606977 0 1238049.0517606977 1514865.2921217592 0 0 0 0 -6583058.2876079082 2407477.7899246216 0 2407477.7899246216 26875485.683154583 0 0 0 0 476730.26007665694 4879117.5734558105 0 4879117.5734558105 2283447.9145796299 0 0 0 0 -508976.86993366107 -1133415.4242134094 0 -1133415.4242134094 17150333.420394897 0 0 0 0 -10687397.648607254 6219500.3249740601 0 6219500.3249740601 13703145.115562439 0 0 0 0 -1161038.2275520563 7212222.0209503174 0 7212222.0209503174 12631796.469436646 0 0 0 0 1424864.995585572 5291379.431804657 0 5291379.431804657 10352755.874984741 0 0 0 0 -1939156.5763243437 3430866.8698501587 0 3430866.8698501587 9333135.693611145 0 0 0 0 -1274548.6147295535 9653506.9798660278 0 9653506.9798660278 6436818.8019256592 0 0 0 0 -1313315.5218690038 7698862.7563095093 0 7698862.7563095093 5167376.0895462036 0 0 0 0 -606137.97576896381 781836.29517408088 0 781836.29517408088 1034420.6359105818 0 0 0 0 -13066879.262749672 18573308.624328613 0 18573308.624328613 3573209.5045318604 0 0 0 0 829170.65381674108 3742850.8011213038 0 3742850.8011213038 7508897.1280722432 0 0 0 0 -1819196.7849230617 6853712.8417358398 0 6853712.8417358398 10302687.96244812 0 0 0 0 -2803556.1902155876 12099474.609275818 0 12099474.609275818 7372158.7510681152 0 0 0 0 -24999698.954643309 1625500.3776168823 0 1625500.3776168823 18020922.505607605 0 0 0 0 -14958404.682770044 -11712167.628223419 0 -11712167.628223419 -7321089.9151763916 0 0 0 0 -48617193.880291581 -26462399.441116333 0 -26462399.441116333 2712247.1851043701 0 0 0 0 -20697526.705959707 -27342412.521392822 0 -27342412.521392822 -113880759.631073 0 0 0 0 -42628342.362172075 -640793.14523029327 0 -640793.14523029327 5634154.3610076904 0 0 0 0 -1506388.1611078496 -471379.61729515903 0 -471379.61729515903 2259957.5407871082 0 0 0 0 -19703803.818634033 -10595846.769371033 0 -10595846.769371033 16052013.314537048 0 0 0 0 -744025.02038555813 -1050218.6656829277 0 -1050218.6656829277 9428553.9917357937 0 0 0 0 -28512929.40748122 -71318301.687475681 0 -71318301.687475681 -93377578.447937012 0 0 0 0 9254568.8625166416 -83801264.006507874 0 -83801264.006507874 -90425212.445274353 0 0 0 0 -67594040.927445799 -27130535.437057495 0 -27130535.437057495 -54144849.633453369 0 0 0 0 56915110.831965402 19979512.376331329 0 19979512.376331329 -45266368.8931427 0 0 0 0 -36001469.023506165 10267190.866382599 0 10267190.866382599 -37869698.486160278 0 0 0 0 38812491.800244987 -40077732.213874817 0 -40077732.213874817 -111233168.55131912 0 0 0 0 -24524371.889824033 -654645.44488525391 0 -654645.44488525391 50828567.957324982 0 0 0 0 -10499478.708778381 -19284027.748069763 0 -19284027.748069763 75563567.024703979 0 0 0 0 -48063246.464277267 52291653.967681885 0 52291653.967681885 42406423.279121399 0 0 0 0 133030.60174571624 695192.59624763206 0 695192.59624763206 135890.75676861405 0 0 0 0 -33530368.814055681 7771087.1878261566 0 7771087.1878261566 144868683.45328522 0 0 0 0 -753046.99620763608 -1350892.2584376205 0 -1350892.2584376205 9937054.2620006613 0 0 0 0 -13430073.847815514 -44632593.051193237 0 -44632593.051193237 122399550.87375641 0 0 0 0 31604613.424481392 -118990515.63798523 0 -118990515.63798523 262301685.03140259 0 0 0 0 39232076.824541569 -44842717.390213013 0 -44842717.390213013 49943415.42193985 0 0 0 0 78968709.857688189 25332369.079265594 0 25332369.079265594 -109622086.99401855 0 0 0 0 -19601566.164645657 -8600694.349317193 0 -8600694.349317193 30725963.561019897 0 0 0 0 396697.60639691353 -12879455.342628479 0 -12879455.342628479 46569015.749526978 0 0 0 0 15478838.559602261 -10220770.721038818 0 -10220770.721038818 2484156.4128646851 0 0 0 0 7836426.6464275122 4036961.9413900375 0 4036961.9413900375 814526.18556976318 0 0 0 0 1866391.1218166351 12584668.696468353 0 12584668.696468353 7437157.5544996262 0 0 0 0 -5731702.8161802292 6998167.9183712006 0 6998167.9183712006 6275467.0085678101 0 0 0 0 694821.13405150408 3470389.7662048219 0 3470389.7662048219 97520.997710116208 0 0 0 0 16186677.58891201 13867131.886211395 0 13867131.886211395 -8332196.1339874268 0 0 0 0 -12689767.483046472 22203024.075169086 0 22203024.075169086 32410147.489936829 0 0 0 0 -3391658.524805069 5804189.0892333984 0 5804189.0892333984 9322050.8322753906 0 0 0 0 417448.45387408847 3237614.3464431055 0 3237614.3464431055 7315835.1490035616 0 0 0 0 -4232246.1550394893 5916696.4506416321 0 5916696.4506416321 12227973.79208374 0 0 0 0 2090403.7384954095 6825015.6584644318 0 6825015.6584644318 7332896.8115539551 0 0 0 0 -31491.104840524087 17752.537591341883 0 17752.537591341883 519083.27036327776 0 0 0 0 769207.86517000198 5519928.0386543274 0 5519928.0386543274 14863390.337013245 0 0 0 0 2663749.8752789497 3916582.9586696625 0 3916582.9586696625 1167688.1256561279 0 0 0 0 -256583.28151757503 437038.7692818176 0 437038.7692818176 4521833.1006691251 0 0 0 0 5955935.7361645699 -1981923.1400699615 0 -1981923.1400699615 11025924.744468689 0 0 0 0 2531977.5797129869 4778799.0511837006 0 4778799.0511837006 20488814.82000351 0 0 0 0 -1183152.6797885895 7132099.8908195496 0 7132099.8908195496 22631690.625763893 0 0 0 0 2963774.6695649624 1641432.7252349854 0 1641432.7252349854 14415781.975509644 0 0 0 0 -137439.75132126431 189628.64427015558 0 189628.64427015558 2006650.661461466 0 0 0 0 -4538017.9396845102 -365811.05707740784 0 -365811.05707740784 36853472.418113708 0 0 0 0 -6141739.6729340553 20831407.564163208 0 20831407.564163208 50121746.038049698 0 0 0 0 2880559.1885495186 30706184.908498764 0 30706184.908498764 42027428.016143799 0 0 0 0 -147510.68886448204 70349.14091787301 0 70349.14091787301 183515.01680606045 0 0 0 0 -22838861.385744333 -26841187.633096695 0 -26841187.633096695 -1627299.1701140404 0 0 0 0 -18594241.920672417 -7941683.9970035553 0 -7941683.9970035553 29450897.734037399 0 0 0 0 -13755649.052269697 16086532.071153641 0 16086532.071153641 37613268.760360718 0 0 0 0 -9996048.3172141314 17474193.673048019 0 17474193.673048019 37522205.110664368 0 0 0 0 -1688074.4512480497 17511633.947994232 0 17511633.947994232 29372563.968395233 0 0 0 0 1575790.5383655131 25351725.613267899 0 25351725.613267899 34170021.355201721 0 0 0 0 -6438124.8344402313 13820788.811634064 0 13820788.811634064 19177936.273662567 0 0 0 0 -13990539.717447042 12138771.286056519 0 12138771.286056519 30703501.065162659 0 0 0 0 -13625730.073828459 10503310.298873901 0 10503310.298873901 36173373.416764736 0 0 0 0 5188812.9004669189 13685359.036067963 0 13685359.036067963 28626541.92420578 0 0 0 0 -13251414.725001097 19351059.604667664 0 19351059.604667664 27109903.668905258 0 0 0 0 -11868874.139031783 10375852.938146591 0 10375852.938146591 28487529.095649719 0 0 0 0 -3697825.6130904257 17010553.021254063 0 17010553.021254063 18436555.180809021 0 0 0 0 -5169610.9205348492 10929530.33549881 0 10929530.33549881 23057597.678695679 0 0 0 0 -75554.199456790229 909.13123642839491 0 909.13123642839491 600825.62390795257 0 0 0 0 -2149438.7408480644 5261262.486582756 0 5261262.486582756 5077968.7546882629 0 0 0 0 -4670364.1273727417 8678917.6624794006 0 8678917.6624794006 29695250.464202881 0 0 0 0 -1367203.3702316284 3186616.8152999878 0 3186616.8152999878 25735941.203659058 0 0 0 0 77646.979587078094 6635485.8257102966 0 6635485.8257102966 16079848.777328491 0 0 0 0 255705.99796390533 6099446.99426651 0 6099446.99426651 15802661.990787506 0 0 0 0 3571053.7889049351 14833617.349639893 0 14833617.349639893 18836188.852622986 0 0 0 0 -542426.64668083913 686359.03975754231 0 686359.03975754231 2784082.5479638241 0 0 0 0 6039681.6063776016 8287884.9879570007 0 8287884.9879570007 14970635.349311829 0 0 0 0 -489448.03159292089 1082184.8589167539 0 1082184.8589167539 2220825.3285916224 0 0 0 0 609937.43566417694 8632631.6094284058 0 8632631.6094284058 21326558.010604858 0 0 0 0 570751.46015876438 4917726.2024205066 0 4917726.2024205066 -1540710.8750532595 0 0 0 0 2435620.8996804357 15864122.357243538 0 15864122.357243538 19041441.749778748 0 0 0 0 328056.38716840744 3606794.6959724426 0 3606794.6959724426 13965814.321979523 0 0 0 0 897287.82165837288 -1383376.6124801636 0 -1383376.6124801636 -1664900.518081665 0 0 0 0 -1832115.4924972276 1318744.7800909523 0 1318744.7800909523 8444655.3989157006 0 0 0 0 3226386.2249435186 11292004.041786194 0 11292004.041786194 -8362276.2885742188 0 0 0 0 -5150730.1490001082 7103593.1520729065 0 7103593.1520729065 49456286.628501892 0 0 0 0 1573138.2794204652 10510367.039064407 0 10510367.039064407 23668715.166854858 0 0 0 0 6186883.1726760864 450957.13880157471 0 450957.13880157471 54939013.845966339 0 0 0 0 -5877896.7730417252 20386702.585952759 0 20386702.585952759 26509854.760375977 0 0 0 0 -2523533.779142037 5475442.1565532684 0 5475442.1565532684 30433951.201324463 0 0 0 0 -7573080.9427444935 14026349.93510437 0 14026349.93510437 53549561.1459198 0 0 0 0 10512842.097162724 23034146.600563049 0 23034146.600563049 22759277.656417847 0 0 0 0 725629.11106028489 5060479.2272688653 0 5060479.2272688653 3294306.7840484525 0 0 0 0 -686073.87746238708 11534409.055046082 0 11534409.055046082 -11838519.884368896 0 0 0 0 994944.00176042318 2432505.8853378296 0 2432505.8853378296 13266420.966781616 0 0 0 0 4067038.6514568329 6621963.5124511719 0 6621963.5124511719 6727097.8295059204 0 0 0 0 -17679422.954581738 23538558.573608398 0 23538558.573608398 26190929.363995552 0 0 0 0 -18763917.498450756 10286987.579391479 0 10286987.579391479 29127757.18919754 0 0 0 0 -426187.55055133038 9748.9627368692309 0 9748.9627368692309 1052325.8492671978 0 0 0 0 15425705.84228313 24933716.104316711 0 24933716.104316711 -8392583.4238319397 0 0 0 0 -9457730.9193257093 27065759.462432861 0 27065759.462432861 36807123.815231323 0 0 0 0 1021809.120799527 4950400.910852138 0 4950400.910852138 2963139.5568241109 0 0 0 0 2666340.7877161503 800044.74188232422 0 800044.74188232422 -23057341.13442111 0 0 0 0 21156463.916494668 -374644.56268310547 0 -374644.56268310547 -24976048.501911163 0 0 0 0 3488899.2808462381 4763020.205871582 0 4763020.205871582 8918835.8630599976 0 0 0 0 -22031427.35322988 9594621.3048400879 0 9594621.3048400879 154251228.32476044 0 0 0 0 -9889870.8156027794 62725926.301940918 0 62725926.301940918 61309428.360916138 0 0 0 0 16229787.634345531 42042042.073066711 0 42042042.073066711 65090665.741189957 0 0 0 0 10465787.29488492 7443633.6494903564 0 7443633.6494903564 154044261.58810425 0 0 0 0 2407432.2746647596 3438307.282951355 0 3438307.282951355 54778500.441040039 0 0 0 0 23774644.584260821 6927773.208694458 0 6927773.208694458 55324581.001243591 0 0 0 0 498299.31391084346 137947.95787171647 0 137947.95787171647 437931.08907002211 0 0 0 0 -7651409.2545172274 11034048.342185974 0 11034048.342185974 96998521.409301758 0 0 0 0 -19512260.199716896 -16379563.995422363 0 -16379563.995422363 130651242.42334366 0 0 0 0 78268813.45967716 -61956380.329483032 0 -61956380.329483032 142835802.39837646 0 0 0 0 234731.11348684065 4878.8942961618304 0 4878.8942961618304 98296.564705130644 0 0 0 0 210018441.80179143 51469372.879123688 0 51469372.879123688 -191087616.51643372 0 0 0 0 -67278106.897169828 -2942805.1526031494 0 -2942805.1526031494 322160850.84374237 0 0 0 0 58112627.126354553 20213345.487297058 0 20213345.487297058 35369047.565559387 0 0 0 0 -77950213.156858206 -11007621.348831177 0 -11007621.348831177 41477050.416870117 0 0 0 0 -46505727.261209607 82170479.697105885 0 82170479.697105885 -72691294.926673889 0 0 0 0 -30463812.123666048 7457677.8325462341 0 7457677.8325462341 13761165.705879211 0 0 0 0 636380.61151550664 246261.41670402326 0 246261.41670402326 988746.27960663848 0 0 0 0 -8438238.760445118 16548436.787845612 0 16548436.787845612 -33821558.705909729 0 0 0 0 -2861584.0745413601 -6545149.3675537109 0 -6545149.3675537109 72237241.690483093 0 0 0 0 -9202957.0439996123 15136162.076782227 0 15136162.076782227 60845583.004425049 0 0 0 0 7691893.1759523749 -2503644.1522979736 0 -2503644.1522979736 61711117.225852966 0 0 0 0 6161379.0841630101 -25479452.937065125 0 -25479452.937065125 94193673.956390381 0 0 0 0 -30709490.658007979 944886.248462677 0 944886.248462677 24328792.506816864 0 0 0 0 -13376384.038718939 -8061662.0117034912 0 -8061662.0117034912 28996609.822639465 0 0 0 0 -12874137.524163723 -3244679.0520553589 0 -3244679.0520553589 19812856.618019104 0 0 0 0 -13500458.417613983 5136861.1305923462 0 5136861.1305923462 29014876.971763611 0 0 0 0 -11163053.011197239 10782644.86277914 0 10782644.86277914 21382697.783660889 0 0 0 0 -33565691.23028475 15397704.00213623 0 15397704.00213623 9750735.0506134033 0 0 0 0 -13939914.078520536 3286224.5309906006 0 3286224.5309906006 7550629.1435241699 0 0 0 0 -54059300.291382641 -5723504.3835868835 0 -5723504.3835868835 57079514.945922852 0 0 0 0 -44675655.012910068 10613859.677192688 0 10613859.677192688 19799217.384033203 0 0 0 0 -34975529.554994702 -32010022.555770874 0 -32010022.555770874 84288245.361785889 0 0 0 0 15910206.046178773 -24777425.432102203 0 -24777425.432102203 35842638.472007751 0 0 0 0 -17704903.546979994 -10792468.46787262 0 -10792468.46787262 31742094.36290741 0 0 0 0 -18804786.455210276 -24375790.56030035 0 -24375790.56030035 40127227.657852173 0 0 0 0 -23796312.866002798 -15265980.451004028 0 -15265980.451004028 27854355.779495239 0 0 0 0 4943605.1578836665 -16552304.553115845 0 -16552304.553115845 19278719.127189636 0 0 0 0 -29597062.123132586 -7034186.8956332207 0 -7034186.8956332207 37444193.416427612 0 0 0 0 -33082074.137095451 -14105662.386810303 0 -14105662.386810303 33015920.863739014 0 0 0 0 -33171667.24975431 -12506759.490486145 0 -12506759.490486145 31119645.086280823 0 0 0 0 -21258825.348091602 -10568149.705230713 0 -10568149.705230713 26545845.612953186 0 0 0 0 -34735342.798916459 -14251648.944839478 0 -14251648.944839478 29551590.917388916 0 0 0 0 -43170533.927931741 3319031.8536643982 0 3319031.8536643982 12916566.109222412 0 0 0 0 -17863174.849904656 7538204.3845367432 0 7538204.3845367432 12911442.556259155 0 0 0 0 -20465408.02159781 79206417.674438477 0 79206417.674438477 -168985.91107177734 0 0 0 0 -62579549.10461688 35194283.686897278 0 35194283.686897278 7277160.7582817078 0 0 0 0 -22578561.854644865 8970388.6097106934 0 8970388.6097106934 -4188301.2810668945 0 0 0 0 -46374735.314144194 10746532.722885132 0 10746532.722885132 37675580.876403809 0 0 0 0 -14343.554532405637 -46203.826533218846 0 -46203.826533218846 -181030.06310479715 0 0 0 0 -93263679.625366583 89255047.984985352 0 89255047.984985352 4214546.116317749 0 0 0 0 44522899.335234605 -93431324.251487732 0 -93431324.251487732 -160711317.53620911 0 0 0 0 -155892878.50863332 28898161.128410339 0 28898161.128410339 34787982.305084229 0 0 0 0 -15543750.800080121 43289755.448982239 0 43289755.448982239 -113734202.36905098 0 0 0 0 -68482130.376039237 -73140826.226596832 0 -73140826.226596832 9842804.3040161133 0 0 0 0 -140460.8490518608 67189.086135832593 0 67189.086135832593 409694.11993678659 0 0 0 0 -19149218.779902518 85846473.652641296 0 85846473.652641296 -323008665.10911942 0 0 0 0 -21792235.558038414 640758.99276351929 0 640758.99276351929 42094704.661056519 0 0 0 0 130348.46088537935 2027004.3537757751 0 2027004.3537757751 930063.21250048093 0 0 0 0 -743696.12422488269 -1472960.1143386904 0 -1472960.1143386904 1255441.3393325489 0 0 0 0 171770.8906621933 88523.497108459473 0 88523.497108459473 6331259.8751487732 0 0 0 0 -3111533.1450459957 -4940382.0858306885 0 -4940382.0858306885 28890161.425796509 0 0 0 0 -22507225.953676343 -6527033.6196937561 0 -6527033.6196937561 34511577.202972412 0 0 0 0 6762146.3010320663 16380733.431892395 0 16380733.431892395 35966905.150894165 0 0 0 0 -1313727.093141905 -1065445.3536188565 0 -1065445.3536188565 2077567.3778467253 0 0 0 0 3251942.599802494 16533810.567979813 0 16533810.567979813 37454524.866378784 0 0 0 0 -1412783.9528141022 -1726492.2461700439 0 -1726492.2461700439 32827180.100692749 0 0 0 0 -931614.72419813275 12349042.139331818 0 12349042.139331818 46173133.520523071 0 0 0 0 -452874.32674312592 800982.01206970215 0 800982.01206970215 5841494.6581878662 0 0 0 0 -546593.71968066692 1083113.3629140854 0 1083113.3629140854 6300336.0514221191 0 0 0 0 95218.960173466825 2249863.467270406 0 2249863.467270406 1726965.5369118908 0 0 0 0 -3805474.1369562149 26486588.431088448 0 26486588.431088448 -87766250.577713013 0 0 0 0 -1597637.0885944366 15347810.609111786 0 15347810.609111786 -67773144.755897522 0 0 0 0 -10148398.867050365 12296916.39676857 0 12296916.39676857 -56053016.184364319 0 0 0 0 -42923842.553415537 4709844.3363265991 0 4709844.3363265991 -57442209.204849243 0 0 0 0 -1489879.3390946165 7072147.8653850555 0 7072147.8653850555 -68548993.837905884 0 0 0 0 -9196365.372992754 20250066.416671753 0 20250066.416671753 -34525167.817337036 0 0 0 0 14961308.624939084 19967289.024570465 0 19967289.024570465 -67871365.702095032 0 0 0 0 13418236.898962498 12883899.231082916 0 12883899.231082916 -32367683.88369751 0 0 0 0 -3007772.2463294268 4098373.4615821838 0 4098373.4615821838 -5939469.4900360107 0 0 0 0 -4441813.0507392883 28210630.753520966 0 28210630.753520966 954634.88423919678 0 0 0 0 12218813.330408849 21487194.529130697 0 21487194.529130697 3270158.7681503296 0 0 0 0 -13306805.275750637 -30494306.00623703 0 -30494306.00623703 6985883.1725921631 0 0 0 0 -17944037.644472249 9618147.6165847778 0 9618147.6165847778 11430035.946350098 0 0 0 0 -41939636.091868043 34763059.193714142 0 34763059.193714142 -23159539.433647156 0 0 0 0 7806583.2196094096 -1967253.0976219177 0 -1967253.0976219177 -14363637.574972153 0 0 0 0 -42197729.798575655 -46051920.860085525 0 -46051920.860085525 -52869763.807830811 0 0 0 0 -65342.411659052806 -59286.030742866918 0 -59286.030742866918 -53115.440572243184 0 0 0 0 -54169597.158977427 67532544.232757568 0 67532544.232757568 -45133607.378715515 0 0 0 0 -23756398.370995693 -34568524.767868042 0 -34568524.767868042 19333901.98513031 0 0 0 0 -107622073.67383879 81725284.481300354 0 81725284.481300354 45015689.321861267 0 0 0 0 -15854943.918913126 54333540.123931885 0 54333540.123931885 -55339695.091278076 0 0 0 0 -94563211.458637819 150160630.05176926 0 150160630.05176926 -22045677.629806519 0 0 0 0 86721915.897392139 17995194.459724426 0 17995194.459724426 -51050189.150001526 0 0 0 0 2731195.8359511718 300447.4767036438 0 300447.4767036438 -40689336.683609009 0 0 0 0 -48659748.744949907 -12389463.268772125 0 -12389463.268772125 -5428817.1595153809 0 0 0 0 4528.979778333759 -70420.281789311965 0 -70420.281789311965 -12373.205379277468 0 0 0 0 5350.9578288385819 -211404.24172280217 0 -211404.24172280217 -4751.404725164175 0 0 0 0 91458937.54904601 -18690445.895401001 0 -18690445.895401001 -47347755.52796936 0 0 0 0 12407408.947718954 26977271.513860703 0 26977271.513860703 32238887.529754639 0 0 0 0 5861790.6018169764 -15283299.372334003 0 -15283299.372334003 16770647.936721802 0 0 0 0 43687248.595718265 -49838796.577877045 0 -49838796.577877045 -4336214.8695030212 0 0 0 0 -45596574.423505925 -7225469.3778476119 0 -7225469.3778476119 44586981.627449036 0 0 0 0 40388260.084249705 -53592637.045764923 0 -53592637.045764923 5288944.9417800903 0 0 0 0 -7373.894068741205 -300135.74739523395 0 -300135.74739523395 25161.935949411243 0 0 0 0 22982057.195326746 3217950.7925987244 0 3217950.7925987244 542639.63592529297 0 0 0 0 42865717.913815707 -19173518.409439087 0 -19173518.409439087 -250993.57643127441 0 0 0 0 34555475.54590115 -26079315.563285828 0 -26079315.563285828 -477395.96878051758 0 0 0 0 9805926.7334417552 -28445848.691398621 0 -28445848.691398621 8786994.9901046753 0 0 0 0 -30108.620577285619 -27863.05544386059 0 -27863.05544386059 96210.321758361184 0 0 0 0 101054120.9783006 -61153642.491727829 0 -61153642.491727829 37256058.42641449 0 0 0 0 36250751.584064364 -37855040.587226868 0 -37855040.587226868 -98176213.637422085 0 0 0 0 57928112.646461606 -72688785.455383301 0 -72688785.455383301 8098332.0516626835 0 0 0 0 32623696.348597407 -64735238.429920197 0 -64735238.429920197 8312804.360929966 0 0 0 0 93125052.464506209 31155578.854255676 0 31155578.854255676 65425865.129085541 0 0 0 0 38756672.065034479 -91679211.83098793 0 -91679211.83098793 108604343.96540833 0 0 0 0 26325614.444787264 -7527402.0504302979 0 -7527402.0504302979 45401265.639808655 0 0 0 0 28468180.653350949 -6448337.7897262573 0 -6448337.7897262573 -9942228.216053009 0 0 0 0 2427861.5108061135 24569672.792446136 0 24569672.792446136 5553439.0726242065 0 0 0 0 79577990.60616231 3657813.0337142944 0 3657813.0337142944 -629786.76103210449 0 0 0 0 41985509.192789435 10175593.762672424 0 10175593.762672424 5522272.5311355591 0 0 0 0 37705851.184351303 19791543.513628006 0 19791543.513628006 169975.2919921875 0 0 0 0 53755662.800477624 7493210.1220169067 0 7493210.1220169067 -3499788.8265800476 0 0 0 0 41110399.87853542 23697169.359231949 0 23697169.359231949 538065.95016479492 0 0 0 0 36235336.97275342 34366801.473834991 0 34366801.473834991 1791213.4530549049 0 0 0 0 28783069.155863591 15912355.34513855 0 15912355.34513855 -11843146.228393555 0 0 0 0 62475081.173297554 34752154.549163818 0 34752154.549163818 -16499460.431975365 0 0 0 0 40566782.979981706 28964444.910095215 0 28964444.910095215 -14119099.518798828 0 0 0 0 38833706.326056451 781469.17633056641 0 781469.17633056641 -21052959.904464722 0 0 0 0 29678428.16834195 19598834.135559082 0 19598834.135559082 -36476066.034152985 0 0 0 0 11850455.009489082 -16450222.827568054 0 -16450222.827568054 -14610963.96988678 0 0 0 0 -25356221.461859748 57581096.780784607 0 57581096.780784607 -10517008.337623596 0 0 0 0 -3519350.0847974569 12620655.362377167 0 12620655.362377167 -20984811.992488861 0 0 0 0 -5615222.3524471521 65393410.90647316 0 65393410.90647316 -42184636.218994141 0 0 0 0 85495.108769838582 55145.070254163817 0 55145.070254163817 -142860.01770880073 0 0 0 0 -3278194.3674377128 10457319.613945007 0 10457319.613945007 -2352128.5060272217 0 0 0 0 33638319.170443915 992193.31533050537 0 992193.31533050537 -9297945.4400024414 0 0 0 0 52932.422814982827 50237.711825706065 0 50237.711825706065 -31445.757243588567 0 0 0 0 -103650385.95943928 121178238.00501537 0 121178238.00501537 66207161.604530334 0 0 0 0 107290498.2966494 26465942.843700409 0 26465942.843700409 -1171277.1217193604 0 0 0 0 11008341.465977926 16557325.256588936 0 16557325.256588936 -66475886.98878479 0 0 0 0 -20472992.030524909 -23355345.014648438 0 -23355345.014648438 660997.03938293457 0 0 0 0 60467470.252778798 14697041.423908234 0 14697041.423908234 15944781.488433838 0 0 0 0 6347835.8588073403 -4307928.4061775208 0 -4307928.4061775208 119031562.97076416 0 0 0 0 75455748.193608224 -34716601.451454163 0 -34716601.451454163 80752817.910720825 0 0 0 0 60709391.322708122 81283876.535237312 0 81283876.535237312 284106248.57998657 0 0 0 0 52837803.788844377 18584263.268074036 0 18584263.268074036 55379115.888137817 0 0 0 0 72615917.414006293 143077283.7195341 0 143077283.7195341 60232171.342201233 0 0 0 0 -26140788.713081636 486832.45239830017 0 486832.45239830017 178489495.77611542 0 0 0 0 11468691.027141459 10679971.849975586 0 10679971.849975586 45194474.344650269 0 0 0 0 53657031.530874759 79953654.537452698 0 79953654.537452698 86468764.949558973 0 0 0 0 -2878241.6809302904 14870327.081298828 0 14870327.081298828 86777492.097412109 0 0 0 0 3379910.8547313139 20170141.167724609 0 20170141.167724609 60490592.742530823 0 0 0 0 236700.37357689813 8666915.3712978363 0 8666915.3712978363 37279457.006484985 0 0 0 0 18182251.277936339 25829204.791484833 0 25829204.791484833 23025100.047912598 0 0 0 0 25904988.03286273 39593447.721206665 0 39593447.721206665 45673396.506687164 0 0 0 0 31427994.666566379 30076960.060230255 0 30076960.060230255 22413403.947868347 0 0 0 0 39664476.029500708 43780803.181728363 0 43780803.181728363 26101129.118804932 0 0 0 0 28231503.26495751 39845667.806495667 0 39845667.806495667 25532340.045562744 0 0 0 0 -234526.0531385392 11488434.881225586 0 11488434.881225586 6932562.1522750854 0 0 0 0 15234753.987843916 9587200.1006469727 0 9587200.1006469727 12869659.204891205 0 0 0 0 19765111.190207258 18632684.669612885 0 18632684.669612885 16719014.29863739 0 0 0 0 18369860.369616881 19214426.238521576 0 19214426.238521576 39178556.984359741 0 0 0 0 4706177.5259092823 4680681.5178985596 0 4680681.5178985596 40164405.879631042 0 0 0 0 5514137.3465928584 -1994218.0826950073 0 -1994218.0826950073 30455151.502365112 0 0 0 0 -1268.4382719771238 17059.090277766809 0 17059.090277766809 53857.350510270335 0 0 0 0 7916119.3323557097 -9818948.9612817764 0 -9818948.9612817764 -9262738.0623016357 0 0 0 0 8715.9693327764217 -20297.336404809728 0 -20297.336404809728 32552.20989330858 0 0 0 0 -1463339.7147814818 -19121933.027434349 0 -19121933.027434349 2951964.6075439453 0 0 0 0 376455.41360616498 12800821.25292778 0 12800821.25292778 23006100.860443115 0 0 0 0 -526272.85311461985 14883324.795951843 0 14883324.795951843 36336500.410272598 0 0 0 0 -2465503.6670017093 5296362.2116622925 0 5296362.2116622925 8755669.9171631336 0 0 0 0 -7876264.8567615543 5515161.5824661255 0 5515161.5824661255 24168297.976608276 0 0 0 0 15077.066468275872 -43990.262148439884 0 -43990.262148439884 71399.224962253124 0 0 0 0 -11883733.733949555 -9177912.9727783203 0 -9177912.9727783203 8461853.7559015751 0 0 0 0 -10284049.405608559 -8823229.5520658493 0 -8823229.5520658493 9673575.0757369995 0 0 0 0 9333302.7550719231 -1515044.7507247925 0 -1515044.7507247925 8296540.2697229385 0 0 0 0 -3544503.9733542129 8864399.1236038208 0 8864399.1236038208 33645627.625495911 0 0 0 0 4155945.5483582169 -13197919.831554413 0 -13197919.831554413 53480405.091247559 0 0 0 0 26330715.669160545 -4414405.3837852478 0 -4414405.3837852478 29351252.434585571 0 0 0 0 4344153.3410335071 10318959.813534737 0 10318959.813534737 20219808.405082703 0 0 0 0 15089020.486705855 3065704.4823265076 0 3065704.4823265076 10799611.320777893 0 0 0 0 24949758.655675642 19253273.247749329 0 19253273.247749329 9586412.5459289551 0 0 0 0 39945074.63814646 14844061.969055176 0 14844061.969055176 9895649.105257988 0 0 0 0 23290589.768173039 7415456.5455131531 0 7415456.5455131531 13975907.001358032 0 0 0 0 42681869.410483479 -6238124.8161277771 0 -6238124.8161277771 23404554.405502319 0 0 0 0 55566940.62334466 -26409405.61505127 0 -26409405.61505127 38219338.321380615 0 0 0 0 43322208.675143421 -11396490.499134064 0 -11396490.499134064 19897407.377269745 0 0 0 0 28218439.499217182 -26356869.588550568 0 -26356869.588550568 54878107.021965027 0 0 0 0 3517044.7667710036 -16841547.086837769 0 -16841547.086837769 61152053.713310242 0 0 0 0 106106185.32476996 -46575033.48677969 0 -46575033.48677969 33065879.495628357 0 0 0 0 33913339.114234388 -58305883.05206871 0 -58305883.05206871 115550230.50210571 0 0 0 0 -3363807.4557761252 20161068.266040802 0 20161068.266040802 119523335.48055696 0 0 0 0 9622772.837587662 1669510.6514797211 0 1669510.6514797211 30902864.205574036 0 0 0 0 -34791.548261198943 -36992.711378863081 0 -36992.711378863081 206502.92220274918 0 0 0 0 44735.285550824919 -89522.35782918334 0 -89522.35782918334 137670.10490195826 0 0 0 0 758179.80252924562 142950.06332397461 0 142950.06332397461 39134982.178518295 0 0 0 0 -8933.8211630166916 -3754.2513135820627 0 -3754.2513135820627 108328.0982901596 0 0 0 0 -6020270.3814162761 5451984.2551059723 0 5451984.2551059723 66459372.217269897 0 0 0 0 -1525863.5698554441 -12105059.524061203 0 -12105059.524061203 57385598.601226807 0 0 0 0 2362367.5003066361 -17229002.840164185 0 -17229002.840164185 64064146.720104694 0 0 0 0 4837969.3676225841 -5421542.8973312378 0 -5421542.8973312378 36258785.033111572 0 0 0 0 -1841887.6760454103 -13998396.516864777 0 -13998396.516864777 57371540.745872498 0 0 0 0 244642.17075470556 -18115200.145587921 0 -18115200.145587921 62260272.211601257 0 0 0 0 9800364.7268494852 -5646825.2106399536 0 -5646825.2106399536 46765041.000095367 0 0 0 0 8684015.7762411516 -16373811.077411652 0 -16373811.077411652 54417079.165317535 0 0 0 0 -314997.71344126388 -7035268.5539512634 0 -7035268.5539512634 48388399.874885559 0 0 0 0 908070.24759675935 -9350110.5352621078 0 -9350110.5352621078 48730615.147895813 0 0 0 0 -1455560.6564021762 2045169.8186607361 0 2045169.8186607361 45088409.833526611 0 0 0 0 1383380.8272588104 -7638745.1635971069 0 -7638745.1635971069 50496103.479507446 0 0 0 0 231127.78962828172 -1804223.354288578 0 -1804223.354288578 42941720.665840149 0 0 0 0 269086.78234758601 -3365099.7805328369 0 -3365099.7805328369 41285428.56092453 0 0 0 0 -1101032.3947900347 1851741.7450790405 0 1851741.7450790405 38207656.358016968 0 0 0 0 2299959.5076207295 -1088901.733001709 0 -1088901.733001709 35963896.68637085 0 0 0 0 -1321.1166642782518 -2305.0169785711914 0 -2305.0169785711914 55848.923766493448 0 0 0 0 -2231243.843893074 5236970.2184448242 0 5236970.2184448242 24341617.708190918 0 0 0 0 -2331020.2791597806 55151.397216796875 0 55151.397216796875 35667532.802124023 0 0 0 0 1025649.3846228644 649876.77982330322 0 649876.77982330322 32743063.414944649 0 0 0 0 200.00465093193088 -2891.941508801654 0 -2891.941508801654 18723.001823082217 0 0 0 0 -1836240.3295406327 -1288881.9614105225 0 -1288881.9614105225 6178808.252702713 0 0 0 0 648157.0121715843 -445087.46685934067 0 -445087.46685934067 35198656.992095947 0 0 0 0 -3370692.9162380346 -3606773.6799316406 0 -3606773.6799316406 42601900.189525604 0 0 0 0 -1448.7224506649836 -3655745.3299179077 0 -3655745.3299179077 34564677.79114151 0 0 0 0 715777.68346226588 -2058447.0519599915 0 -2058447.0519599915 43180680.208963394 0 0 0 0 -4605.8865375706773 -5355992.2689819336 0 -5355992.2689819336 47073295.738777161 0 0 0 0 809238.45808618143 -6239260.3250846863 0 -6239260.3250846863 45778887.879364014 0 0 0 0 2473.978000489743 -5009339.2653503418 0 -5009339.2653503418 45125135.351352692 0 0 0 0 3698373.6992633967 -8030834.3993225098 0 -8030834.3993225098 33918139.497428894 0 0 0 0 1199661.3318803171 -4735590.7409248352 0 -4735590.7409248352 51487675.309539795 0 0 0 0 9523067.2919480149 -16846675.320140719 0 -16846675.320140719 31695227.032936096 0 0 0 0 9647219.2270451672 -14931432.471147537 0 -14931432.471147537 -8269914.0167961121 0 0 0 0 -6186926.7661147341 2931407.7318315506 0 2931407.7318315506 71373929.083641052 0 0 0 0 6125.3500033925884 -22716.994455961511 0 -22716.994455961511 41006.725460618734 0 0 0 0 4494825.7859889325 -11959946.965812683 0 -11959946.965812683 50114329.9641819 0 0 0 0 16866262.569917925 -3006728.028137207 0 -3006728.028137207 13731561.475135803 0 0 0 0 -12192799.383992348 1251129.5046752691 0 1251129.5046752691 23627853.000785828 0 0 0 0 1255942.701780932 2488794.3174962997 0 2488794.3174962997 26981624.055831909 0 0 0 0 -2597841.8602357656 8232860.2590827942 0 8232860.2590827942 18619000.539470673 0 0 0 0 615674.89556536824 3711787.105430603 0 3711787.105430603 48333818.631164551 0 0 0 0 -2435194.6882996783 -4526016.6118087769 0 -4526016.6118087769 38737640.660873413 0 0 0 0 13995877.98214988 5217280.9171943665 0 5217280.9171943665 32634390.872968674 0 0 0 0 1268.9862010662823 -318007.27515411377 0 -318007.27515411377 33184152.147834778 0 0 0 0 941959.41182648274 -7583970.3555450439 0 -7583970.3555450439 24584780.734828949 0 0 0 0 4133298.215375822 -3553616.4108524323 0 -3553616.4108524323 34731323.691925049 0 0 0 0 -8801.5889511108398 9590151.0065536499 0 9590151.0065536499 -4871178.8654670715 0 0 0 0 -624669.13820075989 12816136.118041992 0 12816136.118041992 471710.74749755859 0 0 0 0 7462055.1234502792 14064648.746875763 0 14064648.746875763 439926.81890547276 0 0 0 0 -6132646.237197876 15291248.791072845 0 15291248.791072845 6303304.107170105 0 0 0 0 -6430612.373650074 14878637.517402649 0 14878637.517402649 7915368.658493042 0 0 0 0 -7695307.3281011581 11397090.728630066 0 11397090.728630066 6637972.2635574341 0 0 0 0 -4028085.8804731369 11861822.671440125 0 11861822.671440125 2165015.9700088501 0 0 0 0 -3689291.6786060333 11590887.912704468 0 11590887.912704468 261548.37868499756 0 0 0 0 -88760.994994811714 16518222.025385469 0 16518222.025385469 3230199.9004058838 0 0 0 0 -5864291.0920753479 10557285.839241028 0 10557285.839241028 2542969.9062690735 0 0 0 0 34593817.465272903 -36221120.323158264 0 -36221120.323158264 -73072430.940063477 0 0 0 0 21671.917270645965 3285176.6359833842 0 3285176.6359833842 4185494.1716295369 0 0 0 0 -4364400.8749885559 10803177.259750366 0 10803177.259750366 2582111.0509719849 0 0 0 0 -10039373.968429565 12214010.411823273 0 12214010.411823273 -11755524.831352234 0 0 0 0 -4147289.7465953827 -3436820.8566474915 0 -3436820.8566474915 29720621.938064575 0 0 0 0 37323346.701507568 -168923943.18460083 0 -168923943.18460083 13676674.412446976 0 0 0 0 22554166.109054565 8255675.1375007629 0 8255675.1375007629 -5688094.7446937561 0 0 0 0 12190342.292962074 -299888.00381088257 0 -299888.00381088257 159029056.54767609 0 0 0 0 11780539.877441406 1288015.1725082397 0 1288015.1725082397 167473315.65678406 0 0 0 0 24242164.89401257 139389361.75940657 0 139389361.75940657 -8082176.4508113861 0 0 0 0 -35910053.840515137 32564031.395904541 0 32564031.395904541 383915426.83570862 0 0 0 0 -10307660.7852211 -230053440.05216217 0 -230053440.05216217 113395562.52304268 0 0 0 0 -79594612.042003632 -212599444.27174377 0 -212599444.27174377 300426879.54585838 0 0 0 0 -7666882.3783035278 2811409.8051452637 0 2811409.8051452637 -5042252.9573800564 0 0 0 0 -3648531.8250465393 10198790.199043274 0 10198790.199043274 1402532.0492401123 0 0 0 0 1571607.7097897865 4959906.3117256835 0 4959906.3117256835 5451521.4001253089 0 0 0 0 9907825.4406247139 4767724.0015411377 0 4767724.0015411377 -26762472.028049469 0 0 0 0 -5311394.6672578277 1306866.8746949947 0 1306866.8746949947 10293707.157559851 0 0 0 0 -28933175.062931061 -14262257.202100754 0 -14262257.202100754 47351101.663980484 0 0 0 0 -1900665.3984671831 5509859.7518825531 0 5509859.7518825531 10167610.842418671 0 0 0 0 -1119471.706408483 6536351.9618700705 0 6536351.9618700705 5048926.0371167539 0 0 0 0 -3675696.946080178 -694014.56283534318 0 -694014.56283534318 12007364.913902253 0 0 0 0 8126764.8894281387 -25938248.037138224 0 -25938248.037138224 -41006384.89679718 0 0 0 0 11800217.184000015 19474868.249759674 0 19474868.249759674 -7651997.8574142456 0 0 0 0 11427985.372365952 12317187.907546997 0 12317187.907546997 -21392540.089679718 0 0 0 0 1092936.012339592 12511789.736991882 0 12511789.736991882 7845772.0947990417 0 0 0 0 21269896.225717545 20414663.253278732 0 20414663.253278732 9505773.2404708862 0 0 0 0 79882967.795868635 -27195330.033625603 0 -27195330.033625603 8996680.7442779541 0 0 0 0 -7881541.208032608 3905490.181552887 0 3905490.181552887 278299.66078948975 0 0 0 0 -11452101.714439392 -9460112.2614154816 0 -9460112.2614154816 133374220.80602264 0 0 0 0 -6513976.4260854721 995745.56097793579 0 995745.56097793579 97334612.124923706 0 0 0 0 47139361.258826256 60735057.074482918 0 60735057.074482918 69667810.856124878 0 0 0 0 -8079052.1501178741 -8782271.3135604858 0 -8782271.3135604858 36651109.356903076 0 0 0 0 -9636900.3817129135 12696354.508113861 0 12696354.508113861 58573747.905056 0 0 0 0 -349732.25567483902 22375891.778860092 0 22375891.778860092 12635161.279090881 0 0 0 0 -10786431.729358673 13903522.780506134 0 13903522.780506134 22496428.588275909 0 0 0 0 -9509135.4962220192 6855736.1716785431 0 6855736.1716785431 17137615.066253662 0 0 0 0 -13288948.080018997 5689557.9836425781 0 5689557.9836425781 23510917.175590515 0 0 0 0 -15760449.735390663 -1497243.893863678 0 -1497243.893863678 4194687.7591896057 0 0 0 0 25100794.510870934 32957155.306983948 0 32957155.306983948 20180147.817511559 0 0 0 0 -2087458.686604023 3602859.765542984 0 3602859.765542984 13859945.240259171 0 0 0 0 -17080811.525232315 6173222.0410289764 0 6173222.0410289764 7022635.3400650024 0 0 0 0 -938601.15902745142 2096186.0372039652 0 2096186.0372039652 2190270.2960637994 0 0 0 0 -12426641.833329201 10191349.530723572 0 10191349.530723572 8228044.1069602966 0 0 0 0 -12111971.313130617 9665431.0885047913 0 9665431.0885047913 9071757.6062088013 0 0 0 0 19657.239191036671 3489317.7689549052 0 3489317.7689549052 12383929.699969755 0 0 0 0 -43197431.619247437 72541395.377901077 0 72541395.377901077 40881831.37229538 0 0 0 0 6944337.1403646469 -989177.72067642212 0 -989177.72067642212 -18502711.39838028 0 0 0 0 14306578.985805035 -7012880.9220762253 0 -7012880.9220762253 -25144117.893249512 0 0 0 0 597798.32736267382 865156.59200428892 0 865156.59200428892 -1078502.7856617235 0 0 0 0 -37321062.657725811 10603110.693014622 0 10603110.693014622 16280214.726163864 0 0 0 0 -19487678.016963005 3845152.5617856979 0 3845152.5617856979 11125357.651179314 0 0 0 0 -27794520.774567127 -11353666.824007034 0 -11353666.824007034 20339368.077680588 0 0 0 0 -2744130.3747925758 -2866912.2150392532 0 -2866912.2150392532 7429162.9211292267 0 0 0 0 -1755095.9849128723 -15232076.754310608 0 -15232076.754310608 4315093.3032588959 0 0 0 0 -361846.69699573517 4154787.2126808167 0 4154787.2126808167 15185077.71308136 0 0 0 0 -447740.42123179324 2833397.9410473281 0 2833397.9410473281 11011913.171933182 0 0 0 0 -11200877.133888245 19674356.851091385 0 19674356.851091385 -1359125.3809585571 0 0 0 0 -3030969.0722092688 -27422.850905954838 0 -27422.850905954838 16124738.900671005 0 0 0 0 2237355.8151078224 -7308241.8517227173 0 -7308241.8517227173 23844788.211778641 0 0 0 0 -273706.39325701515 345958.66230596742 0 345958.66230596742 4874263.2192007024 0 0 0 0 -4347325.4897975922 3115937.9123811722 0 3115937.9123811722 20719887.758792877 0 0 0 0 3873524.4406125546 957080.15917873383 0 957080.15917873383 8217371.6622581482 0 0 0 0 3263012.6853899956 1001522.7296676636 0 1001522.7296676636 12624853.21607399 0 0 0 0 12231922.081847191 -9076118.1628742218 0 -9076118.1628742218 6625392.1144037247 0 0 0 0 7294518.1879901886 21853031.532289505 0 21853031.532289505 19520833.163532257 0 0 0 0 -5246212.1991488934 7473509.0187664032 0 7473509.0187664032 4339733.3170089722 0 0 0 0 1802633.507443428 12247653.488754272 0 12247653.488754272 2562900.6813440323 0 0 0 0 -8614550.9982562065 9370018.0744552612 0 9370018.0744552612 3391797.2856521606 0 0 0 0 -1466034.0839110264 1114494.4141105674 0 1114494.4141105674 2273611.0518669076 0 0 0 0 -9106234.5284714699 14415899.167877197 0 14415899.167877197 2186083.2802200317 0 0 0 0 -10233572.605958939 16318393.232574463 0 16318393.232574463 10582979.445324898 0 0 0 0 -428923.52086219098 5767837.5485538002 0 5767837.5485538002 -1205209.0830585882 0 0 0 0 -1890422.1836261749 7008729.2405281067 0 7008729.2405281067 3081281.7230033875 0 0 0 0 1215151.4613304138 7945571.6516952515 0 7945571.6516952515 -3386807.7922515869 0 0 0 0 344349.69678909425 4095768.5419488023 0 4095768.5419488023 1322260.8547954522 0 0 0 0 -685329.05147242546 3941229.6318497658 0 3941229.6318497658 121084.15747833252 0 0 0 0 -191057.17632490478 2573772.4944531303 0 2573772.4944531303 3724486.7410758641 0 0 0 0 -1540871.6460819244 487574.37345123291 0 487574.37345123291 3242522.1914730072 0 0 0 0 -801717.68404006958 1825842.1888542175 0 1825842.1888542175 803227.55843788385 0 0 0 0 -893157.80066394806 1874671.8691654205 0 1874671.8691654205 2328339.5822868347 0 0 0 0 -735820.58814954758 1384493.384513855 0 1384493.384513855 1543296.5205535889 0 0 0 0 -1141530.0663104942 661632.14679798484 0 661632.14679798484 4573370.6522477129 0 0 0 0 -381882.50593703776 1028021.8150616782 0 1028021.8150616782 11527835.414034231 0 0 0 0 -962189.41294240952 2161482.0730953217 0 2161482.0730953217 2956569.6138834953 0 0 0 0 -51694772.211372852 7557999.5404129028 0 7557999.5404129028 -18921724.788009644 0 0 0 0 369248.45148610044 2712284.7589331912 0 2712284.7589331912 -1279365.0452204589 0 0 0 0 -466190.16794442781 1123347.3377380632 0 1123347.3377380632 3304607.3324544518 0 0 0 0 -1150918.6555500031 5685552.0210418701 0 5685552.0210418701 2300536.4445953369 0 0 0 0 -611413.38856959343 969550.86535644531 0 969550.86535644531 1064983.1354827881 0 0 0 0 -1628882.4004937494 4637409.7604248505 0 4637409.7604248505 3759326.9914674293 0 0 0 0 -25580848.674983978 25631865.223262787 0 25631865.223262787 -20175678.792686462 0 0 0 0 -33908310.035927296 35169368.691786289 0 35169368.691786289 25667053.682113647 0 0 0 0 -1430496.8500781059 5431020.9655323029 0 5431020.9655323029 1631923.2492523193 0 0 0 0 -34678804.098867416 30364939.260639191 0 30364939.260639191 666597.17228507996 0 0 0 0 1483237.8542863876 2120466.2330638664 0 2120466.2330638664 -1897421.8412041869 0 0 0 0 1274837.1505374908 -795568.06772232056 0 -795568.06772232056 1324601.6775659323 0 0 0 0 -1533719.5757446438 -72304.598382860422 0 -72304.598382860422 512841.97904205322 0 0 0 0 -1370892.0350357704 3198654.0852191448 0 3198654.0852191448 3202544.9561460335 0 0 0 0 -484898.24485656805 457095.29720729962 0 457095.29720729962 4488169.4359944798 0 0 0 0 -1240271.2245092392 7628616.0553131104 0 7628616.0553131104 3434819.9564533234 0 0 0 0 154382.18153423455 157079.65076952055 0 157079.65076952055 -210187.6475427933 0 0 0 0 15520079.836255312 6279088.2562007904 0 6279088.2562007904 611396.36516571045 0 0 0 0 -1775527.6605167389 -240337.33442306519 0 -240337.33442306519 3086909.1143760681 0 0 0 0 -4745820.1011385918 4446503.8760986328 0 4446503.8760986328 9780625.7590503693 0 0 0 0 31128567.085445881 -4418365.4068088531 0 -4418365.4068088531 -2242181.1166496277 0 0 0 0 31263562.393512249 64184168.388879776 0 64184168.388879776 13180631.684150696 0 0 0 0 -38397884.619315147 17243591.726882935 0 17243591.726882935 83053820.395019531 0 0 0 0 -23998266.338229179 -7269366.6488685608 0 -7269366.6488685608 124561555.39717102 0 0 0 0 17196145.33625719 -22005551.319009423 0 -22005551.319009423 28618646.489006042 0 0 0 0 -2898355.0115938187 2819229.1029052734 0 2819229.1029052734 28992881.841590881 0 0 0 0 -33644170.724273682 38308798.574785233 0 38308798.574785233 23947891.96389389 0 0 0 0 -288931.95586395264 1576238.8876438141 0 1576238.8876438141 -3033632.3303499222 0 0 0 0 626016.57504463196 1788881.127532959 0 1788881.127532959 -1666981.1368465424 0 0 0 0 1093502.5925550461 3075192.1425132751 0 3075192.1425132751 1861962.206703186 0 0 0 0 -344146.86661100388 5911846.5798168182 0 5911846.5798168182 4042053.9565620422 0 0 0 0 4759078.678882122 2741785.3262615204 0 2741785.3262615204 5188458.6513767242 0 0 0 0 5915408.116519928 -335761.70266151428 0 -335761.70266151428 7030814.3448152542 0 0 0 0 5257485.3930683136 2179781.820941925 0 2179781.820941925 495628.22686958313 0 0 0 0 7054824.7845380306 -3995889.5010299683 0 -3995889.5010299683 5554176.4777069092 0 0 0 0 3030974.4865078926 2957981.5419864655 0 2957981.5419864655 6977869.0917924643 0 0 0 0 3316143.9101839066 2613319.3092765808 0 2613319.3092765808 7013843.4940395355 0 0 0 0 142508.5441245223 724334.6983264843 0 724334.6983264843 2255922.0518724322 0 0 0 0 -1756083.2310552597 10821991.543558121 0 10821991.543558121 9885236.7558937073 0 0 0 0 -2446894.7027273178 1710898.1428842545 0 1710898.1428842545 17191091.139144897 0 0 0 0 -1683439.0045161247 -316284.1973323822 0 -316284.1973323822 2708987.7077903748 0 0 0 0 130990142.39339542 -52124141.015285492 0 -52124141.015285492 50091898.917537689 0 0 0 0 -57861.677262862213 507560.66878097039 0 507560.66878097039 921627.09743315727 0 0 0 0 46412550.173805237 -99097630.869440079 0 -99097630.869440079 86390979.691396713 0 0 0 0 5912938.2013502121 53403489.65070343 0 53403489.65070343 163146252.21292496 0 0 0 0 -3756255.296836853 4401035.8206663132 0 4401035.8206663132 -937702.92686462402 0 0 0 0 -20493298.78682518 14512798.878818035 0 14512798.878818035 150768771.03679657 0 0 0 0 97985.202110724291 46474.669749713503 0 46474.669749713503 192208.58591701277 0 0 0 0 1383972.422069055 230158.8402963304 0 230158.8402963304 -118011.931038565 0 0 0 0 39989838.955964088 40545416.123569489 0 40545416.123569489 -29507241.229554534 0 0 0 0 82277744.923462868 -34634376.591301918 0 -34634376.591301918 69678070.828521729 0 0 0 0 7191764.5963363647 36744400.784404755 0 36744400.784404755 14189034.967643261 0 0 0 0 89417126.571324557 85903693.149969041 0 85903693.149969041 32681714.647449493 0 0 0 0 21187542.033517838 -17513163.464805603 0 -17513163.464805603 151448010.52168274 0 0 0 0 -219597154.60013902 37664739.440996766 0 37664739.440996766 115647640.66268539 0 0 0 0 423574055.23030186 119295120.28109074 0 119295120.28109074 -141802198.852211 0 0 0 0 233186074.77283669 543370089.31576538 0 543370089.31576538 -151170679.64189672 0 0 0 0 -185544932.14148831 343289692.63832188 0 343289692.63832188 62320873.93019104 0 0 0 0 33366085.140289783 109731249.92243576 0 109731249.92243576 -28400418.183532715 0 0 0 0 4814288.5535097122 -10091467.768383026 0 -10091467.768383026 6978409.3698959351 0 0 0 0 173198857.77691936 -74966038.276222229 0 -74966038.276222229 25525736.707641602 0 0 0 0 523451.25417669537 -20881.762864969205 0 -20881.762864969205 -89242.980651612859 0 0 0 0 -57476294.950769424 56798915.836743355 0 56798915.836743355 102763987.93135071 0 0 0 0 -77078318.713357925 -49083033.542880058 0 -49083033.542880058 195600768.2586689 0 0 0 0 328176490.06616592 -250853138.63696671 0 -250853138.63696671 -64202373.185020447 0 0 0 0 -2578889.2786271437 -1973915.1974866632 0 -1973915.1974866632 7908336.2371885432 0 0 0 0 -16582556.874340057 -22356693.294750214 0 -22356693.294750214 -27978674.024528503 0 0 0 0 -12650948.290468633 -1795251.4083828926 0 -1795251.4083828926 3395234.3314666748 0 0 0 0 4467581.4255681038 6386833.8703250885 0 6386833.8703250885 -25531408.092494965 0 0 0 0 10751812.997975826 4941111.5888671875 0 4941111.5888671875 2851621.4629974365 0 0 0 0 7402476.79771173 10786026.493782043 0 10786026.493782043 14320248.008728027 0 0 0 0 3724481.5776276588 3821985.9167900085 0 3821985.9167900085 8791064.2594223022 0 0 0 0 2691665.7020847797 5068705.9409351349 0 5068705.9409351349 7438442.0031051636 0 0 0 0 -3584396.7572812308 -1137784.337995003 0 -1137784.337995003 8327158.9663139898 0 0 0 0 1601051.0930924416 1335207.9314060211 0 1335207.9314060211 7607639.7191867828 0 0 0 0 -5347408.8514811993 -15513791.078699112 0 -15513791.078699112 -7474986.3661031723 0 0 0 0 82718001.9192276 -146342944.26864624 0 -146342944.26864624 113879105.12051392 0 0 0 0 -1671838.125163645 -2970480.3895906187 0 -2970480.3895906187 -139073.20221171528 0 0 0 0 16803112.374746442 -36907052.529807001 0 -36907052.529807001 74984346.124969482 0 0 0 0 157901221.25130463 2241927.5374240875 0 2241927.5374240875 -72127527.847782135 0 0 0 0 634639.63334080135 744535.36557439552 0 744535.36557439552 -715152.5234232638 0 0 0 0 -1624135.4639530005 -3237249.0721999104 0 -3237249.0721999104 -469449.42326842248 0 0 0 0 -85018477.685565948 73087122.536396027 0 73087122.536396027 3035487.0011520386 0 0 0 0 158117868.03432465 205631935.48076057 0 205631935.48076057 -245977102.7806778 0 0 0 0 -1043875.827491045 1966379.8057003021 0 1966379.8057003021 8069240.190410614 0 0 0 0 -4321650.1342374999 -18923.550165884197 0 -18923.550165884197 8684522.3983643968 0 0 0 0 -15395952.251121044 -21379367.145530224 0 -21379367.145530224 -9708549.5001945496 0 0 0 0 15655734.604480267 -14921761.82190752 0 -14921761.82190752 -12921619.08058548 0 0 0 0 126449915.76193619 113646004.06551933 0 113646004.06551933 128512574.12474442 0 0 0 0 -670405.76198244328 -639271.16285033664 0 -639271.16285033664 34569.779528664425 0 0 0 0 114961251.40146017 68353327.222033501 0 68353327.222033501 9884573.7981262207 0 0 0 0 -30502936.472196579 27367525.339668274 0 27367525.339668274 43373825.07157135 0 0 0 0 36623960.101779938 41605835.989816666 0 41605835.989816666 -304997.15885543823 0 0 0 0 39808675.109792709 29307789.405719757 0 29307789.405719757 7717079.6795425415 0 0 0 0 -4032507.1140463352 4150813.6427116394 0 4150813.6427116394 9697568.2260932922 0 0 0 0 -918461.80276226997 5363820.751033783 0 5363820.751033783 9363446.2229595184 0 0 0 0 73524.113292217255 5748508.8532962799 0 5748508.8532962799 9466146.1255111694 0 0 0 0 27154.937490612268 7678963.0659976006 0 7678963.0659976006 10752460.332870483 0 0 0 0 316655.93771123886 5622084.9619350433 0 5622084.9619350433 9531546.6939945221 0 0 0 0 2329269.1910650879 7896022.454852581 0 7896022.454852581 11759573.000637054 0 0 0 0 293250.02581548691 5375415.9993400574 0 5375415.9993400574 14401889.844787598 0 0 0 0 -1295471.4746060371 6446047.4615383148 0 6446047.4615383148 20006513.683578491 0 0 0 0 -1573090.8830806613 4531287.8179473877 0 4531287.8179473877 12173660.062549591 0 0 0 0 -2794612.2714931965 6388745.5672111511 0 6388745.5672111511 11556120.734706879 0 0 0 0 -1915283.3844227791 7389215.4272460938 0 7389215.4272460938 12684791.101596832 0 0 0 0 -2571122.7729400396 5717686.58070755 0 5717686.58070755 7313852.0756168365 0 0 0 0 -15022816.946801543 4357483.5133113861 0 4357483.5133113861 11841765.846796036 0 0 0 0 -2958104.4887379408 3744561.1346445084 0 3744561.1346445084 7987924.3620834351 0 0 0 0 -125213.99237404246 -13067.495202197693 0 -13067.495202197693 181096.02228759229 0 0 0 0 -14060552.120560169 -9010057.6769142151 0 -9010057.6769142151 -1882081.4703063965 0 0 0 0 4230204.2445294857 11518602.491212845 0 11518602.491212845 24871620.404029846 0 0 0 0 -3435558.0515840761 -1563698.9194865227 0 -1563698.9194865227 3675439.7151451111 0 0 0 0 -1846705.1077302694 1635140.6855239868 0 1635140.6855239868 3886233.8074474335 0 0 0 0 -8888723.7470374107 5268529.6975431442 0 5268529.6975431442 10969514.92142868 0 0 0 0 -444921.83814072609 6390581.6113376617 0 6390581.6113376617 12272690.745548248 0 0 0 0 -3273529.6421425343 7375518.710767746 0 7375518.710767746 11914397.870302677 0 0 0 0 -825501.78282892704 6734367.8089179993 0 6734367.8089179993 9711744.280872345 0 0 0 0 -2092158.4486577511 7054822.1538696289 0 7054822.1538696289 9786855.4254455566 0 0 0 0 -1905603.9449547529 4606328.4319972992 0 4606328.4319972992 10888599.945526123 0 0 0 0 24446044.990440369 31672326.654521942 0 31672326.654521942 26797519.40694809 0 0 0 0 6202896.8457534835 20585339.332847595 0 20585339.332847595 34708389.464065552 0 0 0 0 -2483647.2571934462 21709425.491493225 0 21709425.491493225 43495534.197982788 0 0 0 0 36680953.859476209 51967379.208162308 0 51967379.208162308 56896796.401276588 0 0 0 0 21297361.013273507 20291439.984739304 0 20291439.984739304 32134461.232803345 0 0 0 0 988764.88727211952 5847317.3113136292 0 5847317.3113136292 20484684.332820892 0 0 0 0 -1529564.3227578551 -7887880.0307579041 0 -7887880.0307579041 -1359357.2402992249 0 0 0 0 -2041776.4750313163 13142035.835639954 0 13142035.835639954 17948088.548721313 0 0 0 0 -71197.860849200879 108388.13735491782 0 108388.13735491782 284008.13557484187 0 0 0 0 -232058.9565027896 45690.877451801673 0 45690.877451801673 431066.12228216417 0 0 0 0 -1354876.0336868763 3788714.0790805817 0 3788714.0790805817 8796727.0898590088 0 0 0 0 923559.74978628755 1702584.5866985321 0 1702584.5866985321 9763087.2045736313 0 0 0 0 -1441221.134957552 3942100.8333778381 0 3942100.8333778381 9819922.9946365356 0 0 0 0 1790753.0977291465 1890561.1787834167 0 1890561.1787834167 10669161.548158646 0 0 0 0 -285306.51279075444 -987765.96645832062 0 -987765.96645832062 4212994.4771347046 0 0 0 0 -246192.09883917353 193156.39333938621 0 193156.39333938621 731964.38166308217 0 0 0 0 -53813.795878332952 359092.46613707952 0 359092.46613707952 796181.23982105404 0 0 0 0 -3716755.9809849598 -7601910.388037324 0 -7601910.388037324 9013096.7575912476 0 0 0 0 -268915.0313173827 427693.07571340725 0 427693.07571340725 1386567.2868219502 0 0 0 0 120562.98005777597 193075.60667848587 0 193075.60667848587 8543512.3202667236 0 0 0 0 1867328.6270053387 4686085.1249084473 0 4686085.1249084473 9581100.3155403137 0 0 0 0 -2062774.0478675365 15239035.744831085 0 15239035.744831085 8842546.8146286011 0 0 0 0 1141931.3996480703 156599.05117797852 0 156599.05117797852 10890808.79574585 0 0 0 0 16485715.191045403 12236895.849250793 0 12236895.849250793 10422301.259422302 0 0 0 0 -2694078.7138810158 9269370.7835330963 0 9269370.7835330963 41229136.383682251 0 0 0 0 -251244.09228277206 2177907.9141120911 0 2177907.9141120911 13566643.360378265 0 0 0 0 -1615634.4836548567 8843145.4914932251 0 8843145.4914932251 31011020.309028625 0 0 0 0 -1768272.1223517656 2769930.0403060913 0 2769930.0403060913 15817505.060939789 0 0 0 0 213415.19308693055 5013052.5047108643 0 5013052.5047108643 -437940.26053712948 0 0 0 0 -1436092.4773052335 9186611.8553733826 0 9186611.8553733826 31430541.337654114 0 0 0 0 -712032.15907039493 5439927.9039163589 0 5439927.9039163589 36271007.324020386 0 0 0 0 -2122826.3015714735 3719606.9097805023 0 3719606.9097805023 18014961.745410919 0 0 0 0 -135692.72127646807 5025756.0493398998 0 5025756.0493398998 300913.0664186863 0 0 0 0 -1289954.7647511959 9644382.7700386047 0 9644382.7700386047 31475873.721107483 0 0 0 0 -693922.54842013121 7032728.0868530273 0 7032728.0868530273 26224322.396148682 0 0 0 0 -4082160.6874322295 4317533.1773872375 0 4317533.1773872375 29988463.545295715 0 0 0 0 391350.99208968878 880453.15652561188 0 880453.15652561188 9335439.9850616455 0 0 0 0 -3438317.8867644072 -1882710.8004341125 0 -1882710.8004341125 19645148.299434662 0 0 0 0 -2204011.4407522082 2137430.9720802307 0 2137430.9720802307 25994665.963542938 0 0 0 0 1084162.54311499 -1678045.4155654907 0 -1678045.4155654907 16953904.532997131 0 0 0 0 -228127.68626591563 7920367.702167511 0 7920367.702167511 32715839.982330322 0 0 0 0 -2949399.1057163477 190319.05841064453 0 190319.05841064453 30705131.993392944 0 0 0 0 -1460986.8347501159 2555537.2910690308 0 2555537.2910690308 34458032.636230469 0 0 0 0 -1529973.4907209799 2305773.5838241577 0 2305773.5838241577 38135468.353622437 0 0 0 0 350604.86847680807 -5435382.5227737427 0 -5435382.5227737427 28645544.214370728 0 0 0 0 85457.480191573501 -5270411.1154994965 0 -5270411.1154994965 37389143.860641479 0 0 0 0 -925198.63594332337 -3249307.778339386 0 -3249307.778339386 43273153.256629944 0 0 0 0 667148.81041488692 467340.49360502884 0 467340.49360502884 2103718.5477646003 0 0 0 0 444827.73424559832 153483.23100280762 0 153483.23100280762 39682513.974255562 0 0 0 0 1879173.133710742 691473.05833816528 0 691473.05833816528 39583374.546546936 0 0 0 0 -4388758.1050922871 -1743641.7356071472 0 -1743641.7356071472 21652517.19720459 0 0 0 0 4481662.9646742344 7418196.4500465393 0 7418196.4500465393 23303599.034932137 0 0 0 0 -2067533.2598727345 4563178.63123703 0 4563178.63123703 33862483.960418701 0 0 0 0 -1592337.4596679211 4672143.4165687561 0 4672143.4165687561 11628443.96949482 0 0 0 0 -4412856.1307733357 4939371.3655605316 0 4939371.3655605316 42439297.988265991 0 0 0 0 -789086.40179255605 5281528.6219829321 0 5281528.6219829321 2421997.3938207366 0 0 0 0 -3314765.0925096273 5526908.4122200012 0 5526908.4122200012 16905215.650344849 0 0 0 0 -3740545.7150818706 3747598.0200490952 0 3747598.0200490952 18254427.131149292 0 0 0 0 -470032.15149528976 5056732.7543182522 0 5056732.7543182522 1100025.5764111844 0 0 0 0 -1779850.6901488304 3106805.9322280884 0 3106805.9322280884 38845857.298091769 0 0 0 0 -359270.08239841461 9019648.3093338013 0 9019648.3093338013 28086881.144203186 0 0 0 0 1138445.8865146935 1124312.431022644 0 1124312.431022644 26877664.062019348 0 0 0 0 -4217506.3450425267 119791.26407241821 0 119791.26407241821 24089140.027256012 0 0 0 0 -1434859.5742996931 -4272848.2697067261 0 -4272848.2697067261 8073934.4658508301 0 0 0 0 -1592863.3885541856 4245561.7045593262 0 4245561.7045593262 15943562.654964447 0 0 0 0 -2719279.4755294905 -1630295.6380889527 0 -1630295.6380889527 7678782.347940037 0 0 0 0 -40007075.896604538 -18369075.490686417 0 -18369075.490686417 4543662.0624389648 0 0 0 0 880705.23139804602 6918057.6096496582 0 6918057.6096496582 19185102.507961273 0 0 0 0 -4730027.9081214517 -3514622.8708000183 0 -3514622.8708000183 12397901.759796143 0 0 0 0 -26146394.041932106 -76187782.834968567 0 -76187782.834968567 -14335711.885925293 0 0 0 0 -2538158.4142661761 -1400014.8515565377 0 -1400014.8515565377 8847872.3818556257 0 0 0 0 -44627663.659449577 -770445.32938766479 0 -770445.32938766479 75419345.526023865 0 0 0 0 -3034837.4139938354 7112464.7727050781 0 7112464.7727050781 1730643.5944457054 0 0 0 0 36347714.819720268 688932.36859130859 0 688932.36859130859 17683453.583908081 0 0 0 0 11235653.502628326 29934961.787771225 0 29934961.787771225 36529447.784347534 0 0 0 0 -15587337.48292923 -5356831.9024543762 0 -5356831.9024543762 17864679.085784912 0 0 0 0 20417452.082205772 54290706.183372498 0 54290706.183372498 19753788.059825897 0 0 0 0 -313672.90647420334 -4827.9293556250632 0 -4827.9293556250632 893302.83550845832 0 0 0 0 1993513.7140693665 22655967.471721649 0 22655967.471721649 53396982.968502045 0 0 0 0 388536.79788899422 33802979.017864227 0 33802979.017864227 -13605571.687545776 0 0 0 0 -30181052.270877838 12785464.067417145 0 12785464.067417145 24445310.82156992 0 0 0 0 -26162534.204179764 43593857.400775909 0 43593857.400775909 29502246.20627594 0 0 0 0 -3455502.5963363647 20296040.594669342 0 20296040.594669342 37444539.696754456 0 0 0 0 -40094837.031192482 49022403.047052741 0 49022403.047052741 17146532.693099976 0 0 0 0 -42519131.578697205 6262139.1594581604 0 6262139.1594581604 34105010.887763977 0 0 0 0 -6158885.218739152 -5816640.141746521 0 -5816640.141746521 8851964.4520721436 0 0 0 0 -656261.52008996438 962935.68279102445 0 962935.68279102445 1823730.2824216224 0 0 0 0 -3085109.6603262112 -1630841.4630866833 0 -1630841.4630866833 6989879.8502448015 0 0 0 0 -4662082.408162117 4168314.0505771637 0 4168314.0505771637 11005066.289466858 0 0 0 0 -3164444.0832709223 -545644.13893604279 0 -545644.13893604279 10339013.568244934 0 0 0 0 3984055.1503710747 6100796.9907188416 0 6100796.9907188416 18198822.220726013 0 0 0 0 257778.73994196951 1404265.7952943351 0 1404265.7952943351 3429888.4422458485 0 0 0 0 -1870267.5806871615 -816091.11089728586 0 -816091.11089728586 4286223.6835222784 0 0 0 0 -4060212.6253852844 3776023.7163772583 0 3776023.7163772583 13072494.766197205 0 0 0 0 4018741.4473414421 1778234.4162325859 0 1778234.4162325859 11229526.061004639 0 0 0 0 -9953406.0775909424 1528108.4140224457 0 1528108.4140224457 17298615.056373596 0 0 0 0 27190701.374889374 10159793.445159912 0 10159793.445159912 20334899.183203697 0 0 0 0 -15504830.550094604 1270100.3471984863 0 1270100.3471984863 42145149.045532227 0 0 0 0 -50044.501285134815 199775.92922902107 0 199775.92922902107 1071557.5903319344 0 0 0 0 4014988.5862007141 1779819.5389938354 0 1779819.5389938354 12766711.111045837 0 0 0 0 6413123.7848472595 6711057.3328781128 0 6711057.3328781128 8911722.6611595154 0 0 0 0 14499283.729861259 8521519.7755031586 0 8521519.7755031586 8255016.3489379883 0 0 0 0 9276716.1538610458 -3134509.4615163803 0 -3134509.4615163803 1494025.1793060303 0 0 0 0 9489679.2131519318 11095727.172157288 0 11095727.172157288 7157741.8437576294 0 0 0 0 -7533155.9268474579 -5479685.6616363525 0 -5479685.6616363525 29436943.968788147 0 0 0 0 -2337528.182103008 31315.631079252809 0 31315.631079252809 4096290.4357326701 0 0 0 0 -5967619.1095304489 3854528.9323348999 0 3854528.9323348999 13136392.23273468 0 0 0 0 -7463810.5170116425 -996580.88826751709 0 -996580.88826751709 10576734.135795593 0 0 0 0 -34891297.347681046 -53448277.210689545 0 -53448277.210689545 71961625.289821625 0 0 0 0 56465202.939742088 4692897.5908126831 0 4692897.5908126831 -6973139.1796340942 0 0 0 0 -261522.95633520279 291595.90478203259 0 291595.90478203259 1000327.3237157278 0 0 0 0 -59742330.477703094 8381200.1344985962 0 8381200.1344985962 21927658.487075806 0 0 0 0 9608491.5528340042 27398791.655467927 0 27398791.655467927 30787509.184799194 0 0 0 0 33206953.111646652 34636571.229133606 0 34636571.229133606 29442987.337127686 0 0 0 0 -106874214.94940186 -113545189.65373993 0 -113545189.65373993 80176876.017089844 0 0 0 0 25141963.973840714 11149495.841327667 0 11149495.841327667 4276605.0574922562 0 0 0 0 -326412.41607121751 -6516.2815863378346 0 -6516.2815863378346 871609.38093585335 0 0 0 0 -60506617.150379181 8042594.8380126953 0 8042594.8380126953 63648177.295578003 0 0 0 0 57441958.790699005 134871382.47081757 0 134871382.47081757 200000925.88768005 0 0 0 0 161728815.47980118 -111660095.73114014 0 -111660095.73114014 98407184.70031929 0 0 0 0 -418178.86977767944 43322244.191520691 0 43322244.191520691 108705167.45327759 0 0 0 0 -381480.7238909658 -204916.89578095544 0 -204916.89578095544 1262726.9274679981 0 0 0 0 -48143562.864046097 9129768.5621070862 0 9129768.5621070862 78766706.889816284 0 0 0 0 -47968710.950621605 -16323017.567878723 0 -16323017.567878723 41913005.879425049 0 0 0 0 -3451801.5990660191 -406649.93143558502 0 -406649.93143558502 1761978.6311950684 0 0 0 0 -9567291.2106189728 11853848.109893799 0 11853848.109893799 29548801.89894104 0 0 0 0 -11222.542651176453 2584222.8241691589 0 2584222.8241691589 -2678052.6087646484 0 0 0 0 -2215483.488442421 2776787.4731178284 0 2776787.4731178284 -174277.19878387451 0 0 0 0 -1251710.4145355225 1506992.6480579376 0 1506992.6480579376 1346843.930847168 0 0 0 0 -278192.08644008636 -2466955.5774726868 0 -2466955.5774726868 -3625253.5493702888 0 0 0 0 20236318.772431374 31191253.877109528 0 31191253.877109528 10486628.862457275 0 0 0 0 3551582.1738700867 14622166.200508118 0 14622166.200508118 8333525.9871520996 0 0 0 0 -1519368.3167438507 16329878.385915756 0 16329878.385915756 15786708.751266479 0 0 0 0 -2865607.4388103485 18650814.559104919 0 18650814.559104919 24262977.495132685 0 0 0 0 -6001829.4167251587 12030603.984657288 0 12030603.984657288 16425886.326782227 0 0 0 0 -2696631.0303077698 3750050.3326721191 0 3750050.3326721191 1768095.0417633057 0 0 0 0 -10927327.463844061 3823623.4478988647 0 3823623.4478988647 26337927.898895264 0 0 0 0 -2490174.3325684071 3703673.7630157471 0 3703673.7630157471 25500731.572410583 0 0 0 0 -6971241.980607748 15578022.05072403 0 15578022.05072403 38037335.740402222 0 0 0 0 -1666947.1431181431 6653432.5030021667 0 6653432.5030021667 5081350.8872375488 0 0 0 0 -9586031.7776257992 8466421.4047107697 0 8466421.4047107697 5545029.4431762695 0 0 0 0 4107914.3307740688 4589288.9881591797 0 4589288.9881591797 -30284057.1873703 0 0 0 0 25750721.337012768 -13967410.03150177 0 -13967410.03150177 11663586.199646235 0 0 0 0 1019175.9972503185 53101757.571003914 0 53101757.571003914 -8509689.5570220947 0 0 0 0 -20355114.199005127 -2888313.7306137085 0 -2888313.7306137085 11864905.073150635 0 0 0 0 -9064098.447776556 11985995.875671387 0 11985995.875671387 52463014.610496521 0 0 0 0 17878915.003426075 22091043.336235046 0 22091043.336235046 29108253.287208557 0 0 0 0 -1413793.3352362581 -1548475.3911588397 0 -1548475.3911588397 1236118.0296480097 0 0 0 0 -7908057.6666102409 -2660783.4229354858 0 -2660783.4229354858 11536990.458000183 0 0 0 0 15461543.175046921 -29480188.864074707 0 -29480188.864074707 22489234.418815613 0 0 0 0 -34782117.661788702 12016194.515195847 0 12016194.515195847 22176624.608779907 0 0 0 0 -22378429.984900475 -21044122.822822571 0 -21044122.822822571 43754077.887542725 0 0 0 0 -1041255.3996384545 -815497.42613903992 0 -815497.42613903992 1768479.9158370467 0 0 0 0 -3400705.2957849503 464636.15223312378 0 464636.15223312378 6681199.8285598755 0 0 0 0 -76474.495601995557 1794150.8435115702 0 1794150.8435115702 3899364.2155106962 0 0 0 0 46638789.097979486 47409787.869660378 0 47409787.869660378 -14441375.956466675 0 0 0 0 -2795055.8902830337 -590124.52954429388 0 -590124.52954429388 3478215.4526813105 0 0 0 0 637995.64143133163 797943.56551361084 0 797943.56551361084 2561932.3991394043 0 0 0 0 -2216282.1895809174 -918690.87812042236 0 -918690.87812042236 6251621.2015914917 0 0 0 0 -1721746.2250625007 2382202.7685163692 0 2382202.7685163692 7232021.8401145637 0 0 0 0 -2518618.4527959824 2349981.5324172974 0 2349981.5324172974 3618005.658946991 0 0 0 0 -3069269.6774654388 328391.46226501465 0 328391.46226501465 5603083.3773384094 0 0 0 0 -1044793.8244248452 -60108.393666401505 0 -60108.393666401505 3872535.4764804225 0 0 0 0 -5524794.5674988031 5037964.2053456306 0 5037964.2053456306 10851592.649902344 0 0 0 0 -39929.610572814941 1118508.7167816162 0 1118508.7167816162 2712362.6094360352 0 0 0 0 -1082641.3851637216 1740422.0432080515 0 1740422.0432080515 3639136.93834168 0 0 0 0 -15789028.282161713 10963309.126670837 0 10963309.126670837 81534122.228462219 0 0 0 0 22436211.898696899 -69392333.252128601 0 -69392333.252128601 -26627212.592582703 0 0 0 0 -86228878.162456512 71162625.48938179 0 71162625.48938179 47758549.14251709 0 0 0 0 47334232.490949631 35592094.958599091 0 35592094.958599091 -60490464.967170715 0 0 0 0 57157509.860397339 7152372.4335899353 0 7152372.4335899353 -2264498.3737564087 0 0 0 0 -815722.88037490845 982999.57692337036 0 982999.57692337036 2020711.6708450317 0 0 0 0 -543862.3936533446 2166245.6185408272 0 2166245.6185408272 4518434.8337993212 0 0 0 0 13842637.424293518 5083196.4198913574 0 5083196.4198913574 21456124.6015625 0 0 0 0 193416.93275988102 1083498.4401512146 0 1083498.4401512146 4590555.6596603394 0 0 0 0 -2548475.1522575384 -156203.43823386403 0 -156203.43823386403 3376847.8351988941 0 0 0 0 -983389.2141418457 854762.25640869141 0 854762.25640869141 1278065.3550415039 0 0 0 0 -708791.19169133436 1713604.3532451745 0 1713604.3532451745 4945085.6718289079 0 0 0 0 359930.70569836046 1523234.6701074373 0 1523234.6701074373 4158993.3937480096 0 0 0 0 -2789290.3442164282 -883537.79239581898 0 -883537.79239581898 2861128.4981950596 0 0 0 0 -962453.37615394592 812305.60094451904 0 812305.60094451904 2853845.19506073 0 0 0 0 -213874.53761291504 1018832.8143234253 0 1018832.8143234253 2909656.9685211182 0 0 0 0 -2552331.5554752517 -68438.940245877951 0 -68438.940245877951 5605572.5039248373 0 0 0 0 1747858.1459884644 -199650.00122833252 0 -199650.00122833252 1194890.1504306793 0 0 0 0 -869548.32940672885 1209351.5558898766 0 1209351.5558898766 3472722.2321754508 0 0 0 0 -1350611.8535732389 -776986.82813173532 0 -776986.82813173532 2051972.9366329387 0 0 0 0 -956345.83214408159 297619.6313085556 0 297619.6313085556 3633437.845664978 0 0 0 0 3410177.1216115952 9900166.3521881104 0 9900166.3521881104 20420671.728610992 0 0 0 0 -878653.24020338058 1296830.0940093994 0 1296830.0940093994 5661303.662273407 0 0 0 0 -59490.826517295558 1215658.0453919731 0 1215658.0453919731 3006201.3526186869 0 0 0 0 -716484.88559031487 1279225.2102193832 0 1279225.2102193832 5204453.7548065186 0 0 0 0 -245975.41586501105 543579.02688800171 0 543579.02688800171 958298.64049281925 0 0 0 0 -2823763.4056994915 11329390.471878052 0 11329390.471878052 40455368.351062775 0 0 0 0 -7430662.5509514809 10249667.20942688 0 10249667.20942688 60678771.56048584 0 0 0 0 1153374.7511963844 24603648.278182983 0 24603648.278182983 -43109583.289777756 0 0 0 0 18065486.528674841 29555687.892658234 0 29555687.892658234 -62071040.703842163 0 0 0 0 5934965.0697324276 26893915.429616928 0 26893915.429616928 -81276009.684387207 0 0 0 0 -17520150.487623215 40196684.815032959 0 40196684.815032959 -62589222.447006226 0 0 0 0 -66961.524300668738 2789231.7804919295 0 2789231.7804919295 3078027.8200417999 0 0 0 0 -16944056.021446228 23679889.734268188 0 23679889.734268188 -62742071.096359253 0 0 0 0 -199296.77811431885 53600063.754310608 0 53600063.754310608 -80094508.23078537 0 0 0 0 14745712.104745865 6085380.993812561 0 6085380.993812561 -106863722.45101929 0 0 0 0 -367430.62386847136 261960.51209769398 0 261960.51209769398 844748.0252414979 0 0 0 0 5130412.9586205482 42192065.201179504 0 42192065.201179504 -60947954.410522461 0 0 0 0 11722570.044467926 43914658.164718628 0 43914658.164718628 -61410441.020675659 0 0 0 0 -1531481.3651435375 42805264.766525269 0 42805264.766525269 -41172114.068649292 0 0 0 0 8905576.9346356392 31040776.788986206 0 31040776.788986206 -37556212.09120369 0 0 0 0 -13556521.96671164 68153134.997367859 0 68153134.997367859 -40796262.28289032 0 0 0 0 -53289150.961440086 57891198.953094482 0 57891198.953094482 -33402697.377872467 0 0 0 0 -2485917.1528408527 16055811.822990417 0 16055811.822990417 -29095294.613174438 0 0 0 0 644572.57690947689 3172707.5354871843 0 3172707.5354871843 3917596.2855788795 0 0 0 0 -6817458.5332043171 40729833.765399933 0 40729833.765399933 -41717633.767318726 0 0 0 0 -129212808.30348015 -55717049.229240417 0 -55717049.229240417 65689276.806411743 0 0 0 0 -14573026.766742706 3961519.4380302429 0 3961519.4380302429 12350013.562051773 0 0 0 0 -1315130.9000431723 1873824.0803635269 0 1873824.0803635269 3363212.575548186 0 0 0 0 -7003766.152803421 -5654481.3515777588 0 -5654481.3515777588 3079829.1062316895 0 0 0 0 468700.11579850945 3943796.4329235344 0 3943796.4329235344 8466464.6949066073 0 0 0 0 548190.40349663072 3191934.9970211759 0 3191934.9970211759 7904850.9157455117 0 0 0 0 -50609422.625279427 9373366.9922246933 0 9373366.9922246933 19175071.361984253 0 0 0 0 -157632781.72015071 144600585.81980324 0 144600585.81980324 -79556110.200592041 0 0 0 0 15134596.334065914 73593996.113143921 0 73593996.113143921 -122110082.90215683 0 0 0 0 28307645.895857811 828960.2713508606 0 828960.2713508606 -59719296.708019257 0 0 0 0 18360324.4268713 72416870.94568634 0 72416870.94568634 -40354050.134380341 0 0 0 0 -63640863.62949717 31174408.630167007 0 31174408.630167007 -9145505.834487915 0 0 0 0 12509568.1387465 49710292.165233612 0 49710292.165233612 -13988613.852653503 0 0 0 0 194551.23735623516 -151069.69855776429 0 -151069.69855776429 -86907.900910083205 0 0 0 0 70081891.879356623 53059223.713863373 0 53059223.713863373 -19850867.966604233 0 0 0 0 19614130.844395399 43511896.97713089 0 43511896.97713089 -92690741.955383301 0 0 0 0 11543492.354977369 31509121.539375305 0 31509121.539375305 30136580.198169708 0 0 0 0 43782028.610774279 8802108.8966331482 0 8802108.8966331482 1258876.5990104675 0 0 0 0 34280238.367662907 20090298.510269165 0 20090298.510269165 -42637855.866876602 0 0 0 0 10233849.256701052 29745449.641988277 0 29745449.641988277 -11775001.204727173 0 0 0 0 6863287.1202821732 -14197552.226421356 0 -14197552.226421356 14471313.576122284 0 0 0 0 10092679.181383133 -1792016.099647522 0 -1792016.099647522 993337.39030075073 0 0 0 0 -185366.27181436913 -142903.71556486376 0 -142903.71556486376 277376.39961952344 0 0 0 0 -134125.53355528414 11924.347859401256 0 11924.347859401256 -86574.820286723785 0 0 0 0 -469482.12463378906 -270845.89793395996 0 -270845.89793395996 998615.74362945557 0 0 0 0 -96115.024364471436 -189813.75196075439 0 -189813.75196075439 501988.78356933594 0 0 0 0 -564326.79099345207 -307017.61883831024 0 -307017.61883831024 365009.32467651367 0 0 0 0 -356748.93240356445 167447.42011260986 0 167447.42011260986 65883.929817199707 0 0 0 0 -734874.09089374682 133787.96197855659 0 133787.96197855659 252553.785334602 0 0 0 0 -672632.50014877319 146967.9787902832 0 146967.9787902832 414654.14678192139 0 0 0 0 36324.533002853394 -169620.42679595947 0 -169620.42679595947 -183180.12016296387 0 0 0 0 -674110.64769755257 23118.271334353834 0 23118.271334353834 339987.4544625394 0 0 0 0 5795.7151184082031 226488.02841186523 0 226488.02841186523 600219.23081970215 0 0 0 0 504895.82829284668 -399236.0071105957 0 -399236.0071105957 245665.52812194824 0 0 0 0 -1029640.6596603394 -452899.44003295898 0 -452899.44003295898 269385.35911560059 0 0 0 0 -16698.284029068891 13201.493299924769 0 13201.493299924769 17454.925569910556 0 0 0 0 88426286.414970398 -44126257.805297852 0 -44126257.805297852 -93911873.273735046 0 0 0 0 -48314.909669876099 -501914.55604743958 0 -501914.55604743958 980574.06572723389 0 0 0 0 -233808.2555770874 -813332.78863334656 0 -813332.78863334656 980556.30536651611 0 0 0 0 -440095.20602460671 -6603.5313099436462 0 -6603.5313099436462 -112623.02630376257 0 0 0 0 -65689.782324506901 -712189.57137840427 0 -712189.57137840427 739292.13650119677 0 0 0 0 30520999.516799927 26493767.528831482 0 26493767.528831482 -37280676.848083496 0 0 0 0 -58674837.34103775 42964708.355270386 0 42964708.355270386 63733282.909393311 0 0 0 0 44858782.77089119 -7298264.1713132858 0 -7298264.1713132858 -12893465.785644531 0 0 0 0 119086387.08029175 -140387399.81834412 0 -140387399.81834412 94708760.645465851 0 0 0 0 12325.06804319378 -52958.991626711562 0 -52958.991626711562 29244.892638821155 0 0 0 0 -56926431.327629089 -34835185.196411133 0 -34835185.196411133 1682950.3047714233 0 0 0 0 30123487.730300903 58115964.250244141 0 58115964.250244141 -5981624.3840713501 0 0 0 0 -162097020.22407532 32322923.078674316 0 32322923.078674316 16509319.982513428 0 0 0 0 1936978.4234104156 11718546.524589539 0 11718546.524589539 -48458123.850640297 0 0 0 0 -6400650.7917785645 12708032.229675293 0 12708032.229675293 -29229165.801391602 0 0 0 0 -392234.10833049193 407268.74851396866 0 407268.74851396866 988876.41868318617 0 0 0 0 -143070.07224710193 -248859.27805534564 0 -248859.27805534564 69296.626218018122 0 0 0 0 -60724558.502708435 34996830.798416138 0 34996830.798416138 35562613.978500366 0 0 0 0 170134723.41148281 327511599.41140938 0 327511599.41140938 -165369127.60931396 0 0 0 0 -182067684.86319733 27741503.925769806 0 27741503.925769806 21248075.542205811 0 0 0 0 -20268223.753261566 -24225977.843093872 0 -24225977.843093872 -1616766.879234314 0 0 0 0 -29331407.547887802 -3478941.3930892944 0 -3478941.3930892944 8960208.4662437439 0 0 0 0 -59383443.121421814 -9840929.6083869934 0 -9840929.6083869934 19294305.630966187 0 0 0 0 -22769310.616348267 17839343.11693573 0 17839343.11693573 21608371.529298782 0 0 0 0 -28855673.982629776 -4521711.4371147156 0 -4521711.4371147156 20622231.888381958 0 0 0 0 -30049546.860078812 -1107801.8754234314 0 -1107801.8754234314 20111472.288722515 0 0 0 0 8719953.3219032288 -17449747.329307556 0 -17449747.329307556 17459519.169593811 0 0 0 0 427381.38010787964 -3439828.0942268372 0 -3439828.0942268372 10890726.354873657 0 0 0 0 -11511342.419178963 -1900057.8324584961 0 -1900057.8324584961 14060181.316200256 0 0 0 0 -13537097.458438873 1304138.7529067993 0 1304138.7529067993 13839666.555508137 0 0 0 0 -14966167.479621887 -8384301.7762260437 0 -8384301.7762260437 17600962.873695374 0 0 0 0 -4834629.2633457184 13120199.240913391 0 13120199.240913391 20879843.144055843 0 0 0 0 -23763098.02616024 -5168407.0204658508 0 -5168407.0204658508 6432688.0994796753 0 0 0 0 32779182.459229469 18937714.162948608 0 18937714.162948608 23724445.88586998 0 0 0 0 -3382415.3058114052 7047941.6553463936 0 7047941.6553463936 36044638.218360901 0 0 0 0 496404.53449228406 -5377801.8676083088 0 -5377801.8676083088 37446148.209228516 0 0 0 0 16334101.112890244 8625418.0969429016 0 8625418.0969429016 25171909.87928009 0 0 0 0 -4120691.3949503899 13211653.635121346 0 13211653.635121346 100361986.31507874 0 0 0 0 16220322.066181898 10471142.653066635 0 10471142.653066635 56145849.408050537 0 0 0 0 648019.08708953857 3887807.7169380188 0 3887807.7169380188 53812377.711830139 0 0 0 0 37980751.041175842 50740760.397895813 0 50740760.397895813 41727856.080267429 0 0 0 0 44547436.467329025 36096678.115673065 0 36096678.115673065 35171171.980297089 0 0 0 0 22619559.220613658 47018018.412050962 0 47018018.412050962 42113480.102851868 0 0 0 0 24782435.124975204 28052757.357067108 0 28052757.357067108 31943922.30670929 0 0 0 0 2765090.2932071686 -1533974.7695159912 0 -1533974.7695159912 -4274636.3200721741 0 0 0 0 1631113.1777458191 1878979.0900421143 0 1878979.0900421143 -3077662.1407794952 0 0 0 0 -1706099.7781467438 -3382891.8163642883 0 -3382891.8163642883 -2745958.4119377136 0 0 0 0 41911619.57866478 109687356.20774841 0 109687356.20774841 69918667.521224976 0 0 0 0 -400432.50178799219 -37208.269283093512 0 -37208.269283093512 522066.19963164255 0 0 0 0 44712713.554729462 35753939.334121704 0 35753939.334121704 29053679.720153809 0 0 0 0 56564087.776922226 64742932.713050842 0 64742932.713050842 105594178.11839294 0 0 0 0 23509959.759235382 68644373.039260864 0 68644373.039260864 135340183.77333069 0 0 0 0 -38143.701734523755 -36660.327643292025 0 -36660.327643292025 10959.131287553348 0 0 0 0 -7071010.2471899986 162150115.77510452 0 162150115.77510452 16459933.06086731 0 0 0 0 -8149635.6033802032 -33899201.922996521 0 -33899201.922996521 103948736.82303238 0 0 0 0 106610711.19792747 -43886285.960670471 0 -43886285.960670471 131474730.41740417 0 0 0 0 -228923.67388725281 48521887.804016113 0 48521887.804016113 58534799.738494873 0 0 0 0 10101508.813821316 85024500.449420929 0 85024500.449420929 184267652.72077942 0 0 0 0 -37263726.570363998 5810359.7433166504 0 5810359.7433166504 74088833.759796143 0 0 0 0 -28643695.740859985 -40145659.981838226 0 -40145659.981838226 28764273.864868164 0 0 0 0 -30281877.060235023 -12804674.541397095 0 -12804674.541397095 15986798.108093262 0 0 0 0 -41304526.210594177 -26564057.516830444 0 -26564057.516830444 63761667.233963013 0 0 0 0 5558792.9936208725 4073503.678527832 0 4073503.678527832 91677.476053237915 0 0 0 0 -69125.138291120529 2367329.9840164185 0 2367329.9840164185 1873281.3284759521 0 0 0 0 52329.821762084961 -467358.62734222412 0 -467358.62734222412 1075680.6267604828 0 0 0 0 1460483.6304531097 -378087.73650741577 0 -378087.73650741577 -2886726.8933448792 0 0 0 0 13675055.41944313 -13889793.522796631 0 -13889793.522796631 14387307.556892395 0 0 0 0 1277051.9402933121 -1080990.3116760254 0 -1080990.3116760254 -1149280.4764862061 0 0 0 0 -72051.539189928211 -232983.95620324463 0 -232983.95620324463 138123.06023750082 0 0 0 0 -159895.35890579224 984979.97820854187 0 984979.97820854187 -1226504.299118042 0 0 0 0 -99776.650260416325 -22724.325418774039 0 -22724.325418774039 238599.89145098999 0 0 0 0 -1136668.9547078181 449830.82413387019 0 449830.82413387019 709557.23292883113 0 0 0 0 1775005.727553308 1698134.7503540516 0 1698134.7503540516 -3757.9111099243164 0 0 0 0 7797122.7840414047 31039759.264312744 0 31039759.264312744 40663418.879577637 0 0 0 0 -11470.262410289608 -93222.745097883046 0 -93222.745097883046 25621.046745711006 0 0 0 0 5994989.4314651489 12228036.05569458 0 12228036.05569458 46734000.931526184 0 0 0 0 -313550.62425899506 23894510.952667236 0 23894510.952667236 70022149.736663818 0 0 0 0 2080.9424610137939 31231480.734176636 0 31231480.734176636 62394159.939117432 0 0 0 0 3590628.1697940826 22613386.851509094 0 22613386.851509094 59056090.540435791 0 0 0 0 -4390027.5450935364 5108052.0549163818 0 5108052.0549163818 60454792.745223999 0 0 0 0 -5844335.2640037537 38190820.77664566 0 38190820.77664566 80033953.780258179 0 0 0 0 13655512.864738464 59431081.513801575 0 59431081.513801575 103163207.97949982 0 0 0 0 44814353.357866287 58898678.579071045 0 58898678.579071045 73612291.904846191 0 0 0 0 -31305143.332201958 13321443.471576691 0 13321443.471576691 116857428.20802307 0 0 0 0 49761271.211938858 100456074.8543396 0 100456074.8543396 137764268.96598816 0 0 0 0 22973751.845964432 42776929.322937012 0 42776929.322937012 155634669.9485321 0 0 0 0 47926866.705730438 9612684.3593978882 0 9612684.3593978882 85631681.429443359 0 0 0 0 -9197198.1871337891 30711437.150627136 0 30711437.150627136 78080511.439376831 0 0 0 0 17790319.716609001 58679304.973268509 0 58679304.973268509 47193411.704803467 0 0 0 0 18607827.580509186 46675777.594512939 0 46675777.594512939 67961876.973144531 0 0 0 0 21358759.956110001 39259335.98600769 0 39259335.98600769 48255000.386947632 0 0 0 0 24639670.816462517 42909194.546205521 0 42909194.546205521 35902190.358629227 0 0 0 0 17814844.529811859 53836344.708831787 0 53836344.708831787 65845034.968006134 0 0 0 0 12906128.103126526 43260760.546974182 0 43260760.546974182 48502552.309906006 0 0 0 0 15722190.135187149 40788851.902175903 0 40788851.902175903 47968128.816419601 0 0 0 0 19093234.5154953 38318364.514312744 0 38318364.514312744 49518865.994865417 0 0 0 0 13679649.175679207 41374788.590835571 0 41374788.590835571 49919285.931610107 0 0 0 0 9980928.5606002808 34082583.247093201 0 34082583.247093201 62858602.299446106 0 0 0 0 1932.3989296742948 327261.64281377627 0 327261.64281377627 85758.105423100293 0 0 0 0 9545056.9055557251 -17880170.806480408 0 -17880170.806480408 6699008.3232421875 0 0 0 0 -162210.64849209785 251482.79615259171 0 251482.79615259171 284944.92924499512 0 0 0 0 -577863.1011876436 -83239.270897194743 0 -83239.270897194743 540150.59708664753 0 0 0 0 20537.82797210617 -40015.879718050361 0 -40015.879718050361 -108594.50685503148 0 0 0 0 12020476.339122772 -99716.220676422119 0 -99716.220676422119 -137405.61346817017 0 0 0 0 5266453.5489912033 -4455566.6562805176 0 -4455566.6562805176 7683132.6728210449 0 0 0 0 82426537.40254879 77913041.450789452 0 77913041.450789452 40317327.559089661 0 0 0 0 58092699.417747498 47661302.223258972 0 47661302.223258972 16831236.323775768 0 0 0 0 33769358.796009064 24466604.786277771 0 24466604.786277771 63475662.38394165 0 0 0 0 32948497.954277039 75418580.331604004 0 75418580.331604004 107457400.19047546 0 0 0 0 36811756.902517319 -11631085.765805244 0 -11631085.765805244 18007259.184768677 0 0 0 0 -441772.60201021144 -102797.03023206443 0 -102797.03023206443 409031.82215149328 0 0 0 0 838335.90154266357 105142.95768737793 0 105142.95768737793 -2395711.7342453003 0 0 0 0 -255803.66094112396 968757.96699523926 0 968757.96699523926 2092969.0392456055 0 0 0 0 136367.48529434204 2205299.7073059082 0 2205299.7073059082 -2647196.676867485 0 0 0 0 -348576.77734081028 651872.91882705153 0 651872.91882705153 18635.061996046454 0 0 0 0 -489534.04197597504 192430.10210037231 0 192430.10210037231 342937.41466522217 0 0 0 0 116959.88951396942 -565906.46187019348 0 -565906.46187019348 224507.29412841797 0 0 0 0 1412204.7863092422 1027968.6828079224 0 1027968.6828079224 -1002611.6553726196 0 0 0 0 -1741068.6662862301 907285.22530269623 0 907285.22530269623 -815087.60656738281 0 0 0 0 -125281.93450909317 432502.52942526992 0 432502.52942526992 -114294.71787585318 0 0 0 0 -32632.362198520452 151149.73779669206 0 151149.73779669206 -40583.912018112838 0 0 0 0 -3515960.7276515961 -345521.03249359131 0 -345521.03249359131 9200959.486579895 0 0 0 0 1332328.315618515 -707237.96182250977 0 -707237.96182250977 481248.36909484863 0 0 0 0 1013812.4829673767 1320829.6550064087 0 1320829.6550064087 -841740.63584899902 0 0 0 0 -4994155.2206306458 -429626.07340240479 0 -429626.07340240479 5554591.3920669556 0 0 0 0 365729.88896274567 -2110005.1161651611 0 -2110005.1161651611 4411756.5110778809 0 0 0 0 -708437.63937759399 418663.42837524414 0 418663.42837524414 2505749.1590309143 0 0 0 0 319671.7296037674 -849850.44223022461 0 -849850.44223022461 1759294.7072601318 0 0 0 0 -607881.22965379432 -152098.94851116464 0 -152098.94851116464 276292.34803340025 0 0 0 0 -3343714.5320396423 1996706.8233795166 0 1996706.8233795166 -305195.65269470215 0 0 0 0 224059.62181949615 629872.86156082153 0 629872.86156082153 -1986325.8221969604 0 0 0 0 -1296948.2152137756 2915067.8076095581 0 2915067.8076095581 2631492.3606338501 0 0 0 0 -506726.61454391479 4507378.6065483093 0 4507378.6065483093 -839092.29581451416 0 0 0 0 -346446.00868583703 -207701.14572561532 0 -207701.14572561532 177955.32569990959 0 0 0 0 -6039246.6587982178 -4231062.8474626541 0 -4231062.8474626541 5773960.190246582 0 0 0 0 1991407.9627952576 3127210.4196548462 0 3127210.4196548462 7213342.7620372772 0 0 0 0 7586164.4970312119 -4483383.7171287537 0 -4483383.7171287537 -6292782.8129806519 0 0 0 0 -7287205.2117271423 26189649.972091675 0 26189649.972091675 -41269815.306838989 0 0 0 0 -238047.81260544155 -127199.91119384579 0 -127199.91119384579 245479.988967482 0 0 0 0 30103941.851327896 9202020.7457275391 0 9202020.7457275391 -11076991.073432922 0 0 0 0 -21553472.165204048 -11355141.646965027 0 -11355141.646965027 44457955.628248215 0 0 0 0 -28825177.209366798 466901.35219573975 0 466901.35219573975 42641178.097099304 0 0 0 0 -100284589.8163538 46071918.285888672 0 46071918.285888672 28586866.475769043 0 0 0 0 -54628633.248991013 27862514.581684113 0 27862514.581684113 24155652.040626526 0 0 0 0 -3795647.1162204742 6482357.1446456909 0 6482357.1446456909 -18548317.326530457 0 0 0 0 -4224791.6835637093 311847.84570884705 0 311847.84570884705 3401109.4116439819 0 0 0 0 -5662027.5804347992 1152073.5892181396 0 1152073.5892181396 3023597.4232292175 0 0 0 0 -10042343.262507439 -5292017.030330658 0 -5292017.030330658 18182678.932518005 0 0 0 0 -18331834.543222427 3031528.660030365 0 3031528.660030365 11667770.806720734 0 0 0 0 2148753.8414363861 -17754931.19062233 0 -17754931.19062233 17286322.178756714 0 0 0 0 -23899732.129658699 -20406416.960765839 0 -20406416.960765839 30471442.312335968 0 0 0 0 -10032728.864319801 -19670651.096838951 0 -19670651.096838951 29441249.048698425 0 0 0 0 -4054666.2454748154 -18256876.330244064 0 -18256876.330244064 22293483.185630798 0 0 0 0 -11461331.555179596 -18805992.0134058 0 -18805992.0134058 43552861.132362366 0 0 0 0 3855549.1332473755 -28136217.177032471 0 -28136217.177032471 57323911.987575531 0 0 0 0 81052471.564204216 86220898.050535202 0 86220898.050535202 80891598.803012848 0 0 0 0 18091114.479457855 -12990111.439283371 0 -12990111.439283371 -5835569.3571014404 0 0 0 0 19358989.874419808 -21762268.17936492 0 -21762268.17936492 8102851.5656661987 0 0 0 0 -159404.34777043248 56232.518262609839 0 56232.518262609839 362474.93468837813 0 0 0 0 -5949397.0896644592 16699962.779960632 0 16699962.779960632 -3667812.9004850388 0 0 0 0 2001220.2482638359 5150833.2767486572 0 5150833.2767486572 12356502.884017944 0 0 0 0 -51837.460529327393 799405.79468250275 0 799405.79468250275 14947205.426353455 0 0 0 0 2249763.2034893036 2648313.6044464111 0 2648313.6044464111 8374666.2722816467 0 0 0 0 2295310.4243488312 -2759045.4006309509 0 -2759045.4006309509 6109421.8470077515 0 0 0 0 -13967515.028636456 2279550.9673805237 0 2279550.9673805237 50651099.321416855 0 0 0 0 -14785619.3513304 6452237.9401464462 0 6452237.9401464462 29401764.048606873 0 0 0 0 21447336.306890488 31773537.979816437 0 31773537.979816437 27386199.235900879 0 0 0 0 -30286293.445644379 1111370.437877655 0 1111370.437877655 32076496.276454926 0 0 0 0 -28366502.301551342 14045774.581558228 0 14045774.581558228 3508353.392074585 0 0 0 0 -6276755.998456955 19051933.19134903 0 19051933.19134903 13466792.55015564 0 0 0 0 -64302461.219887018 30696868.516340256 0 30696868.516340256 20224415.464477539 0 0 0 0 -50845828.617201447 -3786635.9249811172 0 -3786635.9249811172 13415470.275970459 0 0 0 0 28373992.243642807 34089779.425001144 0 34089779.425001144 4474124.5254364014 0 0 0 0 -1496897.7854661942 8412956.5074796677 0 8412956.5074796677 5749778.1045379639 0 0 0 0 27654747.51369381 20538497.082942963 0 20538497.082942963 19394920.720344543 0 0 0 0 -310940.79367208865 700451.29102377407 0 700451.29102377407 1088341.160339348 0 0 0 0 25791774.086888313 31179355.278684616 0 31179355.278684616 13193360.729248047 0 0 0 0 -32150857.73071456 -4698038.5617303848 0 -4698038.5617303848 15770788.704116821 0 0 0 0 -11364000.901700974 -2948136.5594902039 0 -2948136.5594902039 -2246162.614118576 0 0 0 0 -104463.65441485285 243463.76237666747 0 243463.76237666747 376053.97590011358 0 0 0 0 -17473223.18152976 -45685717.091320515 0 -45685717.091320515 91196155.059463501 0 0 0 0 21230744.874164581 -40327463.944128036 0 -40327463.944128036 16635823.707780838 0 0 0 0 99846256.825787067 70848323.939393997 0 70848323.939393997 38978241.202270508 0 0 0 0 -4441033.4412078857 1923431.721657753 0 1923431.721657753 41078232.356300354 0 0 0 0 -22837134.968866229 47897116.868740559 0 47897116.868740559 95460427.148025513 0 0 0 0 223876240.90118217 -11711787.478843689 0 -11711787.478843689 -67960235.495620728 0 0 0 0 98041062.135334015 -62476980.167053223 0 -62476980.167053223 -78292695.204612732 0 0 0 0 -40792961.513370514 28562844.877479553 0 28562844.877479553 96218904.058605194 0 0 0 0 4957729.9653358459 41784384.671615601 0 41784384.671615601 89075735.887729645 0 0 0 0 -129995.36753616529 -171803.62189352885 0 -171803.62189352885 98341.498026832938 0 0 0 0 -16652354.933732986 7151887.3629646301 0 7151887.3629646301 69061147.031112671 0 0 0 0 21619008.478850842 36669488.508960724 0 36669488.508960724 47298156.623626709 0 0 0 0 19175744.87894249 39109774.067871094 0 39109774.067871094 61929134.109136581 0 0 0 0 21285028.156534195 33664007.959472656 0 33664007.959472656 51530477.094276428 0 0 0 0 48524425.883548021 33431180.873249054 0 33431180.873249054 37202335.922546387 0 0 0 0 10757767.656146049 -8960139.2960224152 0 -8960139.2960224152 38504551.307518005 0 0 0 0 27872650.556040764 51755705.843231201 0 51755705.843231201 66299104.81552887 0 0 0 0 -16286583.650896072 8000137.3533210754 0 8000137.3533210754 50951426.908889771 0 0 0 0 -39627904.96085453 -13008197.199806213 0 -13008197.199806213 47039699.613714218 0 0 0 0 -12211070.863910675 -5677677.8385658264 0 -5677677.8385658264 47708526.351802826 0 0 0 0 -13009920.238893151 -1617489.4911422729 0 -1617489.4911422729 39741620.557907104 0 0 0 0 -26800324.949702263 -7547198.7141952515 0 -7547198.7141952515 39232310.156894684 0 0 0 0 -28188569.953761816 -4139092.5387535095 0 -4139092.5387535095 31287445.410835266 0 0 0 0 -24131822.466898918 -1920786.5435256958 0 -1920786.5435256958 20768027.865570068 0 0 0 0 -22256217.705469131 -15585680.418052673 0 -15585680.418052673 35701438.251167297 0 0 0 0 -13848872.135246754 -28915895.071647644 0 -28915895.071647644 35769690.946548462 0 0 0 0 -30404635.519401073 -21266675.712921143 0 -21266675.712921143 32235799.183856964 0 0 0 0 -72985728.033528328 -49127359.73299408 0 -49127359.73299408 28894841.790571213 0 0 0 0 -7314036.602628231 -69661357.293685913 0 -69661357.293685913 -11059483.542007446 0 0 0 0 -29153770.446264744 30526402.151002884 0 30526402.151002884 31663089.93371582 0 0 0 0 -80757445.818377495 -9921643.5998153687 0 -9921643.5998153687 47311540.579649925 0 0 0 0 -277808.72725975933 -229284.01546234637 0 -229284.01546234637 198054.20741734467 0 0 0 0 -40227140.670121193 -61009177.209186554 0 -61009177.209186554 -66814416.088235855 0 0 0 0 -110661723.06950366 -37890619.221800327 0 -37890619.221800327 11798107.874984741 0 0 0 0 -97056255.809153557 36567239.485919952 0 36567239.485919952 32299472.533744812 0 0 0 0 -27463354.687555313 476481.21537780762 0 476481.21537780762 75987258.128463745 0 0 0 0 19058909.162447929 50124806.062133789 0 50124806.062133789 16861312.125205994 0 0 0 0 -34468290.189107895 28555468.431564331 0 28555468.431564331 -33534450.54712677 0 0 0 0 11735418.535009384 29384345.711242676 0 29384345.711242676 48091867.248649597 0 0 0 0 13522788.051495552 29715658.523803711 0 29715658.523803711 47616358.190711975 0 0 0 0 20680858.863360405 36945670.50447464 0 36945670.50447464 46915393.818557739 0 0 0 0 19782148.326991081 33451346.119463921 0 33451346.119463921 44206411.607208252 0 0 0 0 16933898.731550217 31696602.58392334 0 31696602.58392334 47870718.536841393 0 0 0 0 17388811.196277618 27997697.955711365 0 27997697.955711365 42343694.124267578 0 0 0 0 14367221.996816635 18473627.430343628 0 18473627.430343628 29419002.349430084 0 0 0 0 22462548.01574564 31474422.783008575 0 31474422.783008575 36707452.488357544 0 0 0 0 3726429.1750364304 8571038.9901351929 0 8571038.9901351929 30721905.0825634 0 0 0 0 -863439.05024242401 17201618.506370544 0 17201618.506370544 13390454.557304382 0 0 0 0 -1131771.7095982432 13197250.414909124 0 13197250.414909124 39229978.633499146 0 0 0 0 -676270.38298803009 -367022.38717066497 0 -367022.38717066497 478636.65649184957 0 0 0 0 -883710.35347747803 -513931.65452575684 0 -513931.65452575684 37326643.377972603 0 0 0 0 7178702.2998142242 15262345.484687805 0 15262345.484687805 37823547.098449707 0 0 0 0 -9655074.5548973083 -12938352.459579468 0 -12938352.459579468 1123075.4025688171 0 0 0 0 4175242.4563102722 13744311.550819397 0 13744311.550819397 49466234.438751221 0 0 0 0 4660780.2286834717 25563871.716384888 0 25563871.716384888 56756015.890739441 0 0 0 0 -99034.355974289589 30892.150756441988 0 30892.150756441988 106723.01092196628 0 0 0 0 5137806.0944862366 27643977.032264709 0 27643977.032264709 64460335.353942871 0 0 0 0 5071146.0696964264 22472856.599327087 0 22472856.599327087 55731196.164245605 0 0 0 0 5929375.9592857361 19094617.218490601 0 19094617.218490601 63208240.232984543 0 0 0 0 11842252.707717896 22495966.200592041 0 22495966.200592041 39877018.58454895 0 0 0 0 9970570.6177597046 24573150.853652954 0 24573150.853652954 55769915.666442871 0 0 0 0 1575476.2451310158 -5583144.1122126579 0 -5583144.1122126579 5866977.794921875 0 0 0 0 -10752941.778223038 -3281199.8262481689 0 -3281199.8262481689 18546207.869171143 0 0 0 0 -33568363.909744263 -15501588.758247375 0 -15501588.758247375 27799090.978118896 0 0 0 0 -26974741.937157631 -20692624.160751343 0 -20692624.160751343 22018623.429847717 0 0 0 0 -21755028.711149216 -12963279.90247345 0 -12963279.90247345 10187304.752235413 0 0 0 0 -16480000.207957745 -18170130.844903946 0 -18170130.844903946 1006052.1533432007 0 0 0 0 -39270978.632363796 -32536244.723205566 0 -32536244.723205566 10619129.585395813 0 0 0 0 -29831845.387022495 -18352177.035495758 0 -18352177.035495758 -10931103.593818665 0 0 0 0 -39610720.614125252 -25120636.158966064 0 -25120636.158966064 23945664.136260986 0 0 0 0 -29632753.897753716 -21988479.075138092 0 -21988479.075138092 -1235781.2898712158 0 0 0 0 -41104124.106618881 -24492467.101493835 0 -24492467.101493835 33836021.738227844 0 0 0 0 -15263765.407218933 -8386375.8031425476 0 -8386375.8031425476 23042954.300590515 0 0 0 0 -19535207.081736088 15156035.60956192 0 15156035.60956192 -4807371.7485561371 0 0 0 0 -17548340.446201324 605789.61399459839 0 605789.61399459839 49254705.121852875 0 0 0 0 -18426363.690418243 51614743.795501709 0 51614743.795501709 3181430.7824745178 0 0 0 0 -13347347.0154562 59976039.591026306 0 59976039.591026306 14801775.189941406 0 0 0 0 -26695633.644016266 53998741.80039978 0 53998741.80039978 25524474.763160706 0 0 0 0 -31276186.581344604 47303420.015800476 0 47303420.015800476 17191991.098846436 0 0 0 0 -27029492.170183659 38393794.866098404 0 38393794.866098404 14547829.926757812 0 0 0 0 -6436074.7252521515 -19375555.461219788 0 -19375555.461219788 9390066.259622097 0 0 0 0 -45558957.944530964 -31803780.447536469 0 -31803780.447536469 36844405.402816772 0 0 0 0 -34976619.257596016 35984522.585597992 0 35984522.585597992 16359987.714996338 0 0 0 0 292013.499412623 -670203.28563484736 0 -670203.28563484736 -583870.38345734403 0 0 0 0 -6838013.6777328849 -34731062.184614182 0 -34731062.184614182 -23062034.483345032 0 0 0 0 -25406111.491239548 -4223946.4172439575 0 -4223946.4172439575 29411790.273550987 0 0 0 0 -337171.92317172582 -3210546.8023145935 0 -3210546.8023145935 7034896.906859044 0 0 0 0 11784029.94771719 -13925291.618431091 0 -13925291.618431091 -2965782.9863739014 0 0 0 0 12462762.777179003 -20588747.633049011 0 -20588747.633049011 -29064317.841380596 0 0 0 0 -7879745.3553873301 -33336851.921711922 0 -33336851.921711922 -30647488.672927856 0 0 0 0 486270.77004072641 -2838738.0829689875 0 -2838738.0829689875 6323653.1952556632 0 0 0 0 -4478678.2742314339 -23903806.105682373 0 -23903806.105682373 -38360846.315391541 0 0 0 0 -10453918.675006405 -2677443.2033257484 0 -2677443.2033257484 10476577.920013428 0 0 0 0 -8595329.3260817528 20087396.246166229 0 20087396.246166229 -40874539.388542175 0 0 0 0 1698530.7189510539 -28424137.652793884 0 -28424137.652793884 27293245.432958603 0 0 0 0 1805166.7292281031 17780240.902384281 0 17780240.902384281 53918032.718383789 0 0 0 0 -36638701.686605453 -38081169.291602135 0 -38081169.291602135 9714320.9373550415 0 0 0 0 -15516418.287278175 -6669936.5355148315 0 -6669936.5355148315 -3457218.6985034943 0 0 0 0 10760568.757529736 -23437307.835422516 0 -23437307.835422516 5840295.8310546875 0 0 0 0 -2981654.3623193502 7473370.8594908714 0 7473370.8594908714 37916805.610290527 0 0 0 0 4188426.5323323011 -17477830.346410751 0 -17477830.346410751 -19036008.983589172 0 0 0 0 60308523.505798526 35848031.170751572 0 35848031.170751572 36875113.408161163 0 0 0 0 12238522.846921086 -4742686.8909091949 0 -4742686.8909091949 47700267.165390015 0 0 0 0 -27905647.920184612 -12112332.215076447 0 -12112332.215076447 -35914976.69216156 0 0 0 0 -52351865.689733505 -28309414.662631989 0 -28309414.662631989 2915226.5588054657 0 0 0 0 -71249351.220132828 87138012.627605438 0 87138012.627605438 -111277853.24658203 0 0 0 0 279799.46377263591 -3374742.5827242685 0 -3374742.5827242685 6868361.1561791506 0 0 0 0 -34791394.462647438 -42329643.668010712 0 -42329643.668010712 -19680269.545902252 0 0 0 0 -2702619.6472842689 447198.16011860967 0 447198.16011860967 2421373.6152111627 0 0 0 0 -19761073.891196251 19427085.416728973 0 19427085.416728973 23710583.170902252 0 0 0 0 -58364013.974472046 69533187.239360809 0 69533187.239360809 -138878416.9023819 0 0 0 0 208999331.3937912 -98942615.123146057 0 -98942615.123146057 -89790923.626918793 0 0 0 0 -1317882.4867477417 -69267540.57843399 0 -69267540.57843399 -48247449.181091309 0 0 0 0 54950581.874855995 -199012055.9414854 0 -199012055.9414854 -15057019.500686646 0 0 0 0 -143648245.75390935 -57979486.360584259 0 -57979486.360584259 -441496138.93299103 0 0 0 0 95695279.049658775 192563873.22967529 0 192563873.22967529 208618980.00720215 0 0 0 0 -89553702.706707001 117884190.59832764 0 117884190.59832764 430296116.66604233 0 0 0 0 5295571.6733283997 -227185302.81593704 0 -227185302.81593704 391834557.59133911 0 0 0 0 324168.54769638786 -2471426.6168811116 0 -2471426.6168811116 5606846.4798732176 0 0 0 0 -381658847.72648239 -279119640.49421692 0 -279119640.49421692 777097967.19068146 0 0 0 0 -49570497.894704819 -26210095.489461899 0 -26210095.489461899 25082707.821586609 0 0 0 0 10848654.833532333 -3892901.118812561 0 -3892901.118812561 -9230020.1904182434 0 0 0 0 36648323.876679897 50424648.081007004 0 50424648.081007004 28890240.891998291 0 0 0 0 16339958.055041552 69013098.354683876 0 69013098.354683876 110500404.1812973 0 0 0 0 9736915.2675561905 32265789.812950134 0 32265789.812950134 58659779.453521729 0 0 0 0 -9234517.928850174 51784802.521297455 0 51784802.521297455 45324565.270561218 0 0 0 0 13728484.876708984 59256324.810523987 0 59256324.810523987 25490972.582424164 0 0 0 0 -152261844.78913021 -171241158.42435455 0 -171241158.42435455 -190613946.17628479 0 0 0 0 276801.51024971297 -545212.32336157933 0 -545212.32336157933 676468.12888208404 0 0 0 0 291546.53316065762 -1547579.2464392306 0 -1547579.2464392306 3509262.1859540045 0 0 0 0 -16273631.156676054 -14167240.114800215 0 -14167240.114800215 37325742.994094849 0 0 0 0 43155510.199767612 94221724.570025921 0 94221724.570025921 161767034.63385773 0 0 0 0 58802979.079668999 50322677.609340668 0 50322677.609340668 73428308.472805023 0 0 0 0 27848125.998901844 52584099.954181671 0 52584099.954181671 80885717.77907753 0 0 0 0 3103889.4205446243 2449254.3171272278 0 2449254.3171272278 33675973.222305298 0 0 0 0 6026951.0046665967 42475084.74600625 0 42475084.74600625 72324043.485618591 0 0 0 0 73191774.0169034 104636454.68139648 0 104636454.68139648 112224646.67145729 0 0 0 0 37374349.548856378 80770949.062996387 0 80770949.062996387 131332403.75454712 0 0 0 0 46747116.71241951 52214409.29126358 0 52214409.29126358 58924072.25605011 0 0 0 0 59923204.332565516 104764624.6303587 0 104764624.6303587 190445653.47897339 0 0 0 0 118066440.87300986 133614121.22492218 0 133614121.22492218 174533491.801754 0 0 0 0 130920878.42301989 88002420.337706089 0 88002420.337706089 200764721.82482147 0 0 0 0 76580435.36792922 116086192.4472332 0 116086192.4472332 188027741.92848587 0 0 0 0 84441071.244891882 98656245.914745331 0 98656245.914745331 178799893.82412815 0 0 0 0 46398676.35183835 82762785.797538757 0 82762785.797538757 253549755.91348267 0 0 0 0 45535729.54746151 92575147.471984863 0 92575147.471984863 182159005.10187531 0 0 0 0 63849983.784977436 98607237.545917511 0 98607237.545917511 96095857.154285431 0 0 0 0 38300063.985285759 74339439.298648834 0 74339439.298648834 133652561.62954712 0 0 0 0 66601347.555727005 82804186.999160767 0 82804186.999160767 69840077.097862244 0 0 0 0 54057529.550197601 128423716.82718277 0 128423716.82718277 177207620.3323288 0 0 0 0 48856511.460921288 45338558.822000504 0 45338558.822000504 45325581.190261841 0 0 0 0 92359521.358617783 6913970.1930618286 0 6913970.1930618286 -35365630.848754883 0 0 0 0 126317206.13410187 87679827.473228455 0 87679827.473228455 -15776877.168397903 0 0 0 0 104685758.20238876 138999577.34710693 0 138999577.34710693 100717232.09860611 0 0 0 0 53703914.166269302 101407998.72035599 0 101407998.72035599 184631014.87661743 0 0 0 0 162775202.34226704 168404449.70877075 0 168404449.70877075 128690341.95934296 0 0 0 0 161777938.23442572 193878750.84782016 0 193878750.84782016 281456753.52467346 0 0 0 0 74709699.266918182 93352531.056465149 0 93352531.056465149 282832776.80677795 0 0 0 0 56172303.513812065 134718464.48266506 0 134718464.48266506 236457492.25816345 0 0 0 0 49635892.577721596 81359168.806777954 0 81359168.806777954 282677396.36727142 0 0 0 0 60055245.153625488 116788601.7280426 0 116788601.7280426 317182512.59306335 0 0 0 0 57666802.176618576 96977581.933879852 0 96977581.933879852 310567142.16366577 0 0 0 0 93551549.851900101 18920541.766899109 0 18920541.766899109 321317597.26527405 0 0 0 0 74912970.790642321 104630998.07462972 0 104630998.07462972 491000252.91534424 0 0 0 0 43000243.889152527 85247499.205799103 0 85247499.205799103 256668921.81624603 0 0 0 0 51164197.887218475 85423208.371959686 0 85423208.371959686 213811912.16415787 0 0 0 0 36222185.503547668 101811927.64144897 0 101811927.64144897 266229259.13238525 0 0 0 0 54140861.228152275 65572875.497627258 0 65572875.497627258 281992165.59255028 0 0 0 0 72154764.215165615 83256656.655719757 0 83256656.655719757 254334659.50921249 0 0 0 0 45187983.126656771 71258063.275934219 0 71258063.275934219 262045978.64525604 0 0 0 0 105286597.78329372 61997942.439315796 0 61997942.439315796 251322884.38889694 0 0 0 0 118803551.63439548 153683191.76036859 0 153683191.76036859 117461379.23518372 0 0 0 0 112747842.21257257 38272157.544662476 0 38272157.544662476 220137929.92059326 0 0 0 0 66251162.053389549 62980376.676208496 0 62980376.676208496 251301730.38439178 0 0 0 0 31887306.301211834 56776902.260513306 0 56776902.260513306 273334377.59354782 0 0 0 0 1408945.7676730156 116892506.47483444 0 116892506.47483444 240237272.65493774 0 0 0 0 71110521.109100103 5903928.931968689 0 5903928.931968689 342823330.00812626 0 0 0 0 45281822.847750664 121862135.97480392 0 121862135.97480392 291359817.47780991 0 0 0 0 236621135.81229454 62843167.405928612 0 62843167.405928612 187322179.3144455 0 0 0 0 65557160.887658596 63324645.36067009 0 63324645.36067009 252071807.70939636 0 0 0 0 -98974641.361600876 45835462.932248116 0 45835462.932248116 -81695112.876808167 0 0 0 0 -34234653.808108807 21545737.20917511 0 21545737.20917511 14270761.707931519 0 0 0 0 -78756184.109823227 -6445557.7172470093 0 -6445557.7172470093 16048163.836778641 0 0 0 0 -23262221.207548141 50353194.651481628 0 50353194.651481628 -7922509.6188488007 0 0 0 0 -23264750.728538513 50528232.772651672 0 50528232.772651672 36172170.472450256 0 0 0 0 5092628.9247894287 31560316.150733948 0 31560316.150733948 23929649.247707367 0 0 0 0 5019027.4519451261 30405964.891420484 0 30405964.891420484 88744635.496200562 0 0 0 0 -30150816.824462891 -353446.68238830566 0 -353446.68238830566 83716633.089813232 0 0 0 0 -18374641.075410843 -13015811.732032776 0 -13015811.732032776 69176157.390937805 0 0 0 0 -47774295.509796143 -46207837.804298401 0 -46207837.804298401 178245880.85232544 0 0 0 0 -19083994.121510506 -1888513.7584724426 0 -1888513.7584724426 175338163.5606842 0 0 0 0 -75532711.22698307 -49888010.136173248 0 -49888010.136173248 313220580.92068481 0 0 0 0 -75223757.772590637 -41625912.112945557 0 -41625912.112945557 237406303.80493164 0 0 0 0 -38132745.478744507 2326689.4329299927 0 2326689.4329299927 182719632.19519806 0 0 0 0 -63362120.562324524 -79025759.65763855 0 -79025759.65763855 170771613.03884506 0 0 0 0 -92085169.805936605 -106383464.06786752 0 -106383464.06786752 -98757446.548446655 0 0 0 0 -89297395.452407837 -130276041.98690033 0 -130276041.98690033 141075403.27884674 0 0 0 0 -289706537.1072216 -252220035.71569824 0 -252220035.71569824 187634070.14785767 0 0 0 0 -91182900.913665771 -83895155.340583801 0 -83895155.340583801 165967018.84797668 0 0 0 0 -47865289.031098366 -67483461.260189056 0 -67483461.260189056 37916768.211746216 0 0 0 0 250428671.42701626 320558858.45925903 0 320558858.45925903 200945040.7987442 0 0 0 0 -147901.27385692205 -172242.97015201859 0 -172242.97015201859 1257964.6609418206 0 0 0 0 152036028.57565022 182175978.11367035 0 182175978.11367035 44535847.191055298 0 0 0 0 37208402.094324112 178295986.01424789 0 178295986.01424789 247039210.81521988 0 0 0 0 111957702.83817863 227683786.19615936 0 227683786.19615936 215528548.80430794 0 0 0 0 -349189375.0107336 -6776083.6685428619 0 -6776083.6685428619 227645505.06793594 0 0 0 0 -149021169.48633671 436695912.48622131 0 436695912.48622131 459161436.69284821 0 0 0 0 309294158.91242409 34595353.971214294 0 34595353.971214294 185140159.28057098 0 0 0 0 -77529.680511068553 -785998.47135829553 0 -785998.47135829553 2877513.9706770852 0 0 0 0 -224081132.90561748 -68018381.354354382 0 -68018381.354354382 267256.3433303833 0 0 0 0 -212810234.10236168 32275433.833049774 0 32275433.833049774 16838091.903442383 0 0 0 0 -80636914.99798584 24740919.900295258 0 24740919.900295258 -21494947.239852905 0 0 0 0 -93290071.114257812 -34619595.167140961 0 -34619595.167140961 -47409457.768493652 0 0 0 0 -122892913.35068607 1101074.8516120911 0 1101074.8516120911 32311077.420333862 0 0 0 0 480667836.96326065 -566107297.02582932 0 -566107297.02582932 -679376462.94821167 0 0 0 0 1056120889.9393444 1070029400.6138992 0 1070029400.6138992 486872352.20178223 0 0 0 0 175295823.39009666 -100006702.990448 0 -100006702.990448 395036575.33014679 0 0 0 0 -549337388.42198181 -309269959.57265091 0 -309269959.57265091 103440805.54327393 0 0 0 0 82811.89524194249 -473249.16622879636 0 -473249.16622879636 1171934.2223197892 0 0 0 0 -89555755.382690907 -24722124.90363121 0 -24722124.90363121 29931434.170166016 0 0 0 0 339436.96964471042 -1151726.7395996694 0 -1151726.7395996694 2304321.7010727189 0 0 0 0 -76313039.619749069 8458618.651889801 0 8458618.651889801 8379773.1203384399 0 0 0 0 -78980942.755109787 25789034.779476166 0 25789034.779476166 54662094.028640747 0 0 0 0 -72232734.065872192 28107214.453292847 0 28107214.453292847 22134470.412410736 0 0 0 0 -92282722.817193985 9827414.1342124939 0 9827414.1342124939 49167580.259780884 0 0 0 0 -50511308.421606064 25338085.996528625 0 25338085.996528625 46095173.467188835 0 0 0 0 -69004630.745107651 40487371.554683685 0 40487371.554683685 78941744.396987915 0 0 0 0 -50830330.421157837 44957326.310241699 0 44957326.310241699 59251059.733884811 0 0 0 0 -41544367.105047226 48077388.188835144 0 48077388.188835144 60907729.14956665 0 0 0 0 -54614593.869869232 54322711.987129211 0 54322711.987129211 82771224.077774048 0 0 0 0 -22596482.611274719 51314660.478645325 0 51314660.478645325 53430849.513853073 0 0 0 0 -41551318.774072647 61906126.077224731 0 61906126.077224731 90285139.71270752 0 0 0 0 -33664684.090620041 37308427.746551514 0 37308427.746551514 57733177.699630737 0 0 0 0 -71615251.099456787 52125258.038835526 0 52125258.038835526 63198647.60256958 0 0 0 0 -90942371.890286922 30899699.477392197 0 30899699.477392197 36428127.412536621 0 0 0 0 -35661360.330945969 50352589.896377563 0 50352589.896377563 21392065.045593262 0 0 0 0 10596409.00863266 44869528.165222168 0 44869528.165222168 21070659.041366577 0 0 0 0 8957193.9177913666 38761542.361995697 0 38761542.361995697 22756156.933456421 0 0 0 0 -33070571.372232437 44735413.671180725 0 44735413.671180725 70125168.355285645 0 0 0 0 -23702312.072122574 58157197.009170532 0 58157197.009170532 66228484.238321304 0 0 0 0 -30810720.000192642 44499188.352622986 0 44499188.352622986 101130714.29730225 0 0 0 0 -29259131.665487289 30194403.589982986 0 30194403.589982986 229175736.35229492 0 0 0 0 -12183476.637556076 158370845.81550598 0 158370845.81550598 62899964.819320679 0 0 0 0 -18102921.976421356 195972538.74839783 0 195972538.74839783 190890571.14735413 0 0 0 0 13006675.096399307 112878592.87273407 0 112878592.87273407 42389526.635261536 0 0 0 0 -21431971.115428925 110024101.45857239 0 110024101.45857239 154959331.91333008 0 0 0 0 -21569042.088209152 76676694.24471283 0 76676694.24471283 85131466.233459473 0 0 0 0 -31042172.087824345 83376612.399391174 0 83376612.399391174 85513039.183578491 0 0 0 0 -45846155.401468277 56142661.932292938 0 56142661.932292938 94102925.967666626 0 0 0 0 -27342246.308076859 56479531.961479187 0 56479531.961479187 81722207.062669754 0 0 0 0 -9426990.2972755432 49246513.162799835 0 49246513.162799835 95384556.388870239 0 0 0 0 -15740459.237533569 57463058.17263031 0 57463058.17263031 86671983.851882935 0 0 0 0 30821393.262321472 83871203.850769043 0 83871203.850769043 84246198.964183807 0 0 0 0 39150871.892620087 39194883.718826294 0 39194883.718826294 92751060.301944733 0 0 0 0 -7840243.3149681091 34894262.761035919 0 34894262.761035919 108372442.15386581 0 0 0 0 284393.55693835299 61968.381653049961 0 61968.381653049961 -168497.146335884 0 0 0 0 47050294.625753403 87070870.60823822 0 87070870.60823822 57545095.112186432 0 0 0 0 2557559.3237457275 10361784.20552063 0 10361784.20552063 14475208.117576599 0 0 0 0 -52457648.68362236 12925131.359176636 0 12925131.359176636 -2841641.3856430054 0 0 0 0 -168931.53270603996 -29071.735040046275 0 -29071.735040046275 38101.365115136839 0 0 0 0 -170185.34613274969 160989.14082565904 0 160989.14082565904 46415.776807691902 0 0 0 0 84030398.808891296 85789503.959300995 0 85789503.959300995 78120569.491897583 0 0 0 0 -20989908.798246861 90644975.768413544 0 90644975.768413544 199864064.17955017 0 0 0 0 32341737.822723389 28985160.067947388 0 28985160.067947388 15923312.423706055 0 0 0 0 -18985464.363857269 -19059568.521469116 0 -19059568.521469116 627358.54739379883 0 0 0 0 -34168603.580406189 50084055.537963867 0 50084055.537963867 122043675.1753006 0 0 0 0 -33410975.559968948 54072790.420066833 0 54072790.420066833 123908454.98480225 0 0 0 0 -31818857.689086914 25504566.889816284 0 25504566.889816284 116010639.12134552 0 0 0 0 -53895746.615296364 43314508.598041534 0 43314508.598041534 110396173.85353088 0 0 0 0 -61011160.261819839 27215650.713439941 0 27215650.713439941 73845923.630661011 0 0 0 0 -37858393.59394455 35282011.594711304 0 35282011.594711304 69593673.197738647 0 0 0 0 -34547315.567102432 43194686.042251587 0 43194686.042251587 77753997.308479309 0 0 0 0 -40300707.909008026 35530857.639755249 0 35530857.639755249 108895522.60562897 0 0 0 0 -5610823.5848083496 33095057.351966858 0 33095057.351966858 109047903.48460484 0 0 0 0 -24640809.185096741 3478363.4957275391 0 3478363.4957275391 121146291.82855225 0 0 0 0 -61132466.92622757 10217647.684268951 0 10217647.684268951 121577955.2286377 0 0 0 0 -58301516.862226486 -58040751.649848938 0 -58040751.649848938 69516679.688095093 0 0 0 0 -74125714.213760376 19234514.185707092 0 19234514.185707092 175035613.00270081 0 0 0 0 -61881962.814403534 36922148.187152863 0 36922148.187152863 186375920.24923706 0 0 0 0 -130037599.28811264 3139089.807258606 0 3139089.807258606 285654359.34925079 0 0 0 0 -126219839.5681076 -48988609.242095947 0 -48988609.242095947 184127556.10168922 0 0 0 0 -43344410.553094864 57779130.782081604 0 57779130.782081604 201465964.94757843 0 0 0 0 -69691865.741279602 37976306.357322693 0 37976306.357322693 211129936.92323303 0 0 0 0 9056.5424354495481 -21339.995936168358 0 -21339.995936168358 -31277.602514436468 0 0 0 0 -673060.65541217476 202540.57895294204 0 202540.57895294204 516919.56896072254 0 0 0 0 305406294.2426281 -255944329.56018829 0 -255944329.56018829 -117180459.0305481 0 0 0 0 -794142036.91262817 188784507.87043762 0 188784507.87043762 -71363757.063892365 0 0 0 0 -155409214.58553314 -139294684.2773819 0 -139294684.2773819 -79410164.396186829 0 0 0 0 -344278414.66161346 -10063120.094295502 0 -10063120.094295502 27043538.298599243 0 0 0 0 168451678.56706619 16493167.605852127 0 16493167.605852127 -91590160.787437439 0 0 0 0 -75070002.56444931 240801171.14190292 0 240801171.14190292 -188306359.4289856 0 0 0 0 -134762206.20062447 87089432.454978943 0 87089432.454978943 47833290.953727722 0 0 0 0 46785606.410074234 115301828.82528687 0 115301828.82528687 23746933.068222046 0 0 0 0 -1146789.3082307198 637614.77033142187 0 637614.77033142187 443897.01036173105 0 0 0 0 -88386612.432739258 -98247099.205528259 0 -98247099.205528259 -92042782.968576431 0 0 0 0 -48302399.461835861 50865998.848678589 0 50865998.848678589 1478839.1439208984 0 0 0 0 -19642007.363618851 -40319010.136116028 0 -40319010.136116028 -12435495.706203461 0 0 0 0 2629111.6996498108 2301527.1020393372 0 2301527.1020393372 3282893.7072105408 0 0 0 0 4520895.5120658875 5392743.1374435425 0 5392743.1374435425 -7123940.619102478 0 0 0 0 4557874.2633638382 7495799.2453250885 0 7495799.2453250885 1418757.0511398315 0 0 0 0 -994518.26079035923 659532.6241817493 0 659532.6241817493 223317.63973008096 0 0 0 0 143161935.58262539 -29152540.686603546 0 -29152540.686603546 5774427.142127037 0 0 0 0 3210142.4848155975 -514825.02182006836 0 -514825.02182006836 -500619.2043762207 0 0 0 0 -9661.6477632522583 792456.03777313232 0 792456.03777313232 2695520.9900436401 0 0 0 0 -593437.75303840637 2126412.088142395 0 2126412.088142395 -3351.8718795776367 0 0 0 0 -1960962.8394676447 -5860543.4324924946 0 -5860543.4324924946 -9657894.84425354 0 0 0 0 -356282.44036492798 -37712.521282395348 0 -37712.521282395348 461909.8542708382 0 0 0 0 -6308204.4098844528 2187899.9856796265 0 2187899.9856796265 1051227.0072174072 0 0 0 0 8946504.350112915 3012984.5653533936 0 3012984.5653533936 -549208.01327896118 0 0 0 0 49150320.745368004 59870441.123836517 0 59870441.123836517 26602694.768478394 0 0 0 0 -2515845.9717770815 -21976863.41246748 0 -21976863.41246748 -26867997.503166199 0 0 0 0 -224074.51790999342 -13886.299073142931 0 -13886.299073142931 257363.86139845289 0 0 0 0 252268.64588928223 17858599.2905159 0 17858599.2905159 34079579.758384705 0 0 0 0 -1712171.4594669342 27580801.676765442 0 27580801.676765442 8736623.2677476406 0 0 0 0 -61809367.988670349 10509953.174629211 0 10509953.174629211 17107044.093307495 0 0 0 0 430228.06230910262 2549355.4016652461 0 2549355.4016652461 7033044.1337287761 0 0 0 0 16580116.077302933 23614772.917074203 0 23614772.917074203 -3863746.962348938 0 0 0 0 29975385.784296036 11672580.846630096 0 11672580.846630096 -20948510.908996582 0 0 0 0 -29947122.01202774 25239114.984863281 0 25239114.984863281 2900624.8154392242 0 0 0 0 161897.7568277081 1686736.3706533771 0 1686736.3706533771 5648821.5583118722 0 0 0 0 -502340714.35590219 200461798.64268875 0 200461798.64268875 172771784.73946381 0 0 0 0 -158579681.08357477 -165540475.12069321 0 -165540475.12069321 12517798.941520691 0 0 0 0 -42533.991043060319 732482.87682167743 0 732482.87682167743 3490618.4053398483 0 0 0 0 -237067400.25337029 -112655814.19344902 0 -112655814.19344902 210955902.86979675 0 0 0 0 26241129.719230652 14784513.290489197 0 14784513.290489197 -20132062.285270691 0 0 0 0 -3961595.1716079712 27505454.414226532 0 27505454.414226532 32483997.304321289 0 0 0 0 23612377.724740982 7547399.295003891 0 7547399.295003891 41380259.01449585 0 0 0 0 43354934.714334488 15571701.866004944 0 15571701.866004944 5487798.2726325989 0 0 0 0 31729111.10735178 51957954.918560028 0 51957954.918560028 32068693.190719604 0 0 0 0 -9054391.997833252 28297826.116355896 0 28297826.116355896 23516543.24760437 0 0 0 0 33101506.230840683 4433789.682762146 0 4433789.682762146 110985488.94789886 0 0 0 0 35056725.742170334 47293811.761421204 0 47293811.761421204 77817510.009140015 0 0 0 0 181966406.96706009 1763052.6915969849 0 1763052.6915969849 -7020945.8923492432 0 0 0 0 51274429.582180023 -38996844.598571777 0 -38996844.598571777 253024063.79974365 0 0 0 0 76099485.75094223 101842436.15782166 0 101842436.15782166 -56910733.074489594 0 0 0 0 63581885.966171265 -11471916.326156616 0 -11471916.326156616 27151966.763130188 0 0 0 0 -87133.467294735834 -84114.839600877836 0 -84114.839600877836 37021.400675008539 0 0 0 0 45161803.743797302 14350108.085334778 0 14350108.085334778 -117788402.84056091 0 0 0 0 -5262814.1377334595 17032041.71868515 0 17032041.71868515 39237503.646743774 0 0 0 0 56085967.753860474 53317088.208618164 0 53317088.208618164 -84302807.637771606 0 0 0 0 -22866786.533153534 71337525.243877411 0 71337525.243877411 -41141147.749526978 0 0 0 0 18475757.71723175 24999557.050170898 0 24999557.050170898 -30104060.50909996 0 0 0 0 29952836.696180888 17043732.09999606 0 17043732.09999606 -62694679.680465698 0 0 0 0 2687637.3704376221 -8582594.2972106934 0 -8582594.2972106934 -4112520.5721435547 0 0 0 0 -35322779.989773631 -120213579.69225121 0 -120213579.69225121 84370235.829711914 0 0 0 0 290890.48692416988 -269875.20703149121 0 -269875.20703149121 17507.368602789938 0 0 0 0 25882799.798476815 47950523.50643158 0 47950523.50643158 17423816.539611816 0 0 0 0 79883122.058670163 2939299.3731899261 0 2939299.3731899261 -65382102.456565857 0 0 0 0 -1688321.2628371716 17468599.570777893 0 17468599.570777893 39806952.736701965 0 0 0 0 259764386.04460025 -162639882.22596741 0 -162639882.22596741 84924724.898391724 0 0 0 0 271772332.48164654 202067491.55288315 0 202067491.55288315 -90783139.862342834 0 0 0 0 -94407262.450562477 42035821.932792664 0 42035821.932792664 -19977756.43296814 0 0 0 0 -282685158.24132419 339493262.99218178 0 339493262.99218178 -47514738.888977051 0 0 0 0 -186240994.60298347 -75933054.777225494 0 -75933054.777225494 27891908.870613098 0 0 0 0 -112974264.13164759 127261610.8402977 0 127261610.8402977 568487236.64556885 0 0 0 0 1069623.6740909815 -142220377.60270691 0 -142220377.60270691 87253050.550422668 0 0 0 0 -49147421.615879536 -54084116.47492218 0 -54084116.47492218 108460793.77703857 0 0 0 0 -588248.15459109971 -596417.88993378449 0 -596417.88993378449 1788204.1073397659 0 0 0 0 140753215.98953056 -108171848.97010422 0 -108171848.97010422 76597280.376403809 0 0 0 0 15007545.949237823 33674343.185569763 0 33674343.185569763 70867206.508625031 0 0 0 0 126024623.79248258 238514086.88098848 0 238514086.88098848 290907428.74253082 0 0 0 0 -174415.4586243112 -307212.6615189655 0 -307212.6615189655 631215.45653390139 0 0 0 0 402730204.68814659 -283911698.17816162 0 -283911698.17816162 127214898.35326767 0 0 0 0 3360659.7281963825 -28845382.207641602 0 -28845382.207641602 460277744.06124878 0 0 0 0 -8806302.254496187 66902729.79960537 0 66902729.79960537 287392196.9630661 0 0 0 0 6451161.0070412159 24133475.039707184 0 24133475.039707184 82520132.256801605 0 0 0 0 -605688.07300912752 722047.93876260333 0 722047.93876260333 1071860.9848502381 0 0 0 0 -92831430.140536308 245422682.18030548 0 245422682.18030548 -300438472.15478897 0 0 0 0 -27941860.580637455 21990154.058189392 0 21990154.058189392 207802043.6115799 0 0 0 0 -34527030.6815238 135968022.36344528 0 135968022.36344528 243973544.35382843 0 0 0 0 -77399806.61648041 150371229.12469864 0 150371229.12469864 235678197.57160187 0 0 0 0 -51645928.581962109 144596568.56132507 0 144596568.56132507 -24731934.847503662 0 0 0 0 49456449.360209942 136124655.89170837 0 136124655.89170837 -250471162.04338837 0 0 0 0 -94560200.022120476 112286570.8517952 0 112286570.8517952 -34218622.190841675 0 0 0 0 -90071426.540325165 113467062.09719086 0 113467062.09719086 -96864931.976928711 0 0 0 0 -1400448.9197502066 782820.7500319127 0 782820.7500319127 1992738.2181277517 0 0 0 0 -157092854.15487385 78123825.061027527 0 78123825.061027527 19582085.544506073 0 0 0 0 -959066.23044109321 -939216.59268694615 0 -939216.59268694615 3895591.0594364926 0 0 0 0 -52978231.359737188 -42591912.831254959 0 -42591912.831254959 -29824219.190124512 0 0 0 0 37171402.497376442 -73942627.496574402 0 -73942627.496574402 101861966.38701057 0 0 0 0 -1698506.8292202658 350924.64500408433 0 350924.64500408433 1607651.4455603929 0 0 0 0 25109287.053847313 -87438239.786289215 0 -87438239.786289215 103400058.0025177 0 0 0 0 -15330818.172644615 -64290962.528778076 0 -64290962.528778076 -32413332.307533264 0 0 0 0 -102805781.98820686 -92862919.670619965 0 -92862919.670619965 -10734406.750413895 0 0 0 0 -216893472.87005156 -56411236.721111834 0 -56411236.721111834 51287696.996025085 0 0 0 0 -27339654.93275547 -92835169.204669952 0 -92835169.204669952 -3842425.1706314087 0 0 0 0 -582183.5756967793 -991744.47735551302 0 -991744.47735551302 3559693.9078390598 0 0 0 0 -282871499.66032213 24359842.237650692 0 24359842.237650692 141637632.01076508 0 0 0 0 -115620050.65129662 24572073.584625244 0 24572073.584625244 165764173.97096634 0 0 0 0 -123363111.13167357 62764501.986854553 0 62764501.986854553 -10727758.37097168 0 0 0 0 -34650884.883378506 -104753168.48418999 0 -104753168.48418999 3991291.7209796906 0 0 0 0 25026896.000590086 -254688327.68557358 0 -254688327.68557358 282402973.06824493 0 0 0 0 -102389518.2505666 66393174.32378006 0 66393174.32378006 255844297.37593079 0 0 0 0 282225793.94453621 109145510.36803055 0 109145510.36803055 -79472876.190303802 0 0 0 0 161853632.94631577 148615944.25553131 0 148615944.25553131 -56365277.093372345 0 0 0 0 22036758.953713894 34479283.399370193 0 34479283.399370193 9802829.7301940918 0 0 0 0 48322557.966192245 47353662.757305145 0 47353662.757305145 14206665.982707977 0 0 0 0 82354436.750336647 195761790.85261536 0 195761790.85261536 204168715.95390749 0 0 0 0 -7993649.8813295364 3827188.8330688477 0 3827188.8330688477 46843647.8179245 0 0 0 0 11600.84946937114 -91381.403740961105 0 -91381.403740961105 426881.4579618834 0 0 0 0 97158462.062652588 155241057.54675674 0 155241057.54675674 53615956.524749756 0 0 0 0 56711709.271457672 127727048.59073639 0 127727048.59073639 155088806.45874023 0 0 0 0 46877148.600241661 96461373.729690552 0 96461373.729690552 56104771.904846191 0 0 0 0 97262440.584544182 151684650.19167137 0 151684650.19167137 25410451.100387573 0 0 0 0 82122444.049413681 56893045.850532532 0 56893045.850532532 47285094.316856384 0 0 0 0 27549722.797698021 -2115450.421169281 0 -2115450.421169281 21684234.848403931 0 0 0 0 187497256.88161349 20074632.594501495 0 20074632.594501495 20297088.238327026 0 0 0 0 -22598571.466631889 -124165770.5452652 0 -124165770.5452652 -342573809.69239426 0 0 0 0 -253778587.57893276 -7157972.2313232422 0 -7157972.2313232422 207873818.03535461 0 0 0 0 -677394.83325588517 242188.50637757033 0 242188.50637757033 565626.13628298603 0 0 0 0 -383882593.34387398 -181975939.10169983 0 -181975939.10169983 189431171.82498169 0 0 0 0 -110505344.39636326 -50105311.891952515 0 -50105311.891952515 129064498.10973167 0 0 0 0 -180165451.06688309 -284527015.99912262 0 -284527015.99912262 13721737.294395447 0 0 0 0 309546245.126688 22444760.282905579 0 22444760.282905579 -65102579.724258423 0 0 0 0 192948513.87771034 -163903512.69820023 0 -163903512.69820023 90906160.289398193 0 0 0 0 -71578736.526222229 239592265.61051178 0 239592265.61051178 -277697058.65527344 0 0 0 0 -29650.617926992476 142731.00230364851 0 142731.00230364851 1101031.9170190543 0 0 0 0 -6343672.2332444191 186896453.98178673 0 186896453.98178673 460462457.21859741 0 0 0 0 321196468.61063194 529342320.86784363 0 529342320.86784363 -152151911.4837873 0 0 0 0 -61984455.469881058 -18527793.549031258 0 -18527793.549031258 52554127.841430664 0 0 0 0 192860127.14162463 -100381030.75022817 0 -100381030.75022817 144674658.86250305 0 0 0 0 -16811868.284182549 43628669.4923172 0 43628669.4923172 77785212.325013161 0 0 0 0 219679410.42506409 56205186.859226227 0 56205186.859226227 -167824698.28711236 0 0 0 0 137790084.72081387 214409553.1692813 0 214409553.1692813 335992797.91287231 0 0 0 0 238440.97123353323 -252657.60792408232 0 -252657.60792408232 373121.97712601349 0 0 0 0 137291852.72077751 131997966.37996674 0 131997966.37996674 146526796.21673584 0 0 0 0 92229887.085842133 157585464.7870636 0 157585464.7870636 234862644.10105133 0 0 0 0 -1231252.5299844742 110682790.50935173 0 110682790.50935173 348811700.41893005 0 0 0 0 121558243.57286072 88185233.332492828 0 88185233.332492828 52048076.300003052 0 0 0 0 49711503.206090927 88372518.92855835 0 88372518.92855835 166561060.23665619 0 0 0 0 199749.1100919731 -336448.90112167038 0 -336448.90112167038 825947.23070210963 0 0 0 0 81567909.48639679 31199110.890937805 0 31199110.890937805 38456854.103879929 0 0 0 0 37759657.147184372 34912274.260585785 0 34912274.260585785 45772289.841537476 0 0 0 0 -19227844.103984833 -183171531.48538208 0 -183171531.48538208 685614237.50036621 0 0 0 0 35508359.792201996 42935083.848182678 0 42935083.848182678 44374962.961223602 0 0 0 0 16234653.125709534 51201433.387670517 0 51201433.387670517 43430517.282470703 0 0 0 0 29410962.316299438 52497456.7877388 0 52497456.7877388 94976429.677383423 0 0 0 0 32655938.082420349 40926159.580322266 0 40926159.580322266 99343625.368530273 0 0 0 0 3181612.4061012268 15868420.743492126 0 15868420.743492126 85359768.763065338 0 0 0 0 6578956.0376319885 41456950.030315399 0 41456950.030315399 170675994.97709656 0 0 0 0 -10104982.814754486 40324843.424850464 0 40324843.424850464 170835679.77545929 0 0 0 0 49561724.355855823 86087519.209803104 0 86087519.209803104 157425933.10832214 0 0 0 0 -24156562.765670776 58644084.794616699 0 58644084.794616699 232675586.61510849 0 0 0 0 -4926854.6704845428 58610792.229972839 0 58610792.229972839 231764511.29153442 0 0 0 0 -37261780.229640007 10984252.649820328 0 10984252.649820328 236143147.75405884 0 0 0 0 -63195955.67011261 11872506.588066101 0 11872506.588066101 237750014.08181763 0 0 0 0 -103969926.20146751 3038382.4316749573 0 3038382.4316749573 326039028.1756897 0 0 0 0 -91423853.416139603 23432024.774505615 0 23432024.774505615 358599965.45793152 0 0 0 0 -81442153.070217133 29813559.11050415 0 29813559.11050415 309200768.85218239 0 0 0 0 -48833165.867245674 44987960.412246704 0 44987960.412246704 310150841.17608643 0 0 0 0 -95710189.482102394 66864645.29901123 0 66864645.29901123 331065360.55445862 0 0 0 0 -36584378.854763031 60598525.743080139 0 60598525.743080139 323698846.37569427 0 0 0 0 -130117077.28772354 45187033.894630432 0 45187033.894630432 358512174.39106619 0 0 0 0 -93055261.654724121 113077417.89906311 0 113077417.89906311 241480819.34836578 0 0 0 0 -56846802.632208824 57319662.877601624 0 57319662.877601624 321331922.97644424 0 0 0 0 -50350322.267014503 87388876.122119904 0 87388876.122119904 310558180.02821922 0 0 0 0 111323963.71743464 69708649.69018507 0 69708649.69018507 195139942.60742188 0 0 0 0 52679622.226424217 74774787.894752502 0 74774787.894752502 305819754.06784821 0 0 0 0 -30100378.047641754 47145704.621850014 0 47145704.621850014 338072105.46622467 0 0 0 0 65243191.201996803 31253535.368999481 0 31253535.368999481 429646172.17045975 0 0 0 0 97337518.500675201 257003883.36651421 0 257003883.36651421 296712444.23689938 0 0 0 0 275050468.82592201 124450735.26395988 0 124450735.26395988 237198980.35364532 0 0 0 0 84576684.480434418 151069041.5534935 0 151069041.5534935 246320833.35207748 0 0 0 0 92619927.486303329 105044750.72227097 0 105044750.72227097 154741187.35030746 0 0 0 0 61367596.142883301 93723540.76197052 0 93723540.76197052 215977091.52909088 0 0 0 0 61528101.573940277 94886369.761966705 0 94886369.761966705 219600482.36823273 0 0 0 0 51833846.704703331 58171165.93901062 0 58171165.93901062 276006865.37186813 0 0 0 0 36637949.686805725 14686207.942153931 0 14686207.942153931 151734055.58200431 0 0 0 0 10520733.355835438 51241314.851031303 0 51241314.851031303 104663030.12947083 0 0 0 0 -30975089.95331192 -16668926.397254944 0 -16668926.397254944 53391285.133045197 0 0 0 0 -131364484.87408829 42248374.306674957 0 42248374.306674957 114897764.47523117 0 0 0 0 -150089952.25207329 168745381.93772888 0 168745381.93772888 222129800.44250488 0 0 0 0 6068081.3662343025 58873455.796415329 0 58873455.796415329 81365593.089187622 0 0 0 0 -24501180.042654991 72034184.908039093 0 72034184.908039093 197258049.41319275 0 0 0 0 98608022.293557644 -302043379.02552032 0 -302043379.02552032 189205553.84731674 0 0 0 0 79848802.500006258 -212054662.31923342 0 -212054662.31923342 116408470.33724976 0 0 0 0 -50003223.602674007 -175632324.55745888 0 -175632324.55745888 201604809.30162048 0 0 0 0 65888265.462894917 -164408577.27164078 0 -164408577.27164078 86342955.940076828 0 0 0 0 -87835.591447858358 -481135.74071796867 0 -481135.74071796867 1078174.3856058531 0 0 0 0 -146860115.63607454 -105025276.76815033 0 -105025276.76815033 127399097.50176239 0 0 0 0 -324144.17131297919 -913808.578485657 0 -913808.578485657 2743310.8163699955 0 0 0 0 -267419168.54638863 98258812.501953125 0 98258812.501953125 170049328.02985573 0 0 0 0 67751537.799245358 338719579.24481392 0 338719579.24481392 269125969.59536934 0 0 0 0 29815397.824059963 48289878.718040943 0 48289878.718040943 34491106.27230072 0 0 0 0 92657987.204209566 -27604528.248746872 0 -27604528.248746872 693832869.2787323 0 0 0 0 429942275.71384621 -176772180.27664948 0 -176772180.27664948 187392814.19263458 0 0 0 0 417531015.7941246 193446583.08711243 0 193446583.08711243 352085077.6939621 0 0 0 0 309712241.26004213 -442465548.39903897 0 -442465548.39903897 348906051.64195251 0 0 0 0 -42919800.814687729 -144243788.30451584 0 -144243788.30451584 679130729.62227631 0 0 0 0 70601924.360155106 -33641267.624986649 0 -33641267.624986649 220505521.23091888 0 0 0 0 17186826.959599972 69270209.846660614 0 69270209.846660614 136489595.74642944 0 0 0 0 -83319699.989635468 -71388885.306365967 0 -71388885.306365967 343157762.29146576 0 0 0 0 -43817056.660874024 -121675126.62622583 0 -121675126.62622583 265034918.3109436 0 0 0 0 12404814.504073381 -205013112.34246826 0 -205013112.34246826 342458698.86555099 0 0 0 0 5668359.7666027546 -1853821.0520963669 0 -1853821.0520963669 -4824270.186958313 0 0 0 0 214345.48016075301 -131585.02987170685 0 -131585.02987170685 -127132.99900127202 0 0 0 0 -361910.84659874439 15172125.412083626 0 15172125.412083626 -1157667.6869659424 0 0 0 0 -153454251.45260859 14294090.606646538 0 14294090.606646538 1324401.2422332764 0 0 0 0 -155320704.75055599 19702241.862957001 0 19702241.862957001 141089110.70006561 0 0 0 0 82560605.11021781 -51303555.141706467 0 -51303555.141706467 97623216.910293579 0 0 0 0 37046435.10507822 13053419.977527618 0 13053419.977527618 -63592742.762588501 0 0 0 0 73478887.392457008 89925615.107192993 0 89925615.107192993 91436097.744645357 0 0 0 0 -102133445.59192228 116126497.93870544 0 116126497.93870544 26408725.70905304 0 0 0 0 119046703.16618073 -35860446.424769402 0 -35860446.424769402 8293512.9296112061 0 0 0 0 165192161.56340218 48414632.935157776 0 48414632.935157776 -9382871.8882422447 0 0 0 0 299472850.6570015 94139082.58335495 0 94139082.58335495 97609376.807197571 0 0 0 0 220350828.32500648 -64272114.059619904 0 -64272114.059619904 150665785.92746544 0 0 0 0 299449058.0064078 -106377125.66210756 0 -106377125.66210756 22947673.725410461 0 0 0 0 250925334.20488644 -37694643.248622894 0 -37694643.248622894 -3857577.9526500702 0 0 0 0 203776340.39585018 -80597890.074326515 0 -80597890.074326515 -41457184.592636108 0 0 0 0 292382526.75353813 -54511394.753873825 0 -54511394.753873825 -60549252.799385071 0 0 0 0 580484.440178046 377175.29122347571 0 377175.29122347571 -71443.683100819588 0 0 0 0 85550174.362938404 -101760171.25920105 0 -101760171.25920105 26613083.22435379 0 0 0 0 27801577.719492912 -38342652.560028076 0 -38342652.560028076 -18433207.596382141 0 0 0 0 -299793.48215771839 398487.65958489385 0 398487.65958489385 847872.88006700575 0 0 0 0 -684167.38961482048 115954.9536895752 0 115954.9536895752 433451.98709106445 0 0 0 0 325847.9192613567 565231.99395153485 0 565231.99395153485 1176826.5775834955 0 0 0 0 -324849.11792075634 2237061.4475498199 0 2237061.4475498199 2126538.3670578003 0 0 0 0 14063561.747963905 60673499.592660904 0 60673499.592660904 -36982984.564052582 0 0 0 0 1385838.1812679768 1688481.955368042 0 1688481.955368042 1573104.7036743164 0 0 0 0 382566.27899229527 1507004.322221756 0 1507004.322221756 1717274.7652053833 0 0 0 0 449652.05063295364 2020647.6944522858 0 2020647.6944522858 1429014.3639411926 0 0 0 0 159292.76734681625 1272406.8587063411 0 1272406.8587063411 1571420.7166153118 0 0 0 0 -172040217.60167599 -57326680.467172623 0 -57326680.467172623 39049294.536758423 0 0 0 0 -138266608.68556881 21713416.819942474 0 21713416.819942474 60305359.162639618 0 0 0 0 -35245394.353365898 -24456992.776368141 0 -24456992.776368141 -471702.32596969604 0 0 0 0 -30762102.357472658 -49378021.844120979 0 -49378021.844120979 105821835.65770721 0 0 0 0 220188391.89271122 -135444458.08479929 0 -135444458.08479929 160148357.90233612 0 0 0 0 104685957.09881496 -33623644.700973511 0 -33623644.700973511 83676619.976501465 0 0 0 0 242355479.97409439 -90573653.531661987 0 -90573653.531661987 26203924.31259346 0 0 0 0 94695757.212989807 -65307197.086471558 0 -65307197.086471558 21316863.985226393 0 0 0 0 97349887.623733521 -12664197.107946396 0 -12664197.107946396 24024372.226715088 0 0 0 0 139287949.80492854 -21070864.550161362 0 -21070864.550161362 -19733884.052787781 0 0 0 0 195977644.11274433 -42560415.09835434 0 -42560415.09835434 -27537231.371063232 0 0 0 0 269138523.4164741 11189695.163955688 0 11189695.163955688 -19027901.184501648 0 0 0 0 184136105.93811512 -57547840.445571899 0 -57547840.445571899 81638019.77897644 0 0 0 0 86768085.105088949 -30533593.120110273 0 -30533593.120110273 -44218004.748161316 0 0 0 0 183167351.70599174 -42588103.85464859 0 -42588103.85464859 -76904537.438434601 0 0 0 0 89670601.391956329 -10191359.870559692 0 -10191359.870559692 13666248.918117523 0 0 0 0 -39110508.702394485 -16648416.983932495 0 -16648416.983932495 -17737012.811029434 0 0 0 0 -52432362.597728729 10984606.065696716 0 10984606.065696716 -68969402.501190186 0 0 0 0 -29912103.421552658 -11883446.571117401 0 -11883446.571117401 25154801.140190125 0 0 0 0 -34632122.51192826 -63411358.689546704 0 -63411358.689546704 -36250196.092483521 0 0 0 0 -1157125.9275258745 -1685144.4091783459 0 -1685144.4091783459 3948845.7536751442 0 0 0 0 -144257042.94732285 -67212822.002658844 0 -67212822.002658844 4636164.3196678162 0 0 0 0 -147887057.9777813 -98515763.352916718 0 -98515763.352916718 -57520927.776992798 0 0 0 0 -7314563.8665957451 -2074104.1392765045 0 -2074104.1392765045 6962052.3359909058 0 0 0 0 -5039740.8541940451 -2604852.9026982784 0 -2604852.9026982784 6553985.859085083 0 0 0 0 -5701999.4668264389 465282.19223022461 0 465282.19223022461 10642514.603263855 0 0 0 0 -4788032.3898153305 -974509.13263320923 0 -974509.13263320923 7192007.047088623 0 0 0 0 -4331458.206152916 -716590.48114585876 0 -716590.48114585876 4536317.8304367065 0 0 0 0 -7239589.5284433365 -1492368.2619361877 0 -1492368.2619361877 8009237.8221645355 0 0 0 0 -5732944.3978624344 -3250549.4344043732 0 -3250549.4344043732 2707827.3448677063 0 0 0 0 -8717534.2568955421 -2396769.2127923965 0 -2396769.2127923965 4208373.815032959 0 0 0 0 -11509420.813808441 -4796599.4662723541 0 -4796599.4662723541 5218407.306634903 0 0 0 0 -424009.55007717502 -2079600.4998099706 0 -2079600.4998099706 4298075.4891059883 0 0 0 0 11670190.744783401 -17721523.881893158 0 -17721523.881893158 5124584.6754646301 0 0 0 0 124725.95090112044 -603739.42545470875 0 -603739.42545470875 553766.25295292027 0 0 0 0 -9182559.719203949 -1764714.268289566 0 -1764714.268289566 4609020.1664810181 0 0 0 0 1830216.9080615044 -5058935.774848938 0 -5058935.774848938 3251037.4180965424 0 0 0 0 -140136.45402557449 -2818928.8413245734 0 -2818928.8413245734 4296739.0230056345 0 0 0 0 -3917404.0279979706 -11608080.683290482 0 -11608080.683290482 7509460.5836372375 0 0 0 0 1495220.9181446144 -4404453.1858856622 0 -4404453.1858856622 -1527951.1521129329 0 0 0 0 -1828142.8974199295 -9223859.1685256958 0 -9223859.1685256958 -35599485.211203575 0 0 0 0 1753337.5767793655 -10376968.220113754 0 -10376968.220113754 7321139.7839050293 0 0 0 0 3786280.5256500244 -15534627.350452423 0 -15534627.350452423 11314863.953193665 0 0 0 0 7120448.7942962646 -4446524.6344938278 0 -4446524.6344938278 -672232.17633056641 0 0 0 0 10509023.699721336 -12293361.669490814 0 -12293361.669490814 548400.31204986572 0 0 0 0 13313629.773740768 -11280442.522182465 0 -11280442.522182465 -1518957.4758300781 0 0 0 0 15465195.670338631 -6666298.8966674805 0 -6666298.8966674805 -153039.25192165375 0 0 0 0 -273880.98714007461 -278940.43614461366 0 -278940.43614461366 -168809.19829170778 0 0 0 0 -2775281.1999130249 -8184226.9697656631 0 -8184226.9697656631 2236087.0386734009 0 0 0 0 5468044.1140070278 -7475854.1907940097 0 -7475854.1907940097 3228116.1371295583 0 0 0 0 -15288492.269904137 17999020.54750824 0 17999020.54750824 1055986.1969451904 0 0 0 0 44036811.174616814 -102742494.54373169 0 -102742494.54373169 -61298838.114930153 0 0 0 0 34084109.178733826 -50527201.5679245 0 -50527201.5679245 4483087.6458160877 0 0 0 0 -63886086.292245865 -79315195.037007332 0 -79315195.037007332 14755953.580530167 0 0 0 0 3278558.1207766011 -8657924.9087626375 0 -8657924.9087626375 8308973.0001745392 0 0 0 0 56338180.92708683 -9909651.9406299591 0 -9909651.9406299591 -84633526.185321808 0 0 0 0 -62332492.346925735 -31262548.353232384 0 -31262548.353232384 38818043.242940903 0 0 0 0 -3157738.800655365 -2628720.5638561249 0 -2628720.5638561249 7523351.2424430847 0 0 0 0 -15748451.356169701 -2037998.1245536804 0 -2037998.1245536804 19977814.451534271 0 0 0 0 -243865.27195674251 -2623258.7275982578 0 -2623258.7275982578 2555320.57258524 0 0 0 0 -4411046.9690479673 -1672886.2485648468 0 -1672886.2485648468 7865724.6797499843 0 0 0 0 -3025529.2867269516 -2807579.8078260422 0 -2807579.8078260422 6998865.0089225769 0 0 0 0 -4714659.4416027069 132185.60282325745 0 132185.60282325745 9966487.4166069031 0 0 0 0 -2676654.6404481251 -2344722.7635164233 0 -2344722.7635164233 11759450.235535346 0 0 0 0 -48314091.07358551 -40359739.047576904 0 -40359739.047576904 102401127.07064724 0 0 0 0 51242000.302426934 -59748605.965777218 0 -59748605.965777218 36845798.435211182 0 0 0 0 52937199.271642983 -97679206.874358833 0 -97679206.874358833 67513447.051223755 0 0 0 0 -82583451.162071228 3716651.6093845367 0 3716651.6093845367 22215242.219992042 0 0 0 0 -80487099.873264313 44741264.15680027 0 44741264.15680027 -8650274.6599292755 0 0 0 0 -70668346.229961395 22386058.61498642 0 22386058.61498642 41816272.733193398 0 0 0 0 -142555785.3109436 114127682.64613914 0 114127682.64613914 94040717.746254444 0 0 0 0 -61965122.722813606 -43812153.826545715 0 -43812153.826545715 130888954.97811508 0 0 0 0 -162484234.52521133 68518527.204462051 0 68518527.204462051 154927395.92987823 0 0 0 0 5259416.770526886 -163213134.72829819 0 -163213134.72829819 251415695.08574677 0 0 0 0 12465234.891849518 -140203608.25191879 0 -140203608.25191879 226168206.61558533 0 0 0 0 -236986068.76279831 56140531.076839447 0 56140531.076839447 391816681.40424538 0 0 0 0 -111438326.30804443 66292574.826940536 0 66292574.826940536 92034878.523670197 0 0 0 0 256636533.13290119 -227887067.06418991 0 -227887067.06418991 177901077.78368378 0 0 0 0 18319730.275018692 57442536.615972519 0 57442536.615972519 212439130.15820694 0 0 0 0 270270122.66405654 -42307427.741580844 0 -42307427.741580844 2551240.8350067139 0 0 0 0 980641.83014593599 -1290330.4765036302 0 -1290330.4765036302 -160507.08912167326 0 0 0 0 17415190.150173187 610063544.57079887 0 610063544.57079887 300592726.977211 0 0 0 0 -144921146.69788456 -122255671.20678043 0 -122255671.20678043 661890429.90358353 0 0 0 0 65216804.239006042 -292574327.50054932 0 -292574327.50054932 468504508.58105469 0 0 0 0 163152162.9326992 -91584663.628921509 0 -91584663.628921509 45023733.603366852 0 0 0 0 13246454.376373291 27021015.000306129 0 27021015.000306129 45502550.331589699 0 0 0 0 -45374266.473751068 -152345516.0387764 0 -152345516.0387764 361595828.64648724 0 0 0 0 -19766526.800508499 -98381981.854724884 0 -98381981.854724884 33396475.5598526 0 0 0 0 10404604.562558651 -22157730.578412533 0 -22157730.578412533 31409074.727340221 0 0 0 0 -4737656.0670557022 -35908652.69568634 0 -35908652.69568634 24956415.497191429 0 0 0 0 -5794677.8827600479 -52947583.742774963 0 -52947583.742774963 130721469.85928726 0 0 0 0 3375951.0454721451 3152991.9805088043 0 3152991.9805088043 6212434.9471325874 0 0 0 0 11938187.985303417 7757641.1738703847 0 7757641.1738703847 8315272.3152313232 0 0 0 0 1681299.1265120506 -6515364.3750104904 0 -6515364.3750104904 4447004.4648098946 0 0 0 0 14334232.859094918 -6308071.2364922166 0 -6308071.2364922166 2806403.4912204742 0 0 0 0 2801934.3006452899 -3761139.3273266731 0 -3761139.3273266731 -448246.48007214908 0 0 0 0 3804811.6458505392 -8203666.707657814 0 -8203666.707657814 -404961.86302375793 0 0 0 0 1060206.2681708676 278060.3993889452 0 278060.3993889452 -1280842.6665433859 0 0 0 0 66171997.288432121 -35899505.289309502 0 -35899505.289309502 -16591345.894439697 0 0 0 0 97978214.271871328 13880365.095376015 0 13880365.095376015 -17946276.975524902 0 0 0 0 159595302.37941933 -35471576.209709167 0 -35471576.209709167 -26317892.186458588 0 0 0 0 149837385.71557051 27272436.802897453 0 27272436.802897453 -20150594.294258118 0 0 0 0 10478023.087110519 12770965.232183695 0 12770965.232183695 9367942.9532563686 0 0 0 0 17758331.967832413 4771959.5079405904 0 4771959.5079405904 4216113.5408821106 0 0 0 0 9982445.2634992599 5956264.0723551512 0 5956264.0723551512 2655571.6696681976 0 0 0 0 7607351.8170278836 4398615.5236416683 0 4398615.5236416683 6462073.5379992425 0 0 0 0 14654265.087743521 -22106136.401239455 0 -22106136.401239455 20716826.443759918 0 0 0 0 3124700.5134896673 4283137.3595972862 0 4283137.3595972862 16003372.011081688 0 0 0 0 12373475.79294014 15604598.09909153 0 15604598.09909153 31095343.002006531 0 0 0 0 10111421.116794586 8737657.1345472336 0 8737657.1345472336 10330581.221411467 0 0 0 0 9016448.2972621918 14274769.357885361 0 14274769.357885361 31070995.567783356 0 0 0 0 6719938.209444046 16126110.815265656 0 16126110.815265656 34765833.393947601 0 0 0 0 5157887.8508024216 15314785.673958302 0 15314785.673958302 44562932.999187469 0 0 0 0 239297.53950357437 15048534.317891717 0 15048534.317891717 34795984.258636475 0 0 0 0 -232425.96323394775 10593209.692285538 0 10593209.692285538 31441019.308958054 0 0 0 0 2899622.5103416443 13385437.031940937 0 13385437.031940937 35048077.417802811 0 0 0 0 35630665.44081068 7953731.2256736755 0 7953731.2256736755 -63078640.494171143 0 0 0 0 1674566.5102745937 -1045378.636173157 0 -1045378.636173157 -4214575.7775546834 0 0 0 0 -5451421.6613534838 -8724799.9352056272 0 -8724799.9352056272 18258439.270864382 0 0 0 0 5145339.6167869568 9467365.6634101868 0 9467365.6634101868 41383794.598617554 0 0 0 0 1909686.2563943863 8201357.0074701309 0 8201357.0074701309 50990580.619920731 0 0 0 0 3732533.0459136963 8301685.1577420235 0 8301685.1577420235 50604567.63048172 0 0 0 0 -1593014.905774992 -5526068.7831943771 0 -5526068.7831943771 13758360.672004776 0 0 0 0 -3226333.4392504692 -14349579.036277771 0 -14349579.036277771 1645803.22265625 0 0 0 0 -5685955.9677733779 -23495106.864879608 0 -23495106.864879608 -22743756.959169358 0 0 0 0 -5909301.2857415676 -10472346.118679047 0 -10472346.118679047 2123846.987159729 0 0 0 0 -35598377.572869539 -6424876.5707988739 0 -6424876.5707988739 -22576609.504444122 0 0 0 0 -538498.85614582524 -7066624.5297322087 0 -7066624.5297322087 7677164.8498442695 0 0 0 0 2882740.7782740593 -6704164.9206924438 0 -6704164.9206924438 1055320.9883670807 0 0 0 0 6005177.7328661429 925487.53825674579 0 925487.53825674579 3219142.3076523882 0 0 0 0 -9483950.7952851057 -11842645.760124207 0 -11842645.760124207 -9504664.3393096924 0 0 0 0 -4804598.5986294746 -14421637.779808044 0 -14421637.779808044 -18138659.317504883 0 0 0 0 2255391.7631003652 -8591391.3552403525 0 -8591391.3552403525 -7344568.5172357447 0 0 0 0 -1676990.9783390462 -6888678.5507087708 0 -6888678.5507087708 -1579800.1408557892 0 0 0 0 -4144488.0450054868 -17398809.477996454 0 -17398809.477996454 10123759.923914798 0 0 0 0 -2439390.2946855598 -11891974.670343332 0 -11891974.670343332 11016010.096340477 0 0 0 0 1354694.9392000786 -4256050.8272582451 0 -4256050.8272582451 -4463623.9893288463 0 0 0 0 4258074.6938877106 -17166919.498886108 0 -17166919.498886108 -50876229.807250977 0 0 0 0 -9937562.4337143898 -23070188.148983002 0 -23070188.148983002 -49448311.802871704 0 0 0 0 -657188.83413624694 -433976.23764127307 0 -433976.23764127307 1128471.6563765556 0 0 0 0 -8812813.3315706253 -36599044.73891449 0 -36599044.73891449 -40697828.913375854 0 0 0 0 -44122021.520956516 -32226214.876014709 0 -32226214.876014709 10824909.7447052 0 0 0 0 3833951.9023017883 -7037465.0016975403 0 -7037465.0016975403 -7161532.6231307983 0 0 0 0 4518147.5295849051 -8054672.8731935406 0 -8054672.8731935406 -16628873.807344589 0 0 0 0 6373328.2766560931 -4834838.9982291702 0 -4834838.9982291702 -4777788.1322865356 0 0 0 0 1746974.4842961896 -4092938.4704239722 0 -4092938.4704239722 -1006665.5312024765 0 0 0 0 23311725.143384933 -10070234.309696198 0 -10070234.309696198 -33162300.074302673 0 0 0 0 20134685.749154806 487125.30145645142 0 487125.30145645142 -14651226.829322815 0 0 0 0 -509470.64662259817 -31525037.464464307 0 -31525037.464464307 -37605860.480636597 0 0 0 0 1722537.5469607115 -49780618.323104858 0 -49780618.323104858 -6941207.860824585 0 0 0 0 -38447555.146127701 -36005186.348373413 0 -36005186.348373413 -2287349.8753700256 0 0 0 0 -42485603.762012482 -13924671.471099854 0 -13924671.471099854 -4540824.804397583 0 0 0 0 6020977.9740524292 -20408244.610557556 0 -20408244.610557556 -47147341.125152588 0 0 0 0 35788834.885247707 33563197.100852966 0 33563197.100852966 -129034224.10966873 0 0 0 0 -33198349.497389317 -48597061.560432434 0 -48597061.560432434 32503489.236320496 0 0 0 0 22101987.646992445 50696837.819805145 0 50696837.819805145 -11925753.33510685 0 0 0 0 -45660668.582258567 -54563230.19839263 0 -54563230.19839263 8890892.1952514648 0 0 0 0 -107313.54824399669 -1658241.7241584314 0 -1658241.7241584314 1220028.8887221962 0 0 0 0 4935704.2390232086 -20313857.614852905 0 -20313857.614852905 -58746601.670204163 0 0 0 0 -56419186.467226982 -85671879.076095581 0 -85671879.076095581 -11809511.807678223 0 0 0 0 -11476270.148043633 -37066249.301517487 0 -37066249.301517487 67419518.707336426 0 0 0 0 22273966.68407774 -4361373.7689628601 0 -4361373.7689628601 26355793.737991333 0 0 0 0 -2767859.053694725 -47419262.669353485 0 -47419262.669353485 15835984.69859314 0 0 0 0 37662625.286141902 -11176332.413406372 0 -11176332.413406372 -111683405.90200806 0 0 0 0 -7055359.8421213077 -11400819.759732686 0 -11400819.759732686 20070637.881217312 0 0 0 0 -42116490.560587525 -114109865.15460396 0 -114109865.15460396 -85869009.22209549 0 0 0 0 12621717.233296514 -35439124.997219086 0 -35439124.997219086 -20165734.64263916 0 0 0 0 18304370.945392609 9651059.6046066284 0 9651059.6046066284 2252375.1529045105 0 0 0 0 -43766.666064547433 -771906.57212086581 0 -771906.57212086581 -864280.8639985323 0 0 0 0 -89825686.857978344 -149741722.48729229 0 -149741722.48729229 162573972.57867432 0 0 0 0 55971098.761324883 38751655.555873871 0 38751655.555873871 -59090568.363449097 0 0 0 0 50833948.788230419 22644164.321266174 0 22644164.321266174 -95167505.622106552 0 0 0 0 15790952.264948227 -13235527.129021883 0 -13235527.129021883 -70615487.54486084 0 0 0 0 67130813.405749381 -50519688.313586235 0 -50519688.313586235 -68784977.619720459 0 0 0 0 89633821.948827147 16273512.774819374 0 16273512.774819374 -119733253.00981903 0 0 0 0 109469435.09725486 -926611.64681243896 0 -926611.64681243896 -30355194.285263062 0 0 0 0 61458697.841556966 -11393827.517440796 0 -11393827.517440796 89572981.115703583 0 0 0 0 -509707.74496132892 -559773.89704734925 0 -559773.89704734925 1344982.0527573749 0 0 0 0 107550742.5901897 -56916878.015956879 0 -56916878.015956879 -41070956.829864502 0 0 0 0 55785736.393525839 162810519.69454193 0 162810519.69454193 -166209154.95458221 0 0 0 0 50163559.0619331 145642136.56736732 0 145642136.56736732 155026021.06508636 0 0 0 0 -390050.44757950964 -38124.925328783691 0 -38124.925328783691 720622.48188635334 0 0 0 0 207608498.03729099 56334440.202747345 0 56334440.202747345 54850047.51033783 0 0 0 0 -9458210.6016130447 17550171.971855164 0 17550171.971855164 173844055.4762904 0 0 0 0 -3492932.3134784698 52561413.798324585 0 52561413.798324585 72937684.30632019 0 0 0 0 -72051930.106318951 -27740196.07585907 0 -27740196.07585907 79697884.172958374 0 0 0 0 -53373612.142303467 40279867.682033539 0 40279867.682033539 40639953.067070007 0 0 0 0 -17724289.72477293 -1237547.9235286713 0 -1237547.9235286713 88983662.334854126 0 0 0 0 13581125.166324615 88517556.133823395 0 88517556.133823395 140122095.017519 0 0 0 0 6444105.9699249268 15221009.305225372 0 15221009.305225372 32525318.620773315 0 0 0 0 35841002.383125305 114819019.04881287 0 114819019.04881287 206568594.62084961 0 0 0 0 35486848.888045669 170435130.33208746 0 170435130.33208746 268372862.37739563 0 0 0 0 -19225863.380969048 83282693.356163025 0 83282693.356163025 220520745.8943634 0 0 0 0 18482738.026245117 99414833.293273926 0 99414833.293273926 172927345.4164058 0 0 0 0 -10242174.473948479 84476993.213150024 0 84476993.213150024 266628020.54405975 0 0 0 0 54318167.447807312 217078960.76150513 0 217078960.76150513 334725990.61026001 0 0 0 0 249107.91345977783 67145187.646614075 0 67145187.646614075 451381210.45314789 0 0 0 0 9992725.586648941 95877597.006153107 0 95877597.006153107 253614339.30834961 0 0 0 0 8708519.0814800262 3912553.549949646 0 3912553.549949646 257221755.65774274 0 0 0 0 21528505.200900078 6571183.2319068909 0 6571183.2319068909 329567446.298172 0 0 0 0 40654559.893411636 54027388.039691925 0 54027388.039691925 304319284.10978699 0 0 0 0 35868857.026889801 26460442.918579102 0 26460442.918579102 204223722.20838928 0 0 0 0 78232437.648721695 -52081443.946090698 0 -52081443.946090698 136048404.67008209 0 0 0 0 12734079.449364662 44033375.235157013 0 44033375.235157013 139838939.97151184 0 0 0 0 18179275.525104523 -21592822.350028992 0 -21592822.350028992 184268214.32233047 0 0 0 0 112396831.0461483 -70057024.129043579 0 -70057024.129043579 64529972.931266785 0 0 0 0 60425095.027944565 -59862905.673690796 0 -59862905.673690796 232471736.24597931 0 0 0 0 90246071.217489243 -11546953.60754776 0 -11546953.60754776 164337229.99221802 0 0 0 0 97131198.941684723 -8341494.0895233154 0 -8341494.0895233154 361121089.35354233 0 0 0 0 69887546.752017975 -90465962.860984802 0 -90465962.860984802 334856758.39781189 0 0 0 0 125156810.76532364 -143851241.01331329 0 -143851241.01331329 372085823.71435547 0 0 0 0 128450850.11406517 -18515770.92609024 0 -18515770.92609024 177971609.11506653 0 0 0 0 43329138.820123672 23363285.222766876 0 23363285.222766876 580543516.52346802 0 0 0 0 165652128.21167374 -199335863.44894409 0 -199335863.44894409 773764002.4131546 0 0 0 0 -6480014.9713201523 163366043.92567062 0 163366043.92567062 943128658.76641846 0 0 0 0 284595281.04836965 483650295.28316069 0 483650295.28316069 578113040.61474609 0 0 0 0 76908468.231208801 189508328.79743195 0 189508328.79743195 447131584.33152008 0 0 0 0 10778463.420703888 8704067.0461235046 0 8704067.0461235046 558144620.8694458 0 0 0 0 35840686.480949879 233771789.64459229 0 233771789.64459229 555194007.43818665 0 0 0 0 -243278193.93862247 -113548863.19943619 0 -113548863.19943619 566299794.42170715 0 0 0 0 -126359057.68048382 138501559.27431107 0 138501559.27431107 873527009.06137085 0 0 0 0 -201698102.82542229 -17146410.416664124 0 -17146410.416664124 593999846.85864258 0 0 0 0 -61840775.933235168 215501687.21087646 0 215501687.21087646 745006315.54443359 0 0 0 0 242568886.96384811 449188239.1703186 0 449188239.1703186 773351023.92444229 0 0 0 0 678257705.29238129 56854795.852638245 0 56854795.852638245 376019596.4772644 0 0 0 0 -127435213.53068924 -7634667.5637817383 0 -7634667.5637817383 417065803.2907486 0 0 0 0 -76948314.037002563 -10406904.234916687 0 -10406904.234916687 325212226.23269653 0 0 0 0 -93919723.050084114 -119485055.0778904 0 -119485055.0778904 333938609.47618103 0 0 0 0 -120916692.59415436 -77459353.273200989 0 -77459353.273200989 333428802.14424133 0 0 0 0 -115001190.19319534 -52199234.252258301 0 -52199234.252258301 416802526.07562256 0 0 0 0 -126034732.81201172 75717938.890197754 0 75717938.890197754 482854789.37439728 0 0 0 0 -142361174.63342667 23848574.755386353 0 23848574.755386353 593624713.01791382 0 0 0 0 -158422192.22645187 -79393556.314544678 0 -79393556.314544678 441643280.69070435 0 0 0 0 -92446167.309066772 79734945.492721558 0 79734945.492721558 488293806.29211426 0 0 0 0 -148264677.68020582 -11170114.161190033 0 -11170114.161190033 436407240.65336609 0 0 0 0 -129964205.80811357 38618306.022745132 0 38618306.022745132 414964256.28314209 0 0 0 0 -125454411.72386742 -6409918.6003799438 0 -6409918.6003799438 375334762.22113037 0 0 0 0 43948267.465742111 111919828.77213669 0 111919828.77213669 160883448.9783783 0 0 0 0 -131352747.52605247 52262179.791183472 0 52262179.791183472 397546838.19798279 0 0 0 0 -146455296.19135284 96070554.853050232 0 96070554.853050232 418061493.91007614 0 0 0 0 -119811700.62709427 67547062.018661499 0 67547062.018661499 488292572.21714783 0 0 0 0 140811606.1434021 245388005.59520721 0 245388005.59520721 343816213.50004578 0 0 0 0 258160.14297215547 -123373.21191942133 0 -123373.21191942133 -213290.76581014693 0 0 0 0 165180124.11455727 344082580.26092148 0 344082580.26092148 463240190.97897148 0 0 0 0 -264784022.93560314 -77308276.195648193 0 -77308276.195648193 263976786.38410187 0 0 0 0 8541722.9276657104 169314983.29993439 0 169314983.29993439 391345866.85690498 0 0 0 0 18123376.270133972 211310998.56919861 0 211310998.56919861 521419267.98390198 0 0 0 0 10062855.877027512 -71092214.116130829 0 -71092214.116130829 -26590748.538726807 0 0 0 0 1164314.2957428717 -883914.78449866269 0 -883914.78449866269 -1187893.6298981905 0 0 0 0 6463237.8617172241 72731298.20003891 0 72731298.20003891 -38512097.40221405 0 0 0 0 -96196257.838662148 19983976.48588562 0 19983976.48588562 -6927897.6265563965 0 0 0 0 9681042.2042503357 22504927.78509903 0 22504927.78509903 86738210.974794388 0 0 0 0 -70479545.538164139 -769475.9241104126 0 -769475.9241104126 107516595.60780334 0 0 0 0 55934.200327621307 -334713.59443846159 0 -334713.59443846159 393866.81061182916 0 0 0 0 -139831438.9728539 83109828.355562687 0 83109828.355562687 -21925497.094261169 0 0 0 0 -162937095.22726154 -10870555.538938522 0 -10870555.538938522 36469809.161590576 0 0 0 0 -2472266.6747012138 34228100.073493958 0 34228100.073493958 -24501031.999229431 0 0 0 0 1676322.8656397504 -3253964.5898504555 0 -3253964.5898504555 -1848878.5447087679 0 0 0 0 29233066.430866241 -11538735.824611664 0 -11538735.824611664 -26676567.355430603 0 0 0 0 2026189.1889533997 41616857.014041901 0 41616857.014041901 -17918837.141372681 0 0 0 0 27757813.426002502 -4547451.4593200684 0 -4547451.4593200684 -36043489.730917454 0 0 0 0 5223470.184671402 -23397668.161247253 0 -23397668.161247253 -24360766.758056641 0 0 0 0 45736092.353009224 -17355460.101299286 0 -17355460.101299286 -28103182.376197815 0 0 0 0 31465481.697528839 5002210.2078533173 0 5002210.2078533173 -845088.25445556641 0 0 0 0 28134596.272184372 -42533489.087135315 0 -42533489.087135315 101288435.92928886 0 0 0 0 41086563.428827047 6905424.7411060333 0 6905424.7411060333 96864841.639450073 0 0 0 0 80414214.919250488 -36952252.732524872 0 -36952252.732524872 19569185.993965149 0 0 0 0 55229960.894805908 25136753.309829712 0 25136753.309829712 48267564.313588142 0 0 0 0 46343722.091719627 -5174101.7967967987 0 -5174101.7967967987 -13198470.0233078 0 0 0 0 15628929.63279097 -10935820.040784836 0 -10935820.040784836 268751226.65166473 0 0 0 0 -19884871.750726849 -32035201.552494049 0 -32035201.552494049 260250252.36389923 0 0 0 0 350022.09405148227 -27934786.742401123 0 -27934786.742401123 276254985.91087341 0 0 0 0 22756847.394802183 -42849626.435836792 0 -42849626.435836792 285342382.14035797 0 0 0 0 84310906.674007326 -38312437.2296772 0 -38312437.2296772 279253081.11218262 0 0 0 0 15871723.615087338 -24533363.831317902 0 -24533363.831317902 332069500.45630646 0 0 0 0 -114239.22184462016 -135602869.10866165 0 -135602869.10866165 372109976.04800415 0 0 0 0 -8650212.394052431 -61630302.853042603 0 -61630302.853042603 275977388.17524529 0 0 0 0 -20512214.036431439 -43587774.60095787 0 -43587774.60095787 248548168.30258179 0 0 0 0 -39954015.615029611 -32877767.380931854 0 -32877767.380931854 248153347.18323517 0 0 0 0 -24666120.47978355 -54896447.764442444 0 -54896447.764442444 220064990.61672974 0 0 0 0 -40380204.16140601 -28071340.551123381 0 -28071340.551123381 212191842.90126801 0 0 0 0 -49685682.068133593 5598747.3279647827 0 5598747.3279647827 238008843.45937157 0 0 0 0 -21132149.786686882 -22322906.798744202 0 -22322906.798744202 224556440.34087372 0 0 0 0 -22037752.612306751 55055409.217277527 0 55055409.217277527 252522876.45269775 0 0 0 0 -22186999.077240214 -16434051.795265198 0 -16434051.795265198 238328495.61896515 0 0 0 0 -39896270.721492022 23451666.443756104 0 23451666.443756104 197102996.58082581 0 0 0 0 -71153920.668324456 -23361936.562698364 0 -23361936.562698364 202777082.35009766 0 0 0 0 -34827054.668613702 -34258492.33654213 0 -34258492.33654213 120417609.63700867 0 0 0 0 -30865027.507964194 15072334.195201874 0 15072334.195201874 167913836.81892395 0 0 0 0 -41437476.951868176 9937255.6142425537 0 9937255.6142425537 169620880.97380829 0 0 0 0 -21979419.647478193 37134080.508262634 0 37134080.508262634 174978771.99677372 0 0 0 0 -31302790.696516268 20738299.067703247 0 20738299.067703247 174060074.87268066 0 0 0 0 14571936.337942222 56423527.899204254 0 56423527.899204254 154145495.17951202 0 0 0 0 13309988.281590581 32375943.60906601 0 32375943.60906601 126043702.31101227 0 0 0 0 -1137802.6533088386 2104881.5393753052 0 2104881.5393753052 248261903.78964043 0 0 0 0 2995524.8698108699 -13866711.367982864 0 -13866711.367982864 306095341.70966339 0 0 0 0 -1922.8043087221711 -1016995.991131886 0 -1016995.991131886 -851068.99011993408 0 0 0 0 41222482.748425446 130607394.27771378 0 130607394.27771378 357209001.12210274 0 0 0 0 -81893.579953837034 -14087.716487539932 0 -14087.716487539932 284388.94957194105 0 0 0 0 -796587.82982103922 -818762.5544052124 0 -818762.5544052124 -133249.2271156311 0 0 0 0 9131675.4290714264 46099027.845146179 0 46099027.845146179 122330684.42756653 0 0 0 0 -15764.490959441713 -139103.24412620254 0 -139103.24412620254 350191.40597353876 0 0 0 0 -786176.76550476032 -1325267.2822582722 0 -1325267.2822582722 -249527.97705841064 0 0 0 0 -875988.82094721496 -556588.15165710449 0 -556588.15165710449 377297.84104156494 0 0 0 0 1543.2919546319267 -1564751.7793502808 0 -1564751.7793502808 494413.31386184692 0 0 0 0 -1344843.2155888379 -1295590.787525177 0 -1295590.787525177 2572742.4983901978 0 0 0 0 -1485323.6671356354 -553477.48544311523 0 -553477.48544311523 612037.32158660889 0 0 0 0 -1024680.0379936192 -93366.83081817627 0 -93366.83081817627 1034719.699508667 0 0 0 0 -1972473.4678164837 1827572.2515487671 0 1827572.2515487671 -235872.56507873535 0 0 0 0 8633.5418952421878 -18779.504456743598 0 -18779.504456743598 21183.273508090526 0 0 0 0 -35533.923409216106 -849559.89452362061 0 -849559.89452362061 5023320.0950889587 0 0 0 0 -6913890.4223788083 -4214725.6926269531 0 -4214725.6926269531 4596190.6144104004 0 0 0 0 -2160749.7750009522 980601.9907875061 0 980601.9907875061 2811400.5481462479 0 0 0 0 -453.55008183084567 -2352574.3661880493 0 -2352574.3661880493 15465678.217681885 0 0 0 0 3248336.1590332426 206636.62299346924 0 206636.62299346924 -857666.48110961914 0 0 0 0 300835.20222464204 -852584.14904022217 0 -852584.14904022217 2618754.8773217201 0 0 0 0 511609.7705084309 -632935.20394134521 0 -632935.20394134521 2036889.320274353 0 0 0 0 801925.13771312311 -877251.59021759033 0 -877251.59021759033 1770234.7856216431 0 0 0 0 415499.39340507612 -538506.12961578369 0 -538506.12961578369 4960800.031375885 0 0 0 0 337344.84069308639 -215509.58464813232 0 -215509.58464813232 1367998.4600219727 0 0 0 0 -970285.81580689689 -132031.22291278839 0 -132031.22291278839 267086.41953277588 0 0 0 0 20262.150591440477 -60145.02681850642 0 -60145.02681850642 80684.408106058836 0 0 0 0 218311.92783309333 -764462.86002540588 0 -764462.86002540588 1985558.3305664062 0 0 0 0 814259.12682655454 -105928.18434906006 0 -105928.18434906006 -253627.74460601807 0 0 0 0 52918.578061166438 -6975.128194892779 0 -6975.128194892779 -66216.966881990433 0 0 0 0 4404245.1039072536 12207915.598964214 0 12207915.598964214 4779146.0498352051 0 0 0 0 79598.678236160325 -305768.47712436877 0 -305768.47712436877 -7841.5230294875801 0 0 0 0 -4145413.5707598329 -28058859.439170837 0 -28058859.439170837 58391713.42963028 0 0 0 0 -791461.68537203502 -338466.24102783203 0 -338466.24102783203 296150.51535797119 0 0 0 0 3062770.3408681196 -9754556.836114645 0 -9754556.836114645 32678447.37197876 0 0 0 0 57593.661543898328 -243161.92716706172 0 -243161.92716706172 306863.44222407416 0 0 0 0 13746965.647755623 30559577.070411682 0 30559577.070411682 37392494.182524681 0 0 0 0 -12153457.260841548 8365063.1629524231 0 8365063.1629524231 79551383.288955688 0 0 0 0 -16570192.453564644 9640546.0799102783 0 9640546.0799102783 123979884.49755859 0 0 0 0 -22982597.626560181 19292621.742668152 0 19292621.742668152 122739615.02780151 0 0 0 0 -21222231.790582478 9575124.3010482788 0 9575124.3010482788 139069436.7443409 0 0 0 0 -27558750.177175999 -14388464.56955719 0 -14388464.56955719 134716245.8033638 0 0 0 0 22337826.209219396 -7203521.6276397705 0 -7203521.6276397705 144054970.26407623 0 0 0 0 30280886.926628351 -75307066.031986237 0 -75307066.031986237 54383644.759170532 0 0 0 0 55106.173305287753 -33976.357720792294 0 -33976.357720792294 -31248.307783927768 0 0 0 0 -24329108.802405715 -378766.5572052002 0 -378766.5572052002 150010945.71955872 0 0 0 0 -35904087.23039037 34916150.462711334 0 34916150.462711334 1533771.602684021 0 0 0 0 -15298551.465005159 868604.51293182373 0 868604.51293182373 130265399.04804039 0 0 0 0 -551216.36734676361 -26492157.503250122 0 -26492157.503250122 188591907.07484818 0 0 0 0 7567.3892938114877 -16074.153071783483 0 -16074.153071783483 69701.493721678853 0 0 0 0 1676857.0928946733 -17088110.889259338 0 -17088110.889259338 190227471.2180481 0 0 0 0 -46999784.342092454 1346668.9410896301 0 1346668.9410896301 131008786.49479675 0 0 0 0 -53152504.390229464 -27467421.138263702 0 -27467421.138263702 27515377.801635742 0 0 0 0 -188189.40939648822 -937373.19106912613 0 -937373.19106912613 151090.34420776367 0 0 0 0 26519.851133322027 -331652.2212189436 0 -331652.2212189436 496691.10746230185 0 0 0 0 -4484147.0477913022 7667206.111114502 0 7667206.111114502 35416896.156980515 0 0 0 0 77756.17571885325 -298624.17838885635 0 -298624.17838885635 -4770.5120947360992 0 0 0 0 -107762.45999096893 -545192.96675872803 0 -545192.96675872803 -11326.409759521484 0 0 0 0 316259.580252707 -620926.98295593262 0 -620926.98295593262 2098.2862434387207 0 0 0 0 -150351.36930972338 -583915.53647613525 0 -583915.53647613525 1556015.4954605103 0 0 0 0 549614.63700380176 -1003093.0563850403 0 -1003093.0563850403 593648.74185180664 0 0 0 0 -638969.46222417057 -773541.64385795593 0 -773541.64385795593 657072.46370697021 0 0 0 0 -113626.54411943257 -344979.93383026123 0 -344979.93383026123 497258.84580612183 0 0 0 0 72277.784801103175 -1007086.659078598 0 -1007086.659078598 165608.60423278809 0 0 0 0 58663.603291518986 -47853.611585617065 0 -47853.611585617065 621815.7216796875 0 0 0 0 350983.08665364794 71134.959742546082 0 71134.959742546082 1216941.2134399414 0 0 0 0 -148007.45913624763 -62523.725780487061 0 -62523.725780487061 1466644.4374656677 0 0 0 0 -44754058.467683554 -38799957.825817108 0 -38799957.825817108 -24758602.887283325 0 0 0 0 1517017.2299916744 -32402542.727874756 0 -32402542.727874756 -29177653.293888092 0 0 0 0 95224.157511924568 -305865.86288581789 0 -305865.86288581789 392837.40889259428 0 0 0 0 -374623.57610163093 -231736.38658905029 0 -231736.38658905029 883734.05484867096 0 0 0 0 63963.855268337502 -326556.85136698186 0 -326556.85136698186 485852.11515374482 0 0 0 0 -62113497.88667047 -54269066.654880524 0 -54269066.654880524 -11441552.353790283 0 0 0 0 -48872018.622420117 -13494321.7090168 0 -13494321.7090168 19504075.380081177 0 0 0 0 -12692289.428704113 -26737088.878875732 0 -26737088.878875732 85260127.388687134 0 0 0 0 -19374889.28089273 4934038.8391914368 0 4934038.8391914368 4972551.9943809509 0 0 0 0 -28478459.169821382 85304.82056427002 0 85304.82056427002 -12730430.26992178 0 0 0 0 -29110935.624697149 -24492106.154144287 0 -24492106.154144287 56474419.227249146 0 0 0 0 -25745754.983152509 -3364762.0676689148 0 -3364762.0676689148 130259455.3276062 0 0 0 0 -23668035.36986196 15783217.759544373 0 15783217.759544373 61960704.219483376 0 0 0 0 -16529099.998270884 19021073.308434486 0 19021073.308434486 86100565.781211853 0 0 0 0 -22784117.752679408 -6931745.102973938 0 -6931745.102973938 162460354.08134985 0 0 0 0 -49200017.578112483 -5528379.427318573 0 -5528379.427318573 162551737.16252136 0 0 0 0 -35909692.211192012 -36665178.156543732 0 -36665178.156543732 116865113.90267181 0 0 0 0 -34424311.376249775 40694362.347028732 0 40694362.347028732 261206233.55091095 0 0 0 0 -67163.8504394794 -22367.165580116212 0 -22367.165580116212 71935.546926008537 0 0 0 0 4027053.1334272027 9680442.0565834045 0 9680442.0565834045 167335626.3824234 0 0 0 0 -39110842.591035247 13645578.677085876 0 13645578.677085876 167287097.36141205 0 0 0 0 -27840981.649843544 -4592232.4773368835 0 -4592232.4773368835 171017400.25535583 0 0 0 0 -2432567.2622606754 -4491265.5058670044 0 -4491265.5058670044 168412997.62683105 0 0 0 0 -32135697.101896822 -7119173.5579452515 0 -7119173.5579452515 169656201.60419464 0 0 0 0 -19494674.00215371 -959995.28062963486 0 -959995.28062963486 159513009.51861572 0 0 0 0 -2380086.4044185281 -4901622.1054458618 0 -4901622.1054458618 160123400.40188599 0 0 0 0 -7980229.3104011416 2202928.9243125916 0 2202928.9243125916 162046247.07962036 0 0 0 0 -13212215.919605225 -13497106.418317795 0 -13497106.418317795 182853750.10205078 0 0 0 0 -128375.25770078406 -49745.5169150047 0 -49745.5169150047 136564.7708901614 0 0 0 0 -13389632.815746248 13738724.244785309 0 13738724.244785309 216702065.73190689 0 0 0 0 -11024256.053460464 5062327.8871955872 0 5062327.8871955872 210607810.64547729 0 0 0 0 -15144338.283354111 17770541.312934875 0 17770541.312934875 282662769.48729706 0 0 0 0 -62416.22970062244 -29657.234687946737 0 -29657.234687946737 75481.287620386109 0 0 0 0 -718903.84634720907 -11103333.75878191 0 -11103333.75878191 173487528.35700226 0 0 0 0 -13007205.705894262 -6699699.0063209534 0 -6699699.0063209534 172608945.16502762 0 0 0 0 -43836133.372871429 9542863.2643060684 0 9542863.2643060684 193418174.81298065 0 0 0 0 -47998357.265784025 -7039543.1839637756 0 -7039543.1839637756 173871298.81964302 0 0 0 0 -80909549.643771946 -21422095.880691528 0 -21422095.880691528 177424497.75540543 0 0 0 0 -7523577.0318061076 -4623661.762108326 0 -4623661.762108326 149307301.10655212 0 0 0 0 -42718161.954952657 10309658.650238037 0 10309658.650238037 199612810.16730118 0 0 0 0 -58748848.636408195 12297871.555099487 0 12297871.555099487 209687088.91096878 0 0 0 0 -47041334.389081374 22045898.797271729 0 22045898.797271729 178865097.45628357 0 0 0 0 -45506136.476665407 35589670.355674744 0 35589670.355674744 223575240.88497543 0 0 0 0 -8414007.253723681 106093045.31885147 0 106093045.31885147 261797946.19021797 0 0 0 0 -44026477.123425022 -14898401.868532181 0 -14898401.868532181 348121624.30143738 0 0 0 0 9398065.7732941806 -63312564.728055954 0 -63312564.728055954 289506171.0354538 0 0 0 0 -49463297.374327376 5783760.6574630737 0 5783760.6574630737 291725376.87458038 0 0 0 0 -7365313.3174214959 -56263750.831672668 0 -56263750.831672668 233073163.32175446 0 0 0 0 2674283.4165713489 -40016267.912412643 0 -40016267.912412643 218637709.91557312 0 0 0 0 57346723.630797289 -88747832.455597639 0 -88747832.455597639 155831053.35980988 0 0 0 0 55393003.258581668 -101667163.4995923 0 -101667163.4995923 176711395.99829865 0 0 0 0 22561618.935430318 -57525142.636703491 0 -57525142.636703491 139101167.32702637 0 0 0 0 21592183.031640649 -58796735.364562988 0 -58796735.364562988 156518441.07135582 0 0 0 0 -19853171.591558889 -28946895.280310631 0 -28946895.280310631 174281579.23487091 0 0 0 0 -29932233.586867034 -30901347.611164093 0 -30901347.611164093 193616611.52737331 0 0 0 0 -2763430.3484211713 -6219037.1042556763 0 -6219037.1042556763 88309852.355445862 0 0 0 0 9921133.0022781491 -32457888.602163315 0 -32457888.602163315 130140509.01502991 0 0 0 0 27328701.113310311 -28187950.348121166 0 -28187950.348121166 78451785.098571777 0 0 0 0 55289395.483425081 -42960746.509155273 0 -42960746.509155273 85656315.470161438 0 0 0 0 25936763.904052138 -35927961.680168152 0 -35927961.680168152 89830195.949750423 0 0 0 0 -5481982.4623285532 -35698936.341854095 0 -35698936.341854095 35160278.374351501 0 0 0 0 10359396.759375602 -2226959.8804006577 0 -2226959.8804006577 24574192.549636841 0 0 0 0 78512391.353655666 -33578502.723003387 0 -33578502.723003387 32686624.930294037 0 0 0 0 69962591.472787336 -65179028.559547424 0 -65179028.559547424 48348167.679153442 0 0 0 0 54854161.262843788 -47964802.492408752 0 -47964802.492408752 29107823.247253418 0 0 0 0 64273508.940039575 -76376483.477228165 0 -76376483.477228165 6781456.2155914307 0 0 0 0 54630357.020622715 -42109458.042105675 0 -42109458.042105675 -21922293.422416687 0 0 0 0 51346288.130867928 -84883574.09860611 0 -84883574.09860611 -14052274.466560364 0 0 0 0 -119545.07779103602 -5011.0383240841329 0 -5011.0383240841329 192645.80702819489 0 0 0 0 12685996.002756886 -18186877.21730423 0 -18186877.21730423 17640684.164632797 0 0 0 0 27700483.299818903 -14867620.937068939 0 -14867620.937068939 15827932.95539093 0 0 0 0 12149.887566056594 -2973.1330097299069 0 -2973.1330097299069 -1295.4877593889832 0 0 0 0 68329604.560343146 -39205494.641143322 0 -39205494.641143322 4534141.5617828369 0 0 0 0 138139455.77150303 -50222398.529426575 0 -50222398.529426575 4756695.2817955017 0 0 0 0 132757639.83915344 -43556335.431266785 0 -43556335.431266785 28879811.110733032 0 0 0 0 187990809.56926852 -66851474.525250673 0 -66851474.525250673 7391201.2461547852 0 0 0 0 1274.2890473715081 -64334.340433940495 0 -64334.340433940495 63057.676713507622 0 0 0 0 94046285.613696918 -77911579.839790344 0 -77911579.839790344 97616155.718299866 0 0 0 0 987600.17110343464 4307645.5967326164 0 4307645.5967326164 19767801.178108215 0 0 0 0 12554687.511572808 -65048942.961166382 0 -65048942.961166382 50455744.752304077 0 0 0 0 80862187.467092857 -54516600.498426437 0 -54516600.498426437 41992933.116622925 0 0 0 0 78795851.718344554 -53663146.578315735 0 -53663146.578315735 66279722.882385254 0 0 0 0 55936424.6991449 -49061268.733181 0 -49061268.733181 79219357.981819153 0 0 0 0 67233103.169391513 -83012031.502011538 0 -83012031.502011538 110081741.98078156 0 0 0 0 69880311.257919624 -63707894.067667484 0 -63707894.067667484 84060644.385574341 0 0 0 0 68620554.069778785 -298172.42412567139 0 -298172.42412567139 57195687.097049713 0 0 0 0 74270583.763675466 -8898138.2960205078 0 -8898138.2960205078 64264465.925834656 0 0 0 0 111352163.37843987 80308719.806018829 0 80308719.806018829 92330990.394002914 0 0 0 0 30683191.585981116 -38684879.303409576 0 -38684879.303409576 25317557.32686615 0 0 0 0 -14537883.314202398 37780825.833353043 0 37780825.833353043 80725417.894859314 0 0 0 0 59639968.798320696 -79761917.403289795 0 -79761917.403289795 70008920.9802742 0 0 0 0 29308782.963959385 24437303.226314545 0 24437303.226314545 -10921674.168218613 0 0 0 0 -61511.155578560647 115023.183509795 0 115023.183509795 229609.76711314172 0 0 0 0 2563107.4190399647 -22417162.167129517 0 -22417162.167129517 34522730.585453033 0 0 0 0 14290164.281801671 -6072121.6014480591 0 -6072121.6014480591 16472828.040420532 0 0 0 0 4076557.6580080315 -16447614.917578697 0 -16447614.917578697 17799176.227378845 0 0 0 0 13940336.450660437 -16595953.169271469 0 -16595953.169271469 17588329.88180542 0 0 0 0 28624749.084511518 30096731.052360535 0 30096731.052360535 7641853.2505149841 0 0 0 0 16373733.50061357 -4675727.5992469788 0 -4675727.5992469788 17366217.683670044 0 0 0 0 23928538.31611836 39913801.372320175 0 39913801.372320175 -7745187.7877044678 0 0 0 0 83260303.537397146 12934944.286949158 0 12934944.286949158 -18816034.899234772 0 0 0 0 -31163157.437352955 159056274.76201868 0 159056274.76201868 399515541.11056519 0 0 0 0 152186.81258508912 -146864.13605155423 0 -146864.13605155423 60009.661670748144 0 0 0 0 -85632370.9551723 -58821550.095344543 0 -58821550.095344543 337110580.0219574 0 0 0 0 -45245.79702345535 94276.042582474649 0 94276.042582474649 152014.35073900968 0 0 0 0 59023067.779644966 -38391986.295036316 0 -38391986.295036316 39295062.038150787 0 0 0 0 71748760.094900608 184260234.98758698 0 184260234.98758698 328471327.03212738 0 0 0 0 52838452.65981324 203398661.5665226 0 203398661.5665226 -138417775.20736694 0 0 0 0 -87539422.917472839 24055434.116996765 0 24055434.116996765 600315553.63795471 0 0 0 0 200439588.54120779 236048556.14849091 0 236048556.14849091 -591214558.3249588 0 0 0 0 68957163.63252306 23152881.197921753 0 23152881.197921753 600238928.98582745 0 0 0 0 -86818524.291913509 -74452772.164093018 0 -74452772.164093018 544453731.94197845 0 0 0 0 -137165.2961431751 346783.75070681237 0 346783.75070681237 369299.6777879186 0 0 0 0 -99304881.364174277 116811285.78710175 0 116811285.78710175 33877784.103172302 0 0 0 0 151527906.84429729 183926087.23298645 0 183926087.23298645 -185171506.41603088 0 0 0 0 -52544318.605672687 -5552491.598575592 0 -5552491.598575592 -275906436.82171631 0 0 0 0 162790839.68638229 62687584.038848877 0 62687584.038848877 38156146.977725983 0 0 0 0 225648246.50456727 -80945012.015041351 0 -80945012.015041351 -48140903.828994751 0 0 0 0 154093356.17636636 -20704799.025604248 0 -20704799.025604248 91386925.531536102 0 0 0 0 244703113.13535285 -88433135.055496216 0 -88433135.055496216 67114790.634021759 0 0 0 0 146723260.58283141 -11381357.731559753 0 -11381357.731559753 35072139.301612854 0 0 0 0 117714606.43749148 -115202616.96684647 0 -115202616.96684647 124081241.69033813 0 0 0 0 1681463.9748695493 -68606065.376060486 0 -68606065.376060486 331567396.570364 0 0 0 0 157311751.9896189 -198447385.17106247 0 -198447385.17106247 248787002.51018143 0 0 0 0 558266645.81337178 -232987521.41488266 0 -232987521.41488266 177972468.97788239 0 0 0 0 68948635.999943018 -221885260.63711166 0 -221885260.63711166 661863067.3219986 0 0 0 0 88610619.68823719 259248942.65802383 0 259248942.65802383 591948816.22984457 0 0 0 0 652467.10556683189 -790917.06740463246 0 -790917.06740463246 887525.22291092575 0 0 0 0 187608983.57859975 -440982138.79625702 0 -440982138.79625702 613047367.40303564 0 0 0 0 84998701.573897839 -223500312.32116699 0 -223500312.32116699 161153825.70129395 0 0 0 0 -1600282.8296900988 -3705875.1599464417 0 -3705875.1599464417 253320940.93244171 0 0 0 0 12199294.100623384 80132171.653139114 0 80132171.653139114 706916063.51245117 0 0 0 0 301849701.96809602 254756433.89584351 0 254756433.89584351 297188844.09415436 0 0 0 0 166927193.84947246 -100052304.69442177 0 -100052304.69442177 8386743.5703659058 0 0 0 0 134919034.30449015 -217026903.33647537 0 -217026903.33647537 175740287.95380402 0 0 0 0 86286899.785950243 -238746590.53136921 0 -238746590.53136921 169196755.12908936 0 0 0 0 458892743.04406685 -231538692.57233524 0 -231538692.57233524 5846621.2715606689 0 0 0 0 45624370.855224401 47645564.294528961 0 47645564.294528961 144933529.17259598 0 0 0 0 6855588.7520612627 65139254.806886673 0 65139254.806886673 138493050.83515167 0 0 0 0 1280538.4111854476 -1965440.0417923331 0 -1965440.0417923331 2767910.2208127305 0 0 0 0 -70971478.0838269 -125681608.34265518 0 -125681608.34265518 -41772547.502250671 0 0 0 0 -1750534.1951406002 2169924.4710273743 0 2169924.4710273743 -525548.76140797138 0 0 0 0 397740.7080552578 17925586.649922848 0 17925586.649922848 -101966620.85341644 0 0 0 0 -256127.36539816856 9330343.8477277756 0 9330343.8477277756 64649424.070373535 0 0 0 0 -60216848.20085144 115855677.36419678 0 115855677.36419678 16871737.787811279 0 0 0 0 -119034674.23483944 87981400.349653244 0 87981400.349653244 143740024.37090302 0 0 0 0 -104427664.14585924 36947485.673297882 0 36947485.673297882 199788204.62980652 0 0 0 0 -86538048.2278018 408389.41314888 0 408389.41314888 249997814.50215149 0 0 0 0 -43475809.720185518 51809360.715967178 0 51809360.715967178 92633702.485671997 0 0 0 0 -49919103.125639439 37960990.743202209 0 37960990.743202209 104219810.21123505 0 0 0 0 -63349462.487623215 49578140.718490601 0 49578140.718490601 111869831.46345901 0 0 0 0 -50780154.66826725 31563699.984416962 0 31563699.984416962 132152082.21920776 0 0 0 0 -8938022.7122797966 26412358.119022369 0 26412358.119022369 130788658.32553101 0 0 0 0 -9829089.018674612 35274301.525829315 0 35274301.525829315 100331800.70397186 0 0 0 0 19278534.262717962 38781133.219264984 0 38781133.219264984 114189704.88171387 0 0 0 0 49002595.629007876 -12015293.763095856 0 -12015293.763095856 91221784.208862305 0 0 0 0 19243975.3801274 21750906.133838654 0 21750906.133838654 53255647.962760925 0 0 0 0 24215761.084070683 -49356803.106781006 0 -49356803.106781006 220837216.79627991 0 0 0 0 24334618.465814292 -145369790.00471401 0 -145369790.00471401 131757845.5770874 0 0 0 0 -77446370.765225351 25722907.019071579 0 25722907.019071579 165671415.23058319 0 0 0 0 28233548.294275865 57090044.183570862 0 57090044.183570862 157190764.43525314 0 0 0 0 45379674.521775782 32364664.27891922 0 32364664.27891922 111939871.67542267 0 0 0 0 16567693.584908009 49219073.542167664 0 49219073.542167664 162978254.45967102 0 0 0 0 551634.28784695186 55724.572502513416 0 55724.572502513416 -432481.69158060849 0 0 0 0 78468709.479803562 59283334.773933411 0 59283334.773933411 13774651.570777893 0 0 0 0 103622.90031801032 -43.185590370558202 0 -43.185590370558202 22784.062380515039 0 0 0 0 4661844.7601029873 65222574.463226318 0 65222574.463226318 156579816.9003334 0 0 0 0 22373324.478504181 11445714.849277496 0 11445714.849277496 131053042.93664551 0 0 0 0 -10212226.522309065 26405751.746040344 0 26405751.746040344 65576892.494934082 0 0 0 0 11676609.621318087 33955920.829158306 0 33955920.829158306 60952993.222869873 0 0 0 0 12031772.212684631 13774351.5990448 0 13774351.5990448 7313479.0227661133 0 0 0 0 1664309.8091551065 1487972.6367111206 0 1487972.6367111206 903116.72102737427 0 0 0 0 1853674.8151127682 180933.36713591777 0 180933.36713591777 -779796.71470496058 0 0 0 0 14720173.501442313 -4180903.5260162354 0 -4180903.5260162354 12051787.453269958 0 0 0 0 88418.019952797797 924826.09384334087 0 924826.09384334087 1035583.5215021297 0 0 0 0 1415902.7235603333 1220204.8091773987 0 1220204.8091773987 952321.3307094574 0 0 0 0 2534422.2915022373 2125652.2556686401 0 2125652.2556686401 1421264.2039604187 0 0 0 0 8000457.331048727 4121305.0664291382 0 4121305.0664291382 6125316.3702850342 0 0 0 0 1423086.5610420967 844519.75988331158 0 844519.75988331158 -998904.78208565712 0 0 0 0 2034442.3221025467 1642530.8127250671 0 1642530.8127250671 1361209.264954567 0 0 0 0 1899391.1172104403 1850006.1539020538 0 1850006.1539020538 1975766.5096740723 0 0 0 0 1320033.9823457003 1685404.8190994263 0 1685404.8190994263 2249161.5626449585 0 0 0 0 -294819.18513566954 1564313.6006483017 0 1564313.6006483017 4405328.4026524872 0 0 0 0 -192920683.17512655 -41592469.55311203 0 -41592469.55311203 171804722.44732666 0 0 0 0 -251057498.1286211 52361388.505672455 0 52361388.505672455 56751424.597099304 0 0 0 0 -3214327.0480952263 11677940.912719727 0 11677940.912719727 650918.56784820557 0 0 0 0 629365.20125268167 1911218.675646035 0 1911218.675646035 -368400.38354910538 0 0 0 0 1895708.3594998717 1788619.8911263943 0 1788619.8911263943 2338938.0869903564 0 0 0 0 9670937.7300505638 5303400.9307594299 0 5303400.9307594299 -3335215.2573070526 0 0 0 0 -190270.7328366735 761836.38049565814 0 761836.38049565814 2895027.793812003 0 0 0 0 -128978281.83267093 142678980.47275066 0 142678980.47275066 15080502.020896912 0 0 0 0 8579952.32862854 5999088.332611084 0 5999088.332611084 2582635.5577964783 0 0 0 0 -24334424.585338116 12817225.511356354 0 12817225.511356354 14844193.95274353 0 0 0 0 -2340745.4399628639 4211894.2268371582 0 4211894.2268371582 74845923.68372345 0 0 0 0 -35999666.942830086 390931.26932525635 0 390931.26932525635 74548813.444841385 0 0 0 0 -30915481.68523097 -19544385.450147629 0 -19544385.450147629 151689461.47563171 0 0 0 0 -22889457.295819998 30953946.079345703 0 30953946.079345703 132069845.91030121 0 0 0 0 -60269.260102165863 202896.22024593223 0 202896.22024593223 1011556.0188792571 0 0 0 0 39217546.818031311 -98491262.865537643 0 -98491262.865537643 145821533.53207397 0 0 0 0 15172467.324868202 -49108366.840339661 0 -49108366.840339661 44461128.524078369 0 0 0 0 -52761807.394953728 -17180271.14125061 0 -17180271.14125061 153063385.2536087 0 0 0 0 -53596604.892353177 -55024479.850602031 0 -55024479.850602031 251139540.84104919 0 0 0 0 -65705799.82775116 723419727.74994659 0 723419727.74994659 158609870.81262207 0 0 0 0 428430106.76694202 111921880.52434921 0 111921880.52434921 -124508435.19075775 0 0 0 0 -291327958.66929913 20572976.814994812 0 20572976.814994812 96642148.40687561 0 0 0 0 936630.89863757708 -2437390.1341026723 0 -2437390.1341026723 4991898.0688206293 0 0 0 0 -187150412.23154372 -65233972.330861092 0 -65233972.330861092 15808480.966583252 0 0 0 0 9398555.5478124619 78930796.949798584 0 78930796.949798584 -1044557.1018333435 0 0 0 0 9360272.0159311295 83462543.177814484 0 83462543.177814484 -97594636.951656342 0 0 0 0 -17985586.842939377 91666925.253078461 0 91666925.253078461 114006420.94539642 0 0 0 0 -18408165.318707466 130672695.54650497 0 130672695.54650497 -39020241.542640686 0 0 0 0 84698768.067791939 144787042.06364441 0 144787042.06364441 -57895309.389362335 0 0 0 0 4606874.6533164978 62009897.739706993 0 62009897.739706993 45461012.708511353 0 0 0 0 42896700.311163127 -158829546.06064701 0 -158829546.06064701 130579130.12312317 0 0 0 0 415242189.49888325 -30571504.902526855 0 -30571504.902526855 65834835.432477951 0 0 0 0 284771690.43259454 -264149984.38480759 0 -264149984.38480759 171708451.73698425 0 0 0 0 -31368926.159770966 -17921281.257015228 0 -17921281.257015228 7547117.5864334106 0 0 0 0 -19543601.233346939 -88554729.655139923 0 -88554729.655139923 428111596.44129562 0 0 0 0 214696887.61468315 234373502.64115143 0 234373502.64115143 188062489.79402924 0 0 0 0 715257.92669063201 6715.1489598788321 0 6715.1489598788321 -25011.77066474501 0 0 0 0 392344302.35486889 -13764322.120697021 0 -13764322.120697021 -473574954.3704071 0 0 0 0 311892462.00983191 -43723880.919883728 0 -43723880.919883728 -483706092.13793182 0 0 0 0 -83239424.869207382 -72401405.007572174 0 -72401405.007572174 -192596392.47125244 0 0 0 0 390115480.07754445 -172647060.02615738 0 -172647060.02615738 -428103219.46175766 0 0 0 0 92857153.625844479 114135734.70605469 0 114135734.70605469 416245211.51136971 0 0 0 0 471110244.20341766 -63450948.880142212 0 -63450948.880142212 -574384569.36576843 0 0 0 0 -223034226.64127356 -231153443.98484421 0 -231153443.98484421 85061362.618713379 0 0 0 0 -32177562.093025774 371089034.76794052 0 371089034.76794052 541701498.58821869 0 0 0 0 671933.05332087236 -1834127.2338450849 0 -1834127.2338450849 3941756.3978484496 0 0 0 0 -31882999.452513456 -131698392.90132141 0 -131698392.90132141 428041330.61457062 0 0 0 0 53668922.340998858 -259644117.85930252 0 -259644117.85930252 204293552.44045258 0 0 0 0 62883527.0755945 -130254273.3395021 0 -130254273.3395021 181181099.7305603 0 0 0 0 64123399.410131603 -86608728.230113924 0 -86608728.230113924 39183548.226776123 0 0 0 0 18167035.793610901 -68677858.246265411 0 -68677858.246265411 80804624.392723083 0 0 0 0 15587182.379347354 -12903670.572170258 0 -12903670.572170258 -97819901.536746979 0 0 0 0 -9009510.4876916856 9044259.8405075073 0 9044259.8405075073 2947395.22996521 0 0 0 0 -129557400.88640994 44558710.493452072 0 44558710.493452072 18646464.889038086 0 0 0 0 48622486.040012658 -11476934.597408295 0 -11476934.597408295 14708604.893703461 0 0 0 0 46652426.905979469 -23066329.069803238 0 -23066329.069803238 150045542.12939453 0 0 0 0 -5948012.8838484883 24973987.766815186 0 24973987.766815186 79169848.846656799 0 0 0 0 41227033.318363063 35421186.072205931 0 35421186.072205931 42555234.113693237 0 0 0 0 -9729568.1318399608 40771107.597595215 0 40771107.597595215 89172040.331607819 0 0 0 0 -2827397.7527806759 62031666.828159332 0 62031666.828159332 80994676.755605698 0 0 0 0 16481058.068403497 35107709.959537506 0 35107709.959537506 118468698.02445221 0 0 0 0 -13349696.062528193 41106364.659751892 0 41106364.659751892 96224743.916778564 0 0 0 0 -7748169.2347234413 45256519.239551544 0 45256519.239551544 41198650.449508667 0 0 0 0 -79708934.928339958 31112812.338394165 0 31112812.338394165 54377801.534233093 0 0 0 0 -53653339.302764028 27279647.225025177 0 27279647.225025177 23645852.770015717 0 0 0 0 -56812827.965545297 -24725716.85388279 0 -24725716.85388279 -22059096.111557007 0 0 0 0 1339796.5912114717 -2593457.3273934694 0 -2593457.3273934694 4386502.5505932197 0 0 0 0 224190502.58358383 -550877988.41120529 0 -550877988.41120529 -93576825.792617798 0 0 0 0 -74328104.544246197 -19850248.077163696 0 -19850248.077163696 44888571.016647339 0 0 0 0 -37529019.319320157 11893612.414344788 0 11893612.414344788 38260053.622314453 0 0 0 0 -36731583.826991051 60859595.955242157 0 60859595.955242157 79549349.679656982 0 0 0 0 -13118497.559313148 68076638.509120941 0 68076638.509120941 99485845.793689728 0 0 0 0 -30682489.666723967 51607473.283527374 0 51607473.283527374 147381239.26140594 0 0 0 0 3702324.3033570349 10523100.274372101 0 10523100.274372101 15184552.048297882 0 0 0 0 -13909854.03342846 54932365.899341583 0 54932365.899341583 147726058.3239212 0 0 0 0 -20437702.601832367 74686393.467158318 0 74686393.467158318 175080658.51590729 0 0 0 0 -12825541.921099328 50835350.956838608 0 50835350.956838608 118489085.14394379 0 0 0 0 -20593889.725984544 49119640.530189514 0 49119640.530189514 155633781.08290482 0 0 0 0 -19720950.665193379 69782632.2063694 0 69782632.2063694 117679148.55807495 0 0 0 0 22079787.158421367 -10175967.026187897 0 -10175967.026187897 143373170.39968109 0 0 0 0 3872944.9267998636 13213565.513950348 0 13213565.513950348 114295748.11981773 0 0 0 0 1393286.2905068099 28155700.162906647 0 28155700.162906647 154455538.21421814 0 0 0 0 -28121114.220052704 15414076.329235077 0 15414076.329235077 159488036.64662933 0 0 0 0 -4523870.1126930937 -8906375.1507720947 0 -8906375.1507720947 143579246.41331482 0 0 0 0 5456686.533969149 -38368177.557655334 0 -38368177.557655334 142895766.86356354 0 0 0 0 -1395598.510058701 -19594950.359828949 0 -19594950.359828949 178074035.84190941 0 0 0 0 6936489.0581389405 -30607127.972263336 0 -30607127.972263336 165328118.83042908 0 0 0 0 14046186.172658727 -41524679.56123209 0 -41524679.56123209 115234531.64283752 0 0 0 0 14526850.207109533 -44106090.691982269 0 -44106090.691982269 115159492.59806824 0 0 0 0 -6716221.2052612305 -59979326.637557983 0 -59979326.637557983 134769865.19918823 0 0 0 0 20707117.092310861 -29329805.528503418 0 -29329805.528503418 138465081.38027763 0 0 0 0 19546122.646938294 -21893388.883132935 0 -21893388.883132935 111058737.32316589 0 0 0 0 38038714.662985161 -36376954.767637253 0 -36376954.767637253 91366478.253952026 0 0 0 0 44940247.459098309 -21979539.659118652 0 -21979539.659118652 110741434.39492702 0 0 0 0 5725877.1970795244 -19635882.118293762 0 -19635882.118293762 85515725.927825928 0 0 0 0 24537904.40427025 -38737451.91686058 0 -38737451.91686058 95259242.426895142 0 0 0 0 33866388.124747276 -26602607.283805847 0 -26602607.283805847 98014935.0558815 0 0 0 0 47427844.417142496 -37158496.666175842 0 -37158496.666175842 102892620.40032196 0 0 0 0 83078335.455778942 -16484635.791385651 0 -16484635.791385651 90470610.135269165 0 0 0 0 64595492.744951338 -1782192.2457962036 0 -1782192.2457962036 87170173.039527893 0 0 0 0 37662488.850234419 -9585977.4541816711 0 -9585977.4541816711 89636047.483543396 0 0 0 0 48536605.063466251 7177422.743938446 0 7177422.743938446 114934429.84510994 0 0 0 0 21081079.763040118 35969124.986196518 0 35969124.986196518 85852641.696105957 0 0 0 0 76053008.326389462 15400415.709789276 0 15400415.709789276 80348862.889103889 0 0 0 0 41160986.110920027 23856595.446892962 0 23856595.446892962 91936976.581192017 0 0 0 0 88323222.195202023 -6729760.2250270844 0 -6729760.2250270844 130881880.4236908 0 0 0 0 93721254.666839778 8608851.4673805237 0 8608851.4673805237 72017625.366550446 0 0 0 0 181875407.44958562 -71837507.365091324 0 -71837507.365091324 137362030.6496582 0 0 0 0 81976498.389150098 -47591428.852884293 0 -47591428.852884293 133044324.79859924 0 0 0 0 125181297.3427341 -7839346.4359893799 0 -7839346.4359893799 85252072.005264282 0 0 0 0 166982746.49507231 24120937.630767822 0 24120937.630767822 142275915.60015869 0 0 0 0 47046778.903174758 -76475524.322441101 0 -76475524.322441101 103623039.73545456 0 0 0 0 53721340.668012798 -38058141.227516174 0 -38058141.227516174 305278405.9626236 0 0 0 0 5209721.4950832129 -95697039.781230927 0 -95697039.781230927 221782616.90910339 0 0 0 0 32344774.746097654 -50615241.356845856 0 -50615241.356845856 74346206.431739807 0 0 0 0 69770198.474493265 -152613894.20128632 0 -152613894.20128632 207571252.6170311 0 0 0 0 120761801.55173579 -72862110.322789192 0 -72862110.322789192 27900721.571746826 0 0 0 0 101966.33856966996 -197506.38027476147 0 -197506.38027476147 116138.55179909989 0 0 0 0 -1118872.3158471584 23100665.564315796 0 23100665.564315796 13112440.179214478 0 0 0 0 1629242.045211388 -374909.82683927938 0 -374909.82683927938 130115.66005504411 0 0 0 0 64228912.141217008 -65487019.328580856 0 -65487019.328580856 42525308.76247406 0 0 0 0 -54038078.23271656 -166243715.81962585 0 -166243715.81962585 -211114860.98986435 0 0 0 0 -76078060.970285073 -256545416.06506526 0 -256545416.06506526 32716420.463043213 0 0 0 0 -168883.77141546342 -267700.38211411983 0 -267700.38211411983 348844.96751402318 0 0 0 0 -182979356.2932696 92496390.832298279 0 92496390.832298279 -45482998.569229126 0 0 0 0 -2030591.7967355177 -3541235.3817396164 0 -3541235.3817396164 86596472.874420166 0 0 0 0 -136097.29347307977 -212621.62676637806 0 -212621.62676637806 277332.42760800943 0 0 0 0 1971236.7318874591 -1401006.2484271694 0 -1401006.2484271694 576608.27169977874 0 0 0 0 1569498.4625550061 5455036.5174789429 0 5455036.5174789429 61310550.947738647 0 0 0 0 354955.96184345928 -611892.97439008392 0 -611892.97439008392 140853.58995939046 0 0 0 0 -11831949.740378141 7957066.0474243164 0 7957066.0474243164 -8067516.1196136475 0 0 0 0 27129363.493689194 97063177.833190918 0 97063177.833190918 261879379.24834442 0 0 0 0 17295342.841136456 36711294.106506348 0 36711294.106506348 70871514.927062988 0 0 0 0 -68472556.179619581 -8963470.6289863586 0 -8963470.6289863586 89718144.740982056 0 0 0 0 -12458458.327929378 49123300.760650635 0 49123300.760650635 144542782.21408081 0 0 0 0 -55498710.651667818 25395727.365187645 0 25395727.365187645 140713124.19709778 0 0 0 0 -50939248.719524525 -14429343.758113861 0 -14429343.758113861 180372857.25232315 0 0 0 0 -6473603.3667884544 -3586339.7076663971 0 -3586339.7076663971 153866188.46125031 0 0 0 0 40507621.628990889 -81085467.200042725 0 -81085467.200042725 271174691.18437552 0 0 0 0 15009901.090632461 -46922589.868061066 0 -46922589.868061066 158768414.26204681 0 0 0 0 71345328.34011215 -29476689.013900757 0 -29476689.013900757 102588494.87139797 0 0 0 0 -23447698.089007203 -2397492.0931930542 0 -2397492.0931930542 113697417.96383667 0 0 0 0 -78659331.137170374 38374391.685256958 0 38374391.685256958 135906601.29918671 0 0 0 0 -21369189.509612255 554362.26094818115 0 554362.26094818115 114768213.11283493 0 0 0 0 -5572913.871610716 52092755.17029953 0 52092755.17029953 69131095.118080139 0 0 0 0 -18233918.024830759 12989298.542388916 0 12989298.542388916 60963850.792961121 0 0 0 0 -138071005.62854314 97263424.607536316 0 97263424.607536316 128331503.69343567 0 0 0 0 -36639857.176830649 75192433.816820145 0 75192433.816820145 132196831.38990784 0 0 0 0 -153688756.8104693 18007958.331016541 0 18007958.331016541 161495123.59040451 0 0 0 0 -47942719.961331099 18269183.297386169 0 18269183.297386169 58897390.598942757 0 0 0 0 -21837498.751686107 73940423.112662315 0 73940423.112662315 123725484.08288574 0 0 0 0 -35361398.430116519 111451763.89014053 0 111451763.89014053 70944810.778648376 0 0 0 0 64092520.858146518 4290250.2437133789 0 4290250.2437133789 125712496.95708466 0 0 0 0 -24861821.847384848 68682953.568977356 0 68682953.568977356 163018415.81868744 0 0 0 0 -29320264.480406404 -23301161.012695312 0 -23301161.012695312 197853451.00136566 0 0 0 0 -44607333.943574667 34572858.773338318 0 34572858.773338318 104550210.63980103 0 0 0 0 -197206100.93822223 38540946.994338989 0 38540946.994338989 122542709.76403046 0 0 0 0 -209759159.05846283 95778573.044086456 0 95778573.044086456 69033979.190933228 0 0 0 0 -86852833.772193074 -5938167.1854248047 0 -5938167.1854248047 77011695.509475708 0 0 0 0 68726288.514474407 -5263768.4167442322 0 -5263768.4167442322 249559438.40744781 0 0 0 0 520698.56048827822 -13661412.375205994 0 -13661412.375205994 318573268.52239227 0 0 0 0 44953865.145118952 7151367.5928153992 0 7151367.5928153992 254845955.01210022 0 0 0 0 61593236.850509852 87229355.683767915 0 87229355.683767915 272337356.90893555 0 0 0 0 61573456.261963539 83441591.769599915 0 83441591.769599915 108592650.72989655 0 0 0 0 -5141.4556970143931 -1694599.7425842285 0 -1694599.7425842285 -1506267.2918701172 0 0 0 0 -53463.649260404534 89230.152376197278 0 89230.152376197278 225719.71567323431 0 0 0 0 174602219.16404679 169876732.40695953 0 169876732.40695953 154459772.87637329 0 0 0 0 2059.9893328409016 -1681883.0145606995 0 -1681883.0145606995 -1517005.4632263184 0 0 0 0 56241943.61187508 95118256.288043976 0 95118256.288043976 82901785.855247498 0 0 0 0 53943110.927715719 66110520.854553223 0 66110520.854553223 68465360.560062408 0 0 0 0 -80146.336214900162 14483.120527872816 0 14483.120527872816 353045.93458329514 0 0 0 0 -2691579.6813429091 -479510.45609664917 0 -479510.45609664917 4493929.9171447754 0 0 0 0 -2862087.6528998045 -1701153.3717269897 0 -1701153.3717269897 789649.01831054688 0 0 0 0 -4057569.0228298008 1123921.9297071965 0 1123921.9297071965 -31391138.484269794 0 0 0 0 -574928.11671287543 1186505.6606826782 0 1186505.6606826782 476574.49699401855 0 0 0 0 -681464.94064676389 619705.75254821777 0 619705.75254821777 468406.53350639343 0 0 0 0 -385958.87641383708 611760.40126800537 0 611760.40126800537 160071.62986564636 0 0 0 0 3303152.1858004634 169221.7584062703 0 169221.7584062703 -31533.663866989315 0 0 0 0 14350129.336127929 -1905975.8099956512 0 -1905975.8099956512 -223187.02984619141 0 0 0 0 -815881.11290238053 867840.78296661377 0 867840.78296661377 65247.145782470703 0 0 0 0 -704586.18057818152 531382.43544769287 0 531382.43544769287 416387.68557739258 0 0 0 0 -15703148.076713026 1143613.6362228394 0 1143613.6362228394 15502705.813674927 0 0 0 0 152461.44604154539 38039.690759733086 0 38039.690759733086 459900.58695695922 0 0 0 0 -5812395.1709157173 -1468835.6120376587 0 -1468835.6120376587 112249.14174365997 0 0 0 0 599977.47747468308 -2265109.8688319549 0 -2265109.8688319549 179789.37200020719 0 0 0 0 -179105.56903310379 422639.93600911088 0 422639.93600911088 419142.1085471455 0 0 0 0 12637288.55067867 8236347.0640792847 0 8236347.0640792847 -16626684.323707581 0 0 0 0 13046832.949723065 -44940697.436820984 0 -44940697.436820984 57343177.029876709 0 0 0 0 26690476.189985573 -9992412.8313598633 0 -9992412.8313598633 11009974.060028076 0 0 0 0 -6114389.80324018 -15651275.927894592 0 -15651275.927894592 13523176.517753601 0 0 0 0 -70389.932225724449 311160.40024581738 0 311160.40024581738 306011.24937959574 0 0 0 0 20320049.686320156 -3476226.8627319336 0 -3476226.8627319336 -13651494.557777405 0 0 0 0 -390347.23264725227 24257.122772216797 0 24257.122772216797 470314.41851806641 0 0 0 0 -1192985.0892538354 247533.78979492188 0 247533.78979492188 450387.24838256836 0 0 0 0 -124937.3555646177 -68586.884041361511 0 -68586.884041361511 434644.22018746659 0 0 0 0 -33983766.586840473 -2289721.5243644714 0 -2289721.5243644714 47725712.376609802 0 0 0 0 13979264.467818975 25021312.536735535 0 25021312.536735535 39533159.451171875 0 0 0 0 -2500741.3895406425 -329586.67921829224 0 -329586.67921829224 8360480.2180557251 0 0 0 0 -64795.676534159502 38848.589604075998 0 38848.589604075998 103271.26204455737 0 0 0 0 -35576303.400706805 20009671.597000122 0 20009671.597000122 90577768.797607422 0 0 0 0 5164632.7880582437 -30048588.505081177 0 -30048588.505081177 23523249.574440002 0 0 0 0 -22571583.534441989 -53065320.016311646 0 -53065320.016311646 78969723.961479187 0 0 0 0 2591552.654544048 -41314644.907485962 0 -41314644.907485962 81735776.525772095 0 0 0 0 24306.889926463366 -61228065.100418091 0 -61228065.100418091 89920935.751546383 0 0 0 0 -18014997.463529795 -7183942.5301971436 0 -7183942.5301971436 26877475.702526093 0 0 0 0 -33906.368257466354 46920.110721041448 0 46920.110721041448 61332.787077702582 0 0 0 0 11618657.525562882 -16189201.166633606 0 -16189201.166633606 24020264.931060791 0 0 0 0 -29295140.899897531 -9463015.935333252 0 -9463015.935333252 54096355.863220215 0 0 0 0 2319903.8950019777 -45907358.642425537 0 -45907358.642425537 80156696.674942017 0 0 0 0 7766023.7403505743 -22356832.583999634 0 -22356832.583999634 22324272.856723785 0 0 0 0 -10103293.003271773 -31194130.982589722 0 -31194130.982589722 67798336.152435303 0 0 0 0 -3538250.0416928604 -61685100.528793335 0 -61685100.528793335 119466772.55489063 0 0 0 0 16354901.612240076 -46495190.768432617 0 -46495190.768432617 66818705.258232594 0 0 0 0 720252.34916818142 -35082234.982414246 0 -35082234.982414246 72606341.309906006 0 0 0 0 10622947.857673213 -56322451.203948975 0 -56322451.203948975 76943057.05739212 0 0 0 0 -10812701.647446722 -68739128.571212769 0 -68739128.571212769 172125921.95922852 0 0 0 0 -18807137.500001151 -44072839.80065918 0 -44072839.80065918 121392554.60282898 0 0 0 0 -12197804.690959616 -46244744.588552475 0 -46244744.588552475 173420248.87882996 0 0 0 0 -22684900.99195835 -36475533.845443726 0 -36475533.845443726 211844203.83045697 0 0 0 0 -26293819.704902358 -52601527.295219421 0 -52601527.295219421 174753285.96343994 0 0 0 0 -12372372.138582535 -70269312.426933289 0 -70269312.426933289 172175072.27455139 0 0 0 0 -28156950.507613268 -56195489.958055496 0 -56195489.958055496 221433305.68008423 0 0 0 0 -10650007.373486623 -90517178.23500824 0 -90517178.23500824 240262930.77796173 0 0 0 0 16084181.405075185 -87911806.093753815 0 -87911806.093753815 184417925.07424927 0 0 0 0 18274155.673445463 -101419609.95906067 0 -101419609.95906067 184017521.86731434 0 0 0 0 180698958.34592384 -148672833.43134689 0 -148672833.43134689 117858046.71074677 0 0 0 0 56757.520991311285 -41106.471932633081 0 -41106.471932633081 187937.13654794544 0 0 0 0 32424698.054149255 -148223512.33132172 0 -148223512.33132172 321049532.58105469 0 0 0 0 -65717795.244938686 -14586472.639350891 0 -14586472.639350891 150017867.52526855 0 0 0 0 97112628.604340583 -41366594.087882996 0 -41366594.087882996 -3118656.807723999 0 0 0 0 -46223.552216172357 -7504476.3279135404 0 -7504476.3279135404 -65915992.436187744 0 0 0 0 18585052.680561364 18765846.931930542 0 18765846.931930542 8195452.666519165 0 0 0 0 44269300.083167791 -41388683.525802612 0 -41388683.525802612 35310250.315971375 0 0 0 0 32014630.041249305 -79483081.674865723 0 -79483081.674865723 92736127.953746796 0 0 0 0 13087652.797732711 -63737494.178085327 0 -63737494.178085327 110500444.83612061 0 0 0 0 91701632.525208592 -117048655.60462952 0 -117048655.60462952 98346964.352859497 0 0 0 0 34456607.67910663 -41405255.367012024 0 -41405255.367012024 40650694.55255127 0 0 0 0 5273801.6919915453 -4416498.3824806213 0 -4416498.3824806213 1733543.7697143555 0 0 0 0 80441.426769809797 -16447285.414745331 0 -16447285.414745331 33632234.587687492 0 0 0 0 -22250.226489277367 -6103292.5479736328 0 -6103292.5479736328 41796608.720756531 0 0 0 0 -1873273.2165893652 -11131372.824020386 0 -11131372.824020386 33538178.884918392 0 0 0 0 -2117162.201745227 -10567847.772388458 0 -10567847.772388458 68669054.504154205 0 0 0 0 -2466250.1403605491 14130040.510591507 0 14130040.510591507 49847921.078422546 0 0 0 0 19432419.171306752 -30079268.894771576 0 -30079268.894771576 36778746.292205811 0 0 0 0 18169167.355010867 11043334.470376968 0 11043334.470376968 3986415.3643341064 0 0 0 0 -8226.6848956155791 51254.253008604981 0 51254.253008604981 63842.355588905513 0 0 0 0 669551.97187424451 675235.60697174072 0 675235.60697174072 -116626.01268768311 0 0 0 0 355478.34832570702 -981062.53754425049 0 -981062.53754425049 5312253.080971241 0 0 0 0 -40072.336979105094 167001.72000811994 0 167001.72000811994 160398.02244811505 0 0 0 0 2265838.3606395125 -2045533.5580406189 0 -2045533.5580406189 -418403.3451461792 0 0 0 0 -1452747.8504558429 9197566.7969989777 0 9197566.7969989777 2387166.2559051514 0 0 0 0 944652.18885790883 322572.1502108369 0 322572.1502108369 2015951.971333947 0 0 0 0 1413601.2129849643 2267649.7172546387 0 2267649.7172546387 -4557097.9641990662 0 0 0 0 -3589571.2376548052 1583393.2829475403 0 1583393.2829475403 4811071.8735656738 0 0 0 0 1948375.5519759357 598009.99159240723 0 598009.99159240723 -684262.7472038269 0 0 0 0 -3624639.8018358694 -429616.25429153442 0 -429616.25429153442 -1626180.4945526123 0 0 0 0 -7004378.0152309677 -1746353.8668470383 0 -1746353.8668470383 7540928.70753479 0 0 0 0 21116.513926100833 -6999706.2598838806 0 -6999706.2598838806 10497712.640380859 0 0 0 0 -59821.338947198979 -14420897.623111725 0 -14420897.623111725 4119370.908744812 0 0 0 0 -8397588.5061673913 -10963039.053970337 0 -10963039.053970337 8638157.3082351685 0 0 0 0 -29106661.093220346 -24216057.447432518 0 -24216057.447432518 20677796.652984619 0 0 0 0 -22572862.036455434 12299639.943802834 0 12299639.943802834 -7284867.5187988281 0 0 0 0 -104627590.13010249 3014946.4109573364 0 3014946.4109573364 31070608.39345932 0 0 0 0 -46921.434511542539 447855.81102739181 0 447855.81102739181 148106.4685061872 0 0 0 0 -13029088.65415277 1887538.6746940613 0 1887538.6746940613 3422039.7351341248 0 0 0 0 39502447.518441021 108767169.66246986 0 108767169.66246986 294318425.91007233 0 0 0 0 271603146.51760978 -341659202.89595795 0 -341659202.89595795 332664519.05314636 0 0 0 0 416959405.24530745 -555808635.96199417 0 -555808635.96199417 647696996.99150085 0 0 0 0 -119129.1188784785 30769.449693207629 0 30769.449693207629 700470.57577169687 0 0 0 0 -163286139.60489416 -78341339.003997803 0 -78341339.003997803 1361073690.2939148 0 0 0 0 -133642151.22302088 -390323917.57814789 0 -390323917.57814789 695307509.25789261 0 0 0 0 -141674.98207262112 -151297632.7983284 0 -151297632.7983284 205290815.05374146 0 0 0 0 -50987960.643886372 36117801.687225342 0 36117801.687225342 -16127078.352733612 0 0 0 0 -315248.34017382184 -80324.141300376505 0 -80324.141300376505 251805.31321528181 0 0 0 0 330982614.41944599 -441795041.75805664 0 -441795041.75805664 397319722.19319153 0 0 0 0 -1667518.3976759762 -122612909.31884003 0 -122612909.31884003 593893540.99528313 0 0 0 0 64528969.686133325 -264264836.20768738 0 -264264836.20768738 611380951.58615112 0 0 0 0 189214.48585694906 -59548.629000043496 0 -59548.629000043496 481967.67880141921 0 0 0 0 194100856.95007098 -202376064.83281136 0 -202376064.83281136 432700070.227005 0 0 0 0 144277776.012692 -115686685.30519867 0 -115686685.30519867 494583890.88825989 0 0 0 0 48975832.370746337 -140092822.28961182 0 -140092822.28961182 489499771.84249878 0 0 0 0 67439793.381299227 -117942618.33135986 0 -117942618.33135986 420000885.51186752 0 0 0 0 156314660.64778131 -210742407.75775528 0 -210742407.75775528 434606715.79136658 0 0 0 0 107841440.45723885 -66700934.11806488 0 -66700934.11806488 241150713.98455811 0 0 0 0 122061088.3955825 -126156401.47395706 0 -126156401.47395706 288560879.93106079 0 0 0 0 41576034.809444867 -62823760.424919128 0 -62823760.424919128 305857695.16789246 0 0 0 0 133224.25199695735 -62403148.722377077 0 -62403148.722377077 468839779.75334167 0 0 0 0 55174536.029683039 -64286596.226444244 0 -64286596.226444244 377776267.96940613 0 0 0 0 73565501.133766696 -79302270.608154297 0 -79302270.608154297 342226060.45180893 0 0 0 0 112031872.80365914 -158586710.13585281 0 -158586710.13585281 398618988.84359741 0 0 0 0 -146676573.7013154 4454663.60181427 0 4454663.60181427 2781700.7520141602 0 0 0 0 -175500426.5556252 9125426.8495254517 0 9125426.8495254517 12631962.071510315 0 0 0 0 -163316925.28365076 42282986.702445984 0 42282986.702445984 102783980.20861816 0 0 0 0 -77173030.795567751 -45266680.461166382 0 -45266680.461166382 36315152.045974731 0 0 0 0 -61511660.176668242 -95800992.636556625 0 -95800992.636556625 157362932.92823792 0 0 0 0 68309670.125698745 -60378127.61769104 0 -60378127.61769104 160100596.58631897 0 0 0 0 -41970594.607345857 -53910057.26953125 0 -53910057.26953125 236295454.37133789 0 0 0 0 -36796188.864204645 -245224088.1623764 0 -245224088.1623764 343860264.45315552 0 0 0 0 38225034.987848699 -137794928.79714203 0 -137794928.79714203 196090743.76583099 0 0 0 0 62331503.486561641 -175556051.04043579 0 -175556051.04043579 373052954.85128021 0 0 0 0 12783896.499329239 -143320475.29690552 0 -143320475.29690552 397365993.36808777 0 0 0 0 -39534031.56036371 -170042656.07788849 0 -170042656.07788849 465985062.33433533 0 0 0 0 39941995.328163803 -261644459.19469452 0 -261644459.19469452 460094716.61062098 0 0 0 0 -104158.49573197271 -29475.616315761581 0 -29475.616315761581 72323.812799178064 0 0 0 0 -202515715.37056011 -309920208.55072021 0 -309920208.55072021 62224860.988876343 0 0 0 0 -136207930.68856108 -152023270.96434784 0 -152023270.96434784 435514426.81695557 0 0 0 0 -99671702.96941787 -178040533.3679266 0 -178040533.3679266 464601142.11756134 0 0 0 0 37505611.675971806 -130165252.63465118 0 -130165252.63465118 437036703.59094238 0 0 0 0 -102371467.35824284 -170592662.34180832 0 -170592662.34180832 609451859.52838135 0 0 0 0 -44642681.725426912 -256910070.74138641 0 -256910070.74138641 560756445.28654099 0 0 0 0 -6547841.084320426 -236422795.52851868 0 -236422795.52851868 566374420.15656662 0 0 0 0 93950674.44668749 -180085636.77086258 0 -180085636.77086258 616558234.77911377 0 0 0 0 89473.526738280605 92726.404536440969 0 92726.404536440969 327943.43202401325 0 0 0 0 35284449.585066497 -209638758.54348755 0 -209638758.54348755 454818980.56568909 0 0 0 0 35000007.255964547 -259406479.3242569 0 -259406479.3242569 627787099.82184219 0 0 0 0 121058347.19434011 -154396575.46346283 0 -154396575.46346283 293852351.19898129 0 0 0 0 -166439.38977491652 261104.09482700564 0 261104.09482700564 1745858.163192302 0 0 0 0 -148705.76267042942 1201165.0822124481 0 1201165.0822124481 -667079.91413879395 0 0 0 0 -33328244.497132182 -206353700.23326874 0 -206353700.23326874 456302580.57774925 0 0 0 0 -37295241.544716358 -161179162.30884171 0 -161179162.30884171 300113579.67728424 0 0 0 0 -121395315.00673252 -207325899.26806831 0 -207325899.26806831 554658608.98986816 0 0 0 0 -117728159.35358539 -180613904.95498228 0 -180613904.95498228 485823939.49613953 0 0 0 0 -30897031.66802299 -231356918.05396271 0 -231356918.05396271 431806923.78416443 0 0 0 0 -131521268.98367739 -131751130.79984856 0 -131751130.79984856 613680554.15489197 0 0 0 0 -177170126.2627511 -151801867.43822479 0 -151801867.43822479 613999521.52278137 0 0 0 0 -139203864.6229012 -101509793.90067291 0 -101509793.90067291 495223205.35864258 0 0 0 0 583515133.01377392 538759099.44365311 0 538759099.44365311 518449899.7755394 0 0 0 0 -145273678.18887043 -320835146.63345337 0 -320835146.63345337 1414424090.4496384 0 0 0 0 466787048.9618513 -689329958.72134829 0 -689329958.72134829 599192725.22528076 0 0 0 0 103066441.90493679 -220520315.98796844 0 -220520315.98796844 258732930.06563568 0 0 0 0 131842786.20030516 -276953383.79679871 0 -276953383.79679871 310069812.44776917 0 0 0 0 292793515.89380026 -181722755.30910873 0 -181722755.30910873 131513881.02857971 0 0 0 0 -99064676.726286888 -273604768.41474152 0 -273604768.41474152 665499553.06410599 0 0 0 0 -110301411.61662436 -221268882.82354736 0 -221268882.82354736 534144263.1317215 0 0 0 0 -9325971.100733161 10247405.268657684 0 10247405.268657684 79955543.524436951 0 0 0 0 -62551118.675698996 -47809251.400619507 0 -47809251.400619507 508462365.12485123 0 0 0 0 -6837364.8411126137 -50211458.212650299 0 -50211458.212650299 24224082.789840698 0 0 0 0 24696030.787333012 -142666197.33850861 0 -142666197.33850861 330313520.20750523 0 0 0 0 91437052.429452419 6380987.9371776581 0 6380987.9371776581 56432562.75932312 0 0 0 0 -10330580.476617098 40151798.695760727 0 40151798.695760727 -37592439.174240112 0 0 0 0 60322582.946547985 36340904.51744175 0 36340904.51744175 -55377837.801879883 0 0 0 0 -2747360.2375226934 -1101636.9276706129 0 -1101636.9276706129 2607572.4268428832 0 0 0 0 -72991013.49815464 -14690554.894493103 0 -14690554.894493103 1942487.3800706863 0 0 0 0 -213938843.38805676 -33129754.594772339 0 -33129754.594772339 -1755319.5552520752 0 0 0 0 -38539356.095221728 -33985149.652033806 0 -33985149.652033806 -8143689.6526184082 0 0 0 0 -928885.18725610885 224761.4251842387 0 224761.4251842387 560971.80619689077 0 0 0 0 16707487.506664395 -66500852.103290558 0 -66500852.103290558 10979896.070999146 0 0 0 0 -221053080.44392788 -14132737.609268188 0 -14132737.609268188 69313919.915115356 0 0 0 0 -163869768.96888638 -70523687.103233337 0 -70523687.103233337 72722881.717788696 0 0 0 0 -200911494.08256936 -204346994.24833679 0 -204346994.24833679 329375875.40835571 0 0 0 0 -226639123.82606006 -117782577.09572983 0 -117782577.09572983 42601747.551803589 0 0 0 0 -64515757.004358292 -81234170.008735657 0 -81234170.008735657 -3632586.3552017212 0 0 0 0 -30769930.548150778 71773032.574111462 0 71773032.574111462 20791186.047355652 0 0 0 0 -349803260.31550431 127054270.87875348 0 127054270.87875348 656556234.04527283 0 0 0 0 -2556393.4892455307 -1247597.7293389365 0 -1247597.7293389365 2830246.3630566932 0 0 0 0 -345185880.68091154 311935380.5459404 0 311935380.5459404 61281677.557172298 0 0 0 0 34406695.462258101 -130235873.08369446 0 -130235873.08369446 383412095.85361481 0 0 0 0 469141.8743061116 -2644219.2632456236 0 -2644219.2632456236 2597303.1186662316 0 0 0 0 -115429025.92572975 -38963242.668647766 0 -38963242.668647766 17202209.526079178 0 0 0 0 58095170.782618999 83823671.507946014 0 83823671.507946014 14279409.33241272 0 0 0 0 448581719.26632679 -251409587.58820641 0 -251409587.58820641 -42174642.923080444 0 0 0 0 -119990085.24157691 -600621113.66087341 0 -600621113.66087341 1271885882.8281364 0 0 0 0 279773.06275542791 -913029.72178494371 0 -913029.72178494371 931848.05283693969 0 0 0 0 -80485359.052927047 325746638.74973679 0 325746638.74973679 1677223347.0743561 0 0 0 0 -98862218.188528061 -130619234.63314438 0 -130619234.63314438 922553150.88354111 0 0 0 0 -114005972.24857253 103459413.55140924 0 103459413.55140924 651020199.90148926 0 0 0 0 -17986310.407179832 -28043971.975353241 0 -28043971.975353241 -26709657.013282776 0 0 0 0 -65394265.056625843 -18844779.940420151 0 -18844779.940420151 34162875.571418762 0 0 0 0 -25588803.058089733 10805029.007683754 0 10805029.007683754 45090714.36946106 0 0 0 0 -40891129.33978796 -18336604.963879585 0 -18336604.963879585 22706877.978591919 0 0 0 0 -2447610.5760517418 1132977.6307191681 0 1132977.6307191681 2016771.6070597861 0 0 0 0 -3950737.4274821281 5415537.1499023438 0 5415537.1499023438 5939699.3686141968 0 0 0 0 2910729.6154477368 -1405047.9765581358 0 -1405047.9765581358 948340.9986741296 0 0 0 0 12791.433868408203 6079369.0580673218 0 6079369.0580673218 10213365.113721848 0 0 0 0 56201257.662394762 -383561656.66847992 0 -383561656.66847992 434059282.235672 0 0 0 0 3972823.1176497452 -1835942.6368982065 0 -1835942.6368982065 1582485.1785207293 0 0 0 0 232149998.66933489 -94197249.583850861 0 -94197249.583850861 -144335518.93325043 0 0 0 0 8319886.430721879 -14133499.71285677 0 -14133499.71285677 4408332.0506515503 0 0 0 0 -2158145.9860282047 434249.45003141649 0 434249.45003141649 1720375.0423327647 0 0 0 0 -88133.866103333392 -267378.07930813543 0 -267378.07930813543 615578.78403597185 0 0 0 0 -51532589.904053211 101980573.96933746 0 101980573.96933746 242470911.30657196 0 0 0 0 1199602.349830091 2816029.6038284302 0 2816029.6038284302 -13854514.994100571 0 0 0 0 -122824583.8749814 145222753.53105927 0 145222753.53105927 605141660.98293352 0 0 0 0 -5219568.3690976202 2296954.0500679016 0 2296954.0500679016 14644948.843482971 0 0 0 0 -3452423.5652907491 4081127.1486358643 0 4081127.1486358643 1235957.4250335693 0 0 0 0 -193345.92045462132 3991572.4332427979 0 3991572.4332427979 1174122.7774467468 0 0 0 0 110760.64946264029 6858930.1699066162 0 6858930.1699066162 -4514160.4317855835 0 0 0 0 -966361.50166112185 -1134063.1999893188 0 -1134063.1999893188 -276193.78948974609 0 0 0 0 -3258483.3864284158 4554443.2700004578 0 4554443.2700004578 10954921.706939697 0 0 0 0 864914.08141952753 349739.43855285645 0 349739.43855285645 11527422.392263412 0 0 0 0 -3887814.1103533506 5139549.7881584167 0 5139549.7881584167 19102758.521194458 0 0 0 0 -4288473.1248449087 5194693.5977783203 0 5194693.5977783203 15491416.660217285 0 0 0 0 -6809865.3637747467 3469748.0816421509 0 3469748.0816421509 34072424.049072266 0 0 0 0 -1128775.5924680829 -17604528.970516205 0 -17604528.970516205 45752001.639879227 0 0 0 0 4069813.4236139059 -5064922.4798622131 0 -5064922.4798622131 20439086.075054169 0 0 0 0 -2867615.8953663111 -86438.14656829834 0 -86438.14656829834 16150070.741867065 0 0 0 0 -5078845.8144905567 -2283046.2205429077 0 -2283046.2205429077 25449197.439041138 0 0 0 0 -4730431.8099627495 -422132.07173156738 0 -422132.07173156738 19052952.348762512 0 0 0 0 -4572649.8361094445 -1055163.8705244064 0 -1055163.8705244064 15854759.83013916 0 0 0 0 -3973433.9881473333 568577.84826946259 0 568577.84826946259 14634908.100257874 0 0 0 0 -628219.98589360714 1508399.7732849121 0 1508399.7732849121 7156768.1408443451 0 0 0 0 -2102357.8788116002 1609417.3323211707 0 1609417.3323211707 1945956.5574278291 0 0 0 0 35806332.96331501 75367071.478462219 0 75367071.478462219 -61331334.743589401 0 0 0 0 -50193543.756793022 38711482.87587738 0 38711482.87587738 -61654.990516662598 0 0 0 0 25919874.757829666 -13224449.440826416 0 -13224449.440826416 -19139214.563243866 0 0 0 0 -16601141.754727364 -49249584.208705902 0 -49249584.208705902 -9694715.4172782898 0 0 0 0 -2295511.9842744763 1445849.334883526 0 1445849.334883526 2020928.10263348 0 0 0 0 -3800255.1256669164 -1196564.1296882629 0 -1196564.1296882629 16063270.752819061 0 0 0 0 -2228731.402805984 -4870409.341884613 0 -4870409.341884613 21461205.786880493 0 0 0 0 -2137861.4112493992 -4253819.1811828613 0 -4253819.1811828613 20332701.743955612 0 0 0 0 -1412016.6433421373 -4420508.3182296753 0 -4420508.3182296753 21083447.761901855 0 0 0 0 -2388628.0399161279 -4940642.177488327 0 -4940642.177488327 22943380.739624023 0 0 0 0 2619245.8911776543 -5080031.8715057373 0 -5080031.8715057373 21113757.30871582 0 0 0 0 8333727.4856748581 -9702834.4154968262 0 -9702834.4154968262 23430993.781494141 0 0 0 0 535761.52527999878 -4110162.8758239746 0 -4110162.8758239746 21461068.169799805 0 0 0 0 1887179.8366446495 -5206151.8426818848 0 -5206151.8426818848 21263679.197036743 0 0 0 0 717192.03793250024 -6393051.2638921738 0 -6393051.2638921738 23070160.996032715 0 0 0 0 30633770.695747375 -10093680.23236084 0 -10093680.23236084 -111446049.21941376 0 0 0 0 4049126.7547647953 -8199543.5429229736 0 -8199543.5429229736 23356116.398620605 0 0 0 0 852019.63009357452 -6406554.1694335938 0 -6406554.1694335938 24402848.312744141 0 0 0 0 -1820543.3433192603 1059301.5128674898 0 1059301.5128674898 3517472.552841072 0 0 0 0 333478.87567353249 -12662209.53717041 0 -12662209.53717041 33577620.078125 0 0 0 0 -2245509.8065671921 -10011207.976715088 0 -10011207.976715088 35725652.461502075 0 0 0 0 -149084.15016872156 379326.47275981121 0 379326.47275981121 -836399.88071346655 0 0 0 0 23495779.277854919 48362423.543640137 0 48362423.543640137 -100658713.03697205 0 0 0 0 7144614.1964030266 -8286080.749206543 0 -8286080.749206543 22091162.671989441 0 0 0 0 1890139.6072821617 -5785611.4012145996 0 -5785611.4012145996 22927024.376647949 0 0 0 0 4238327.1010499001 -11090613.07119751 0 -11090613.07119751 26006677.708435059 0 0 0 0 4869799.0907182693 -11207397.863311768 0 -11207397.863311768 25126345.738143921 0 0 0 0 1726368.5321121216 -8867264.3347167969 0 -8867264.3347167969 26369274.693489075 0 0 0 0 2082980.6603443623 -11607553.219596863 0 -11607553.219596863 28077101.871337891 0 0 0 0 2359296.6607292891 -10194531.981567383 0 -10194531.981567383 27468601.816833496 0 0 0 0 -508512.86235904694 -8179110.4661560059 0 -8179110.4661560059 31269582.499706268 0 0 0 0 859004.0187997818 -7389758.1200561523 0 -7389758.1200561523 25710665.570098877 0 0 0 0 383431.65221309662 -10724494.126342773 0 -10724494.126342773 31082768.587947845 0 0 0 0 -988703.69254732132 -6562446.3683395386 0 -6562446.3683395386 29187630.553131104 0 0 0 0 -232770.01656198502 -9676741.3157653809 0 -9676741.3157653809 29419057.175170898 0 0 0 0 2828651.9493155479 -12844335.625526428 0 -12844335.625526428 29772146.98223877 0 0 0 0 37896297.83599472 25230478.391662598 0 25230478.391662598 -89361862.197161198 0 0 0 0 29555275.705841064 41022838.099578857 0 41022838.099578857 -67884898.04006958 0 0 0 0 19660973.516689301 13889448.057617188 0 13889448.057617188 -26161752.919769287 0 0 0 0 24603600.18113327 9620929.1497497559 0 9620929.1497497559 -48990429.990722656 0 0 0 0 25780598.715316772 10963804.628326416 0 10963804.628326416 -74136600.354393005 0 0 0 0 25857931.527275085 -17189896.582275391 0 -17189896.582275391 -90059693.410018444 0 0 0 0 18322431.280796051 -13662960.03805542 0 -13662960.03805542 -68801925.629089355 0 0 0 0 -4986973.6810035706 -46026864.658950806 0 -46026864.658950806 -95392705.39956665 0 0 0 0 -26306270.597930908 -53421595.027709961 0 -53421595.027709961 -79291655.241760254 0 0 0 0 9010191.4063339233 -11969450.227058411 0 -11969450.227058411 24391622.09967041 0 0 0 0 6089769.900601387 -13996297.777313232 0 -13996297.777313232 27128458.061401367 0 0 0 0 -5899169.881705761 13489343.894424438 0 13489343.894424438 -21832421.786682129 0 0 0 0 -72882572.629981041 -30731352.084320068 0 -30731352.084320068 -38209570.247161865 0 0 0 0 -5426134.3508771062 2417476.9044914246 0 2417476.9044914246 18742632.471801758 0 0 0 0 -6441693.1949949265 -1503808.3609008789 0 -1503808.3609008789 20571805.162353516 0 0 0 0 -87453627.232646942 57027439.416625977 0 57027439.416625977 -31547132.821716309 0 0 0 0 -111352989.79173851 15422240.593444824 0 15422240.593444824 -17145535.495239258 0 0 0 0 -3368027.9490013123 -7387356.9371643066 0 -7387356.9371643066 37246151.983322144 0 0 0 0 -3279844.5406475067 -2711584.731048584 0 -2711584.731048584 38383371.176773071 0 0 0 0 -1795743.5811815262 -6700329.6926040649 0 -6700329.6926040649 33297762.394165039 0 0 0 0 -44939204.859977722 71809031.340454102 0 71809031.340454102 -46705154.9375 0 0 0 0 16224698.261820793 28883690.12898767 0 28883690.12898767 -23433316.485046387 0 0 0 0 16327193.830677032 40517041.159515381 0 40517041.159515381 -56304728.658233643 0 0 0 0 -28441627.263080597 48117548.547012329 0 48117548.547012329 -7364764.8568115234 0 0 0 0 13841845.111763 43416388.446365356 0 43416388.446365356 -45651500.002563477 0 0 0 0 -20344135.559268951 70479061.849212646 0 70479061.849212646 -51032760.900726318 0 0 0 0 -28905765.27115345 38886454.147640228 0 38886454.147640228 -26353453.852172852 0 0 0 0 -35089507.965677261 13946610.39151001 0 13946610.39151001 -17443294.440307617 0 0 0 0 -54907462.319976807 36367290.604553223 0 36367290.604553223 -10689865.730041504 0 0 0 0 -8270915.3255805969 23622349.422042847 0 23622349.422042847 -10446025.294067383 0 0 0 0 -33294511.179552078 14099900.654304504 0 14099900.654304504 28903122.64263916 0 0 0 0 -1131494.6535186768 5909673.6689300537 0 5909673.6689300537 -3310606.1293897629 0 0 0 0 -6700082.8022117615 -17897336.695892334 0 -17897336.695892334 -36847328.064208984 0 0 0 0 -57650492.263523102 1396092.1047668457 0 1396092.1047668457 -2931481.8464050293 0 0 0 0 1700283.1933403015 24422402.65712738 0 24422402.65712738 79291373.008499146 0 0 0 0 -19325585.938840866 -7827860.6283454895 0 -7827860.6283454895 139169008.03939819 0 0 0 0 4625556.5849227905 -739194.74046325684 0 -739194.74046325684 32370944.407627106 0 0 0 0 -19000057.514160156 25936202.528404236 0 25936202.528404236 51442081.684417725 0 0 0 0 -1401440.2807102203 -2052797.5152740479 0 -2052797.5152740479 67305977.174613953 0 0 0 0 -14947797.881598473 2480784.7694854736 0 2480784.7694854736 124128881.89958191 0 0 0 0 388382.60816574097 38497596.900695801 0 38497596.900695801 -13137776.279800415 0 0 0 0 7154894.6131591797 15241852.078689575 0 15241852.078689575 13734939.024703979 0 0 0 0 4013414.7348213196 7149294.8467407227 0 7149294.8467407227 32975424.835693359 0 0 0 0 8247412.0539774895 15654924.94733429 0 15654924.94733429 -22972289.544128418 0 0 0 0 1405863.867398262 789294.94598770142 0 789294.94598770142 42679496.109313965 0 0 0 0 5414392.0463848114 -7467421.4066314697 0 -7467421.4066314697 30131239.800743103 0 0 0 0 -23209231.398830414 -29431562.171020508 0 -29431562.171020508 185434560.1809082 0 0 0 0 -14830537.1502285 -36629148.354866028 0 -36629148.354866028 133480757.37735558 0 0 0 0 -6589557.3138418198 -6785850.1385116577 0 -6785850.1385116577 139217619.65472412 0 0 0 0 -34100442.692622185 -20228046.837532043 0 -20228046.837532043 240771848.60752869 0 0 0 0 -71135540.767101288 -22186466.535266876 0 -22186466.535266876 4255165.0859375 0 0 0 0 -12191658.101657867 -13794235.356689453 0 -13794235.356689453 1170602.2971801758 0 0 0 0 -27127294.354705811 -32401041.824691772 0 -32401041.824691772 29094310.703475952 0 0 0 0 -39858649.774543762 2996546.0558929443 0 2996546.0558929443 22386823.337169647 0 0 0 0 -50351637.965204239 -52746532.088409424 0 -52746532.088409424 -41410262.78527832 0 0 0 0 -38798159.425350189 -33225539.42427063 0 -33225539.42427063 -8479639.7037963867 0 0 0 0 -9384722.5516777039 -26230411.724365234 0 -26230411.724365234 -35784711.66394043 0 0 0 0 -2564151.0467720032 -35443230.923599243 0 -35443230.923599243 -54352915.174865723 0 0 0 0 11108060.628480911 -24707961.007858276 0 -24707961.007858276 -37255721.453582764 0 0 0 0 5705890.7783584595 -11989133.757995605 0 -11989133.757995605 -19003619.177734375 0 0 0 0 10578425.5313797 -17999665.328582764 0 -17999665.328582764 17469647.694412231 0 0 0 0 13815528.901023865 -5671851.9757385254 0 -5671851.9757385254 -16101491.228317261 0 0 0 0 -8083971.8938426971 -24879769.743286133 0 -24879769.743286133 32128718.084350586 0 0 0 0 5742281.1733360291 -26979050.02293396 0 -26979050.02293396 30836209.164382935 0 0 0 0 -1889829.8784942627 -35190892.399208069 0 -35190892.399208069 -14185598.373657227 0 0 0 0 -17077027.548679352 -44258785.656761169 0 -44258785.656761169 94228021.225067139 0 0 0 0 -2732002.7649345398 -38193929.329360962 0 -38193929.329360962 101196621.25235748 0 0 0 0 -9770481.3982563019 -39327198.233474731 0 -39327198.233474731 101027633.45895386 0 0 0 0 -19627286.34503746 -56022789.988876343 0 -56022789.988876343 171448696.15234375 0 0 0 0 2336204.2031440735 -45101164.812511444 0 -45101164.812511444 92964911.845428467 0 0 0 0 2852434.4714565277 -85086180.115875244 0 -85086180.115875244 148731740.73747253 0 0 0 0 16707397.206655502 -64421468.348930359 0 -64421468.348930359 85270208.177101135 0 0 0 0 8855023.4764862061 -40127774.051055908 0 -40127774.051055908 22074778.979446411 0 0 0 0 -4039197.965133667 -7838060.8295898438 0 -7838060.8295898438 19203233.362430573 0 0 0 0 44954436.509335518 -116955464.3552475 0 -116955464.3552475 170475397.91984558 0 0 0 0 -4678206.4010074139 -46309985.090191841 0 -46309985.090191841 131390902.83221436 0 0 0 0 -25766682.765789032 -70777811.382759094 0 -70777811.382759094 215568930.23701477 0 0 0 0 -12196906.813127518 -66717040.541931152 0 -66717040.541931152 169741627.54448509 0 0 0 0 -8752942.7665920258 -113174397.20350647 0 -113174397.20350647 228318681.58072281 0 0 0 0 -48658429.616409302 -114720848.32926941 0 -114720848.32926941 348830148.42921448 0 0 0 0 -60494914.450422287 -126847080.46020508 0 -126847080.46020508 344148907.77804565 0 0 0 0 -14963319.916469574 -117145793.37302017 0 -117145793.37302017 278504807.6889801 0 0 0 0 11848541.697307587 -173219281.49520874 0 -173219281.49520874 282845367.76473904 0 0 0 0 -46824041.308326721 -46293915.823843002 0 -46293915.823843002 317391897.2575531 0 0 0 0 -32650759.272498131 -34362867.043567657 0 -34362867.043567657 233389185.6114502 0 0 0 0 -42106474.526866913 -69131880.282112122 0 -69131880.282112122 247479699.1092453 0 0 0 0 -54044044.337095261 -74640433.866874695 0 -74640433.866874695 327523380.07289124 0 0 0 0 -28717339.082104683 -83587958.024272919 0 -83587958.024272919 231271109.25927734 0 0 0 0 -80145153.278385162 -65677943.520317078 0 -65677943.520317078 337849565.48387909 0 0 0 0 -79313836.561330795 -133537641.23764801 0 -133537641.23764801 448736844.82736969 0 0 0 0 -89477455.288366318 -57268423.310838699 0 -57268423.310838699 486420430.65736389 0 0 0 0 -105256743.72267723 -134476539.10497284 0 -134476539.10497284 495157662.48823547 0 0 0 0 -107776258.42182696 -128830988.71332312 0 -128830988.71332312 504388900.64338684 0 0 0 0 -109808773.08867073 -146501798.8398056 0 -146501798.8398056 485888994.3603363 0 0 0 0 -108494895.40576017 -121985156.60441446 0 -121985156.60441446 468960567.75334167 0 0 0 0 -112901987.03254318 -136532432.53450775 0 -136532432.53450775 506230483.20121002 0 0 0 0 -34374245.005935669 -196151873.1193161 0 -196151873.1193161 447426613.70713425 0 0 0 0 -35468403.849826097 -192578127.18917942 0 -192578127.18917942 455817381.76004028 0 0 0 0 -57168229.513074875 -159933714.85067368 0 -159933714.85067368 440259115.9942627 0 0 0 0 -114223669.60947514 -91374465.092323303 0 -91374465.092323303 533406714.0149765 0 0 0 0 -109064384.51813745 -156318350.07730675 0 -156318350.07730675 566908200.34797668 0 0 0 0 -21692124.951543808 -285283783.40107727 0 -285283783.40107727 557811649.66977692 0 0 0 0 4315358.6386928558 -402329486.6881485 0 -402329486.6881485 1079478204.7264667 0 0 0 0 111309215.95571041 -85619984.911148071 0 -85619984.911148071 192119547.91680908 0 0 0 0 397599409.43541527 -418396395.52607727 0 -418396395.52607727 247295456.31893921 0 0 0 0 44836357.033800125 -240305101.53632736 0 -240305101.53632736 418041599.74533081 0 0 0 0 46534355.305632174 24679886.259454966 0 24679886.259454966 76764156.849456787 0 0 0 0 168632944.27981377 -172987054.10624695 0 -172987054.10624695 196649036.86827087 0 0 0 0 35493821.399085283 -73673077.503800869 0 -73673077.503800869 111498286.35144043 0 0 0 0 27412141.870592117 -54623331.320899963 0 -54623331.320899963 165501467.14308548 0 0 0 0 11665707.935463905 55036474.236377716 0 55036474.236377716 -5676627.8790473938 0 0 0 0 158648912.48396683 -106141710.18312836 0 -106141710.18312836 66495433.110896111 0 0 0 0 13936068.995381355 29059424.463157654 0 29059424.463157654 23913189.29309082 0 0 0 0 216433567.37693882 -127297034.70911407 0 -127297034.70911407 -139053453.13902855 0 0 0 0 957474.11128480779 -615652.21653733402 0 -615652.21653733402 401811.5017845598 0 0 0 0 -191107818.68082809 -272299417.34008789 0 -272299417.34008789 1675004876.3917084 0 0 0 0 -94123353.439740822 19355008.769325614 0 19355008.769325614 1110987321.6328278 0 0 0 0 65682856.290122032 -78042877.861801147 0 -78042877.861801147 778244917.92521572 0 0 0 0 87468645.211452484 -425247471.30276489 0 -425247471.30276489 629189537.77028656 0 0 0 0 -12551501.532526016 26161668.702705383 0 26161668.702705383 535933126.2928009 0 0 0 0 3171975.0363368988 162793072.1133728 0 162793072.1133728 1029482190.4585686 0 0 0 0 637570099.56978035 -473211026.91816711 0 -473211026.91816711 851131642.56821442 0 0 0 0 178950.76704115886 -335460.10276917182 0 -335460.10276917182 116896.72656242549 0 0 0 0 20781713.418243408 140760525.83797073 0 140760525.83797073 281181629.21112061 0 0 0 0 -41913528.304184914 40627631.208106995 0 40627631.208106995 544806468.77850342 0 0 0 0 75521140.633579254 58407549.065238953 0 58407549.065238953 78965832.195236206 0 0 0 0 20456524.349538803 129908895.73633289 0 129908895.73633289 -22706174.86782074 0 0 0 0 -5731665.9063930511 -39759213.011894226 0 -39759213.011894226 24005246.322090149 0 0 0 0 39371132.588574886 7056048.0579910278 0 7056048.0579910278 35956635.966827393 0 0 0 0 72840958.874016762 -33798233.317634583 0 -33798233.317634583 84076706.058349609 0 0 0 0 -59606786.815608025 9820746.8383102417 0 9820746.8383102417 3596125.7779312134 0 0 0 0 44221308.39874503 29352445.289315701 0 29352445.289315701 206375502.73989868 0 0 0 0 6084.5792602917645 -1141029.7602916807 0 -1141029.7602916807 631331.20885718986 0 0 0 0 -33786508.895980835 -39004131.418872833 0 -39004131.418872833 8583765.6833953857 0 0 0 0 -171295.58207167452 -958445.29311635531 0 -958445.29311635531 2052129.8409800604 0 0 0 0 1149746221.6525688 -777097656.64845276 0 -777097656.64845276 735056773.07852173 0 0 0 0 -33880773.226412773 1893796.5715332031 0 1893796.5715332031 29219464.455253601 0 0 0 0 52739087.562127113 -36215437.893634796 0 -36215437.893634796 27465710.970802307 0 0 0 0 140578.43954805471 -488723.33698078617 0 -488723.33698078617 867454.20328281447 0 0 0 0 78252401.330172539 17031305.204093933 0 17031305.204093933 -29395025.295059204 0 0 0 0 -325924295.23048782 993073532.08670998 0 993073532.08670998 -155959969.49388123 0 0 0 0 400682.85499965423 -774325.99987466168 0 -774325.99987466168 1517769.7600599192 0 0 0 0 389036736.8084178 -195638421.99454498 0 -195638421.99454498 -247995559.32356262 0 0 0 0 390850867.81453562 -453590936.20057297 0 -453590936.20057297 109926583.15731812 0 0 0 0 350635557.26696587 -380037474.87260437 0 -380037474.87260437 -17750404.919219971 0 0 0 0 57855568.328312397 -480483519.41828918 0 -480483519.41828918 596268342.02069855 0 0 0 0 -169655508.59753036 -94502677.244792938 0 -94502677.244792938 137751256.00548172 0 0 0 0 79184122.636782646 -71606409.504508972 0 -71606409.504508972 -23082982.039382935 0 0 0 0 79511264.635748073 -34834286.250736624 0 -34834286.250736624 -64618259.09552002 0 0 0 0 273644661.79488325 -164935222.32328033 0 -164935222.32328033 21708427.235946655 0 0 0 0 230361312.78801441 5753511.1317634583 0 5753511.1317634583 -30316838.761100769 0 0 0 0 183569122.24822569 -66091192.231108665 0 -66091192.231108665 -15114692.577850342 0 0 0 0 144390919.89768124 -106701292.13754654 0 -106701292.13754654 -48579034.233200073 0 0 0 0 168193722.0933857 -20934939.546272278 0 -20934939.546272278 -24441120.952911377 0 0 0 0 102899388.51396942 -188244.53700256348 0 -188244.53700256348 -14890992.947853088 0 0 0 0 133468897.52312803 -46132493.528442383 0 -46132493.528442383 -3841983.5881652832 0 0 0 0 87336250.629366875 -72542581.469230652 0 -72542581.469230652 39276163.911972046 0 0 0 0 65223076.771821022 -116103538.64924622 0 -116103538.64924622 38330978.132507324 0 0 0 0 84902216.506181717 -70616062.081031799 0 -70616062.081031799 86957414.475349426 0 0 0 0 57558238.847826004 -150582602.89807701 0 -150582602.89807701 -96973628.168807983 0 0 0 0 -34791279.554254532 -118005388.1143589 0 -118005388.1143589 260988132.92308044 0 0 0 0 24534748.399026871 -106147976.99521255 0 -106147976.99521255 109622784.57727051 0 0 0 0 79036312.622741699 -1263527.68800354 0 -1263527.68800354 112191615.45478821 0 0 0 0 42419260.107962608 -26253701.708496094 0 -26253701.708496094 244105942.48809814 0 0 0 0 47509189.403678894 40902104.187713623 0 40902104.187713623 302186882.40162277 0 0 0 0 56187308.030763149 -27616078.04359436 0 -27616078.04359436 141695054.61042786 0 0 0 0 -16576368.6882267 21466977.653945923 0 21466977.653945923 308579259.84455872 0 0 0 0 -36563403.486271858 7386924.9720401764 0 7386924.9720401764 465970234.70291901 0 0 0 0 -18777557.572784424 -89469311.978141785 0 -89469311.978141785 289228138.23009491 0 0 0 0 -102892243.37880039 -111970762.91888428 0 -111970762.91888428 501213967.57928467 0 0 0 0 -112822516.75973701 -62912248.335403442 0 -62912248.335403442 844655294.10920715 0 0 0 0 -18755685.860067368 -169122357.64690018 0 -169122357.64690018 378223293.70555496 0 0 0 0 -23284673.950671077 -64040569.071238041 0 -64040569.071238041 286091653.94076538 0 0 0 0 -101173735.61321139 -116444220.59459877 0 -116444220.59459877 505071110.46569061 0 0 0 0 -14106535.857402325 -178981523.86060715 0 -178981523.86060715 384564050.2858429 0 0 0 0 162744293.48680115 -132102431.37203217 0 -132102431.37203217 137001457.33198166 0 0 0 0 191627213.36211872 -250401210.67281342 0 -250401210.67281342 245072118.13051605 0 0 0 0 33667888.701641083 -67481371.645431519 0 -67481371.645431519 162132438.52029037 0 0 0 0 -362916791.25958967 -151984646.21435452 0 -151984646.21435452 -31415596.287322998 0 0 0 0 811428.36692630732 156461.42383087426 0 156461.42383087426 842798.81808041036 0 0 0 0 70585950.416544437 -74898933.642892838 0 -74898933.642892838 117084864.38409042 0 0 0 0 -67482766.499815464 -32669020.974323273 0 -32669020.974323273 -9507887.6310043335 0 0 0 0 72884.804001694545 255060.83471273258 0 255060.83471273258 686796.91758971382 0 0 0 0 781097.02544347919 1600216.2797972071 0 1600216.2797972071 2872285.5553531125 0 0 0 0 1666743.1219291687 1852401.6924133301 0 1852401.6924133301 2494139.9752197266 0 0 0 0 313509.07623577118 5118640.0336532593 0 5118640.0336532593 7082632.4166316986 0 0 0 0 -243709.57330152346 610262.89297148865 0 610262.89297148865 838810.460216593 0 0 0 0 -167537768.51033011 -147345051.2376318 0 -147345051.2376318 -28450920.478866577 0 0 0 0 1870767.9551533014 2024348.6031298637 0 2024348.6031298637 2455060.1435241699 0 0 0 0 2582597.7082613092 2000792.0111084636 0 2000792.0111084636 1377933.0947112497 0 0 0 0 1900477.8113472462 1378950.1353492737 0 1378950.1353492737 2530441.2067108154 0 0 0 0 13235833.778058052 -121290153.76861191 0 -121290153.76861191 -106022324.41699219 0 0 0 0 1614034.9408247471 1744076.5009231567 0 1744076.5009231567 3067956.6863327026 0 0 0 0 2718607.8342973944 1293506.3025550134 0 1293506.3025550134 1161654.1397140212 0 0 0 0 72846595.05350256 -17996920.179458618 0 -17996920.179458618 -216633227.00255203 0 0 0 0 3423795.4205942154 -79780388.910797119 0 -79780388.910797119 -271616252.86216736 0 0 0 0 441863689.03077507 -142015236.65839767 0 -142015236.65839767 -263418758.04635429 0 0 0 0 162096168.45976734 93070977.691461563 0 93070977.691461563 -12067903.028259277 0 0 0 0 -15587528.040106773 -379514204.29910278 0 -379514204.29910278 -40570075.6301651 0 0 0 0 685129940.26119328 -344659169.05343628 0 -344659169.05343628 -55833362.678640366 0 0 0 0 899871052.62542844 419838661.58295059 0 419838661.58295059 112812565.13538361 0 0 0 0 159860216.41858959 -765697506.84966278 0 -765697506.84966278 1501689429.0503769 0 0 0 0 916835669.26624203 -446146742.03122997 0 -446146742.03122997 43667674.246017456 0 0 0 0 208499.31222501141 -1195253.141457417 0 -1195253.141457417 1995533.5801973343 0 0 0 0 770640333.8401854 -914344490.05735016 0 -914344490.05735016 542827335.53067017 0 0 0 0 306815171.14946747 16953117.974960327 0 16953117.974960327 -221231428.91767502 0 0 0 0 339122463.29495144 -466955403.54454803 0 -466955403.54454803 199699431.17199707 0 0 0 0 527625091.2110405 -423473872.80896378 0 -423473872.80896378 51006815.943687439 0 0 0 0 129574972.78120089 459912216.84794998 0 459912216.84794998 1056935927.559639 0 0 0 0 266654422.41816139 183724636.49462891 0 183724636.49462891 64307914.579956055 0 0 0 0 121649.00619644497 -71301.342323409393 0 -71301.342323409393 691086.43758746237 0 0 0 0 -975183824.15396881 146835406.16984558 0 146835406.16984558 1548195848.6437035 0 0 0 0 -175607678.86410904 -14440023.211448669 0 -14440023.211448669 1272909011.0686836 0 0 0 0 465910424.6994617 -654408107.81519604 0 -654408107.81519604 807666073.42469025 0 0 0 0 -117241843.03406525 -158132771.13679504 0 -158132771.13679504 711812502.61090469 0 0 0 0 87376403.797317028 -349534954.95302582 0 -349534954.95302582 528925914.24632263 0 0 0 0 -72788830.370623589 -23848974.479316711 0 -23848974.479316711 544533323.33973694 0 0 0 0 -74505600.459112167 -14679591.702926636 0 -14679591.702926636 553915157.86312866 0 0 0 0 4831274.9390010834 111493107.75294876 0 111493107.75294876 298555681.10238647 0 0 0 0 -59762509.472592354 -13138937.294429779 0 -13138937.294429779 345904882.21665192 0 0 0 0 53887531.650838852 359352417.44303894 0 359352417.44303894 844261034.01035309 0 0 0 0 -56950539.427537203 -78178663.759241104 0 -78178663.759241104 714828107.01242065 0 0 0 0 8320065.2611293793 183892675.71202087 0 183892675.71202087 582431878.70469666 0 0 0 0 14661686.50694561 95560020.951547623 0 95560020.951547623 236330061.20397949 0 0 0 0 94257059.762185097 121701318.05643463 0 121701318.05643463 213078245.98122406 0 0 0 0 12472132.233663559 108037594.89189148 0 108037594.89189148 231595045.36782837 0 0 0 0 65748256.69742775 133107955.43393707 0 133107955.43393707 -23799043.775848389 0 0 0 0 61786461.168682337 88796657.950555801 0 88796657.950555801 128279568.20069885 0 0 0 0 80786263.779273987 32494186.150146484 0 32494186.150146484 4906470.243927002 0 0 0 0 39836932.392705917 18237881.058059692 0 18237881.058059692 30751184.700637817 0 0 0 0 48678142.379789352 17290640.735084534 0 17290640.735084534 11598899.465606689 0 0 0 0 51334475.25907135 -25306026.015945435 0 -25306026.015945435 -32792481.996917725 0 0 0 0 65594929.489113331 -63483287.88675499 0 -63483287.88675499 -128722707.64131165 0 0 0 0 -80327135.61315918 -96669139.090576172 0 -96669139.090576172 -30679045.38860321 0 0 0 0 -18791819.829875946 30715173.21257782 0 30715173.21257782 262265486.25298309 0 0 0 0 19032564.65788269 13893548.245578766 0 13893548.245578766 146690394.52116394 0 0 0 0 8366666.9830436707 36742276.83216095 0 36742276.83216095 213412410.94458008 0 0 0 0 -5193617.8786144257 48868647.127914429 0 48868647.127914429 284495558.16426849 0 0 0 0 50613091.697544098 24287852.990760803 0 24287852.990760803 37244993.251434326 0 0 0 0 41700078.643074036 -2112875.1921844482 0 -2112875.1921844482 46642660.776535034 0 0 0 0 6794477.2832832336 23512136.471710205 0 23512136.471710205 144558018.42638206 0 0 0 0 15530219.787223339 -8401500.9897861481 0 -8401500.9897861481 49234121.021728516 0 0 0 0 -1982101.2790276785 874349.65214451402 0 874349.65214451402 5015435.0617180495 0 0 0 0 34139368.897644043 -8755109.251159668 0 -8755109.251159668 -81057727.852241516 0 0 0 0 -2881792.1567745209 1827942.1249694824 0 1827942.1249694824 13093523.541244507 0 0 0 0 27281189.486307144 10810723.027542114 0 10810723.027542114 -78803062.682216644 0 0 0 0 25503249.309879303 -19451095.075805664 0 -19451095.075805664 -47508789.339233398 0 0 0 0 1777495.0099697113 -3074014.3626327515 0 -3074014.3626327515 -11329048.175689697 0 0 0 0 -3506052.4261274338 -18473569.541988373 0 -18473569.541988373 -2802906.9671936035 0 0 0 0 10435580.422275543 12209981.937957764 0 12209981.937957764 39553043.260498047 0 0 0 0 38611752.253686905 -4844651.718963623 0 -4844651.718963623 -14283005.258056641 0 0 0 0 37717393.109016418 -1517572.9582824707 0 -1517572.9582824707 -55167179.964874268 0 0 0 0 27771347.430135727 -4850315.9381408691 0 -4850315.9381408691 -14217124.63180542 0 0 0 0 35515239.66488266 -7413942.4081726074 0 -7413942.4081726074 -48444410.685775757 0 0 0 0 39543518.318454742 -10260043.473426819 0 -10260043.473426819 -40407141.797668457 0 0 0 0 30505025.638908386 879692.19760131836 0 879692.19760131836 -43143025.198654175 0 0 0 0 42867719.655319214 868011.01022338867 0 868011.01022338867 -45196204.781837463 0 0 0 0 27034819.062484741 -7283747.8170166016 0 -7283747.8170166016 27332060.394390106 0 0 0 0 39976864.873466492 4649917.3487014771 0 4649917.3487014771 -20384591.340789795 0 0 0 0 36043005.888440371 -18157330.662582397 0 -18157330.662582397 -17333792.812530518 0 0 0 0 29293928.252422333 -1257791.9810028076 0 -1257791.9810028076 -51640449.731567383 0 0 0 0 22539307.541389465 -10654413.25226593 0 -10654413.25226593 -36017708.737701416 0 0 0 0 35889564.582250595 -807769.38024902344 0 -807769.38024902344 -51767566.917114258 0 0 0 0 25850786.624118805 606432.943359375 0 606432.943359375 -51118600.533752441 0 0 0 0 35681734.746582985 9328194.7681121826 0 9328194.7681121826 -65066550.09552002 0 0 0 0 43232196.615440369 -3103184.5571746826 0 -3103184.5571746826 -63901264.334503174 0 0 0 0 2105289.4049758911 -30144946.926101685 0 -30144946.926101685 -73402999.391998291 0 0 0 0 -25496904.09416008 -19500242.076339722 0 -19500242.076339722 -6536544.3574371338 0 0 0 0 -40839520.621239901 -22182391.114172935 0 -22182391.114172935 10775898.292755127 0 0 0 0 -5418107.467761755 -34685261.201997757 0 -34685261.201997757 -14478233.170928955 0 0 0 0 -36353904.277822495 -45664464.892166138 0 -45664464.892166138 -13187972.073738098 0 0 0 0 14524181.31593132 -48226991.164970398 0 -48226991.164970398 -21205243.692276001 0 0 0 0 7779400.4579105377 -27550068.104034424 0 -27550068.104034424 -13670397.327056885 0 0 0 0 23461193.823204041 -4226458.2419891357 0 -4226458.2419891357 -32057823.385650635 0 0 0 0 21536820.998140335 -32215832.745300293 0 -32215832.745300293 -25703204.165802002 0 0 0 0 -7712171.7076759338 -21681214.432800293 0 -21681214.432800293 -26499045.406097412 0 0 0 0 -4983459.4649925232 -18753041.877029419 0 -18753041.877029419 -24531504.887802124 0 0 0 0 -14671353.893146515 17769988.535842896 0 17769988.535842896 -48449143.335723877 0 0 0 0 -16738808.063152313 -12393544.248596191 0 -12393544.248596191 -27712452.221343994 0 0 0 0 3510560.0422973633 13975.338348388672 0 13975.338348388672 -41042829.242797852 0 0 0 0 9276083.7532100677 -5976695.4016265869 0 -5976695.4016265869 -37422737.877746582 0 0 0 0 9675487.6248931885 9613779.1138916016 0 9613779.1138916016 -55386663.815757751 0 0 0 0 -14555431.815696716 1916891.9297180176 0 1916891.9297180176 -36772250.663387299 0 0 0 0 -14081107.798177719 -18712593.264312744 0 -18712593.264312744 -27012252.196716309 0 0 0 0 -35699233.37506485 4213110.6983337402 0 4213110.6983337402 -32021145.47971344 0 0 0 0 -34293405.928722382 -12070369.116088867 0 -12070369.116088867 -19798421.170677185 0 0 0 0 -10164278.497735977 -8974140.0052108765 0 -8974140.0052108765 -27142176.107055664 0 0 0 0 -25618815.304265022 -21180454.649848938 0 -21180454.649848938 -17654453.135757446 0 0 0 0 -21393182.505893707 -24177501.181785583 0 -24177501.181785583 -17655081.918670654 0 0 0 0 -1950328.3958819576 1097.1442395504564 0 1097.1442395504564 4252620.7552404366 0 0 0 0 -703372661.95798874 26384521.699928284 0 26384521.699928284 28495004.081695557 0 0 0 0 -2178538.2281195084 -1310370.1627017846 0 -1310370.1627017846 6011510.6377105024 0 0 0 0 -440437129.20132065 91975356.381755829 0 91975356.381755829 -75604981.66985321 0 0 0 0 215219681.29817486 -216176624.70525932 0 -216176624.70525932 113051489.72383881 0 0 0 0 -716963322.02579772 238831172.87202418 0 238831172.87202418 18733881.979431152 0 0 0 0 124974697.67414093 -234486634.65221786 0 -234486634.65221786 185733407.62042236 0 0 0 0 -1187380.5874657847 -1216992.2794697136 0 -1216992.2794697136 948043.33575618267 0 0 0 0 147202627.51119232 -240285089.84449387 0 -240285089.84449387 174860489.26781654 0 0 0 0 230907014.47548771 -201304011.26704025 0 -201304011.26704025 -30581853.20866394 0 0 0 0 -330902062.66904688 63776011.588305473 0 63776011.588305473 129336136.3657074 0 0 0 0 37851642.923633575 -207446174.39576721 0 -207446174.39576721 166641880.62015152 0 0 0 0 -328743.98985785386 -2772772.9444083469 0 -2772772.9444083469 5657908.0527148545 0 0 0 0 -387905267.08727074 -128510847.45553589 0 -128510847.45553589 96255360.695495605 0 0 0 0 -67561933.991680145 -66855184.839950562 0 -66855184.839950562 -50482074.876968384 0 0 0 0 -58560583.420633316 -146087160.24965668 0 -146087160.24965668 99039785.306754112 0 0 0 0 -148578583.92295074 -21060810.219268799 0 -21060810.219268799 11452822.760448456 0 0 0 0 -650246.3836294224 -948401.39038623404 0 -948401.39038623404 716215.7742155008 0 0 0 0 -5221046.2225657701 -445243.21538352966 0 -445243.21538352966 8446434.9099960327 0 0 0 0 -3009305.702819109 -1473444.8349990845 0 -1473444.8349990845 6769217.2321777344 0 0 0 0 -3762656.6816287041 -1309347.7876091003 0 -1309347.7876091003 5119323.3671264648 0 0 0 0 -3666763.3495134115 -586084.95262908936 0 -586084.95262908936 9941190.038269043 0 0 0 0 -2497825.8461952209 -4394283.6835632324 0 -4394283.6835632324 13630248.314369202 0 0 0 0 -3686185.2716331482 -1758006.368637085 0 -1758006.368637085 8006879.5565490723 0 0 0 0 -2600657.9675884247 -284216.59181976318 0 -284216.59181976318 9947362.6236114502 0 0 0 0 -635652603.02130663 65905352.707330048 0 65905352.707330048 -288628383.14406586 0 0 0 0 -2813623.4923489816 -1475219.829224742 0 -1475219.829224742 8480949.3545325883 0 0 0 0 -612615902.27151561 171132023.46258163 0 171132023.46258163 57600532.178848267 0 0 0 0 -563526554.74330235 -62907760.240880966 0 -62907760.240880966 8945466.2467670441 0 0 0 0 -2118848.1422066875 -1932043.248739046 0 -1932043.248739046 1692415.7053916976 0 0 0 0 -617490290.08939123 724247763.83520532 0 724247763.83520532 -330318052.31715393 0 0 0 0 -162811.21579657681 -366620.37661983073 0 -366620.37661983073 1176721.1013494926 0 0 0 0 129873747.2654047 -115567169.03476715 0 -115567169.03476715 8777643.3423690796 0 0 0 0 -463785109.71417618 320086614.96975708 0 320086614.96975708 -101716439.43090057 0 0 0 0 -2322003.2901315689 -263583.83819770813 0 -263583.83819770813 2642991.0069046021 0 0 0 0 -226405.49562644958 1040953.3507919312 0 1040953.3507919312 195740.36957168579 0 0 0 0 -1594110.8910606755 -1379246.0693484936 0 -1379246.0693484936 6411734.0777011262 0 0 0 0 55099.315001487732 2620532.4771881104 0 2620532.4771881104 3786959.9530792236 0 0 0 0 -6765274.5689358711 -2442067.3125476837 0 -2442067.3125476837 -1872155.3303527832 0 0 0 0 -2241401.853564823 -1929391.4333487493 0 -1929391.4333487493 7928659.0641367994 0 0 0 0 -2095916.2426441177 -2935014.0605183262 0 -2935014.0605183262 8365492.5157064749 0 0 0 0 -29118075.562009811 -20304905.099090576 0 -20304905.099090576 -6773698.2104492188 0 0 0 0 -3112824.7808425426 -2338305.2038650513 0 -2338305.2038650513 12818136.795275211 0 0 0 0 -4061724.9597787857 -3111686.9960136414 0 -3111686.9960136414 14159034.623771667 0 0 0 0 -2595789.7626121044 -1388232.5682601929 0 -1388232.5682601929 14402524.70803833 0 0 0 0 -4010635.4101147652 -2885775.5684833527 0 -2885775.5684833527 14984025.124847412 0 0 0 0 -844663.29150986671 -2181726.344581604 0 -2181726.344581604 11204604.988880157 0 0 0 0 -126596.70363418735 -524526.24564120546 0 -524526.24564120546 -362849.85588041693 0 0 0 0 22441.576423823833 2874867.7413644791 0 2874867.7413644791 9610530.7314758301 0 0 0 0 -3829739.1015865803 -19836807.068820953 0 -19836807.068820953 3807311.8607177734 0 0 0 0 14420464.675410271 11020061.870643616 0 11020061.870643616 2848184.3574030399 0 0 0 0 8929080.3594837189 -11708382.979660034 0 -11708382.979660034 14624229.117879868 0 0 0 0 -2376290.9908657074 -1604952.3553237915 0 -1604952.3553237915 16916353.90826416 0 0 0 0 1504414.9285898209 -3857209.3518753052 0 -3857209.3518753052 6626245.4473724365 0 0 0 0 257192.54380297661 -1893608.3777694702 0 -1893608.3777694702 1126591.715965271 0 0 0 0 -2370698.598700285 -1615297.957408905 0 -1615297.957408905 5996534.2510452271 0 0 0 0 -13562815.324216843 377636.41875457764 0 377636.41875457764 6524245.1991462708 0 0 0 0 -1455534.5303511024 -5811056.0073547363 0 -5811056.0073547363 9729894.0493240356 0 0 0 0 -703029.63712747942 -4154091.1314472128 0 -4154091.1314472128 5971350.2560549714 0 0 0 0 -1103767.2225753376 -2214831.7452359516 0 -2214831.7452359516 5154339.8308586432 0 0 0 0 62103770.321888387 -45761425.628055573 0 -45761425.628055573 -69180399.130944252 0 0 0 0 -3700845.3387613893 90237128.112192154 0 90237128.112192154 46743766.956912994 0 0 0 0 -21241869.68655926 -34267319.794900894 0 -34267319.794900894 -100780327.66209793 0 0 0 0 -76930306.531758308 134283037.02728653 0 134283037.02728653 23225996.460464478 0 0 0 0 -2020330.404797554 -2935184.0597839355 0 -2935184.0597839355 6753963.5804214478 0 0 0 0 -780941.86875960662 -1867896.5329615418 0 -1867896.5329615418 4190011.1417472139 0 0 0 0 -935463.87801074982 -4135918.4618682861 0 -4135918.4618682861 8016795.6306152344 0 0 0 0 -769955027.03517866 303324107.83103371 0 303324107.83103371 80716480.04826355 0 0 0 0 -2581147.7146145818 124242.66729954537 0 124242.66729954537 8922009.9226380698 0 0 0 0 -1777119.561999321 -2568904.9858093262 0 -2568904.9858093262 7073619.6590919495 0 0 0 0 499421826.70654792 -487378136.8716526 0 -487378136.8716526 -50007210.967102051 0 0 0 0 -255648252.61845723 321296978.12029457 0 321296978.12029457 702985446.52761841 0 0 0 0 65568601.161127806 -242400518.21434021 0 -242400518.21434021 187664403.88033295 0 0 0 0 -1788174.8034926364 -3301879.1074465718 0 -3301879.1074465718 7305102.4824323412 0 0 0 0 -369454755.70401669 109622193.16264343 0 109622193.16264343 133181191.02599335 0 0 0 0 -257769984.16888618 59435940.570991516 0 59435940.570991516 77847007.282943726 0 0 0 0 -185357.19060195575 -408087.12377592688 0 -408087.12377592688 1048076.7353473268 0 0 0 0 -432094164.2527824 270808716.892663 0 270808716.892663 78065830.18850708 0 0 0 0 -245693964.65667737 211687641.2790947 0 211687641.2790947 58312401.412597656 0 0 0 0 -70084601.640285194 45987041.662353516 0 45987041.662353516 29945632.107671738 0 0 0 0 -159461859.07285309 210777258.41727066 0 210777258.41727066 -169762865.16234589 0 0 0 0 67040531.378665447 -5631583.1325569153 0 -5631583.1325569153 82535559.492462158 0 0 0 0 -75939648.08819969 66454265.922923982 0 66454265.922923982 107238314.02378082 0 0 0 0 -79006225.401359439 102053799.45301437 0 102053799.45301437 253813617.62792206 0 0 0 0 -75034773.535756767 -165492158.1333971 0 -165492158.1333971 700370674.9013443 0 0 0 0 10564044.717885017 -143163496.27580261 0 -143163496.27580261 239158886.2666626 0 0 0 0 -385461127.12044042 -65981399.709887505 0 -65981399.709887505 400409178.6736908 0 0 0 0 -174937341.07900432 -195747662.33954239 0 -195747662.33954239 45696114.654411316 0 0 0 0 -169985102.75851643 -78826477.727714539 0 -78826477.727714539 493854852.5483017 0 0 0 0 99457691.358058453 -485607062.13564682 0 -485607062.13564682 501645779.08631742 0 0 0 0 26667147.840368181 -108832302.06091261 0 -108832302.06091261 134049732.27655029 0 0 0 0 -189107144.11392421 -406934172.42454529 0 -406934172.42454529 1376029684.142849 0 0 0 0 -126168371.40042698 -215091532.24276352 0 -215091532.24276352 676616699.02685165 0 0 0 0 -433331341.63928843 -475037411.22341347 0 -475037411.22341347 2205276602.3514199 0 0 0 0 -230540139.76093203 -691862421.46808338 0 -691862421.46808338 1322136719.3709221 0 0 0 0 -128008752.42731108 -996277453.73021984 0 -996277453.73021984 2201400191.1930351 0 0 0 0 -321613553.07485718 -47445382.100745201 0 -47445382.100745201 2204819129.3016739 0 0 0 0 -370244661.22297812 -279408577.51395321 0 -279408577.51395321 1509647651.4887123 0 0 0 0 -205362070.34589028 -173231439.70657349 0 -173231439.70657349 1548905585.1179371 0 0 0 0 147474523.09047699 118071755.30587244 0 118071755.30587244 209338560.89629364 0 0 0 0 82343444.018762827 286011248.56033707 0 286011248.56033707 749385067.83826828 0 0 0 0 77607300.794254646 -78492608.396054268 0 -78492608.396054268 292125783.63453674 0 0 0 0 64968017.638430357 102962431.03693008 0 102962431.03693008 338717795.50256729 0 0 0 0 69453513.024385571 87120529.541168213 0 87120529.541168213 72793059.307830811 0 0 0 0 -80329209.232844263 51632061.73633194 0 51632061.73633194 -38816265.324192047 0 0 0 0 -69232303.836784422 -81151378.680903435 0 -81151378.680903435 253711535.09995651 0 0 0 0 560586.18951094279 -3348906.3931486011 0 -3348906.3931486011 2769234.9987003691 0 0 0 0 52396611.175161541 179092600.13918304 0 179092600.13918304 62675392.629674911 0 0 0 0 105808.13704723818 -941161.72740136925 0 -941161.72740136925 1558260.305975236 0 0 0 0 328904518.51366037 -525539153.83981228 0 -525539153.83981228 376376379.84316254 0 0 0 0 117931080.54072434 681960293.5981245 0 681960293.5981245 1760887388.2828865 0 0 0 0 574826111.30059612 -18463934.936868668 0 -18463934.936868668 2204617938.8283272 0 0 0 0 98092857.922617093 -390994244.82299614 0 -390994244.82299614 2159546432.7046204 0 0 0 0 -194623724.70138064 11897758.59799242 0 11897758.59799242 2204643733.8537178 0 0 0 0 -50288022.009703681 421554236.07051086 0 421554236.07051086 2139341467.3832092 0 0 0 0 -32272981.161235072 -325735243.79060364 0 -325735243.79060364 955801690.07677841 0 0 0 0 -104403445.99286225 -327892801.13677979 0 -327892801.13677979 2303714024.9131417 0 0 0 0 -427740229.73595697 142016150.78120804 0 142016150.78120804 2137634507.7463531 0 0 0 0 -92108626.120930552 -195702177.94949734 0 -195702177.94949734 612761550.67234039 0 0 0 0 -97159313.751389265 10549386.956508636 0 10549386.956508636 625716829.31184006 0 0 0 0 253176320.72809777 -130505125.45094109 0 -130505125.45094109 -145232365.47833633 0 0 0 0 -3597755.9059815109 -5306207.3040857315 0 -5306207.3040857315 14610267.323165894 0 0 0 0 17762.726597928035 -18669.453001905233 0 -18669.453001905233 -20111.052135242149 0 0 0 0 -11187612.560777962 7555658.7686949968 0 7555658.7686949968 7588303.3194198608 0 0 0 0 -10772030.371388912 -4602109.4552536011 0 -4602109.4552536011 10957366.465091705 0 0 0 0 -36769.357414424419 -3997752.8045349121 0 -3997752.8045349121 8908325.4187927246 0 0 0 0 -4126506.7321138382 -3944289.6322078705 0 -3944289.6322078705 11517503.925918579 0 0 0 0 -187786.99248926406 -3398216.9483503103 0 -3398216.9483503103 3363624.0143468278 0 0 0 0 -1379596.9295363338 -3448430.9438009597 0 -3448430.9438009597 5287268.3659456223 0 0 0 0 -134280.85115265846 -4322950.3118019104 0 -4322950.3118019104 11346229.161792755 0 0 0 0 -41554.38048517704 -3733974.8604011536 0 -3733974.8604011536 9805879.8117599487 0 0 0 0 -722804.67020058632 -2686281.4391403198 0 -2686281.4391403198 13574129.149597168 0 0 0 0 445194.89609321952 -5342985.3141851425 0 -5342985.3141851425 12639365.251403809 0 0 0 0 2789877.029818058 -3353440.5496139526 0 -3353440.5496139526 13175170.87005806 0 0 0 0 1479996.3916282654 -3253549.3441429138 0 -3253549.3441429138 13392452.165267944 0 0 0 0 1247677.2365609407 -3793201.5409812927 0 -3793201.5409812927 9650293.2620925903 0 0 0 0 1307520.6973246336 -5513234.5719985962 0 -5513234.5719985962 8711766.5906295776 0 0 0 0 1326980.6930408478 -5113616.2871398926 0 -5113616.2871398926 14591968.16595459 0 0 0 0 -466539.67122673988 -1407600.5424041748 0 -1407600.5424041748 17378947.907852173 0 0 0 0 778854.07526212931 -3696172.5508918762 0 -3696172.5508918762 18274751.640991211 0 0 0 0 2998601.5766426921 -1157910.8503837585 0 -1157910.8503837585 18932608.251342773 0 0 0 0 522115.68578696251 -4151201.5366439819 0 -4151201.5366439819 25308972.002067566 0 0 0 0 -246012.32634925842 469010.8034362793 0 469010.8034362793 30001220.173698425 0 0 0 0 -933009.51926183701 1841339.0116882324 0 1841339.0116882324 36016987.905609131 0 0 0 0 -2323312.189588964 -2704629.6177139282 0 -2704629.6177139282 19943498.626159668 0 0 0 0 1071019.3179837465 -4035794.5885810852 0 -4035794.5885810852 21770116.66809082 0 0 0 0 4140630.5470802784 3156302.0726699829 0 3156302.0726699829 23817177.10760498 0 0 0 0 277109.25843811035 -2671063.5427093506 0 -2671063.5427093506 18482981.956115723 0 0 0 0 -1305105.4846014977 1025286.9110870361 0 1025286.9110870361 16871684.206680298 0 0 0 0 167862.61021447182 -3077038.8560142517 0 -3077038.8560142517 19298935.540771484 0 0 0 0 608774.8821388483 -3216098.9063301086 0 -3216098.9063301086 18177841.854995728 0 0 0 0 1766256.1921827793 -5275110.1383361816 0 -5275110.1383361816 19258731.033218384 0 0 0 0 220991.12674164772 -3304052.598274231 0 -3304052.598274231 25402812.512390137 0 0 0 0 1371151.8789741993 -2838720.0624694824 0 -2838720.0624694824 22154594.013214111 0 0 0 0 -167123.70122146606 -5658376.327041626 0 -5658376.327041626 29354484.437713623 0 0 0 0 853505.39395451546 -5908348.2828903198 0 -5908348.2828903198 23320008.828765869 0 0 0 0 1596541.6205658913 -5331455.3670806885 0 -5331455.3670806885 21926766.09588623 0 0 0 0 714229.58059072495 -6004148.7203216553 0 -6004148.7203216553 21460120.770889282 0 0 0 0 249264.47226715088 -6602375.8288879395 0 -6602375.8288879395 26238401.828704834 0 0 0 0 -1893938.3900094032 -2913248.8949813843 0 -2913248.8949813843 14512878.74798584 0 0 0 0 -978525.94832229614 -4438176.7804107666 0 -4438176.7804107666 22169119.397361755 0 0 0 0 -185959.52041167021 -3545741.4573135376 0 -3545741.4573135376 18419126.405029297 0 0 0 0 -3144366.6351847649 -2626074.0354385376 0 -2626074.0354385376 18836737.159759521 0 0 0 0 -869406.69665169716 -5374041.9919433594 0 -5374041.9919433594 16896692.476158142 0 0 0 0 -3031160.234348774 -4514349.397354126 0 -4514349.397354126 21587291.736213684 0 0 0 0 -6013048.8861540556 -3625730.0714187622 0 -3625730.0714187622 19179131.687812805 0 0 0 0 -4321396.3096491843 -536662.89253139496 0 -536662.89253139496 10927894.77911377 0 0 0 0 -3129512.0793576241 -2256972.1280975342 0 -2256972.1280975342 19828508.953868866 0 0 0 0 -4067551.0573456883 2828697.9603633881 0 2828697.9603633881 7286162.101348877 0 0 0 0 -10640265.841133416 -1298176.4489898682 0 -1298176.4489898682 14866020.574150085 0 0 0 0 -454642.17336773872 -3251336.025894165 0 -3251336.025894165 10713764.133224487 0 0 0 0 20740.973568912537 -30230.363062348217 0 -30230.363062348217 -25495.685313826427 0 0 0 0 -573312.46454071999 -10205446.592632294 0 -10205446.592632294 22296081.304862976 0 0 0 0 -3290237.2469850183 -3800456.7309417725 0 -3800456.7309417725 18916994.526548624 0 0 0 0 -3200983.2786581963 -3264843.0545883179 0 -3264843.0545883179 21423449.959350586 0 0 0 0 14876.182427680571 -18004.738404341042 0 -18004.738404341042 -15745.792086003348 0 0 0 0 -9842354.9644342661 4016527.0904006958 0 4016527.0904006958 13547378.717391968 0 0 0 0 -7754954.691538766 -8899557.2985649109 0 -8899557.2985649109 19604895.365692139 0 0 0 0 177547.7800026536 -11527172.54485321 0 -11527172.54485321 17629652.37159729 0 0 0 0 -2714466.1607210636 -5329549.3346977234 0 -5329549.3346977234 16589273.152387619 0 0 0 0 1082168.8608002961 -7415361.9338912964 0 -7415361.9338912964 14464282.108428955 0 0 0 0 -1824705.0380637585 -8907583.1216325685 0 -8907583.1216325685 13723093.836372375 0 0 0 0 -1828014.3654804826 -7688887.044960022 0 -7688887.044960022 12360091.318389893 0 0 0 0 2055502.9864701927 -8396951.096862793 0 -8396951.096862793 7072420.5035324097 0 0 0 0 -240319.58611613512 -7589365.9632072449 0 -7589365.9632072449 6986032.5135192871 0 0 0 0 61187.941916465759 -5643606.5625152588 0 -5643606.5625152588 1802315.8721313477 0 0 0 0 -262508.90432703495 -4507792.7032699585 0 -4507792.7032699585 10240307.352905273 0 0 0 0 -1286991.9983128905 -8766519.5042419434 0 -8766519.5042419434 6512677.7887954712 0 0 0 0 2077754.6388903856 -6557895.1934356689 0 -6557895.1934356689 745197.575340271 0 0 0 0 -3376656.5806390047 -3671792.4224853516 0 -3671792.4224853516 7144397.3679618835 0 0 0 0 -1365660.1222472787 -9113378.3480300903 0 -9113378.3480300903 11070767.653823853 0 0 0 0 1689823.0506392121 -6496209.6661758423 0 -6496209.6661758423 4638579.7179813385 0 0 0 0 1819950.5258125663 -5406957.4158401489 0 -5406957.4158401489 4924336.1545295715 0 0 0 0 4038138.6728044152 -18348599.76385498 0 -18348599.76385498 21588221.478107452 0 0 0 0 6852595.222217679 -6266812.5747337341 0 -6266812.5747337341 12042795.35332489 0 0 0 0 3798163.9733261168 -9362432.0616722107 0 -9362432.0616722107 1797896.3565177917 0 0 0 0 200728.2054870748 -3734062.7516232207 0 -3734062.7516232207 3043347.1427279767 0 0 0 0 60180831.371715665 -21826625.456012726 0 -21826625.456012726 -29035940.383979797 0 0 0 0 152728998.017061 5131692.3206825256 0 5131692.3206825256 -52783162.507827759 0 0 0 0 -128427.50103528965 -3813566.2994373292 0 -3813566.2994373292 3756855.5032643182 0 0 0 0 1014570.0882334113 -1951659.1089172363 0 -1951659.1089172363 -6235759.9743041992 0 0 0 0 -184980355.89052588 5227949.6891002655 0 5227949.6891002655 612300275.68882751 0 0 0 0 -91261258.544163227 166140229.20033646 0 166140229.20033646 608615042.94258058 0 0 0 0 -271589509.93930203 240319228.70164871 0 240319228.70164871 1291437620.5139503 0 0 0 0 -392067880.49588996 232615516.8667202 0 232615516.8667202 1307653461.6890011 0 0 0 0 -146516297.00612628 577500327.81435394 0 577500327.81435394 1069966032.6656952 0 0 0 0 -136938554.26796448 263072459.53157043 0 263072459.53157043 968730119.76898193 0 0 0 0 -429775510.68510598 474390868.12044716 0 474390868.12044716 2205456574.1624947 0 0 0 0 1433503177.4506536 713161990.6135273 0 713161990.6135273 93918126.518707275 0 0 0 0 801730.17712764838 -101386.03589057922 0 -101386.03589057922 1971447.395369079 0 0 0 0 -92071833.409790188 686521361.70228195 0 686521361.70228195 1274988647.1623344 0 0 0 0 398248302.04803634 1537457684.9043655 0 1537457684.9043655 2200886948.6079597 0 0 0 0 133729184.36608553 -42341099.794460297 0 -42341099.794460297 53565249.819770813 0 0 0 0 66041562.239210844 196869028.02643967 0 196869028.02643967 303478085.92139196 0 0 0 0 943041056.88201046 560191244.07591629 0 560191244.07591629 248829422.6568985 0 0 0 0 -577108.96712037828 -3246668.0809726492 0 -3246668.0809726492 3708705.8458238654 0 0 0 0 56836917.639088929 -9658829.2189178467 0 -9658829.2189178467 30599514.645954132 0 0 0 0 -1597867.440949142 -4301083.2766113281 0 -4301083.2766113281 12036549.447647095 0 0 0 0 168011053.99395013 307372418.67543983 0 307372418.67543983 329919167.47853851 0 0 0 0 3758730.8399928808 -7470922.6435241699 0 -7470922.6435241699 -9433680.4910316467 0 0 0 0 -2393209.0357284285 -8008992.018034935 0 -8008992.018034935 323224.80334472656 0 0 0 0 417805.6534944328 -14097.77584368363 0 -14097.77584368363 -970780.68075782061 0 0 0 0 1648974.9857562184 -8765553.4766387939 0 -8765553.4766387939 -10843843.128845215 0 0 0 0 -69914.14001826274 -109079.515740389 0 -109079.515740389 756763.61611041054 0 0 0 0 -2495197.8166567683 -9863739.1962203979 0 -9863739.1962203979 -2503645.1683654785 0 0 0 0 -1786090.8679659925 -2971548.1284651756 0 -2971548.1284651756 -4631997.7085571289 0 0 0 0 -2432300.8442078233 -6752598.6551361084 0 -6752598.6551361084 1843051.8125920296 0 0 0 0 1685095.3719809651 -6262273.8437652588 0 -6262273.8437652588 -3754545.3859405518 0 0 0 0 394059.51684828103 -4998267.6328544617 0 -4998267.6328544617 -37046.111892700195 0 0 0 0 2033084.7672621012 -5963941.9783325195 0 -5963941.9783325195 528253.22185516357 0 0 0 0 3437082.1121205091 -3612831.7932662964 0 -3612831.7932662964 -199331.86061096191 0 0 0 0 1417970.3163121343 -4405223.7091522217 0 -4405223.7091522217 61307.419494628906 0 0 0 0 1523878.8094188571 -4301111.0163917542 0 -4301111.0163917542 -424691.55111694336 0 0 0 0 474247.26537275314 -6243148.3304595947 0 -6243148.3304595947 -538843.16929626465 0 0 0 0 -1127492.7777183056 -6565061.4225463867 0 -6565061.4225463867 2864949.7145385742 0 0 0 0 2541833.0424911082 -2641977.4077758789 0 -2641977.4077758789 -507625.12107086182 0 0 0 0 4174609.860530287 -2879854.6670150757 0 -2879854.6670150757 -518033.73991012573 0 0 0 0 -188287.40052581992 -1170920.8291497808 0 -1170920.8291497808 1584255.6243481636 0 0 0 0 825096.38502416015 -3080601.3686141968 0 -3080601.3686141968 -558183.22838973999 0 0 0 0 472484.78050404135 -3676016.4892539978 0 -3676016.4892539978 4943979.7897872925 0 0 0 0 432106.25551623665 369245.39598846436 0 369245.39598846436 7680849.2286987305 0 0 0 0 -363427.52022930089 -1133310.6455589719 0 -1133310.6455589719 1511588.2331018411 0 0 0 0 -1172170.6524914843 -2436338.6644177716 0 -2436338.6644177716 4484629.4120336082 0 0 0 0 868136.18457123637 -4054342.6515884399 0 -4054342.6515884399 -1757498.3665323257 0 0 0 0 -12341733.01635474 -160172516.90522146 0 -160172516.90522146 -4365731.8718948364 0 0 0 0 798064.40613654256 -4117581.7141723633 0 -4117581.7141723633 -1278063.1117248535 0 0 0 0 419014.76656508446 -3258212.4841308594 0 -3258212.4841308594 -1763025.4760894775 0 0 0 0 -1398229.6706490498 -2013740.1931142807 0 -2013740.1931142807 2152923.0882568359 0 0 0 0 500901.08766072989 -3713744.8295288086 0 -3713744.8295288086 9978.915919303894 0 0 0 0 -164515446.1691947 121252542.83045197 0 121252542.83045197 149310917.79610825 0 0 0 0 35560509.803386591 267014118.46858597 0 267014118.46858597 401157157.52377319 0 0 0 0 22168.611819164325 224762.08716167044 0 224762.08716167044 4977816.4987052828 0 0 0 0 -15189332.065285496 15173825.156158447 0 15173825.156158447 -17311667.892562866 0 0 0 0 -635181.47038776241 -509930.24543380737 0 -509930.24543380737 1432655.4961471558 0 0 0 0 -771955.05181589292 -991715.84004223347 0 -991715.84004223347 4626853.1174455881 0 0 0 0 -6952288.4526343942 -1372861.3653411865 0 -1372861.3653411865 3878350.5986328125 0 0 0 0 -42558745.586811632 -16126184.002853394 0 -16126184.002853394 -499584359.0565033 0 0 0 0 -81013.854066661617 -10833.169439671561 0 -10833.169439671561 109871.41958860122 0 0 0 0 -86022.893394432132 -342691.46936986782 0 -342691.46936986782 1804830.3899469189 0 0 0 0 -15865840.983379066 -235152594.73504639 0 -235152594.73504639 -109847381.56161499 0 0 0 0 338979224.13649154 317926268.53413391 0 317926268.53413391 259991589.93096924 0 0 0 0 157425800.69668102 -127004847.48464203 0 -127004847.48464203 -130745012.28403282 0 0 0 0 -146771555.77257326 -94209297.222705841 0 -94209297.222705841 -6573807.6461791992 0 0 0 0 197121408.73990178 305234401.63525391 0 305234401.63525391 345820998.49971008 0 0 0 0 -106667.53074528922 -717741.11814402975 0 -717741.11814402975 1401981.4802146144 0 0 0 0 -319497006.69851983 200882399.00930786 0 200882399.00930786 2197452553.8395691 0 0 0 0 208389230.94187042 -758863076.33422852 0 -758863076.33422852 1029909048.8449554 0 0 0 0 91557935.062627897 443420643.04059219 0 443420643.04059219 514129142.68252563 0 0 0 0 178731535.79178563 -689970857.10467529 0 -689970857.10467529 2201067559.4766946 0 0 0 0 245407.15967776498 13020929.637861252 0 13020929.637861252 194872523.79154968 0 0 0 0 -22957509.623368826 -449239146.27887344 0 -449239146.27887344 2055632072.5043335 0 0 0 0 -70313934.909374237 -77147404.284542084 0 -77147404.284542084 -57206008.606658936 0 0 0 0 73418.0007537294 -189435.03559898585 0 -189435.03559898585 533539.47856599092 0 0 0 0 355409484.06082964 -600377310.50351524 0 -600377310.50351524 1011325364.3833466 0 0 0 0 -336157475.41456652 334065763.39360046 0 334065763.39360046 2366322899.7258072 0 0 0 0 -42828.172266852969 -381875.79103787616 0 -381875.79103787616 1352763.2883409932 0 0 0 0 -438218.76470370387 -788414.6011237558 0 -788414.6011237558 2027853.2149722464 0 0 0 0 -58697920.266325116 -40394254.727293015 0 -40394254.727293015 45858412.821105957 0 0 0 0 -48240506.466694564 14371631.289039612 0 14371631.289039612 21982311.194713593 0 0 0 0 -48149058.978570879 -48900459.404212952 0 -48900459.404212952 -27087253.086700439 0 0 0 0 -59504231.041701525 25764111.388801575 0 25764111.388801575 70538036.813671112 0 0 0 0 29784314.702150322 -7331383.1933584213 0 -7331383.1933584213 -30819096.621612549 0 0 0 0 26390333.887124844 47065744.844735146 0 47065744.844735146 -25878449.703460693 0 0 0 0 90524.381186665574 -548925.22589232773 0 -548925.22589232773 1342944.5239091031 0 0 0 0 -68468.725990062318 -450097.97100841254 0 -450097.97100841254 298433.67631904781 0 0 0 0 7456622.9225928206 -13040995.058984756 0 -13040995.058984756 -12769424.703796387 0 0 0 0 1608643.9515491447 -117916.39059448242 0 -117916.39059448242 2595198.7730064392 0 0 0 0 71338.977426730096 1320281.6951446533 0 1320281.6951446533 9633469.655254364 0 0 0 0 167081.6767017894 -470882.30583431758 0 -470882.30583431758 1057492.1020762958 0 0 0 0 -7374172.6644545514 -16309374.885093689 0 -16309374.885093689 -10901286.393003464 0 0 0 0 -14974.921922365716 -879650.9650699388 0 -879650.9650699388 12089039.421424866 0 0 0 0 -3417000.6100434689 4606315.8456764221 0 4606315.8456764221 -2731926.4391765594 0 0 0 0 -2917247.1616113083 -10079413.772315979 0 -10079413.772315979 8305975.6879577637 0 0 0 0 8115603.9574564323 -10368069.652805328 0 -10368069.652805328 -4100778.6690368652 0 0 0 0 1384489.9968965948 1083214.1708602905 0 1083214.1708602905 -2436258.1182403564 0 0 0 0 6918514.8208093271 12579961.836174011 0 12579961.836174011 26201640.190765381 0 0 0 0 80186.905220174565 -227322.3589916639 0 -227322.3589916639 217793.99358403683 0 0 0 0 7615298.2503869385 -1701263.0421524048 0 -1701263.0421524048 -6366769.5893630981 0 0 0 0 2900436.9219622761 -3506651.2177085876 0 -3506651.2177085876 200823.95260620117 0 0 0 0 5756927.0821764171 -4390359.9466171265 0 -4390359.9466171265 -227375.54901313782 0 0 0 0 4536121.3431670889 -5280610.6484928131 0 -5280610.6484928131 2990476.0528106689 0 0 0 0 2123638.6374307871 -4585322.0399703979 0 -4585322.0399703979 1208228.3853302002 0 0 0 0 3107371.5828872621 -6920953.6502609253 0 -6920953.6502609253 5088110.1425094604 0 0 0 0 1260424.8761233538 -8789181.1175079346 0 -8789181.1175079346 10879248.047241211 0 0 0 0 3865752.5515392348 -7385159.2136688232 0 -7385159.2136688232 4883672.916305542 0 0 0 0 6091036.2494527549 -11229766.67067337 0 -11229766.67067337 10063351.204902649 0 0 0 0 3339016.3958716393 -9469283.4409942627 0 -9469283.4409942627 10837670.087526321 0 0 0 0 5348340.3699859828 -5575977.3778266907 0 -5575977.3778266907 7262375.3777313232 0 0 0 0 9880015.856904611 -6923494.8043212891 0 -6923494.8043212891 2152239.9514636993 0 0 0 0 13375655.259406216 -10187486.161010742 0 -10187486.161010742 8951208.0497894287 0 0 0 0 6009369.1408253238 -8248873.7863407135 0 -8248873.7863407135 20754064.245620728 0 0 0 0 12807070.301300094 -13193978.146911621 0 -13193978.146911621 14502563.14365387 0 0 0 0 -1518097.0272117108 -16083960.808731079 0 -16083960.808731079 27377117.589561462 0 0 0 0 2520677.7973946333 -8967367.6393203735 0 -8967367.6393203735 12847051.831230164 0 0 0 0 2341332.5091710389 -23594816.627990723 0 -23594816.627990723 50510564.366808891 0 0 0 0 -14734688.308127258 -4125059.09512043 0 -4125059.09512043 29430830.250343323 0 0 0 0 32260333.296844963 -10936547.090324402 0 -10936547.090324402 19435315.417381287 0 0 0 0 13347857.534899447 10667767.800491333 0 10667767.800491333 48807389.136447906 0 0 0 0 -285908.95291062817 3089200.2187614441 0 3089200.2187614441 32403082.327049255 0 0 0 0 13210.315714440574 -5861640.0191889061 0 -5861640.0191889061 15983462.798187256 0 0 0 0 3731126.7150964551 -1167868.9662055969 0 -1167868.9662055969 18913040.699363708 0 0 0 0 3444437.1085486943 -5526114.9400215149 0 -5526114.9400215149 22661883.847747803 0 0 0 0 -26495530.509006143 -91919203.885896355 0 -91919203.885896355 -129277055.56282091 0 0 0 0 4984677.1758481404 -9670465.5284733288 0 -9670465.5284733288 13454329.770829869 0 0 0 0 -78219351.499807358 -129671166.08577943 0 -129671166.08577943 -86411952.100605249 0 0 0 0 37462227.550197601 339386907.69973588 0 339386907.69973588 260098357.00369692 0 0 0 0 -85765586.516665459 -47782691.917010427 0 -47782691.917010427 -28538587.733351707 0 0 0 0 -565989061.43102169 -44390840.924925923 0 -44390840.924925923 94331814.060820222 0 0 0 0 -124024854.00468349 -148158039.47790626 0 -148158039.47790626 -200923737.24016809 0 0 0 0 -190731478.16595459 -150914440.79014206 0 -150914440.79014206 -40368050.820590019 0 0 0 0 -133922271.43266678 -31916756.814315796 0 -31916756.814315796 21610116.179893494 0 0 0 0 1722162.2850376929 -2662071.1633498459 0 -2662071.1633498459 -1378964.1539432833 0 0 0 0 -223160862.68292046 -103106376.90046501 0 -103106376.90046501 84327823.242808342 0 0 0 0 -138363391.43686676 -23172655.623119354 0 -23172655.623119354 24228317.786855698 0 0 0 0 -148061380.91032791 -6477695.7770614624 0 -6477695.7770614624 173913017.45016479 0 0 0 0 -99316679.146091461 -30769488.619926214 0 -30769488.619926214 270671346.78369141 0 0 0 0 -102286837.26637459 -54812682.164386749 0 -54812682.164386749 80456662.27438736 0 0 0 0 -36048447.718154907 -187908570.96090317 0 -187908570.96090317 -136272097.92370605 0 0 0 0 -65722892.36252594 -77392043.635839939 0 -77392043.635839939 -88234331.966999054 0 0 0 0 -76525291.516964436 -77632972.522439957 0 -77632972.522439957 88512680.233261108 0 0 0 0 -53423427.262039185 -198463884.66504955 0 -198463884.66504955 23765254.618362427 0 0 0 0 -196215824.43403053 -44959581.722505569 0 -44959581.722505569 96113749.378818512 0 0 0 0 -62929679.93381691 -41299651.49272427 0 -41299651.49272427 448642484.90065289 0 0 0 0 5670305.7180167511 -7264032.22691081 0 -7264032.22691081 8390635.5886548199 0 0 0 0 -19769652.290392399 211266230.94789168 0 211266230.94789168 367639806.80745745 0 0 0 0 -210687944.80886841 -278854568.25242996 0 -278854568.25242996 -56173844.903036118 0 0 0 0 185160587.14444292 419095443.86700821 0 419095443.86700821 671007985.8838048 0 0 0 0 173380122.28188992 11071561.022083282 0 11071561.022083282 400385948.5635376 0 0 0 0 252020811.92615628 345878117.60107565 0 345878117.60107565 584551002.19475746 0 0 0 0 91841841.660707474 585797328.93080902 0 585797328.93080902 764630359.00381196 0 0 0 0 -48988352.603882313 394108558.30975723 0 394108558.30975723 905912552.03659487 0 0 0 0 43769647.765668869 769999615.93950558 0 769999615.93950558 754396723.29191875 0 0 0 0 -1407579.4677930218 -48103.212901590392 0 -48103.212901590392 915509.90080472757 0 0 0 0 -32759007.552256584 104976682.69235945 0 104976682.69235945 494106814.35311651 0 0 0 0 -96544124.041892052 173178843.20394516 0 173178843.20394516 876634729.41459751 0 0 0 0 -192151605.65394354 151725992.25589222 0 151725992.25589222 416545085.81849766 0 0 0 0 -91692907.656534195 298414558.52540731 0 298414558.52540731 714343230.76445293 0 0 0 0 63259751.698935509 190086004.88731527 0 190086004.88731527 395132616.87011814 0 0 0 0 239501714.88975239 203145147.43825936 0 203145147.43825936 351334536.94974232 0 0 0 0 169164641.72472954 282764960.2463367 0 282764960.2463367 1278450837.3693275 0 0 0 0 86607275.48523283 64487724.759894609 0 64487724.759894609 693733430.10193062 0 0 0 0 243833909.30843163 387559775.88785982 0 387559775.88785982 1411643251.1787672 0 0 0 0 185996930.48458815 766195950.3026123 0 766195950.3026123 167246295.11359978 0 0 0 0 83904464.013859749 1057424792.8440771 0 1057424792.8440771 512441200.81568527 0 0 0 0 -96771464.580400467 746004162.97706223 0 746004162.97706223 428517726.32319117 0 0 0 0 112802150.19594353 798956888.81736112 0 798956888.81736112 104266557.08129692 0 0 0 0 17833595.807224274 525798301.43314552 0 525798301.43314552 -45293607.32226181 0 0 0 0 -446637257.6916914 374023976.80076361 0 374023976.80076361 -126957992.0355854 0 0 0 0 -212060120.16848087 -139453813.07957566 0 -139453813.07957566 1967167586.0496736 0 0 0 0 743835.21803196939 -10733.155876034172 0 -10733.155876034172 341716.30775648763 0 0 0 0 39198916.340159416 127713849.79331213 0 127713849.79331213 914645213.13490009 0 0 0 0 114949081.24929953 107207403.2045573 0 107207403.2045573 687116222.74738646 0 0 0 0 52878060.328391075 -29297363.213479906 0 -29297363.213479906 610225790.79953504 0 0 0 0 -759104.76502482337 -23561.636187852768 0 -23561.636187852768 520683.20257208566 0 0 0 0 48621190.200071335 412866558.32571054 0 412866558.32571054 630113797.86911082 0 0 0 0 31396498.843958855 -48359623.996887088 0 -48359623.996887088 847486869.31786656 0 0 0 0 17202508.141709089 -5550473.8974757008 0 -5550473.8974757008 804535649.13520014 0 0 0 0 34571694.024996758 -48667369.987568125 0 -48667369.987568125 739791733.55620372 0 0 0 0 -46617186.549338341 -27154958.958605826 0 -27154958.958605826 1080998313.6761491 0 0 0 0 2009970.7832930717 1311239.9730040252 0 1311239.9730040252 1460486.610224342 0 0 0 0 14597845.083611488 61281515.762494534 0 61281515.762494534 657018256.60025799 0 0 0 0 46810402.923354149 -7416605.6047569513 0 -7416605.6047569513 706005855.86543798 0 0 0 0 6990428.587335825 60440274.932695858 0 60440274.932695858 790108094.3622961 0 0 0 0 41240653.197710991 -9754074.2663049512 0 -9754074.2663049512 713854766.11862409 0 0 0 0 51452047.375209332 -21647633.911263283 0 -21647633.911263283 626047771.60514021 0 0 0 0 71104113.268297672 -7038772.5155699104 0 -7038772.5155699104 382913484.41516703 0 0 0 0 83069577.109949112 84662892.52935791 0 84662892.52935791 418192696.68995559 0 0 0 0 -113574866.61462116 -130603899.83473903 0 -130603899.83473903 349799152.30705571 0 0 0 0 84343459.44166863 311829491.72539628 0 311829491.72539628 263464591.04655576 0 0 0 0 184021482.2685051 203379404.30080146 0 203379404.30080146 378215144.58914691 0 0 0 0 136469015.1949091 23679584.782943845 0 23679584.782943845 427491630.53310937 0 0 0 0 -182932821.27936316 -174449464.01159811 0 -174449464.01159811 440478376.59854233 0 0 0 0 -185772120.25610781 -381983911.44473696 0 -381983911.44473696 178066028.39726043 0 0 0 0 354039981.97023666 165241537.56907821 0 165241537.56907821 -50250677.239267349 0 0 0 0 762813.37519863877 -247263.60401100281 0 -247263.60401100281 382320.8493679114 0 0 0 0 215656300.55950445 40656740.207481503 0 40656740.207481503 -41604859.266244411 0 0 0 0 74633344.392129421 -110924948.79606533 0 -110924948.79606533 -89804198.016794771 0 0 0 0 -97965351.226129532 -92626760.498511791 0 -92626760.498511791 -3511726.3559389114 0 0 0 0 15603646.41380465 133180869.16136353 0 133180869.16136353 127875037.00670114 0 0 0 0 2458623.9028425836 -594929.67838604283 0 -594929.67838604283 1059824.3245872788 0 0 0 0 -187559640.93111849 -171436225.97938898 0 -171436225.97938898 77344142.497711718 0 0 0 0 37232875.255815983 -24192210.891467825 0 -24192210.891467825 -79732609.073171079 0 0 0 0 5171661.5198528431 -436712.54880589631 0 -436712.54880589631 1422713.2947035371 0 0 0 0 -46665258.832194328 -251543960.66751075 0 -251543960.66751075 -67430243.460946977 0 0 0 0 52210877.727050394 -21759718.422786683 0 -21759718.422786683 -7090664.4669313431 0 0 0 0 26041483.950053215 -32421774.563091755 0 -32421774.563091755 -300796.84790992737 0 0 0 0 53594022.867318854 -1210067.0523028672 0 -1210067.0523028672 4168611.9539232254 0 0 0 0 -113175785.47530556 -152724226.20222771 0 -152724226.20222771 -184842475.70825958 0 0 0 0 1252706.7775988723 -139910.38851270033 0 -139910.38851270033 -723412.85385036422 0 0 0 0 -108368731.01640272 -26050197.691558361 0 -26050197.691558361 24216661.742493629 0 0 0 0 -33978364.152164459 -93841028.297482967 0 -93841028.297482967 -3529814.4380216748 0 0 0 0 49733657.328662872 -20197445.958091259 0 -20197445.958091259 -3835222.0402936935 0 0 0 0 65238222.52184701 -42304086.697672606 0 -42304086.697672606 -29403778.81551218 0 0 0 0 42747569.289080143 -63596076.854545593 0 -63596076.854545593 -40901946.998389244 0 0 0 0 37145503.425730228 -52552984.512379646 0 -52552984.512379646 28154144.373394012 0 0 0 0 61295200.732095718 -112745462.34031391 0 -112745462.34031391 30525938.401094675 0 0 0 0 -3206841.457983017 -47685739.18579483 0 -47685739.18579483 -18759995.198227882 0 0 0 0 -18277048.05704999 -9546660.7679584026 0 -9546660.7679584026 -31321723.625902176 0 0 0 0 -51511536.762611389 -18262284.211089134 0 -18262284.211089134 23449252.252152443 0 0 0 0 -93668899.152515411 69540916.603689194 0 69540916.603689194 -55305661.343666077 0 0 0 0 88664398.506729126 -26505867.056010008 0 -26505867.056010008 -286694918.17796516 0 0 0 0 198296006.26766968 -452116758.50966454 0 -452116758.50966454 -45832493.970926285 0 0 0 0 151097745.24283409 274433277.97726345 0 274433277.97726345 -689047134.48154449 0 0 0 0 -215591.98940846883 -728588.11169913341 0 -728588.11169913341 1260571.434311429 0 0 0 0 -70851441.410171509 -23052429.91364944 0 -23052429.91364944 39424658.56993866 0 0 0 0 -4851123.4464650592 503993.08828715142 0 503993.08828715142 8020512.1088902047 0 0 0 0 -84444389.298071861 150511827.97952652 0 150511827.97952652 -130799848.19923782 0 0 0 0 -581098.32560157776 -3325674.8527927399 0 -3325674.8527927399 1995129.6925489902 0 0 0 0 -10602293.074356079 -3259761.2283172607 0 -3259761.2283172607 22389653.409309387 0 0 0 0 -2016086.2342699808 -5950910.2752068089 0 -5950910.2752068089 12924123.818741014 0 0 0 0 -1055918.4267215729 -4945330.5625162125 0 -4945330.5625162125 -8763146.6756057739 0 0 0 0 -2278217.8821118283 -4726930.0838715788 0 -4726930.0838715788 9369566.0864062272 0 0 0 0 -28692795.271554947 5848684.2152824402 0 5848684.2152824402 27850446.581512451 0 0 0 0 -7666008.0014088135 899340.36110313423 0 899340.36110313423 9899934.3253652696 0 0 0 0 -42124891.462118149 21311677.220516205 0 21311677.220516205 16382734.259391785 0 0 0 0 -34820713.541309357 13117837.244998932 0 13117837.244998932 20722832.997512817 0 0 0 0 -46311573.745903015 -4738312.4053573608 0 -4738312.4053573608 22345901.49298954 0 0 0 0 -65059605.637989044 11810787.352218628 0 11810787.352218628 20753071.139158249 0 0 0 0 -24550864.152945518 -52671467.563482523 0 -52671467.563482523 -254158.12801361084 0 0 0 0 -57027443.052623749 -11267.322389602661 0 -11267.322389602661 23602400.30670166 0 0 0 0 -895362.58550258074 -3503373.6100184182 0 -3503373.6100184182 3457555.0327133937 0 0 0 0 807166.40815527667 -9975446.9198887963 0 -9975446.9198887963 19218345.259581864 0 0 0 0 -105541019.51755959 -42282005.966920123 0 -42282005.966920123 20740864.207684994 0 0 0 0 -55249014.170604706 2280860.4143428802 0 2280860.4143428802 23043003.914550781 0 0 0 0 -52594441.731472969 32720584.064386368 0 32720584.064386368 32929337.047058105 0 0 0 0 -101647964.76384163 18043203.023285866 0 18043203.023285866 41866570.712875366 0 0 0 0 -88970350.666561127 -20038254.095855713 0 -20038254.095855713 10017489.274547577 0 0 0 0 -136205523.1390276 -28794074.408602715 0 -28794074.408602715 43784826.048530579 0 0 0 0 4315335.3990450557 -12044813.714732232 0 -12044813.714732232 16373387.442204211 0 0 0 0 -49579918.875103951 14525399.433296084 0 14525399.433296084 62465902.514023304 0 0 0 0 -4043813.3867808077 986606.61355437548 0 986606.61355437548 3999255.6462880867 0 0 0 0 -160794993.78449345 -444952851.41286635 0 -444952851.41286635 -15604117.38590467 0 0 0 0 -93816331.22406292 88332034.972358704 0 88332034.972358704 84066869.140594482 0 0 0 0 -107069815.26627064 106653471.69012833 0 106653471.69012833 338821137.79933929 0 0 0 0 -92352843.769180298 79107304.878679276 0 79107304.878679276 114070447.49689484 0 0 0 0 -96200662.582496643 26718264.393066406 0 26718264.393066406 55249269.748634338 0 0 0 0 -108331964.3629818 53016495.459907532 0 53016495.459907532 77772066.743515015 0 0 0 0 -151739794.29167366 -4886669.8599328995 0 -4886669.8599328995 81406910.213447571 0 0 0 0 -66879747.693382263 68065058.806808472 0 68065058.806808472 36322454.875404358 0 0 0 0 -29954066.682884216 69773260.42521286 0 69773260.42521286 35566186.805749893 0 0 0 0 -54801373.671358585 103744049.61210155 0 103744049.61210155 89975621.711021423 0 0 0 0 17238171.56961441 125423654.86454391 0 125423654.86454391 23413486.853858948 0 0 0 0 5454814.0213336945 44888165.617756844 0 44888165.617756844 -14447703.151512146 0 0 0 0 -18660072.970714569 74413382.261974335 0 74413382.261974335 -31321778.258483887 0 0 0 0 -25570387.854881287 35188013.021354675 0 35188013.021354675 -16474260.919075012 0 0 0 0 -20605709.687168121 35119093.165000916 0 35119093.165000916 16079426.353901625 0 0 0 0 -56624544.041109085 41032095.651821136 0 41032095.651821136 15976584.964942932 0 0 0 0 -24339848.240203857 40830236.700977325 0 40830236.700977325 7891787.3218841553 0 0 0 0 -5166476.8849808704 2859294.5256348662 0 2859294.5256348662 5591142.6981318165 0 0 0 0 -30809792.112091064 -4566655.2610702515 0 -4566655.2610702515 29528167.166404724 0 0 0 0 -6661253.5458450317 11226383.800312042 0 11226383.800312042 18457139.722182274 0 0 0 0 -6683993.9715493247 32029812.380715821 0 32029812.380715821 1975048.7501831055 0 0 0 0 -3011627.8571962574 65080.743966309354 0 65080.743966309354 3779019.0875891224 0 0 0 0 -3405897.4263076391 2956507.3355586212 0 2956507.3355586212 4008518.3190497877 0 0 0 0 -4086373.489572525 15725897.492519379 0 15725897.492519379 15199012.671173096 0 0 0 0 6254998.6789035797 21492604.612613678 0 21492604.612613678 -14358354.181762695 0 0 0 0 563083.74592971802 24145575.779838562 0 24145575.779838562 -13060472.969581604 0 0 0 0 12410088.12442255 24764868.663225174 0 24764868.663225174 -40848347.548240662 0 0 0 0 9028914.1691846848 4099850.3323631287 0 4099850.3323631287 -21851939.952613831 0 0 0 0 -247798.3933158936 1712590.2739806315 0 1712590.2739806315 -1070964.0588202514 0 0 0 0 -138328452.86439514 6251504.9775123596 0 6251504.9775123596 -6431383.6215362549 0 0 0 0 -212567599.93841934 9064027.0936508179 0 9064027.0936508179 18453183.450741768 0 0 0 0 -58161.473709247075 194141.13349715248 0 194141.13349715248 245124.92015407502 0 0 0 0 125903.35482985503 217269.10838540271 0 217269.10838540271 -608532.91273821145 0 0 0 0 47163699.6966362 -21973379.048315048 0 -21973379.048315048 -413071155.75099182 0 0 0 0 10209628.85319829 35276705.690646648 0 35276705.690646648 -37554892.725746155 0 0 0 0 54943146.811601639 41560492.060050964 0 41560492.060050964 -60447707.163497925 0 0 0 0 15103867.813783646 26834796.424518585 0 26834796.424518585 -48504233.649105072 0 0 0 0 -383695446.06998825 150589907.31559372 0 150589907.31559372 -77064743.349552155 0 0 0 0 -136150836.06723785 473328.26473236084 0 473328.26473236084 -40672398.101531982 0 0 0 0 -124545968.85029984 -71737097.738143921 0 -71737097.738143921 -75155103.627282143 0 0 0 0 21627434.424743652 -70426445.20035553 0 -70426445.20035553 -50047762.509922028 0 0 0 0 -3132800.2735352516 -6327912.2484560013 0 -6327912.2484560013 -55645037.174102783 0 0 0 0 178958369.05553818 -93444278.85269928 0 -93444278.85269928 -29960232.784515381 0 0 0 0 134302134.11575699 -11773412.583467484 0 -11773412.583467484 -101275645.09429932 0 0 0 0 275640690.04299641 -142946602.32674789 0 -142946602.32674789 -36773853.718570709 0 0 0 0 230651425.08256435 -78088500.678384781 0 -78088500.678384781 -130275185.34947968 0 0 0 0 347542123.66638184 -207660824.48685837 0 -207660824.48685837 -57579342.872932434 0 0 0 0 279562053.77851868 -136211474.41775322 0 -136211474.41775322 -130614864.71038055 0 0 0 0 21648323.307994962 4751668.1461191177 0 4751668.1461191177 -97165194.090042114 0 0 0 0 310760221.50538349 -39428224.455978394 0 -39428224.455978394 -235811724.97192001 0 0 0 0 394552896.52116108 -194970130.92743683 0 -194970130.92743683 -82996774.089771271 0 0 0 0 401793447.00395155 -102970904.66022873 0 -102970904.66022873 14967132.012496948 0 0 0 0 615953507.72781372 -312769587.97994232 0 -312769587.97994232 89625013.797733307 0 0 0 0 217297257.62614822 -166179597.80556488 0 -166179597.80556488 47956361.644168854 0 0 0 0 218768000.00078201 -167398980.93743515 0 -167398980.93743515 48406764.781749725 0 0 0 0 299039520.54311681 -317167264.85968781 0 -317167264.85968781 325157195.84980774 0 0 0 0 86004277.882739067 -147957048.87381363 0 -147957048.87381363 263603160.61391449 0 0 0 0 64557778.041683674 64444204.736188889 0 64444204.736188889 196821121.04017639 0 0 0 0 72027928.939956665 61437581.735202789 0 61437581.735202789 685376917.64706421 0 0 0 0 85104612.657974482 35557351.434679985 0 35557351.434679985 236173944.89775085 0 0 0 0 -90976833.971757889 -227815954.41527748 0 -227815954.41527748 647276760.63948441 0 0 0 0 462355758.33346748 -357207048.07161331 0 -357207048.07161331 453475811.22642517 0 0 0 0 371945285.98192406 -465291369.02468109 0 -465291369.02468109 439809553.30738831 0 0 0 0 662249259.1770134 93646225.765144348 0 93646225.765144348 240224026.4380188 0 0 0 0 -6923751.4961719513 -116279797.12108612 0 -116279797.12108612 961488271.38736725 0 0 0 0 540334461.12631226 -521741699.53816986 0 -521741699.53816986 612670272.89497185 0 0 0 0 17857557.089324951 -117772617.31789017 0 -117772617.31789017 572853672.84141159 0 0 0 0 8476497.3277435303 6390043.5907974243 0 6390043.5907974243 200929519.92132187 0 0 0 0 47131141.547943115 126055901.36331558 0 126055901.36331558 296567754.6130867 0 0 0 0 -53946275.094551086 238850399.01425934 0 238850399.01425934 59511608.386894226 0 0 0 0 -51972639.010274857 136866754.37623113 0 136866754.37623113 346302756.68031311 0 0 0 0 17093665.998157382 131001817.74724507 0 131001817.74724507 -150982568.13056946 0 0 0 0 -204043860.41055489 455327161.42630386 0 455327161.42630386 -73998491.092247009 0 0 0 0 265125416.10942364 159157686.23337269 0 159157686.23337269 -458824604.80807495 0 0 0 0 -89940580.664115906 -259164032.05229187 0 -259164032.05229187 80658153.175727844 0 0 0 0 -70464360.809058428 210062357.55830002 0 210062357.55830002 -237945562.61380768 0 0 0 0 -10929599.845869064 4553234.2509841919 0 4553234.2509841919 6353371.3128738403 0 0 0 0 779991.0181484425 2943461.2272525206 0 2943461.2272525206 4659785.7959389649 0 0 0 0 626821.8935687542 2397658.6896114349 0 2397658.6896114349 1974342.7074584961 0 0 0 0 -4715715.8558397293 808493.70124053955 0 808493.70124053955 1706001.7293701172 0 0 0 0 -608357.88491203904 1703586.4268205557 0 1703586.4268205557 2144564.7973169982 0 0 0 0 326363.12973416923 957503.00878685713 0 957503.00878685713 560572.92363184784 0 0 0 0 -1021335.0805446442 -1200223.6908669928 0 -1200223.6908669928 566894.45310880989 0 0 0 0 2065234.2664940357 -5266301.0741043091 0 -5266301.0741043091 5148665.6800346375 0 0 0 0 -10574151.585665703 -2856389.0791931152 0 -2856389.0791931152 12793906.104785919 0 0 0 0 -20008477.968645096 -19748634.469405174 0 -19748634.469405174 -15572397.14238739 0 0 0 0 37877815.792160034 -58346663.496246338 0 -58346663.496246338 598312.08069610596 0 0 0 0 92532699.135850191 58848564.992614746 0 58848564.992614746 37932924.237159729 0 0 0 0 -511866.50462245941 -297206.08786773682 0 -297206.08786773682 -70858.944549560547 0 0 0 0 -420975.290411419 -166452.34433335532 0 -166452.34433335532 425689.69741716236 0 0 0 0 311102398.50134385 -73441324.602876663 0 -73441324.602876663 -90164354.511322021 0 0 0 0 109978908.76131344 -38472236.452079773 0 -38472236.452079773 -90572957.448901534 0 0 0 0 166402753.26970673 -101749948.4882164 0 -101749948.4882164 -26969844.043411255 0 0 0 0 254309987.99110365 -142840066.8269825 0 -142840066.8269825 -26986422.187164307 0 0 0 0 55211464.871769905 -115384004.45318985 0 -115384004.45318985 79501335.948669434 0 0 0 0 33057287.113574028 -43209043.989051819 0 -43209043.989051819 58522108.220359802 0 0 0 0 29350959.561782837 23516280.602535248 0 23516280.602535248 150346403.55670929 0 0 0 0 18668111.60422945 65116189.471761703 0 65116189.471761703 2829757.451385498 0 0 0 0 -48545496.206080437 -87215391.317592621 0 -87215391.317592621 90915155.665351868 0 0 0 0 -345139.65199463721 -403489.12257270608 0 -403489.12257270608 204979.68125772476 0 0 0 0 -4271790.3265798092 -42958109.504234314 0 -42958109.504234314 29854579.728050232 0 0 0 0 -150920.79375553131 -16092499.074783325 0 -16092499.074783325 -8339180.7813177109 0 0 0 0 -142134370.80356264 9016741.068572998 0 9016741.068572998 81497916.134117126 0 0 0 0 367743.70473150234 2346335.0362516316 0 2346335.0362516316 4811165.7464124262 0 0 0 0 -22769245.770292521 13689561.506603241 0 13689561.506603241 4642328.7150344849 0 0 0 0 -384196940.67460966 516941951.721241 0 516941951.721241 61504478.547272682 0 0 0 0 -27742791.851635933 17833902.46824646 0 17833902.46824646 -88360273.115638733 0 0 0 0 181332178.32898474 48836347.042741776 0 48836347.042741776 -297311743.58766174 0 0 0 0 373072222.42453384 -554744287.24215317 0 -554744287.24215317 261783118.11462498 0 0 0 0 67026508.896778822 -579124163.26795769 0 -579124163.26795769 561356435.82271576 0 0 0 0 75139636.024085999 -471169978.57859802 0 -471169978.57859802 525293059.73099709 0 0 0 0 -10840654.834487915 222417114.83203506 0 222417114.83203506 1456071012.8947296 0 0 0 0 -14291830.164285332 286656182.98859191 0 286656182.98859191 531906006.54656982 0 0 0 0 -140348467.93747902 -440108459.29138184 0 -440108459.29138184 843506176.03809357 0 0 0 0 -195570632.81071019 -196453723.09886169 0 -196453723.09886169 321110818.57435608 0 0 0 0 -405108417.79732752 -197696231.70129395 0 -197696231.70129395 461216161.92128754 0 0 0 0 -114476463.47823906 -413613438.88296509 0 -413613438.88296509 505947544.16213989 0 0 0 0 19347023.250319839 -433378962.65813828 0 -433378962.65813828 380214660.28298187 0 0 0 0 -98102615.960529655 -134335674.60653281 0 -134335674.60653281 113951353.20095825 0 0 0 0 119623843.74066192 -352526356.21292114 0 -352526356.21292114 294775232.60977936 0 0 0 0 90636339.628760964 -322429407.91856575 0 -322429407.91856575 603790321.24807739 0 0 0 0 -510639773.90995252 107068755.78525925 0 107068755.78525925 297798566.72673035 0 0 0 0 -66259605.531995773 87582786.108829498 0 87582786.108829498 87405012.402210236 0 0 0 0 -67013512.370051861 67121463.954502106 0 67121463.954502106 -15493684.930447578 0 0 0 0 -228072.128080016 1358259.6792280804 0 1358259.6792280804 4055397.2836656421 0 0 0 0 154079823.0343008 98554692.724693298 0 98554692.724693298 -68657400.190769196 0 0 0 0 -8764420.4529924393 54510549.71459198 0 54510549.71459198 27490975.014518738 0 0 0 0 95145982.179790497 145903463.7743988 0 145903463.7743988 98149197.400766373 0 0 0 0 359043797.52359676 44766928.715896606 0 44766928.715896606 -111724220.59601402 0 0 0 0 -351696.1049803393 309033.12871525157 0 309033.12871525157 1787868.5684069879 0 0 0 0 20127845.089319468 587109550.38854408 0 587109550.38854408 608410391.72543335 0 0 0 0 373865547.43193156 23657946.501350403 0 23657946.501350403 606753541.32000732 0 0 0 0 866203213.13524544 61111689.815587997 0 61111689.815587997 235318115.01402283 0 0 0 0 957682291.17617643 -378317988.5403595 0 -378317988.5403595 -381512037.2427597 0 0 0 0 348395321.44452715 -585648069.34518433 0 -585648069.34518433 -1940471.0460758209 0 0 0 0 479927637.45303631 -362970363.72982597 0 -362970363.72982597 137493625.42361069 0 0 0 0 481090848.11345005 -222137798.5800705 0 -222137798.5800705 36237191.567863464 0 0 0 0 304215335.6362536 -151510892.51138306 0 -151510892.51138306 360354604.55731201 0 0 0 0 153691916.92666483 -282274690.77687263 0 -282274690.77687263 247158877.95708084 0 0 0 0 98218368.333396494 -221714118.58679199 0 -221714118.58679199 389222687.4862175 0 0 0 0 42907080.177513123 -439316220.08743668 0 -439316220.08743668 381710780.51841927 0 0 0 0 127474396.41324186 -247233377.09128952 0 -247233377.09128952 385484158.08122253 0 0 0 0 -12341158.173767567 -354178175.23054886 0 -354178175.23054886 452802107.8083725 0 0 0 0 82385710.454832554 -279738459.15034866 0 -279738459.15034866 362964800.67096329 0 0 0 0 84190106.054438114 -275720465.28374624 0 -275720465.28374624 243449423.29533386 0 0 0 0 81183019.087648392 -278511786.23555374 0 -278511786.23555374 241118373.29458237 0 0 0 0 42434655.886003494 -187182029.73329926 0 -187182029.73329926 174216273.60277557 0 0 0 0 126523341.62551308 -243874703.93579865 0 -243874703.93579865 209575265.31551361 0 0 0 0 132551848.73764992 -260568742.74245453 0 -260568742.74245453 197243606.87065125 0 0 0 0 134969117.87663698 -253978068.23672485 0 -253978068.23672485 176913682.23548889 0 0 0 0 87902933.817889214 -306702223.65522766 0 -306702223.65522766 308358637.74063873 0 0 0 0 141751789.65248013 -396760406.33161545 0 -396760406.33161545 285328278.83448029 0 0 0 0 161169000.34617996 -409357450.876194 0 -409357450.876194 230149821.61546326 0 0 0 0 315658227.24318075 -344748579.69358635 0 -344748579.69358635 143034268.38450623 0 0 0 0 547825002.07599926 63796722.82070446 0 63796722.82070446 27723166.1326828 0 0 0 0 330268697.84108829 -32508611.51858902 0 -32508611.51858902 25838034.660487652 0 0 0 0 367477794.40114212 -72707718.831752777 0 -72707718.831752777 -69506533.657691956 0 0 0 0 193658420.79484749 -171085634.96324539 0 -171085634.96324539 67698973.399796724 0 0 0 0 111067162.6754961 -52731549.627487183 0 -52731549.627487183 -47552469.548088074 0 0 0 0 159650661.10333633 -49610771.178901672 0 -49610771.178901672 78762518.505441427 0 0 0 0 123018669.94523239 -172986630.84720993 0 -172986630.84720993 133258777.89365387 0 0 0 0 298763687.83530045 -108858042.4200325 0 -108858042.4200325 232971707.76634979 0 0 0 0 990115686.18006897 -229136219.01740646 0 -229136219.01740646 84058853.850372314 0 0 0 0 389630055.78375053 -267512356.62969589 0 -267512356.62969589 245246310.840271 0 0 0 0 362016.4728028485 -1443863.4626868875 0 -1443863.4626868875 1094932.5603416041 0 0 0 0 -117083953.14728642 21920324.366750717 0 21920324.366750717 25540159.020652771 0 0 0 0 205169.68387504783 -432826.85106334276 0 -432826.85106334276 336858.46694387496 0 0 0 0 176165405.3246069 234244640.74419212 0 234244640.74419212 274816874.10540771 0 0 0 0 184382415.72347164 242178375.377388 0 242178375.377388 40145575.81312561 0 0 0 0 198958801.77179813 202658527.63494682 0 202658527.63494682 -50005228.167129517 0 0 0 0 120230350.66533661 221775750.76136017 0 221775750.76136017 267653080.23353672 0 0 0 0 102396842.09955788 152816775.21868896 0 152816775.21868896 31575705.804199219 0 0 0 0 176185251.47703218 202560900.74873924 0 202560900.74873924 32818459.338165283 0 0 0 0 -6684742.2079901695 58068667.318383217 0 58068667.318383217 -41489914.119445801 0 0 0 0 -352992801.73007727 -1897029.4148292542 0 -1897029.4148292542 135540747.98103046 0 0 0 0 468275.99972108612 -1042008.7141449954 0 -1042008.7141449954 872532.34390797466 0 0 0 0 -62331210.156206131 -49989877.838874817 0 -49989877.838874817 -31045577.700185776 0 0 0 0 -218672069.83078575 422218.1771697998 0 422218.1771697998 40327846.843372345 0 0 0 0 -140538443.32500362 87853938.736608505 0 87853938.736608505 26314960.056064606 0 0 0 0 612584.06699304807 -2942972.3014285639 0 -2942972.3014285639 3555460.4062404297 0 0 0 0 105801946.46748304 81544993.679251671 0 81544993.679251671 59723420.799388885 0 0 0 0 456704.53682374209 -895055.40882118233 0 -895055.40882118233 365640.10378255323 0 0 0 0 24793956.82510376 -53823472.169013977 0 -53823472.169013977 -80734787.564369202 0 0 0 0 58742499.454192162 -156437916.12853432 0 -156437916.12853432 -78220556.534166813 0 0 0 0 287589348.75556087 -23417379.730724335 0 -23417379.730724335 -51709818.742050171 0 0 0 0 177327278.11089134 -115412498.65114784 0 -115412498.65114784 -51012797.578881264 0 0 0 0 349610112.22814822 -51496818.754765511 0 -51496818.754765511 -73045774.424575806 0 0 0 0 186106979.55819893 -164944021.52895355 0 -164944021.52895355 -118899408.93097019 0 0 0 0 -9595168.1967763901 -28190724.286924362 0 -28190724.286924362 -183858154.6278801 0 0 0 0 228940887.11144829 -159058055.14169025 0 -159058055.14169025 -158447417.44328403 0 0 0 0 3946156.6795588625 -4198362.0855164072 0 -4198362.0855164072 4597192.2089268267 0 0 0 0 143489170.58459282 575192494.98338032 0 575192494.98338032 253662564.72052002 0 0 0 0 171677655.81211734 248214015.81994867 0 248214015.81994867 447667076.07285309 0 0 0 0 552707412.69243789 347854762.56717873 0 347854762.56717873 369787590.6335125 0 0 0 0 237123056.2273798 372800193.91934776 0 372800193.91934776 561957025.31020355 0 0 0 0 1506552.2252537592 -1268123.541643667 0 -1268123.541643667 1313458.2982470123 0 0 0 0 556422965.76399803 493371069.5580982 0 493371069.5580982 845363098.83641243 0 0 0 0 764297280.00931883 566131923.54284 0 566131923.54284 -616864016.22980595 0 0 0 0 226618853.43004933 -194931787.25555271 0 -194931787.25555271 -140599970.31990051 0 0 0 0 66301478.332023621 -240587822.83360863 0 -240587822.83360863 -138989020.66833019 0 0 0 0 593756.37896585301 -3413224.766530429 0 -3413224.766530429 6025583.5776198357 0 0 0 0 -32052505.324097872 -215397248.53035355 0 -215397248.53035355 -64668943.89557457 0 0 0 0 -258118634.12796688 -98543487.940090179 0 -98543487.940090179 180511552.04029846 0 0 0 0 -151220312.43041897 31331317.803697586 0 31331317.803697586 301944129.1713829 0 0 0 0 543747694.03756809 -378408203.80308914 0 -378408203.80308914 -7385926.3029098511 0 0 0 0 -857928040.56541228 -208627208.44478607 0 -208627208.44478607 2024578956.6977501 0 0 0 0 191473126.861866 -257224938.50291634 0 -257224938.50291634 52635558.821832657 0 0 0 0 928504303.3564229 -597037660.15382481 0 -597037660.15382481 -143727299.14461327 0 0 0 0 485820.0770179868 -2629086.2734495616 0 -2629086.2734495616 6592861.2938432954 0 0 0 0 782028749.43185425 12767177.989271164 0 12767177.989271164 -126892412.13547516 0 0 0 0 786900765.99497497 -502123229.12228602 0 -502123229.12228602 53933295.792037964 0 0 0 0 1710119580.3013737 -474457441.72484779 0 -474457441.72484779 128545316.95830441 0 0 0 0 675506193.96311903 -350657703.93337631 0 -350657703.93337631 274870031.25037003 0 0 0 0 312455.46835485415 -874788.78489809786 0 -874788.78489809786 2992893.2732303813 0 0 0 0 806379303.08090568 884917355.18662548 0 884917355.18662548 -69078677.906606674 0 0 0 0 612501974.46288562 964008476.28484821 0 964008476.28484821 741393894.10813522 0 0 0 0 628588736.05171776 256349489.83296108 0 256349489.83296108 844101304.20481873 0 0 0 0 560558982.06415772 217288422.08374214 0 217288422.08374214 437627167.34459257 0 0 0 0 658106047.79726553 284937975.43341064 0 284937975.43341064 463187292.83759117 0 0 0 0 437432815.6338169 94711662.011047363 0 94711662.011047363 395164665.28014755 0 0 0 0 312610338.03471243 299090391.41879845 0 299090391.41879845 402717606.359761 0 0 0 0 523789181.07713461 147406453.7914145 0 147406453.7914145 472302190.68792534 0 0 0 0 521519246.27870011 133801515.3975687 0 133801515.3975687 397239230.20598221 0 0 0 0 1010636919.0365877 125487163.52139473 0 125487163.52139473 -598427424.38498783 0 0 0 0 547019902.54746723 -166650615.12825203 0 -166650615.12825203 1022235539.7006135 0 0 0 0 985093389.20506406 87719565.364434242 0 87719565.364434242 347635612.46762085 0 0 0 0 -155116306.19187927 -153574513.40561104 0 -153574513.40561104 50404073.670715332 0 0 0 0 -222172071.34876156 -2398102.527179718 0 -2398102.527179718 104742470.45835495 0 0 0 0 -27935301.375839233 11824664.733093262 0 11824664.733093262 3191731.1906433105 0 0 0 0 28184910.009194374 -185235056.39065552 0 -185235056.39065552 178453816.54751587 0 0 0 0 8008390.3733444214 -200129009.17855835 0 -200129009.17855835 211057498.72655678 0 0 0 0 30698696.321679115 -138885439.69688416 0 -138885439.69688416 82053854.877876282 0 0 0 0 -107889290.49152803 -118595085.15734291 0 -118595085.15734291 143154431.84840393 0 0 0 0 -33536217.945926189 -192683209.61815262 0 -192683209.61815262 144392591.52542114 0 0 0 0 54710698.656403065 -185120804.62785721 0 -185120804.62785721 137652822.22549438 0 0 0 0 80081359.234106466 -299739578.16901445 0 -299739578.16901445 203228076.4697113 0 0 0 0 87960877.99937281 -215467111.4518261 0 -215467111.4518261 150899961.87608337 0 0 0 0 -67614235.649018288 -282927905.09507751 0 -282927905.09507751 157850473.15582275 0 0 0 0 -109317349.23672009 -103399079.16474915 0 -103399079.16474915 104117565.11692619 0 0 0 0 71825157.954013348 -245161973.66690636 0 -245161973.66690636 62971177.115131378 0 0 0 0 261996205.10865545 -383536136.76447296 0 -383536136.76447296 51184957.118400574 0 0 0 0 60766546.913246155 -259939858.78107834 0 -259939858.78107834 132907032.65513158 0 0 0 0 225891346.05110985 -354990145.01168442 0 -354990145.01168442 144108961.46507931 0 0 0 0 237305702.56188822 -227317234.0790596 0 -227317234.0790596 220218873.07505608 0 0 0 0 310541292.08994412 -370137953.96670485 0 -370137953.96670485 216378280.47525787 0 0 0 0 291679909.0708971 -272949524.55830479 0 -272949524.55830479 223834034.79132843 0 0 0 0 563094870.14641285 -243259078.8855896 0 -243259078.8855896 81537188.095306396 0 0 0 0 618849852.2123903 -297666927.82144547 0 -297666927.82144547 -90536919.757736206 0 0 0 0 505279426.05450326 -559062937.48857927 0 -559062937.48857927 144261966.12287903 0 0 0 0 606025500.74981403 -331632956.9828701 0 -331632956.9828701 -94006793.145783663 0 0 0 0 646882784.44811535 -488096451.70210457 0 -488096451.70210457 96886719.418074608 0 0 0 0 68061348.805554792 -420401318.8070581 0 -420401318.8070581 570249603.62775803 0 0 0 0 51549154.588967353 -215815682.65095139 0 -215815682.65095139 20509082.710163116 0 0 0 0 -87358054.504280448 -463057621.90659142 0 -463057621.90659142 253156221.20957947 0 0 0 0 235504793.87954783 -300249309.44480324 0 -300249309.44480324 9383794.3456916809 0 0 0 0 -238961917.867239 -110831000.79638672 0 -110831000.79638672 5187633.7502441406 0 0 0 0 -258813208.84474468 -246676163.84126091 0 -246676163.84126091 150546330.7230072 0 0 0 0 -514946323.73297346 186827838.8101368 0 186827838.8101368 -252011004.7325573 0 0 0 0 -469670217.42075968 -245118969.98492527 0 -245118969.98492527 63902803.852710724 0 0 0 0 -524393026.49240828 27059871.414318085 0 27059871.414318085 -217708964.30920601 0 0 0 0 -2041075.847829177 -1487907.3868218362 0 -1487907.3868218362 1805593.1772094406 0 0 0 0 -700485483.11822987 77258854.526459694 0 77258854.526459694 102860549.7380867 0 0 0 0 -596869121.63096189 319928546.33693695 0 319928546.33693695 -114740302.19107819 0 0 0 0 -241860640.33306938 47408393.111591578 0 47408393.111591578 -76435674.796024323 0 0 0 0 154973939.00267243 -9224083.6410255432 0 -9224083.6410255432 191679961.16448498 0 0 0 0 -331369.24021349708 -900998.30702541932 0 -900998.30702541932 2349824.6167981587 0 0 0 0 -378842.6845254763 -283011.95862483187 0 -283011.95862483187 4265181.4730079658 0 0 0 0 441043318.82289708 -239637856.23602247 0 -239637856.23602247 93531002.3099823 0 0 0 0 -756227386.87637353 515320187.38590813 0 515320187.38590813 236703061.97052002 0 0 0 0 -1030045.3812825759 -1437394.5546576576 0 -1437394.5546576576 5997263.6913253274 0 0 0 0 -1299837.2526573774 -465305.27462299028 0 -465305.27462299028 1439321.3194102086 0 0 0 0 -1409782919.4589887 370962857.32352352 0 370962857.32352352 316692554.38741875 0 0 0 0 -522277012.00370395 -29444489.258242607 0 -29444489.258242607 -507257168.82992172 0 0 0 0 -919630347.73615515 -299785559.88883209 0 -299785559.88883209 141697301.74219131 0 0 0 0 -986675790.56895638 629816456.83348274 0 629816456.83348274 694513984.64307785 0 0 0 0 96251700.800205559 487257566.17222595 0 487257566.17222595 -560535755.43196297 0 0 0 0 75772392.202157483 714445574.08738518 0 714445574.08738518 942192284.51902008 0 0 0 0 -122085803.99546187 124473785.41823196 0 124473785.41823196 93833894.413490295 0 0 0 0 -533003020.21062404 -274062136.12370497 0 -274062136.12370497 386600799.73447418 0 0 0 0 -98321778.44960469 -7311804.0337927341 0 -7311804.0337927341 789239484.26152802 0 0 0 0 386908225.52821636 -82858261.233852386 0 -82858261.233852386 409222747.9106741 0 0 0 0 456351573.9421249 518664529.62928391 0 518664529.62928391 253646073.76504707 0 0 0 0 392680273.35450357 606494363.25758338 0 606494363.25758338 1601146671.7950745 0 0 0 0 230178633.39529264 940329718.74637961 0 940329718.74637961 1557803974.8783932 0 0 0 0 212632249.82233876 1065555307.999733 0 1065555307.999733 676631017.04938507 0 0 0 0 197002043.13704866 1172839987.7124104 0 1172839987.7124104 1457041162.807827 0 0 0 0 46662312.634000152 1005122230.4565063 0 1005122230.4565063 1675415120.9203415 0 0 0 0 21938505.33539512 1631754778.6610184 0 1631754778.6610184 2199649427.971859 0 0 0 0 -190156643.41032246 1256762465.0349407 0 1256762465.0349407 1504203300.1832123 0 0 0 0 -126149309.93690315 1328587773.3477592 0 1328587773.3477592 553763519.31807327 0 0 0 0 -219950.13436901776 278524.63780634152 0 278524.63780634152 402606.68042956665 0 0 0 0 -414418318.30395997 -83350444.064182281 0 -83350444.064182281 -841394594.69514465 0 0 0 0 372388225.85045111 -596771935.33880901 0 -596771935.33880901 2187276862.5076561 0 0 0 0 216125626.32110322 1550722504.2108974 0 1550722504.2108974 1791973633.1399765 0 0 0 0 55136.190399709732 -85900.927836227231 0 -85900.927836227231 1779380.971316712 0 0 0 0 -254279.53558599183 -1305641.4265950369 0 -1305641.4265950369 1710233.0636280142 0 0 0 0 1007008281.8994632 -1262768284.3749313 0 -1262768284.3749313 1055233113.6389885 0 0 0 0 14432538.699774235 254350390.46945953 0 254350390.46945953 193964805.40146637 0 0 0 0 400082680.47732103 -484049521.84713554 0 -484049521.84713554 81388234.878295898 0 0 0 0 787623758.69303107 -237923576.99324989 0 -237923576.99324989 1610411497.8807316 0 0 0 0 38301699.353480421 -163670071.63570213 0 -163670071.63570213 1566588307.5435982 0 0 0 0 363489662.30765522 223625241.9584257 0 223625241.9584257 1088208401.6825752 0 0 0 0 275600730.62066323 20659954.989840508 0 20659954.989840508 942737600.00885296 0 0 0 0 322870272.95969331 -16583998.768482685 0 -16583998.768482685 1828153915.6752357 0 0 0 0 331904128.18271303 833369157.08540154 0 833369157.08540154 1392236727.5580444 0 0 0 0 1194221825.7449846 -898187963.72675323 0 -898187963.72675323 852741502.78288269 0 0 0 0 466074727.22685087 -434994938.26745605 0 -434994938.26745605 1688503918.8972702 0 0 0 0 1085605500.4869299 742996999.37621784 0 742996999.37621784 1118210441.152256 0 0 0 0 1367267106.5497124 200510366.62262201 0 200510366.62262201 1472872905.5707455 0 0 0 0 520037696.90102667 674975657.80996227 0 674975657.80996227 2205447034.8703861 0 0 0 0 480349985.30053747 441947209.06326103 0 441947209.06326103 1449768961.011879 0 0 0 0 433684023.75029767 244528376.05950117 0 244528376.05950117 2204256021.6307297 0 0 0 0 254872062.75408471 59928065.915654182 0 59928065.915654182 1793276523.6033669 0 0 0 0 -14773769.443380369 -10334267.557775497 0 -10334267.557775497 2204919728.354435 0 0 0 0 227818287.89071044 -48025252.171157837 0 -48025252.171157837 1805168247.1652679 0 0 0 0 -100823219.53735243 -211397529.28120422 0 -211397529.28120422 1735305086.365345 0 0 0 0 -263309847.27935064 -306323324.84921885 0 -306323324.84921885 2204473834.7628078 0 0 0 0 -26503548.963241771 -379167792.61694098 0 -379167792.61694098 1403559370.841114 0 0 0 0 116209830.75242957 -112410422.12896061 0 -112410422.12896061 1767656803.4910765 0 0 0 0 -524638436.52288443 -716646677.08799171 0 -716646677.08799171 2205234626.1219349 0 0 0 0 -374453118.0324719 -568042930.78135204 0 -568042930.78135204 1656623987.4242487 0 0 0 0 -394995629.1975137 -325009175.91324711 0 -325009175.91324711 1684423644.4062657 0 0 0 0 -195028934.53461939 -539974615.83371305 0 -539974615.83371305 775320033.17241669 0 0 0 0 -263727.60668654559 56827.99239289714 0 56827.99239289714 1029804.4025418479 0 0 0 0 -649477115.78904259 901165572.83520269 0 901165572.83520269 348725892.53964257 0 0 0 0 -442747621.86554569 303628546.20945001 0 303628546.20945001 1818266949.173254 0 0 0 0 258163578.36585557 716057957.03485394 0 716057957.03485394 1115695185.9284916 0 0 0 0 369853989.5582099 202415964.20336819 0 202415964.20336819 5167554.4669351578 0 0 0 0 -70074683.626546383 134238753.53730869 0 134238753.53730869 1290164561.342576 0 0 0 0 373930722.13772821 -850342176.21763134 0 -850342176.21763134 1415878991.426157 0 0 0 0 7967573.7398338225 79598915.298106194 0 79598915.298106194 1526361323.7703075 0 0 0 0 -425558.53874515567 -140421.73727003532 0 -140421.73727003532 1438721.892646119 0 0 0 0 -386278006.77449501 -485857515.00420189 0 -485857515.00420189 559771277.65800095 0 0 0 0 -301581225.5404678 -593007696.24167395 0 -593007696.24167395 -265000392.22116089 0 0 0 0 259162714.4874323 -77166278.743559837 0 -77166278.743559837 370884787.80000687 0 0 0 0 -305625093.48211068 -222860524.81162357 0 -222860524.81162357 1280015466.7516146 0 0 0 0 123409267.00494438 50968548.709926605 0 50968548.709926605 484611841.99825191 0 0 0 0 351882786.98456454 239744966.92201042 0 239744966.92201042 245251229.39824677 0 0 0 0 95353776.150479794 256316507.9691925 0 256316507.9691925 377302094.24908638 0 0 0 0 297783270.19618142 255346587.45814514 0 255346587.45814514 294009910.69983673 0 0 0 0 -4570992.0917713642 328475649.189991 0 328475649.189991 283669954.63143253 0 0 0 0 -9490763.1849884987 177583223.53518295 0 177583223.53518295 13044711.764665604 0 0 0 0 98875962.529777288 212223285.5362463 0 212223285.5362463 125034609.59180832 0 0 0 0 -166252523.37944257 59416365.032010913 0 59416365.032010913 118019193.3818779 0 0 0 0 -185047273.96005034 193086142.87802029 0 193086142.87802029 251150858.40029144 0 0 0 0 123580195.85989234 54353369.308238208 0 54353369.308238208 -103967857.50093079 0 0 0 0 -493165219.36413521 -128063518.12135085 0 -128063518.12135085 111714738.18813515 0 0 0 0 -868910.59313505189 -58754.958782186732 0 -58754.958782186732 2542107.411026008 0 0 0 0 -471035548.97979331 164590474.7637682 0 164590474.7637682 214199835.81698895 0 0 0 0 11477549.439723205 223808871.75776845 0 223808871.75776845 -724408.53999519348 0 0 0 0 24839728.576840878 -173432134.68382454 0 -173432134.68382454 175213278.38723278 0 0 0 0 -297595499.65274286 -30456901.405920029 0 -30456901.405920029 -49253889.851449966 0 0 0 0 -224305209.20553637 109604290.99980259 0 109604290.99980259 -34582119.706858397 0 0 0 0 -311222564.45301247 124176712.6906395 0 124176712.6906395 197187286.31140518 0 0 0 0 -204473431.12973154 80808548.465308189 0 80808548.465308189 -5668666.8888931274 0 0 0 0 217064791.25495934 418990198.18889904 0 418990198.18889904 -96299504.641620636 0 0 0 0 365851.16950419883 242755.69053539354 0 242755.69053539354 91061.991417118348 0 0 0 0 1820376.0537005663 111550180.46120101 0 111550180.46120101 181027203.45535469 0 0 0 0 -250043.54598229821 -26327.732660208829 0 -26327.732660208829 576095.57487829775 0 0 0 0 448468.84087542212 635802.86401361623 0 635802.86401361623 710523.69480024558 0 0 0 0 -20894943.235603333 -82373781.993836403 0 -82373781.993836403 113793725.81313133 0 0 0 0 3548450.6128945351 13088148.486789703 0 13088148.486789703 65796925.664844513 0 0 0 0 -743290017.97329664 -2064967.5177297592 0 -2064967.5177297592 185849413.11418533 0 0 0 0 -155119673.62181997 -250068431.09334707 0 -250068431.09334707 -244861534.88625526 0 0 0 0 6290542.7357320786 320480648.87433147 0 320480648.87433147 235177522.72366524 0 0 0 0 -638699536.23880291 588327020.0152874 0 588327020.0152874 -15449227.289240837 0 0 0 0 67859677.917894363 482237824.88203335 0 482237824.88203335 -553607904.64668846 0 0 0 0 99952981.45389688 81840340.100563526 0 81840340.100563526 778708177.0314579 0 0 0 0 57928922.212767363 -75458855.930497169 0 -75458855.930497169 205070887.57249069 0 0 0 0 353882039.03400803 424569334.8895874 0 424569334.8895874 476249858.60877991 0 0 0 0 174320366.50973988 494899684.5382309 0 494899684.5382309 380652396.49106359 0 0 0 0 234314979.36314011 384932543.87310505 0 384932543.87310505 574833818.17824745 0 0 0 0 -770331.6941303818 -150210.04403762659 0 -150210.04403762659 551086.7103197251 0 0 0 0 307944098.05243617 170600925.7111721 0 170600925.7111721 438883558.23018074 0 0 0 0 246578398.70435834 362024334.07944727 0 362024334.07944727 -14906844.550126076 0 0 0 0 -16473590.151712894 571781137.66940022 0 571781137.66940022 392208461.17833042 0 0 0 0 107925011.97175807 465223408.80623436 0 465223408.80623436 444346516.0487709 0 0 0 0 252371741.49778795 397647238.674016 0 397647238.674016 357411463.46591377 0 0 0 0 126891822.55549228 390954985.17093658 0 390954985.17093658 420529966.69904518 0 0 0 0 111247832.47141486 331615769.94115305 0 331615769.94115305 195962905.36072159 0 0 0 0 114015260.9978075 606231355.00274277 0 606231355.00274277 353617395.07320809 0 0 0 0 71715310.368791223 545396502.19572687 0 545396502.19572687 267031399.03157997 0 0 0 0 -66897850.802155241 87084975.683627367 0 87084975.683627367 -61585936.927902222 0 0 0 0 -58124458.489056408 116600456.42935276 0 116600456.42935276 -138324733.56478882 0 0 0 0 -144643498.17266417 148178346.40951443 0 148178346.40951443 -66300158.782499313 0 0 0 0 -52931517.966822267 87628154.747263908 0 87628154.747263908 -70177275.488857269 0 0 0 0 -53216342.995387077 60881120.01422596 0 60881120.01422596 -23428877.996753693 0 0 0 0 -59081468.524447396 37138447.07092005 0 37138447.07092005 11636090.952587128 0 0 0 0 -56419011.697292715 61254406.791796803 0 61254406.791796803 -22394843.279621124 0 0 0 0 -17559460.872762479 9649859.5846604109 0 9649859.5846604109 -14615109.277130127 0 0 0 0 -20413473.424657136 34687461.783987045 0 34687461.783987045 -62078609.705396652 0 0 0 0 -5545992.7357860068 2917969.5829044203 0 2917969.5829044203 3457280.0628141137 0 0 0 0 -16881330.694557071 -3907359.1790971756 0 -3907359.1790971756 -4212873.9150676727 0 0 0 0 2813787.0604040585 -1384510.0693954229 0 -1384510.0693954229 -31665757.731918335 0 0 0 0 -52400945.487555027 32814827.693370342 0 32814827.693370342 -38798295.120640755 0 0 0 0 -4305315.4574965872 121887.05286415247 0 121887.05286415247 2581626.4837034806 0 0 0 0 6755257.488653183 24418525.370334625 0 24418525.370334625 5300567.7956218719 0 0 0 0 -2741429.8561382294 40866935.229014397 0 40866935.229014397 -100535158.6602726 0 0 0 0 -57628861.47168231 -58034052.863278627 0 -58034052.863278627 -30396431.616865158 0 0 0 0 -507010.96208524704 -12524122.428076744 0 -12524122.428076744 -179916605.14037704 0 0 0 0 7489720.7154669762 49919923.700592995 0 49919923.700592995 -449625025.70293617 0 0 0 0 -298986211.05657387 575222107.89513779 0 575222107.89513779 -615048977.48812294 0 0 0 0 -682312287.67897034 175602324.27493858 0 175602324.27493858 -94451548.126220465 0 0 0 0 -40925566.899569511 279602517.92071629 0 279602517.92071629 -829440254.22088718 0 0 0 0 -1500628.8565272829 -36864.781944367103 0 -36864.781944367103 710074.62548796786 0 0 0 0 -580154335.76325727 644705040.29734778 0 644705040.29734778 -290868744.40150833 0 0 0 0 -367423091.21380711 63255098.12951231 0 63255098.12951231 -2985386.9532604218 0 0 0 0 -507761316.37722063 399763337.39873791 0 399763337.39873791 51030180.016418457 0 0 0 0 -291682731.85355473 139656143.22603035 0 139656143.22603035 53931230.044803344 0 0 0 0 -100456212.78070211 164823367.39574718 0 164823367.39574718 -156013332.08963394 0 0 0 0 -107027585.57693005 155098778.53005409 0 155098778.53005409 -166669216.67871726 0 0 0 0 -182359946.80022335 272244511.25980759 0 272244511.25980759 -274416507.04283524 0 0 0 0 -184972878.24411917 256155734.65645123 0 256155734.65645123 -361019729.63518524 0 0 0 0 -310850719.78695893 179426367.03503227 0 179426367.03503227 -27149275.495121002 0 0 0 0 -179899436.82275343 214185564.62835121 0 214185564.62835121 -142812505.81942153 0 0 0 0 -212788913.24138248 146224041.07695723 0 146224041.07695723 -18067304.682695389 0 0 0 0 -168874378.80658042 178950118.62477541 0 178950118.62477541 -24515789.812265396 0 0 0 0 -217835954.46781564 151732079.2800622 0 151732079.2800622 -19870473.497112274 0 0 0 0 -236637150.22146559 71655403.581404686 0 71655403.581404686 -8048675.9902911186 0 0 0 0 -262326935.63470125 131194407.339221 0 131194407.339221 -24610556.449491501 0 0 0 0 -580103.30986918486 -259403.4467103947 0 -259403.4467103947 951539.46630900726 0 0 0 0 73599911.759900808 -240904650.44729137 0 -240904650.44729137 320822155.90850735 0 0 0 0 -213323814.56616569 136430197.56491184 0 136430197.56491184 -60049770.234826088 0 0 0 0 -268539723.62760186 330418447.97940969 0 330418447.97940969 -57192425.604601063 0 0 0 0 -189576.59518354642 6089.6611398044042 0 6089.6611398044042 432923.4824492028 0 0 0 0 -244034424.40804744 235951498.7280736 0 235951498.7280736 254575092.53177357 0 0 0 0 -158135840.52352139 148141024.57588625 0 148141024.57588625 39611236.056093216 0 0 0 0 -185101690.60746297 118513289.2802186 0 118513289.2802186 186315318.25352859 0 0 0 0 -138993672.43442279 173149826.31150103 0 173149826.31150103 36814505.789825439 0 0 0 0 -130739717.1472587 146245671.19500065 0 146245671.19500065 -2673641.8095988035 0 0 0 0 -94127610.033012927 108675875.72157192 0 108675875.72157192 -8645825.55103302 0 0 0 0 -116839355.68836042 130665746.22099686 0 130665746.22099686 -29379267.78377533 0 0 0 0 -115798175.05958295 150672074.76844406 0 150672074.76844406 -70265286.090916157 0 0 0 0 -99945574.830011845 98323368.410856247 0 98323368.410856247 10021514.946835518 0 0 0 0 -120189565.6771093 119299421.93110371 0 119299421.93110371 61588879.872234344 0 0 0 0 -100327357.32559925 91163949.773135185 0 91163949.773135185 20647471.433855057 0 0 0 0 -163756867.24571258 102415268.35144663 0 102415268.35144663 76399147.932831764 0 0 0 0 -181013859.56088427 101079970.30864406 0 101079970.30864406 83596003.632719994 0 0 0 0 -246137451.94563007 42217803.330900669 0 42217803.330900669 141711040.24444294 0 0 0 0 -199797674.42494115 4131776.2676072121 0 4131776.2676072121 95769278.918926239 0 0 0 0 -218302458.15051407 97061802.80890274 0 97061802.80890274 184181866.89178467 0 0 0 0 -184587350.09356117 -3909722.5442242622 0 -3909722.5442242622 459143979.59002304 0 0 0 0 -188216863.30413675 -47693121.495833397 0 -47693121.495833397 321953360.6998148 0 0 0 0 -131926094.09985805 -123438143.33102322 0 -123438143.33102322 186124718.50400257 0 0 0 0 -132262633.43059731 -180495123.17240095 0 -180495123.17240095 286576402.95539856 0 0 0 0 -115864646.44186926 -143102393.72581291 0 -143102393.72581291 85552003.589819431 0 0 0 0 -316164891.61823237 -198770125.40610701 0 -198770125.40610701 49904975.109329224 0 0 0 0 -300018239.95126402 -29550241.843836218 0 -29550241.843836218 48794942.730760574 0 0 0 0 -220871678.64482749 -84522466.557037592 0 -84522466.557037592 -60392664.21269989 0 0 0 0 -262827099.67560101 -56042736.81424427 0 -56042736.81424427 171060812.61133003 0 0 0 0 -129002558.82551712 17498740.36830616 0 17498740.36830616 759136166.38983822 0 0 0 0 -74209260.0973773 -218705168.76146364 0 -218705168.76146364 799719717.32491302 0 0 0 0 -125372883.51073158 -54628538.836055279 0 -54628538.836055279 336635400.34831238 0 0 0 0 -137827454.27503255 -164675106.53138277 0 -164675106.53138277 481265088.51447868 0 0 0 0 -96040965.340959072 -368945905.33288383 0 -368945905.33288383 361925983.05985069 0 0 0 0 197415198.91562903 -224764985.21953571 0 -224764985.21953571 508083216.15974808 0 0 0 0 -494606396.96633881 -293225340.56410933 0 -293225340.56410933 1189915774.4136696 0 0 0 0 61577116.39790225 -348276630.69257021 0 -348276630.69257021 544606479.11976969 0 0 0 0 -827454.34138008114 -106921.38351313584 0 -106921.38351313584 2374615.174353655 0 0 0 0 26399201.886823595 -242824611.352983 0 -242824611.352983 394432265.21826363 0 0 0 0 -1106078.8867705963 -548563.18589397694 0 -548563.18589397694 2398250.0192286568 0 0 0 0 486369073.33334076 -1383790603.9491377 0 -1383790603.9491377 2202552848.1689415 0 0 0 0 -414996980.91289639 118397012.7800777 0 118397012.7800777 160472083.02081323 0 0 0 0 16109835.053010302 -704213462.4610424 0 -704213462.4610424 1227437723.0378983 0 0 0 0 -385745919.66546541 -165579577.80242157 0 -165579577.80242157 58480853.917006493 0 0 0 0 -324254189.02851439 154291520.88828087 0 154291520.88828087 -249410680.85028413 0 0 0 0 -446431877.87832588 16666683.831352711 0 16666683.831352711 -42839302.227464676 0 0 0 0 502897218.50057662 -389196229.26642656 0 -389196229.26642656 -271654481.74055207 0 0 0 0 -439600170.17636967 -324433704.06042385 0 -324433704.06042385 -342773232.16633463 0 0 0 0 -94077.815547233564 -110008.0097301862 0 -110008.0097301862 241975.12342142256 0 0 0 0 96027355.532289684 -212852776.75885963 0 -212852776.75885963 1768452.994430542 0 0 0 0 42435783.269313753 -329517613.58275652 0 -329517613.58275652 83509493.750993252 0 0 0 0 -27005683.030036092 -427843142.83103919 0 -427843142.83103919 392935044.74691963 0 0 0 0 36638267.567716256 -324619911.67340589 0 -324619911.67340589 81862732.44127655 0 0 0 0 512331159.38741171 -797183500.28593636 0 -797183500.28593636 108634831.51308346 0 0 0 0 -183568195.36045545 -1282802060.4753008 0 -1282802060.4753008 2194053922.1531825 0 0 0 0 -518932079.98643291 -204511471.85023969 0 -204511471.85023969 635369096.18105793 0 0 0 0 -356486336.18136066 -549218640.14768791 0 -549218640.14768791 1363636486.9857149 0 0 0 0 760109147.79102504 -708280245.70944929 0 -708280245.70944929 391317907.87083435 0 0 0 0 -569913.42293594964 982159.0875753935 0 982159.0875753935 2522806.9350808715 0 0 0 0 50767831.890868038 598372880.69681633 0 598372880.69681633 2200693327.886559 0 0 0 0 -41063476.703997001 75044911.182251692 0 75044911.182251692 1232389410.5392499 0 0 0 0 -1913827.7813518802 830272.33912138874 0 830272.33912138874 3269425.8339829422 0 0 0 0 -7359551.6863155365 -5123320.7243022919 0 -5123320.7243022919 14382865.241042137 0 0 0 0 -7142874.8514490128 322513.79935979843 0 322513.79935979843 8826208.3172087669 0 0 0 0 -7865419.0894531608 -742832.04339182377 0 -742832.04339182377 23903561.452413559 0 0 0 0 -110258336.24104327 -227546881.66972578 0 -227546881.66972578 2205453691.1816926 0 0 0 0 516661.42619657516 7957532.9243469238 0 7957532.9243469238 11463649.102351189 0 0 0 0 -1277705.9928497719 1073318.5380012982 0 1073318.5380012982 2179281.2321015261 0 0 0 0 -14180397.683037072 -306683162.41420698 0 -306683162.41420698 2017031424.1821294 0 0 0 0 106305960.46093781 -491488354.4026432 0 -491488354.4026432 2205615246.9847646 0 0 0 0 -7071845.6228427887 -16839674.855483055 0 -16839674.855483055 47639065.199066162 0 0 0 0 -10166931.256012917 -10978468.166418076 0 -10978468.166418076 44088259.014752388 0 0 0 0 173774.57765356975 524627.91636486189 0 524627.91636486189 -161927.83294083679 0 0 0 0 9538753.9737346172 -20503218.621650696 0 -20503218.621650696 44088671.889461994 0 0 0 0 24207640.314235687 -14512667.449235916 0 -14512667.449235916 21897089.557360172 0 0 0 0 7520954.4544203281 -17062191.688585758 0 -17062191.688585758 16634320.010767579 0 0 0 0 8401908.751260519 -710811.59239578247 0 -710811.59239578247 -46809.05179476738 0 0 0 0 978470.64352670312 -2983445.6984165036 0 -2983445.6984165036 -720146.89177914686 0 0 0 0 -236385.08504426479 -16476426.319882452 0 -16476426.319882452 20827915.43400383 0 0 0 0 4621949.3984296322 -12235575.540243149 0 -12235575.540243149 13543140.385948181 0 0 0 0 -178057.66242790222 -6933162.8131394386 0 -6933162.8131394386 3573269.4534187317 0 0 0 0 1087142.9866037276 -2377340.7782162428 0 -2377340.7782162428 -1822870.7506607175 0 0 0 0 -23411.281670570374 -8855006.2959251404 0 -8855006.2959251404 4263273.8546453714 0 0 0 0 570775.99164858856 -3590604.3504010234 0 -3590604.3504010234 5343416.7170917829 0 0 0 0 -210563703.22264099 33771270.392983913 0 33771270.392983913 21448985.073740005 0 0 0 0 -244442025.45718187 -6016485.0186238289 0 -6016485.0186238289 48698940.452482224 0 0 0 0 254343.00488760613 -3325923.4126273273 0 -3325923.4126273273 5945256.8881088849 0 0 0 0 -171500090.33587134 24874859.382190704 0 24874859.382190704 338986369.55381155 0 0 0 0 -236485545.16316426 78468318.631585121 0 78468318.631585121 612940595.38722229 0 0 0 0 -171008373.8747884 143498637.00659752 0 143498637.00659752 632667359.98821449 0 0 0 0 -532118959.84170967 261654665.20863962 0 261654665.20863962 2206150393.6858387 0 0 0 0 -380894921.37775636 -196499383.89260578 0 -196499383.89260578 1649621842.4265289 0 0 0 0 -498889059.65142912 257367763.54571962 0 257367763.54571962 1233489745.7355728 0 0 0 0 -181924974.58121103 346313226.23130417 0 346313226.23130417 1242930549.402231 0 0 0 0 -277847259.45050758 942484818.89408302 0 942484818.89408302 2200294952.3655338 0 0 0 0 -11301363.992149368 -13594768.95752573 0 -13594768.95752573 -230981.48406600952 0 0 0 0 496187654.81175292 436835730.45346069 0 436835730.45346069 203964862.88822746 0 0 0 0 133581582.07497379 192216465.31625652 0 192216465.31625652 163297634.01094818 0 0 0 0 17398789.938700676 -70722558.883615494 0 -70722558.883615494 85769354.635383606 0 0 0 0 -30794910.109651923 -91056445.945394516 0 -91056445.945394516 112454995.57211113 0 0 0 0 2126007.6741709709 -10871118.623933792 0 -10871118.623933792 15518554.315811157 0 0 0 0 -531989.08565057721 -900992.76938084373 0 -900992.76938084373 878450.07102072053 0 0 0 0 -112115564.18568313 416217037.62815857 0 416217037.62815857 2203282443.00875 0 0 0 0 775806032.16755092 594544531.61607456 0 594544531.61607456 289118365.24962234 0 0 0 0 845449.31964617746 -56681.360418864992 0 -56681.360418864992 1731499.3971198886 0 0 0 0 -143937902.95699084 -325996996.75914478 0 -325996996.75914478 1982071535.6889389 0 0 0 0 -475758.88759737503 482860.36938511906 0 482860.36938511906 893946.30054851098 0 0 0 0 148898313.99991927 -9670834.7326393127 0 -9670834.7326393127 20024305.82166481 0 0 0 0 43666139.575708225 -38515041.880880833 0 -38515041.880880833 47222110.156535149 0 0 0 0 62101879.62787842 -320533553.59486008 0 -320533553.59486008 2396600297.5164595 0 0 0 0 873597.87138388003 921180.83269544621 0 921180.83269544621 4090133.6572956862 0 0 0 0 -9454045.5295724869 181346.833943367 0 181346.833943367 11150229.995004654 0 0 0 0 12963412.859917112 -8115886.1642518044 0 -8115886.1642518044 21647788.728643417 0 0 0 0 1146142.5423365056 -4050296.2085587205 0 -4050296.2085587205 1209534.6661772539 0 0 0 0 -981354.66829013824 -4741696.7721344233 0 -4741696.7721344233 13767342.579255104 0 0 0 0 2670404.9199477434 -8487354.7969742417 0 -8487354.7969742417 13651044.329750061 0 0 0 0 -36321803.529047132 29985789.677297115 0 29985789.677297115 18823170.059419632 0 0 0 0 -45255022.087656379 13409648.860692978 0 13409648.860692978 8924806.1522469521 0 0 0 0 -2787720.0432754243 385556.4820644916 0 385556.4820644916 10401335.412430894 0 0 0 0 -41025191.92403841 52771651.474101067 0 52771651.474101067 -63006169.328987598 0 0 0 0 -1217142.7775028313 -1144908.1005585166 0 -1144908.1005585166 3111521.0781065542 0 0 0 0 -84475498.328041673 50130959.037892818 0 50130959.037892818 45905734.611602783 0 0 0 0 -26469179.554199934 -34987874.48488903 0 -34987874.48488903 93929358.095360756 0 0 0 0 278731638.98983431 -297078352.62388611 0 -297078352.62388611 214904989.25257111 0 0 0 0 12726966.373440742 -75666057.93106842 0 -75666057.93106842 307118407.98461914 0 0 0 0 132241336.66476774 -251421420.10098839 0 -251421420.10098839 315499766.20224762 0 0 0 0 -231181774.21132779 187768167.00751305 0 187768167.00751305 -350596283.77462006 0 0 0 0 -358591.94356358366 -258210.58471590606 0 -258210.58471590606 926182.31319036521 0 0 0 0 -189712159.28077585 254493056.84749746 0 254493056.84749746 -246107448.85452271 0 0 0 0 -199933.91345589753 -41862.107811102178 0 -41862.107811102178 513104.94032704458 0 0 0 0 -43890456.593483925 -59903530.75802803 0 -59903530.75802803 -77117021.354911804 0 0 0 0 -237621415.02493262 257908058.91662407 0 257908058.91662407 -342544714.43495178 0 0 0 0 -349124670.66387129 72815563.859960556 0 72815563.859960556 336633062.84850335 0 0 0 0 39332765.355707049 -6854886.0386199951 0 -6854886.0386199951 47427236.44446373 0 0 0 0 16847025.016377673 -70382811.411863267 0 -70382811.411863267 42534482.067146301 0 0 0 0 351087.43810728256 -1626906.9151132749 0 -1626906.9151132749 414293.93395646615 0 0 0 0 7741974.1246773005 -20676516.523868561 0 -20676516.523868561 -34562208.118802071 0 0 0 0 5299014.4452397823 -25161733.776204109 0 -25161733.776204109 15021854.624869347 0 0 0 0 -7533844.60286057 -16984538.023925781 0 -16984538.023925781 10505497.887889862 0 0 0 0 -25794892.654166698 -14406692.975765228 0 -14406692.975765228 34012154.796128273 0 0 0 0 -2529826.1550631928 1295016.6516156918 0 1295016.6516156918 10157977.663638908 0 0 0 0 -25187937.113960266 3142219.3032798767 0 3142219.3032798767 17862175.768722534 0 0 0 0 -37568607.029681504 9704376.7002370358 0 9704376.7002370358 13477443.046056747 0 0 0 0 -254418.22784280777 -8176887.9745473862 0 -8176887.9745473862 12123273.058706284 0 0 0 0 -68080031.191387653 -155863239.63537216 0 -155863239.63537216 524466844.29870367 0 0 0 0 -61539125.843937874 -123390062.94986379 0 -123390062.94986379 662749338.10056877 0 0 0 0 -79682196.22698319 -31742245.496690989 0 -31742245.496690989 457082434.69701767 0 0 0 0 -304681.27924176317 -1669160.2030554698 0 -1669160.2030554698 1014779.0290374174 0 0 0 0 100085478.59605145 -149341159.44639206 0 -149341159.44639206 413091592.21057987 0 0 0 0 -133148248.46516676 -111773837.38090253 0 -111773837.38090253 745925774.01597214 0 0 0 0 36991373.042482436 -99766244.152261257 0 -99766244.152261257 691003168.02746582 0 0 0 0 -15523570.955547392 -272346103.34897363 0 -272346103.34897363 1071227485.2583237 0 0 0 0 337171622.73207647 -441290131.91281891 0 -441290131.91281891 1117513936.2659616 0 0 0 0 -175691090.74781549 128362573.22688961 0 128362573.22688961 1097589170.493536 0 0 0 0 -100976550.00457251 -329569463.90250599 0 -329569463.90250599 378580973.0471611 0 0 0 0 78947537.601663232 344139610.43486691 0 344139610.43486691 84027990.479462624 0 0 0 0 128130833.37310219 809922.94798469543 0 809922.94798469543 41657722.963710785 0 0 0 0 18682802.162012815 -76697736.016906738 0 -76697736.016906738 171528544.63062286 0 0 0 0 -58290697.901489735 24932728.410066605 0 24932728.410066605 200047893.75364208 0 0 0 0 13444875.258706331 -11831758.937122345 0 -11831758.937122345 158226284.11664104 0 0 0 0 23550623.722860098 -8038573.9732580185 0 -8038573.9732580185 9754876.4863414764 0 0 0 0 25698982.61596632 9150921.6921234131 0 9150921.6921234131 42953786.643630624 0 0 0 0 38762712.793944836 -22905430.338713646 0 -22905430.338713646 19057902.940267563 0 0 0 0 -30616567.196321011 -8028511.4811420441 0 -8028511.4811420441 56932240.98592186 0 0 0 0 -28343035.126646042 -22200537.800235748 0 -22200537.800235748 77164574.011974335 0 0 0 0 -52624211.346307993 26541970.238228798 0 26541970.238228798 23319073.806997299 0 0 0 0 -53811990.220901012 12882006.430151939 0 12882006.430151939 38487746.64298439 0 0 0 0 -110326985.63995987 65818980.408924103 0 65818980.408924103 51569293.561710358 0 0 0 0 -92767876.276531339 44775529.319257736 0 44775529.319257736 76708199.091207504 0 0 0 0 -21611063.876402855 -11148149.97561264 0 -11148149.97561264 71448926.026368141 0 0 0 0 -101074044.92355227 34103825.625890732 0 34103825.625890732 79412216.56040287 0 0 0 0 -63747343.407794476 -12597416.146138191 0 -12597416.146138191 130169181.37069702 0 0 0 0 -75119130.684219837 73452424.837030411 0 73452424.837030411 3035157.6101760864 0 0 0 0 -120112706.50118792 10669215.325933456 0 10669215.325933456 -7063160.6852245331 0 0 0 0 -65329723.932240486 54572066.19802475 0 54572066.19802475 94533231.7750597 0 0 0 0 -185691540.3876341 43639002.882813454 0 43639002.882813454 55858513.960838318 0 0 0 0 -113839890.93589616 12643530.668201447 0 12643530.668201447 59797113.747879028 0 0 0 0 -124413493.84845805 73737822.601770401 0 73737822.601770401 69731164.77450943 0 0 0 0 27090314.834014893 -19485487.83403492 0 -19485487.83403492 16451266.590082169 0 0 0 0 75465030.374925733 -60015264.658568859 0 -60015264.658568859 26801232.47167778 0 0 0 0 48830434.334543228 59247814.59211731 0 59247814.59211731 92459772.901479721 0 0 0 0 820899.0234387517 -770379.31002648675 0 -770379.31002648675 -617868.94752462953 0 0 0 0 3983.7745575688314 -152026.21340002515 0 -152026.21340002515 296400.93495645979 0 0 0 0 9820622.5894289017 -34370608.461585045 0 -34370608.461585045 44470978.703407288 0 0 0 0 15613286.242622256 -10483868.387560725 0 -10483868.387560725 31836314.955917358 0 0 0 0 -14208356.476490736 -17750004.332184315 0 -17750004.332184315 28023556.819416046 0 0 0 0 -36374547.487926483 28853040.787917137 0 28853040.787917137 19139522.692784309 0 0 0 0 -16756871.371378899 19403390.927622795 0 19403390.927622795 4302718.6659197807 0 0 0 0 -12182597.218232632 5383308.1811676025 0 5383308.1811676025 68883540.244265556 0 0 0 0 -7447707.1915373802 4613651.272310257 0 4613651.272310257 17234711.988212585 0 0 0 0 19296823.148413658 36583142.683674812 0 36583142.683674812 15634205.842870712 0 0 0 0 -34815656.02766943 17280921.201521873 0 17280921.201521873 26910426.609835148 0 0 0 0 144694.51374173164 11228575.817080975 0 11228575.817080975 -14666742.726072311 0 0 0 0 -3934925.7321087252 2691703.8599753501 0 2691703.8599753501 5798059.0579247577 0 0 0 0 312447.21315050125 33296112.128045082 0 33296112.128045082 -29596857.18374157 0 0 0 0 69555292.957688332 -173803767.48596382 0 -173803767.48596382 390310277.44629288 0 0 0 0 -3174856.6006087749 2107885.3155336864 0 2107885.3155336864 10166490.648002837 0 0 0 0 -1187684.1116125144 -1850916.8531123344 0 -1850916.8531123344 2351553.4100825754 0 0 0 0 -10753545.341785908 -908849.04826450348 0 -908849.04826450348 17601494.603445053 0 0 0 0 -95598.277231323533 3441.8870643429109 0 3441.8870643429109 -1178.5967689044774 0 0 0 0 -25027725.638981819 -252007408.4345386 0 -252007408.4345386 701536894.72760534 0 0 0 0 106862944.14435387 -290815092.92880535 0 -290815092.92880535 402656675.07892609 0 0 0 0 75714101.473670959 -149841466.8533926 0 -149841466.8533926 346122436.45734978 0 0 0 0 -2334658.4858136177 -93544.990372896194 0 -93544.990372896194 110519245.36340332 0 0 0 0 286575522.93348122 -143441837.11279821 0 -143441837.11279821 105955955.3683672 0 0 0 0 -35553856.437395096 -93834283.599655151 0 -93834283.599655151 290339694.67435503 0 0 0 0 356817139.34072685 -525466822.57277346 0 -525466822.57277346 563706184.91342497 0 0 0 0 -4815140.589053317 3056054.2852536943 0 3056054.2852536943 4293142.9277001042 0 0 0 0 144081048.50716209 -110936083.46359444 0 -110936083.46359444 -46422206.342723846 0 0 0 0 -65810628.068907738 6433335.218953371 0 6433335.218953371 50168698.772135019 0 0 0 0 -53319954.578353882 7615948.6825528145 0 7615948.6825528145 42375976.622689247 0 0 0 0 9841837.4239377975 5716163.8447980881 0 5716163.8447980881 -36399802.410960197 0 0 0 0 -5047635.8291702121 -7118031.146943152 0 -7118031.146943152 -16926732.194591522 0 0 0 0 26205265.095909834 10195847.410111427 0 10195847.410111427 -9958756.148522377 0 0 0 0 -4482807.0931928158 -6735068.9106416702 0 -6735068.9106416702 13016508.258872032 0 0 0 0 -17030512.530102253 12210128.896781921 0 12210128.896781921 -17998279.550305367 0 0 0 0 -2708563.5331881046 -11423396.813456535 0 -11423396.813456535 5668674.3803691864 0 0 0 0 -18257116.510251284 5435662.2305212021 0 5435662.2305212021 -11830420.179704666 0 0 0 0 -3915750.3013187647 -2152007.5831975937 0 -2152007.5831975937 -13930254.842330217 0 0 0 0 -9390006.1782310009 7775797.892906189 0 7775797.892906189 -20383468.943266869 0 0 0 0 2369216.6102944342 -1237278.5551252565 0 -1237278.5551252565 2227210.6688857283 0 0 0 0 16344907.761226654 -19131059.026260376 0 -19131059.026260376 4816595.5958405733 0 0 0 0 52450822.332486153 -40952617.871975243 0 -40952617.871975243 798449629.65563738 0 0 0 0 8555356.1711406708 -27142149.05123578 0 -27142149.05123578 845376180.67110372 0 0 0 0 28715713.287801743 -29583049.883757249 0 -29583049.883757249 793917092.49194074 0 0 0 0 852139.27183280233 -53467.548471804243 0 -53467.548471804243 661517.44864836859 0 0 0 0 53407520.978693962 23104577.780806482 0 23104577.780806482 1009994410.0705768 0 0 0 0 -36918135.553342819 -174724245.77906072 0 -174724245.77906072 1465977914.2641771 0 0 0 0 144638591.55816174 -63213266.186800182 0 -63213266.186800182 484163483.23497009 0 0 0 0 148644327.19619644 -236658937.47699377 0 -236658937.47699377 766174442.03621733 0 0 0 0 135628630.63339734 -77051621.596907169 0 -77051621.596907169 760526008.56599998 0 0 0 0 90265338.137524128 7463219.8071580231 0 7463219.8071580231 486914238.72727942 0 0 0 0 124220606.9106741 -105824279.42202315 0 -105824279.42202315 739393575.29033148 0 0 0 0 163357015.18558741 -66239742.036251128 0 -66239742.036251128 407933541.25292027 0 0 0 0 71046171.586139932 131982766.53339975 0 131982766.53339975 226937718.65500396 0 0 0 0 143966630.8303709 -59580673.198203802 0 -59580673.198203802 485937663.1150924 0 0 0 0 227641310.38828087 3464437.9741125107 0 3464437.9741125107 143461702.67260861 0 0 0 0 -286628368.04015863 -26432855.237303972 0 -26432855.237303972 270809411.157938 0 0 0 0 454721.84347170359 1599028.4839160221 0 1599028.4839160221 2245262.9863172662 0 0 0 0 -32114444.375833586 248551921.3030338 0 248551921.3030338 -107986343.058846 0 0 0 0 -37878940.187121868 -62768538.916224837 0 -62768538.916224837 133341549.37181431 0 0 0 0 96766488.939391136 66681413.84966588 0 66681413.84966588 222856036.95361984 0 0 0 0 -65298084.316267967 -108948423.76590729 0 -108948423.76590729 88349352.815087736 0 0 0 0 16666393.157761335 -50480076.10140717 0 -50480076.10140717 493595447.98756886 0 0 0 0 -130836917.98394632 -94786612.616530418 0 -94786612.616530418 480523393.92592108 0 0 0 0 -44835568.543844223 -101989455.35979486 0 -101989455.35979486 744299832.27400565 0 0 0 0 -24886333.21522665 -102976639.65290439 0 -102976639.65290439 462287587.31363428 0 0 0 0 294133367.73249626 -143401929.4180541 0 -143401929.4180541 446052520.77251112 0 0 0 0 296149672.13377476 -432669086.62003541 0 -432669086.62003541 964722959.15715504 0 0 0 0 370346663.61032736 -81798421.470613241 0 -81798421.470613241 704641577.46099901 0 0 0 0 -63004199.886191964 -196926501.28477252 0 -196926501.28477252 668654815.85158539 0 0 0 0 -91861240.745100975 -172305242.55877256 0 -172305242.55877256 1018265858.2598298 0 0 0 0 -131526642.10462475 -160559661.28929687 0 -160559661.28929687 720135417.23396802 0 0 0 0 -112894434.58644867 -97650793.426109314 0 -97650793.426109314 516118900.92777538 0 0 0 0 -68280201.662283897 -192151747.1744051 0 -192151747.1744051 627804779.51867223 0 0 0 0 -9281642.6076751351 -158389440.77548289 0 -158389440.77548289 505984518.78554201 0 0 0 0 545381.97050553956 1076646.4767942911 0 1076646.4767942911 1623340.6666098647 0 0 0 0 -37194042.410415739 -162011457.65963393 0 -162011457.65963393 506574722.5776248 0 0 0 0 -6158628.2679443359 3864074.2408380508 0 3864074.2408380508 166269618.47258228 0 0 0 0 -32452032.055406213 -190713395.17089283 0 -190713395.17089283 429440367.10447216 0 0 0 0 360768269.72423172 -612198595.95065784 0 -612198595.95065784 -61532255.304497719 0 0 0 0 121871160.25454283 -532490823.24523401 0 -532490823.24523401 1047983566.5529034 0 0 0 0 -2228.5384149813908 259249.10482753976 0 259249.10482753976 683493.62471926771 0 0 0 0 184780096.56299782 -369941201.21084166 0 -369941201.21084166 734729534.13081861 0 0 0 0 260180331.76962972 -135926553.96069622 0 -135926553.96069622 -215115890.15049171 0 0 0 0 287794641.16057825 -12647021.991492748 0 -12647021.991492748 -121372854.17680836 0 0 0 0 -126958.63862066268 260012.2365864286 0 260012.2365864286 2790860.2084769448 0 0 0 0 -385753507.12905771 34815091.635084152 0 34815091.635084152 118938917.98817825 0 0 0 0 -86254879.260912895 157687048.68151474 0 157687048.68151474 33403231.074261844 0 0 0 0 -72906256.656882405 -124390996.73638582 0 -124390996.73638582 -55971046.774648666 0 0 0 0 -20027980.933934927 -34726615.841671467 0 -34726615.841671467 -85871283.204800367 0 0 0 0 -18260776.322144486 -71770586.860477731 0 -71770586.860477731 581756589.08754539 0 0 0 0 -377672366.86052811 7882378.5461626053 0 7882378.5461626053 201221271.53474331 0 0 0 0 -89210.316120909018 344585.35060781334 0 344585.35060781334 2133615.7001517122 0 0 0 0 460935420.52269793 750846062.73316956 0 750846062.73316956 -92646974.936688423 0 0 0 0 877062.86268751579 1826032.0238985594 0 1826032.0238985594 2347434.6610372914 0 0 0 0 -154862555.15122509 139875754.95174021 0 139875754.95174021 193301975.5862242 0 0 0 0 185778811.31890512 -404607708.14727259 0 -404607708.14727259 -22320297.804107428 0 0 0 0 384242335.60618496 383394904.81850529 0 383394904.81850529 316972959.15197229 0 0 0 0 165509.27534700706 409167.91475501808 0 409167.91475501808 1468107.5008325521 0 0 0 0 680460482.59686613 187473613.97267461 0 187473613.97267461 29651227.417104721 0 0 0 0 -369286183.77065563 -283665715.6600101 0 -283665715.6600101 497782369.44280636 0 0 0 0 59957923.078009203 -296611311.29538959 0 -296611311.29538959 256561235.80483961 0 0 0 0 -200250066.62006533 -22838826.02838099 0 -22838826.02838099 38193978.146028996 0 0 0 0 297327370.55097365 268239078.47450972 0 268239078.47450972 57249165.265075684 0 0 0 0 336640734.66876745 37206520.791372299 0 37206520.791372299 -5067807.3095636368 0 0 0 0 104157208.59141588 16488259.596633911 0 16488259.596633911 27754794.239649773 0 0 0 0 94416127.283183098 39445378.622961998 0 39445378.622961998 65287396.598742485 0 0 0 0 -300030260.31380701 44228569.746266961 0 44228569.746266961 168791032.22605467 0 0 0 0 620575.35284546355 1666522.4082263038 0 1666522.4082263038 3927654.5618665675 0 0 0 0 102801344.63237834 25764097.232569218 0 25764097.232569218 11806391.790500641 0 0 0 0 98137443.050102234 -10445844.819963455 0 -10445844.819963455 13296160.242446899 0 0 0 0 -405241.96429401939 -57222.135199127719 0 -57222.135199127719 594481.38505332265 0 0 0 0 -177318719.53827345 72854428.176249743 0 72854428.176249743 -117290726.54564546 0 0 0 0 74453811.891776562 116403663.17457294 0 116403663.17457294 -57998972.752736092 0 0 0 0 75244573.558705091 276973049.7875948 0 276973049.7875948 46875607.470039845 0 0 0 0 78764971.57144022 210668548.42516327 0 210668548.42516327 220713491.729743 0 0 0 0 -954493.09476494789 27633977.242506981 0 27633977.242506981 478119063.12592602 0 0 0 0 104421828.07571411 102598216.2549839 0 102598216.2549839 184592860.99225521 0 0 0 0 98046457.485175014 216329718.74971104 0 216329718.74971104 95079465.021081924 0 0 0 0 1952.0731169364703 266723.66283965076 0 266723.66283965076 821668.91484361235 0 0 0 0 -25795486.203462251 287647500.05587244 0 287647500.05587244 241142782.05298615 0 0 0 0 116744385.46041338 -166520202.27088976 0 -166520202.27088976 213355858.58366013 0 0 0 0 -82270883.967419475 296533713.58163977 0 296533713.58163977 568855307.64188194 0 0 0 0 284423559.90682727 -153493958.95796824 0 -153493958.95796824 8284488.2124595642 0 0 0 0 5150312.5497095585 124448081.29438591 0 124448081.29438591 -126440197.38568783 0 0 0 0 2338357.5776534379 11401701.059799194 0 11401701.059799194 103887059.17521095 0 0 0 0 81143181.293889046 -13960596.315858841 0 -13960596.315858841 112033957.11263084 0 0 0 0 -111103398.64995085 53110217.37003231 0 53110217.37003231 -25991416.119381905 0 0 0 0 80072704.571958303 -63133007.254309654 0 -63133007.254309654 31348437.705345154 0 0 0 0 -9038708.6515879631 12962884.84139061 0 12962884.84139061 -345899.95222663879 0 0 0 0 90363687.139120102 -8275989.9233055115 0 -8275989.9233055115 -50206693.709339142 0 0 0 0 127702200.88263667 -14121113.424864292 0 -14121113.424864292 -73474825.676277161 0 0 0 0 32463550.57172443 54322430.558402061 0 54322430.558402061 85953117.437779427 0 0 0 0 492669.15169342456 667762.74029414426 0 667762.74029414426 -892890.89724056609 0 0 0 0 -177502390.32199204 149069560.16807461 0 149069560.16807461 -20939626.399793625 0 0 0 0 2926142.147285223 6234223.1468982697 0 6234223.1468982697 -4347038.9063434601 0 0 0 0 1375714.9377849991 2178643.5473938109 0 2178643.5473938109 -203437.67603780329 0 0 0 0 66866889.008171082 -36068374.236462116 0 -36068374.236462116 22318700.398532867 0 0 0 0 64203476.341810226 -33277066.240103722 0 -33277066.240103722 20459831.87770462 0 0 0 0 75071279.584447861 -7618864.5423340797 0 -7618864.5423340797 39627579.334568024 0 0 0 0 49254701.296677589 -22160166.119532585 0 -22160166.119532585 31736317.067544937 0 0 0 0 98000102.464317292 14547532.04930165 0 14547532.04930165 36343625.04649353 0 0 0 0 102804415.41198921 -59059534.752692223 0 -59059534.752692223 18377093.711448669 0 0 0 0 475069.06771417987 387304.99884401262 0 387304.99884401262 -443578.38265764527 0 0 0 0 63999085.750445366 -64690243.941318512 0 -64690243.941318512 31206211.253170013 0 0 0 0 33912348.211782455 -6177257.3524169922 0 -6177257.3524169922 41138955.68764019 0 0 0 0 53038992.52233845 -45380904.551566243 0 -45380904.551566243 17350075.251636505 0 0 0 0 -258527.71657085419 979307.72295856476 0 979307.72295856476 467650.13004684448 0 0 0 0 826360.05926239491 15917915.719474405 0 15917915.719474405 -9679655.4142379761 0 0 0 0 -191626995.55757427 297828631.48519337 0 297828631.48519337 -99418763.744814038 0 0 0 0 1683696.3734822203 2712762.0422302159 0 2712762.0422302159 4641618.5452639936 0 0 0 0 -242375720.35996401 147492991.36971664 0 147492991.36971664 -11305588.941481113 0 0 0 0 -21797203.917201042 141304064.58513111 0 141304064.58513111 -61239563.822333217 0 0 0 0 66633824.055151939 95054866.167339802 0 95054866.167339802 -256086778.54147315 0 0 0 0 305761378.96969604 120989727.11536518 0 120989727.11536518 -107562850.22490169 0 0 0 0 29367446.219193459 122638526.20953268 0 122638526.20953268 -105805131.71349227 0 0 0 0 -41833706.182430744 195982600.50710437 0 195982600.50710437 226968021.09721637 0 0 0 0 -12078317.589371681 83548345.145292282 0 83548345.145292282 -183365397.92384911 0 0 0 0 3850666.4464323297 4150528.1520639583 0 4150528.1520639583 4450706.9923415864 0 0 0 0 1488735.9517359734 224174491.58231878 0 224174491.58231878 -253264296.91149753 0 0 0 0 58961658.417212486 27920008.723351955 0 27920008.723351955 -140557456.02263737 0 0 0 0 52920970.078355789 -31181133.616133213 0 -31181133.616133213 -204254099.61309981 0 0 0 0 203171766.70457363 79518935.524149537 0 79518935.524149537 -199606160.31145132 0 0 0 0 30896351.672693253 15813616.434196949 0 15813616.434196949 -151938070.30156469 0 0 0 0 -31958611.38237381 -206470518.06462479 0 -206470518.06462479 -215100468.69968849 0 0 0 0 -68455352.811473846 -165412481.85256743 0 -165412481.85256743 10742948.918128639 0 0 0 0 32203736.664239883 -27717592.776581883 0 -27717592.776581883 -199187029.25353682 0 0 0 0 174413797.72121811 -13492554.390697241 0 -13492554.390697241 -239507896.88444221 0 0 0 0 27927553.353823334 -161833704.42994151 0 -161833704.42994151 -300859577.47106695 0 0 0 0 -32661423.13487339 -47617284.912136465 0 -47617284.912136465 -166582506.46353203 0 0 0 0 2977622.4213829041 -108148328.00134946 0 -108148328.00134946 -64100424.230885804 0 0 0 0 225998722.62343216 -178100379.04126215 0 -178100379.04126215 -46985529.486526921 0 0 0 0 156063193.19218588 28320112.832250327 0 28320112.832250327 83595218.357998833 0 0 0 0 112403016.23990726 -6361733.0246869922 0 -6361733.0246869922 -115926074.98593211 0 0 0 0 270123449.70143318 66987317.575754389 0 66987317.575754389 -110656965.4929353 0 0 0 0 665434621.93982744 161241615.82633731 0 161241615.82633731 87015213.436055824 0 0 0 0 100961548.96125364 -143532866.67616034 0 -143532866.67616034 426550431.48361808 0 0 0 0 6803917.4454329014 -676433.75190184824 0 -676433.75190184824 237825644.75092506 0 0 0 0 245463654.21200609 225504422.63993958 0 225504422.63993958 253750939.83434147 0 0 0 0 272512376.77963638 173704863.01103204 0 173704863.01103204 -159247752.59356344 0 0 0 0 79841604.59774065 -342015438.85078585 0 -342015438.85078585 745067078.42749977 0 0 0 0 35298.253760557389 591277.23620386911 0 591277.23620386911 973987.97436944814 0 0 0 0 13565396.085585855 -55409052.571748286 0 -55409052.571748286 271312900.12073994 0 0 0 0 -198214558.84429556 -97073067.651451111 0 -97073067.651451111 365702349.69547379 0 0 0 0 -76438781.461256027 151897950.62865531 0 151897950.62865531 199876793.6634478 0 0 0 0 -187369994.59851289 120088966.85447899 0 120088966.85447899 204908342.06544578 0 0 0 0 33025350.632717848 -952681.66973035783 0 -952681.66973035783 219096996.62123454 0 0 0 0 46412249.392030716 245819106.66506535 0 245819106.66506535 724810019.51614225 0 0 0 0 -25081542.644298553 -15567968.088531017 0 -15567968.088531017 59409517.929775238 0 0 0 0 609993.34254646301 17512464.48277092 0 17512464.48277092 -7797106.0377750397 0 0 0 0 15605962.027890086 -51696010.931230545 0 -51696010.931230545 2043098.4258785248 0 0 0 0 -6078650.3246038333 -2714390.3486309052 0 -2714390.3486309052 18539041.982344627 0 0 0 0 -2827909.4557811073 -1999655.7652384425 0 -1999655.7652384425 1330152.1703362565 0 0 0 0 -4078825.6087203026 -2529590.1360435486 0 -2529590.1360435486 12204232.426696777 0 0 0 0 -1113553.8388709724 -446771.40943908691 0 -446771.40943908691 11091842.703577042 0 0 0 0 27622044.91834259 -75581769.844520569 0 -75581769.844520569 55807486.421649933 0 0 0 0 -23986889.654752731 -566397.37852287292 0 -566397.37852287292 47779632.041599274 0 0 0 0 -4547936.0935294945 -2743769.4641230265 0 -2743769.4641230265 4365127.1067417134 0 0 0 0 236265.45639647124 1075407.8751196037 0 1075407.8751196037 6050437.6881039208 0 0 0 0 -55710288.616816521 -59296177.348455429 0 -59296177.348455429 67117822.328178406 0 0 0 0 52762681.803072691 -26472992.400028467 0 -26472992.400028467 -8187118.590965271 0 0 0 0 -6852730.9217791557 29944670.55689764 0 29944670.55689764 -10217622.315008163 0 0 0 0 70894736.498393536 -84533632.766288519 0 -84533632.766288519 66056840.474721909 0 0 0 0 1755432.1048848317 1326028.0116171446 0 1326028.0116171446 2683809.9521455131 0 0 0 0 14371334.263836861 -19312395.930306435 0 -19312395.930306435 70323084.81583786 0 0 0 0 44256099.224856377 -27884827.394304276 0 -27884827.394304276 67355872.531208038 0 0 0 0 -61740625.619524002 25876943.178617477 0 25876943.178617477 43116876.06867981 0 0 0 0 14654665.590952873 -19393173.171195507 0 -19393173.171195507 65666767.529598236 0 0 0 0 -34721016.335486412 15966697.433694839 0 15966697.433694839 67512454.910655975 0 0 0 0 -21193497.586738586 2294918.6790122986 0 2294918.6790122986 90323821.472597122 0 0 0 0 -5853392.2475886345 -23025441.344384193 0 -23025441.344384193 104976843.022686 0 0 0 0 75970355.212400198 -106962881.8336153 0 -106962881.8336153 129981871.46205902 0 0 0 0 -4134619.0697221756 -49263401.292154312 0 -49263401.292154312 120235006.80949616 0 0 0 0 1732980.6269031211 1129321.2253996665 0 1129321.2253996665 1328922.704395202 0 0 0 0 -77657751.273745537 35559787.840667725 0 35559787.840667725 -5392655.5844519138 0 0 0 0 -57889151.015319109 -9801066.5395317078 0 -9801066.5395317078 44482103.132694244 0 0 0 0 -68070902.134624004 94419848.394566536 0 94419848.394566536 -26277712.442108631 0 0 0 0 -57246058.883190632 48039485.863594055 0 48039485.863594055 42303541.580631256 0 0 0 0 64733806.864760399 126310765.79313946 0 126310765.79313946 92448572.88419342 0 0 0 0 66953908.133380279 141131467.11190689 0 141131467.11190689 44191618.945610046 0 0 0 0 -249850219.38861322 -157217386.6878643 0 -157217386.6878643 80494766.336074829 0 0 0 0 -174471034.48369956 213954147.55753613 0 213954147.55753613 660982923.66279221 0 0 0 0 -102207809.71867466 -12636380.685575485 0 -12636380.685575485 191991770.84904194 0 0 0 0 -103102359.16391182 -52505084.538607597 0 -52505084.538607597 6563825.0209827423 0 0 0 0 -48198728.753951132 47902872.021146774 0 47902872.021146774 6247936.7700557709 0 0 0 0 1579918.7175589181 1373159.0246136503 0 1373159.0246136503 307444.72230225243 0 0 0 0 285434796.89408225 113452173.32185078 0 113452173.32185078 -37595402.70006752 0 0 0 0 121129110.22191107 -37150088.164464951 0 -37150088.164464951 -42153503.97205019 0 0 0 0 422911938.16595876 351373254.02663231 0 351373254.02663231 167715803.83092403 0 0 0 0 -259260.80720161961 -359876.04885794502 0 -359876.04885794502 54788.24080496328 0 0 0 0 -207865626.14336571 -392315990.81118011 0 -392315990.81118011 258372041.4116478 0 0 0 0 750224857.6618042 313875176.15500641 0 313875176.15500641 564150887.80884933 0 0 0 0 409467639.49133265 35681639.579407692 0 35681639.579407692 -29900228.524414062 0 0 0 0 762906.15953203 423250.31395314191 0 423250.31395314191 -102176.46457176004 0 0 0 0 -51809558.510364562 223350088.22844696 0 223350088.22844696 39244956.411466599 0 0 0 0 102937855.84181018 169879063.10544777 0 169879063.10544777 -54139469.258485794 0 0 0 0 -66359784.684144057 172994630.14421797 0 172994630.14421797 230078100.44222641 0 0 0 0 -24093799.301688701 -67037561.47901535 0 -67037561.47901535 178213345.19875264 0 0 0 0 -54855461.255318537 4487989.1040892601 0 4487989.1040892601 41273965.936187744 0 0 0 0 -29950122.401002876 115839661.86825514 0 115839661.86825514 -41676515.490245819 0 0 0 0 -25027523.158340305 -50899346.649004936 0 -50899346.649004936 48365158.776010513 0 0 0 0 -47645396.800184295 -29733243.394062996 0 -29733243.394062996 29926518.73156929 0 0 0 0 7193310.4040556028 -50271294.690363407 0 -50271294.690363407 13420676.345543861 0 0 0 0 50689751.943175562 -57810686.915039062 0 -57810686.915039062 47470055.942239761 0 0 0 0 -7279752.3187880516 -18356044.436305046 0 -18356044.436305046 21887408.237779617 0 0 0 0 -38527181.840215683 -91813119.79662466 0 -91813119.79662466 -13438396.016004562 0 0 0 0 -1303230.1456930223 -1136330.0119024205 0 -1136330.0119024205 324449.34556655539 0 0 0 0 -7898080.4730338715 3459912.8613185883 0 3459912.8613185883 4235008.0228090286 0 0 0 0 -37114268.202201657 -16878322.678030014 0 -16878322.678030014 1461153.603225708 0 0 0 0 -41414931.092749894 -21682299.026883125 0 -21682299.026883125 29387261.546052933 0 0 0 0 -37216381.989334896 536684.1021528244 0 536684.1021528244 12791165.920591354 0 0 0 0 -9062252.1944019571 -30948260.401580811 0 -30948260.401580811 29458742.458345413 0 0 0 0 -50304.087147168808 5438.0236346884631 0 5438.0236346884631 38680.733787225094 0 0 0 0 15669284.022096511 -5011184.5570631027 0 -5011184.5570631027 5615482.8280448914 0 0 0 0 5604957.3122661486 -12125279.74722743 0 -12125279.74722743 7417541.1988601685 0 0 0 0 -93944.332483630264 16344.240617475007 0 16344.240617475007 81286.754436219111 0 0 0 0 -14369006.802687736 -26364313.000026703 0 -26364313.000026703 10354004.108514786 0 0 0 0 -2157396.0980528742 -6400341.637178421 0 -6400341.637178421 14150952.620366096 0 0 0 0 6846827.1345559657 -19198279.784681797 0 -19198279.784681797 -2720389.4338207245 0 0 0 0 18460104.830282405 -111637.14784741402 0 -111637.14784741402 14659668.72262764 0 0 0 0 -35708647.308781043 -33393138.287359953 0 -33393138.287359953 15237972.890184402 0 0 0 0 -6250523.0988695994 -36287680.541543961 0 -36287680.541543961 584958.70915412903 0 0 0 0 -7536866.1604602896 -36084586.312247276 0 -36084586.312247276 23007423.358877182 0 0 0 0 -5320383.5188049907 -24445946.720129967 0 -24445946.720129967 9746673.35160923 0 0 0 0 -4415442.9389751777 -27186437.08751297 0 -27186437.08751297 3754519.639387846 0 0 0 0 -7078750.6495177476 -38400010.155145168 0 -38400010.155145168 -24741304.960433006 0 0 0 0 -267345876.67327422 -210955085.47624731 0 -210955085.47624731 -111260976.22016907 0 0 0 0 -35611978.332029931 -7165264.0426950455 0 -7165264.0426950455 -5649945.692969799 0 0 0 0 14050997.383483406 -27392737.022482395 0 -27392737.022482395 -12230019.61307621 0 0 0 0 55617278.357813179 181517331.98314309 0 181517331.98314309 227197815.81113911 0 0 0 0 763292.09969159111 -73007.22175480891 0 -73007.22175480891 184869.72043110605 0 0 0 0 39548633.854969025 -89854083.523915291 0 -89854083.523915291 -3947289.7977967262 0 0 0 0 -107895949.52779835 235114927.12938309 0 235114927.12938309 735772307.39696884 0 0 0 0 -20059639.612106681 565438502.89159107 0 565438502.89159107 496950180.60828972 0 0 0 0 544585550.90021431 72287997.100847244 0 72287997.100847244 -785161233.10073471 0 0 0 0 4641934.5729567558 178362.22487592697 0 178362.22487592697 31122307.56344986 0 0 0 0 3864491.0611522794 -3727422.7616186142 0 -3727422.7616186142 29720195.967579365 0 0 0 0 35941876.970651381 10380721.719404221 0 10380721.719404221 13675771.555295467 0 0 0 0 1393982.7423150691 311728.56754848082 0 311728.56754848082 736329.37702428317 0 0 0 0 3735314.3831287324 6119232.9358768463 0 6119232.9358768463 54827881.244194984 0 0 0 0 404213347.99967241 -244982138.18346691 0 -244982138.18346691 -226946849.98956943 0 0 0 0 -36746042.134281695 18751122.37981987 0 18751122.37981987 110830357.54967999 0 0 0 0 499742.10615875677 675850.68763744319 0 675850.68763744319 1794583.3280901778 0 0 0 0 -294989.48009765148 -1565715.5410985947 0 -1565715.5410985947 41451150.263221622 0 0 0 0 2328019.490929544 -3412217.7496490479 0 -3412217.7496490479 33894499.672739029 0 0 0 0 1348335.8600822687 -8176114.0166654587 0 -8176114.0166654587 33811019.738889158 0 0 0 0 5802289.7286033779 -4742980.071488142 0 -4742980.071488142 19697735.546690941 0 0 0 0 3760327.1654964089 -3921420.5368270874 0 -3921420.5368270874 19506208.095395565 0 0 0 0 -85571.428538161214 26842.778011675924 0 26842.778011675924 90041.646040888503 0 0 0 0 -3793741.3271952718 -1703568.286486268 0 -1703568.286486268 10855146.570426941 0 0 0 0 -2276380.3124808371 -2390638.136100769 0 -2390638.136100769 11050451.025026321 0 0 0 0 8986335.8361818641 -7561473.7692275047 0 -7561473.7692275047 9128965.6912403107 0 0 0 0 3082569.2764956057 -9752183.5157575607 0 -9752183.5157575607 18601427.987848192 0 0 0 0 -3105236.9884918928 -1191087.4399623871 0 -1191087.4399623871 12002088.954745293 0 0 0 0 -5970424.4129161239 -3028088.6836237907 0 -3028088.6836237907 14516271.124908447 0 0 0 0 -4489359.5315127969 -2050072.7840061188 0 -2050072.7840061188 11725785.050989151 0 0 0 0 -3896710.3690890223 -2174552.0804462433 0 -2174552.0804462433 11599929.588256836 0 0 0 0 -6586301.2089813352 6841755.4066343307 0 6841755.4066343307 1137279.5883483887 0 0 0 0 -43328.088062792202 16500.977199308109 0 16500.977199308109 48844.253460173029 0 0 0 0 -7627338.3758601546 3188351.9393777847 0 3188351.9393777847 19021355.215183258 0 0 0 0 -5737879.9535860419 -1152594.5618801117 0 -1152594.5618801117 25855673.606313705 0 0 0 0 -1753640.2425456047 253469.15204620361 0 253469.15204620361 26206103.558427811 0 0 0 0 -4818092.8617219329 599737.2539601326 0 599737.2539601326 33509728.427967072 0 0 0 0 -2278752.6657088995 -3746027.7147731781 0 -3746027.7147731781 37905519.516547203 0 0 0 0 1083138.2146293148 -9449956.6196814775 0 -9449956.6196814775 42211853.443624496 0 0 0 0 2158095.5359407365 -3389225.0861725807 0 -3389225.0861725807 36874511.536296844 0 0 0 0 96522752.645591736 -22864516.586242676 0 -22864516.586242676 106514877.38207436 0 0 0 0 -1135317.8176232134 620966.38476260612 0 620966.38476260612 3927508.572845866 0 0 0 0 -2132200.9841729999 -4820277.167014122 0 -4820277.167014122 40252834.613893509 0 0 0 0 -1810376.063092351 -1880088.4995810986 0 -1880088.4995810986 30495177.248250961 0 0 0 0 -800300.36282527447 -6468770.3814630508 0 -6468770.3814630508 35655874.038681507 0 0 0 0 -2925821.8073122501 -4943997.7094154358 0 -4943997.7094154358 39660618.243701935 0 0 0 0 168607396.24390078 -176991334.96663284 0 -176991334.96663284 94038503.194499969 0 0 0 0 -432002.85416475311 -1321672.144310656 0 -1321672.144310656 2552677.9761720207 0 0 0 0 3326251.0436954498 -12680181.641805649 0 -12680181.641805649 44641857.798509598 0 0 0 0 16964330.849740028 -26379854.58698082 0 -26379854.58698082 38361222.220420837 0 0 0 0 85691530.866550297 -238717416.33106303 0 -238717416.33106303 192674259.21692276 0 0 0 0 92807448.12817055 -199453393.05557942 0 -199453393.05557942 148743146.48418808 0 0 0 0 164283099.16322136 -161443093.56778717 0 -161443093.56778717 141204171.86866832 0 0 0 0 30250096.647252321 -78338574.771171331 0 -78338574.771171331 111405374.48914337 0 0 0 0 70280717.690069795 -60534728.197455704 0 -60534728.197455704 212288759.78803635 0 0 0 0 -377917.23755265924 -469659.63104610052 0 -469659.63104610052 1021680.9040238839 0 0 0 0 69465359.809252501 -93312233.292332649 0 -93312233.292332649 131106376.8301748 0 0 0 0 -34947144.356354237 25157715.800607681 0 25157715.800607681 145488908.13010693 0 0 0 0 -69789724.176011324 -42710117.332502365 0 -42710117.332502365 273579899.74064255 0 0 0 0 -141532703.66083103 -19240821.491762161 0 -19240821.491762161 508929877.45308113 0 0 0 0 -50597399.770540953 -62740699.211784363 0 -62740699.211784363 267052872.21879482 0 0 0 0 -24844680.085181475 -104926045.8923645 0 -104926045.8923645 281026630.3825264 0 0 0 0 -150822358.32053137 101449650.22044659 0 101449650.22044659 236832939.60157585 0 0 0 0 -184414901.42142749 -464322968.92908955 0 -464322968.92908955 848779751.22003555 0 0 0 0 -125119985.18460554 -321363238.99696827 0 -321363238.99696827 428868005.02681351 0 0 0 0 -174474123.49199212 -394930585.91553354 0 -394930585.91553354 447810069.08638 0 0 0 0 -121142648.15093499 -271412987.57033539 0 -271412987.57033539 498083117.72823322 0 0 0 0 -24514601.313275337 -254751216.54753494 0 -254751216.54753494 361549723.38431168 0 0 0 0 -1550944.4919734001 -197754225.89029694 0 -197754225.89029694 223636300.44881153 0 0 0 0 -39353275.318937182 -314936448.59263229 0 -314936448.59263229 276056229.10809708 0 0 0 0 75314819.500476599 -360466498.26746368 0 -360466498.26746368 106396636.66996765 0 0 0 0 56282382.756073773 -378456650.79964828 0 -378456650.79964828 275333544.50350332 0 0 0 0 199988333.46918058 -346341755.93455124 0 -346341755.93455124 103909356.32391739 0 0 0 0 -26336400.178681374 -585014243.88007927 0 -585014243.88007927 161406408.78369904 0 0 0 0 -18865491.288497448 -480832693.2385788 0 -480832693.2385788 140978554.22938919 0 0 0 0 -37431915.303276777 -487900447.5120697 0 -487900447.5120697 456501573.18240237 0 0 0 0 49128710.552287817 -488485461.35805702 0 -488485461.35805702 134787573.8522892 0 0 0 0 49918699.200369835 -491795490.82336998 0 -491795490.82336998 32555537.320232391 0 0 0 0 -49405412.634318829 -570868761.17625618 0 -570868761.17625618 64076868.804798126 0 0 0 0 -37528413.902079582 -518459136.34577179 0 -518459136.34577179 164021429.67406845 0 0 0 0 72719651.70814845 -476835486.58536911 0 -476835486.58536911 -48479390.442293167 0 0 0 0 41608487.74725008 -537286141.40813637 0 -537286141.40813637 -68674456.779720306 0 0 0 0 -134426409.2117672 -377130752.93333817 0 -377130752.93333817 -23240257.305840492 0 0 0 0 153473358.36540335 -372066286.96940613 0 -372066286.96940613 23803303.657944679 0 0 0 0 187554733.78529847 -370785533.82410049 0 -370785533.82410049 74712899.135410309 0 0 0 0 230451594.78926849 -371881755.76601791 0 -371881755.76601791 13835714.354076385 0 0 0 0 156556131.60574347 -450583335.41091919 0 -450583335.41091919 -9796037.9663047791 0 0 0 0 320168317.42670202 -333672193.33468246 0 -333672193.33468246 12733346.739276588 0 0 0 0 244151615.3908596 -346165228.35281944 0 -346165228.35281944 48265000.413608551 0 0 0 0 305832378.03296947 -241074949.95828247 0 -241074949.95828247 8484374.2679166794 0 0 0 0 260354620.29377222 -247956877.42743874 0 -247956877.42743874 42255509.576389313 0 0 0 0 425893753.72446489 -228053601.23408318 0 -228053601.23408318 4581494.3789024353 0 0 0 0 273280889.1913414 -109897810.44406128 0 -109897810.44406128 -1002373.3964157104 0 0 0 0 350739812.84709883 -152341316.71239281 0 -152341316.71239281 10853295.911388397 0 0 0 0 219577062.5434761 -145048470.57032967 0 -145048470.57032967 39811283.524191856 0 0 0 0 224981411.33100939 -178191460.3980999 0 -178191460.3980999 90470335.74656868 0 0 0 0 141770100.91601992 -245429489.67092896 0 -245429489.67092896 130560507.88837051 0 0 0 0 143747770.6984868 -287836708.04199028 0 -287836708.04199028 179034022.05705786 0 0 0 0 210705782.81158882 -233101986.41610861 0 -233101986.41610861 64540405.85490036 0 0 0 0 797873979.48602307 4133911.3601999283 0 4133911.3601999283 492463196.89395523 0 0 0 0 -12803547.7958076 -615496187.43172836 0 -615496187.43172836 1337496268.9356422 0 0 0 0 -289224059.09006816 162548245.86936879 0 162548245.86936879 1465456648.6167641 0 0 0 0 305288424.07412344 -460832548.280123 0 -460832548.280123 1257017250.0946312 0 0 0 0 -290603200.94314253 273870075.35852981 0 273870075.35852981 780679775.92060089 0 0 0 0 -30312.521561762172 175148.44096650626 0 175148.44096650626 1480190.3904265626 0 0 0 0 -292265387.4761591 -114668024.83164692 0 -114668024.83164692 693337423.00352669 0 0 0 0 -205986738.81229401 -449563801.09638119 0 -449563801.09638119 610283249.80694962 0 0 0 0 -351790594.87167764 -64195476.055856466 0 -64195476.055856466 1165986816.0919971 0 0 0 0 -160104951.5915972 -36527842.788673401 0 -36527842.788673401 623952571.65017486 0 0 0 0 -196724770.83332455 -280976509.02065754 0 -280976509.02065754 758371853.15377998 0 0 0 0 -432466108.47486496 -85771505.761593819 0 -85771505.761593819 1192466002.2413483 0 0 0 0 94129144.561674595 608907810.9783287 0 608907810.9783287 919883848.56494331 0 0 0 0 -257105.18030478089 -530784.59079253813 0 -530784.59079253813 1651691.0707710553 0 0 0 0 -440869471.39992261 -102253389.62886214 0 -102253389.62886214 1553542100.0793228 0 0 0 0 1092596266.3897815 -707109193.97093964 0 -707109193.97093964 290960473.44581985 0 0 0 0 -221378178.85874569 -506312938.06231737 0 -506312938.06231737 1231619284.3146896 0 0 0 0 894073643.63976264 420859578.51370478 0 420859578.51370478 445822870.90680695 0 0 0 0 -314102878.61764908 -121569288.04624939 0 -121569288.04624939 1764352342.7018051 0 0 0 0 -180561939.15335226 -158687845.09124374 0 -158687845.09124374 642020774.85094261 0 0 0 0 -249849039.00106668 228927364.02893353 0 228927364.02893353 984073704.79312897 0 0 0 0 127746151.63091087 -932415191.90275955 0 -932415191.90275955 1311162132.6743126 0 0 0 0 -73930973.076644897 -523423512.60871983 0 -523423512.60871983 483930001.84233475 0 0 0 0 -94795589.363827705 -568833701.20829391 0 -568833701.20829391 482828471.35802996 0 0 0 0 145716990.73457181 -553132063.90451384 0 -553132063.90451384 136876945.24959946 0 0 0 0 -76018381.150627613 -145197594.69726944 0 -145197594.69726944 101041939.53677368 0 0 0 0 -532926026.93934178 65031323.774695396 0 65031323.774695396 74936887.770439148 0 0 0 0 -341269408.12000465 -575911619.31464767 0 -575911619.31464767 -38811790.156707764 0 0 0 0 -287424058.99970865 -475347962.63854218 0 -475347962.63854218 133452928.71638107 0 0 0 0 -55266201.758202553 -438692172.85613823 0 -438692172.85613823 -177302627.29915619 0 0 0 0 -771306327.14312625 -317490597.55805969 0 -317490597.55805969 40674169.442602158 0 0 0 0 -252532105.05090141 -404633176.23251152 0 -404633176.23251152 -6396762.4979782104 0 0 0 0 -133077843.74354839 -330987542.12155151 0 -330987542.12155151 -259579431.2404747 0 0 0 0 -263638156.68481839 -263492222.73243284 0 -263492222.73243284 -522810151.19489288 0 0 0 0 -740431141.5238421 -317834917.12971115 0 -317834917.12971115 -129650196.81345701 0 0 0 0 -78208252.484300852 15516413.358970642 0 15516413.358970642 18687791.949168205 0 0 0 0 -159187.33603384867 -2817468.3063121536 0 -2817468.3063121536 2084062.8295834707 0 0 0 0 -100183.87556876917 -340803.87955743354 0 -340803.87955743354 244112.12793451175 0 0 0 0 1461631.4614818618 8727383.5503256917 0 8727383.5503256917 40648763.350363731 0 0 0 0 -50195051.863637924 -143856177.73020935 0 -143856177.73020935 82983297.590854645 0 0 0 0 -925049.36452947604 -1604980.1978652563 0 -1604980.1978652563 4470816.7190071587 0 0 0 0 -1142104.8914656786 -2442168.532381963 0 -2442168.532381963 1039207.2567070762 0 0 0 0 -11567181.239131093 -145996025.94008636 0 -145996025.94008636 171069240.98958445 0 0 0 0 -28159539.525077581 49697903.357289791 0 49697903.357289791 23546711.766674042 0 0 0 0 -7893644.9073782861 47592658.831087112 0 47592658.831087112 -56608126.657938004 0 0 0 0 36523718.306069493 -42173584.204328537 0 -42173584.204328537 13954747.94332695 0 0 0 0 97468816.839024544 5595255.1896314621 0 5595255.1896314621 48160825.383216858 0 0 0 0 34290652.726405174 54038049.333224833 0 54038049.333224833 -87573797.675350189 0 0 0 0 305037507.03210777 79701794.041752338 0 79701794.041752338 -267069252.28127337 0 0 0 0 198819.19297737218 -1989042.4235556091 0 -1989042.4235556091 320465.57718492229 0 0 0 0 176674778.57804298 -122044345.61864853 0 -122044345.61864853 176383626.56838608 0 0 0 0 119950150.24998116 -137710723.10984802 0 -137710723.10984802 197928200.76581573 0 0 0 0 132905870.55006158 -104279786.49254727 0 -104279786.49254727 101421807.25701523 0 0 0 0 274656227.89696121 -135699027.45573044 0 -135699027.45573044 144820508.02322388 0 0 0 0 192035825.06993222 -178985663.47585487 0 -178985663.47585487 153643312.76278305 0 0 0 0 132918778.49252033 -96925358.812140316 0 -96925358.812140316 160042107.98174286 0 0 0 0 84305366.583157182 -110162679.52905083 0 -110162679.52905083 182504266.64889145 0 0 0 0 70108261.027323514 -18833538.729236007 0 -18833538.729236007 64488045.840847015 0 0 0 0 -31715265.870411038 46403998.415803909 0 46403998.415803909 27816131.352558136 0 0 0 0 48857585.905409649 -45626003.680864468 0 -45626003.680864468 6175579.0470790863 0 0 0 0 21758910.847931325 -37274190.391641617 0 -37274190.391641617 67839316.600258827 0 0 0 0 47391296.234783411 -99850219.232145309 0 -99850219.232145309 150110682.48110008 0 0 0 0 -13482282.068106115 -102768757.64147854 0 -102768757.64147854 117937748.39071655 0 0 0 0 -1347337983.4518671 -413048863.54209232 0 -413048863.54209232 285298541.06588364 0 0 0 0 -382688.04195658671 -1616878.5429862845 0 -1616878.5429862845 2662779.3283484783 0 0 0 0 -569145783.653512 -414222975.82581711 0 -414222975.82581711 11060946.992534637 0 0 0 0 -282029719.67661905 -387334012.67619133 0 -387334012.67619133 -76498992.417163849 0 0 0 0 -690549517.90241575 -33380961.608794212 0 -33380961.608794212 112368404.2793541 0 0 0 0 -541328905.41007066 -14973319.381559372 0 -14973319.381559372 -125759211.47626495 0 0 0 0 -562570977.81411242 191881559.81169248 0 191881559.81169248 1011654265.1453362 0 0 0 0 -1085344559.2243323 348726446.78684044 0 348726446.78684044 2200741465.3675404 0 0 0 0 466326542.26810443 -932132834.2587111 0 -932132834.2587111 2151640035.4786987 0 0 0 0 -821901964.17341614 839672870.22426414 0 839672870.22426414 1071505090.4119759 0 0 0 0 -423819.85235054581 -688653.05543327786 0 -688653.05543327786 1320561.8308321666 0 0 0 0 96344403.846062124 -72804908.425566673 0 -72804908.425566673 94763551.369432449 0 0 0 0 161308562.97475684 -173879269.4621067 0 -173879269.4621067 132103248.36230516 0 0 0 0 -658700.13786638109 -436732.53220739774 0 -436732.53220739774 1620586.9184640124 0 0 0 0 78547297.578929275 -834913492.14384556 0 -834913492.14384556 2200928896.878685 0 0 0 0 152847358.15889207 -117064242.74771738 0 -117064242.74771738 116233925.82035065 0 0 0 0 -105777533.38399668 -293844887.71045017 0 -293844887.71045017 613626530.12314796 0 0 0 0 -452696.55986064021 -138871.30076637119 0 -138871.30076637119 1343436.5455180034 0 0 0 0 156277879.9871093 -182535944.09994316 0 -182535944.09994316 163036624.5580163 0 0 0 0 -212216119.88548288 313171414.25472689 0 313171414.25472689 641087592.90056229 0 0 0 0 -255128906.67651844 146557960.77875042 0 146557960.77875042 466576004.29320908 0 0 0 0 344116215.36597425 -366104029.5374527 0 -366104029.5374527 256836086.42412567 0 0 0 0 782948440.13682389 -521775955.0599556 0 -521775955.0599556 270616961.84936213 0 0 0 0 553356713.75496483 -273203060.12838364 0 -273203060.12838364 214007842.03578186 0 0 0 0 571903379.16494775 -191533424.14091301 0 -191533424.14091301 45543078.509117126 0 0 0 0 480712064.82912207 -123040502.88980961 0 -123040502.88980961 -16710229.02097702 0 0 0 0 408427907.24389768 -234942034.36215687 0 -234942034.36215687 34371228.801799774 0 0 0 0 535155210.28431273 -384608812.85061646 0 -384608812.85061646 104480455.96866608 0 0 0 0 389378839.12912333 -292799788.08185768 0 -292799788.08185768 46682082.337211609 0 0 0 0 341930203.7625922 -349404771.92520428 0 -349404771.92520428 14139372.060146332 0 0 0 0 331022525.34899437 -301120817.18260574 0 -301120817.18260574 117406550.28103256 0 0 0 0 207109572.33320969 -426684503.11184883 0 -426684503.11184883 28418917.687889099 0 0 0 0 351667420.40523386 -406411750.02231121 0 -406411750.02231121 6300479.9154281616 0 0 0 0 -237176722.94566226 -282855551.07299614 0 -282855551.07299614 85011025.822523117 0 0 0 0 -197743063.78029478 -389655317.31189442 0 -389655317.31189442 306314708.19739151 0 0 0 0 179659725.32417876 -518633408.30878353 0 -518633408.30878353 186322668.80144882 0 0 0 0 -94481328.297580004 -195271459.82770348 0 -195271459.82770348 418648855.38356495 0 0 0 0 120418799.35047039 -583627422.77430916 0 -583627422.77430916 1070357145.8307629 0 0 0 0 -736407581.29399192 136707492.63799858 0 136707492.63799858 1060968011.2908907 0 0 0 0 -579842512.17241263 -287620008.68759823 0 -287620008.68759823 2205942075.5280228 0 0 0 0 80469596.327858359 -523199772.7348423 0 -523199772.7348423 1075326801.4850597 0 0 0 0 276099363.13707817 -1018193029.9766936 0 -1018193029.9766936 2200264128.3377495 0 0 0 0 612634311.91785622 -212433413.92445278 0 -212433413.92445278 264248505.93732452 0 0 0 0 2242284277.0372009 -1075363593.7555075 0 -1075363593.7555075 533460477.19614029 0 0 0 0 285233191.08648944 1262586118.2257118 0 1262586118.2257118 2200506497.8044243 0 0 0 0 1008799593.4945028 1246937024.885498 0 1246937024.885498 1173161134.4293289 0 0 0 0 1502028.1932639494 -591183.02168423985 0 -591183.02168423985 2665601.9076563064 0 0 0 0 460889024.36207914 899803563.92699432 0 899803563.92699432 1253374413.5297318 0 0 0 0 -73589691.647131711 685563440.69262695 0 685563440.69262695 1680259884.5125542 0 0 0 0 -74432325.420702666 667213589.38183427 0 667213589.38183427 1607092149.7380829 0 0 0 0 -91452954.77235508 284640958.33937073 0 284640958.33937073 1225172538.1553307 0 0 0 0 216155926.80897331 620596938.30142212 0 620596938.30142212 1071534223.338974 0 0 0 0 149826493.79241025 396399131.08319092 0 396399131.08319092 506785244.86271667 0 0 0 0 208136556.22877982 295032290.39109802 0 295032290.39109802 584114319.21076202 0 0 0 0 46543142.74411203 544123504.46392155 0 544123504.46392155 904515307.36330414 0 0 0 0 208884.05823343882 123416.09356340754 0 123416.09356340754 -166746.38200064376 0 0 0 0 830074708.23952651 -160763207.99909878 0 -160763207.99909878 -226565839.27404785 0 0 0 0 795379345.03719795 753524435.57308197 0 753524435.57308197 738487653.34518433 0 0 0 0 664580801.4667232 486556779.43733978 0 486556779.43733978 196020361.32537079 0 0 0 0 372698157.60775948 -20232805.968566895 0 -20232805.968566895 -299081908.76002121 0 0 0 0 -132467532.55745411 -140336440.23428345 0 -140336440.23428345 73557538.03993988 0 0 0 0 725215892.71450472 -120067290.19675255 0 -120067290.19675255 15044260.175418854 0 0 0 0 1274219.7424433928 -1703520.8357075504 0 -1703520.8357075504 7488579.5491568632 0 0 0 0 984822.30065812822 -2046924.2286366941 0 -2046924.2286366941 -1457591.8242900595 0 0 0 0 126971308.71158785 99446329.47454834 0 99446329.47454834 177155765.67086792 0 0 0 0 -105100610.30526689 104629366.85924149 0 104629366.85924149 607775233.52068329 0 0 0 0 111941079.3824479 -3260192.799905777 0 -3260192.799905777 7955517.0383110046 0 0 0 0 62866108.235840589 35436845.91594696 0 35436845.91594696 -22037872.756126404 0 0 0 0 -368100.26193908748 -1530465.4531585686 0 -1530465.4531585686 1859943.3858267311 0 0 0 0 -10461715.394181609 5388401.2105674744 0 5388401.2105674744 12553826.621498108 0 0 0 0 2479758.1686496139 -2337893.6170654297 0 -2337893.6170654297 -38896382.980989456 0 0 0 0 1134956.839924121 -3498273.3211107999 0 -3498273.3211107999 4150497.4845164306 0 0 0 0 315204318.79459 -9534908.7499275208 0 -9534908.7499275208 5336856.40143466 0 0 0 0 181746043.66410422 -65591002.239668131 0 -65591002.239668131 54754812.173812866 0 0 0 0 1506732.8796629193 -2447011.3474950963 0 -2447011.3474950963 3502510.784810897 0 0 0 0 22155167.221185982 11047234.1393013 0 11047234.1393013 7712732.7650566101 0 0 0 0 30738571.152826205 -13825117.825876236 0 -13825117.825876236 9903616.5289611816 0 0 0 0 -10367217.803579092 -1316661.1639404297 0 -1316661.1639404297 22514507.624702454 0 0 0 0 509820.83184251189 -14318157.80496788 0 -14318157.80496788 37778041.190647125 0 0 0 0 -19988594.527456224 320845011.15430832 0 320845011.15430832 698382335.39482117 0 0 0 0 68291899.47988686 -77413678.702754974 0 -77413678.702754974 67429025.597171783 0 0 0 0 52576.818539825719 -141489.93491842225 0 -141489.93491842225 300756.61499262787 0 0 0 0 43767062.760583602 -2897312.5093793869 0 -2897312.5093793869 -9311846.9961776733 0 0 0 0 22062081.220602356 177318424.01348686 0 177318424.01348686 1251940135.2431526 0 0 0 0 -26161947.693741649 69075067.27495575 0 69075067.27495575 1009269361.5519257 0 0 0 0 -118976862.14814025 404135332.41385269 0 404135332.41385269 1313074219.9495087 0 0 0 0 -311496751.1715982 108068355.3809185 0 108068355.3809185 1476032036.1780396 0 0 0 0 -361917877.62678313 416201852.80762482 0 416201852.80762482 2206744611.8897567 0 0 0 0 -267234581.56106374 -209890144.22168732 0 -209890144.22168732 2199481795.4076996 0 0 0 0 -165191344.91279754 -514539745.54047775 0 -514539745.54047775 851577317.48858643 0 0 0 0 -267258.81255810219 -425489.0040703807 0 -425489.0040703807 1591756.8756216159 0 0 0 0 70426839.512859285 -389166298.64035225 0 -389166298.64035225 -14489724.82849884 0 0 0 0 192106997.97538713 724166216.41903687 0 724166216.41903687 2204526988.2420902 0 0 0 0 -118833629.01852983 146352696.03699493 0 146352696.03699493 393659446.91069794 0 0 0 0 -167898020.97146532 -81853287.720584869 0 -81853287.720584869 708371845.08843231 0 0 0 0 -195547538.37361842 67648722.309574127 0 67648722.309574127 845894282.22911072 0 0 0 0 -182168763.2133503 100412171.71795273 0 100412171.71795273 1038914753.3294086 0 0 0 0 63322819.919633448 232980467.43239212 0 232980467.43239212 887753338.46556091 0 0 0 0 -425023541.74171305 -362236405.1713686 0 -362236405.1713686 175097076.49511719 0 0 0 0 -137826273.80226648 160561419.37500286 0 160561419.37500286 1242313090.6656837 0 0 0 0 -162495478.96571064 108130320.87407589 0 108130320.87407589 886205479.59305954 0 0 0 0 -674143834.27344453 -145848.80840682983 0 -145848.80840682983 2204308724.3333702 0 0 0 0 -2321.5448888594401 -684456.46377573535 0 -684456.46377573535 1490331.392815372 0 0 0 0 -123146834.48398665 -38048543.566728592 0 -38048543.566728592 861511285.23497009 0 0 0 0 15784185.8334167 -51365856.064022064 0 -51365856.064022064 784123591.92678833 0 0 0 0 116812.68415369929 -297984.23250404559 0 -297984.23250404559 590732.48745718971 0 0 0 0 -273095983.40057719 -14870757.889331818 0 -14870757.889331818 2465887589.3737259 0 0 0 0 -65910249.075330675 -1212877790.4223785 0 -1212877790.4223785 -148096502.75247192 0 0 0 0 75600637.235816121 271965282.30394173 0 271965282.30394173 1343580975.2012482 0 0 0 0 16624059.568203449 60138808.463886261 0 60138808.463886261 239408809.79000092 0 0 0 0 76820398.896563187 -612384276.70981431 0 -612384276.70981431 706156630.76882935 0 0 0 0 -94082472.810460329 81293299.100669861 0 81293299.100669861 696585846.36816025 0 0 0 0 -1384811.4722554088 -733860.28149795532 0 -733860.28149795532 2290013.1422080994 0 0 0 0 504044.3318602689 -645687.94420059957 0 -645687.94420059957 1023588.1192044206 0 0 0 0 107202076.945816 -172840649.9966979 0 -172840649.9966979 324173653.26237488 0 0 0 0 -81314679.08127968 86491929.998445511 0 86491929.998445511 63351575.124427795 0 0 0 0 145910282.01603413 -37475726.837814331 0 -37475726.837814331 -50860445.966972351 0 0 0 0 263193.82079911575 -141192.52678282 0 -141192.52678282 215654.61093421839 0 0 0 0 220168872.59186211 83095223.66028595 0 83095223.66028595 -2204236.6881752014 0 0 0 0 -230089.76579570002 -327266.19635019265 0 -327266.19635019265 935565.63221040368 0 0 0 0 -93576419.378470421 71994348.608970642 0 71994348.608970642 866473619.74407196 0 0 0 0 249061.00667390603 -457858.18291107938 0 -457858.18291107938 748893.78289563674 0 0 0 0 -66902767.339460865 45740209.606449127 0 45740209.606449127 833988039.72742844 0 0 0 0 -1867647.6338645965 -554160.24076843262 0 -554160.24076843262 3199842.4695663452 0 0 0 0 -1614411.9694934487 -20862.831207275391 0 -20862.831207275391 4206761.5209388733 0 0 0 0 -2012726.2088797241 -7324632.6784744263 0 -7324632.6784744263 -2124730.0163459778 0 0 0 0 -5531308.5185694434 -5237054.5762367249 0 -5237054.5762367249 8156087.3771362305 0 0 0 0 1597529.6225476153 6057890.5083389282 0 6057890.5083389282 12470689.25394249 0 0 0 0 -315555.59334569424 4720613.4079551697 0 4720613.4079551697 17594489.108890533 0 0 0 0 7622664.7893072814 1313403.3186454773 0 1313403.3186454773 6160791.7549743652 0 0 0 0 3102024.9489971548 1657887.2989234924 0 1657887.2989234924 4050622.9165039062 0 0 0 0 5789732.3868037164 4386160.0970859528 0 4386160.0970859528 5984021.1732711792 0 0 0 0 2815960.41147618 3632114.8870429993 0 3632114.8870429993 2747427.8088226318 0 0 0 0 -1734104.7161885798 -123881.44754600525 0 -123881.44754600525 4536293.789024353 0 0 0 0 -929956.94695195556 1767161.203453064 0 1767161.203453064 1025917.7647247314 0 0 0 0 -1248844.2294280529 568983.88629150391 0 568983.88629150391 3862596.4386138916 0 0 0 0 -388078.59690469503 3625831.6709899902 0 3625831.6709899902 7087994.2876396179 0 0 0 0 -7206595.1257257462 18625214.365116119 0 18625214.365116119 7668893.9501724243 0 0 0 0 -705447.49159148894 4916923.9808678627 0 4916923.9808678627 2814951.0769348145 0 0 0 0 906153.93901802646 1212349.5578881828 0 1212349.5578881828 595626.72124127485 0 0 0 0 -792080.25904426724 3480112.8740520477 0 3480112.8740520477 -2417260.7975463867 0 0 0 0 -17695.440207014042 22949.322547225282 0 22949.322547225282 234517.82305987459 0 0 0 0 -3135958.8304446097 5803214.2297515869 0 5803214.2297515869 3142209.7623291016 0 0 0 0 390618.92668113112 1189013.4532852173 0 1189013.4532852173 1838668.4298095703 0 0 0 0 3476286.9298371598 2458814.3815536499 0 2458814.3815536499 -840277.43246459961 0 0 0 0 6145914.0847327858 1912176.3812789917 0 1912176.3812789917 860743.81692504883 0 0 0 0 3479573.9987136349 2267809.1692113876 0 2267809.1692113876 1585317.4300537109 0 0 0 0 3226005.682705231 3689157.5037231445 0 3689157.5037231445 3145331.7332611084 0 0 0 0 -1332799.163281396 4046937.3389625549 0 4046937.3389625549 3802454.9847869873 0 0 0 0 36864665.282652855 5445247.5566864014 0 5445247.5566864014 -47013866.816947937 0 0 0 0 -197538699.27097633 38020629.640188217 0 38020629.640188217 43137237.440513611 0 0 0 0 -85421732.735734046 -73910251.276412964 0 -73910251.276412964 -92837259.947692871 0 0 0 0 278889.3596203702 620352.78192893043 0 620352.78192893043 1110390.0389142986 0 0 0 0 -1404460.3144034743 -51789.544216156006 0 -51789.544216156006 2699010.9108409882 0 0 0 0 21277336.872865379 -55732529.53221941 0 -55732529.53221941 -44537574.838172913 0 0 0 0 -328964.17652642727 59842969.917209625 0 59842969.917209625 -8048983.4662437439 0 0 0 0 -3366631.720849812 40289535.243704319 0 40289535.243704319 49615356.417144775 0 0 0 0 -19912668.22520566 -6262790.3197784424 0 -6262790.3197784424 48571029.309169888 0 0 0 0 60704.481145143509 46320589.828845978 0 46320589.828845978 -148699929.83689117 0 0 0 0 10535941.989280224 -44949069.263935089 0 -44949069.263935089 102358378.22980499 0 0 0 0 134368.60545538762 -88996.983983384445 0 -88996.983983384445 289725.25622920133 0 0 0 0 4015782.7135092244 8027746.1893577576 0 8027746.1893577576 1736788.2371711731 0 0 0 0 122741.38523614407 40551195.137653351 0 40551195.137653351 61422829.181863785 0 0 0 0 9448226.293846339 17235484.766694546 0 17235484.766694546 -18028073.907661438 0 0 0 0 24178.497944113275 -44652.697213018313 0 -44652.697213018313 -460763.48260453669 0 0 0 0 -555535.09813570976 28360.099498748779 0 28360.099498748779 4382459.9085464478 0 0 0 0 -382169.02157987072 4222995.4253160041 0 4222995.4253160041 1533890.7638120782 0 0 0 0 -229311.55112384411 736557.41856172681 0 736557.41856172681 2983704.6046757577 0 0 0 0 45834739.81443876 -17893048.401459694 0 -17893048.401459694 -34830132.071121216 0 0 0 0 3742338.4250915349 13447685.323062897 0 13447685.323062897 -2406354.6575946808 0 0 0 0 -283671.6488086246 5093005.5525840502 0 5093005.5525840502 203068.42426782846 0 0 0 0 8604710.1195904016 11277083.481952667 0 11277083.481952667 -11978543.404811859 0 0 0 0 -2857462.2736887783 15790067.47795105 0 15790067.47795105 23087757.314758301 0 0 0 0 1573012.6121883094 2655615.5074768066 0 2655615.5074768066 2767760.855255127 0 0 0 0 134847.86434948444 424774.36971187592 0 424774.36971187592 3042087.1224555969 0 0 0 0 810596.87010223768 1320711.4368174039 0 1320711.4368174039 2421084.4101471528 0 0 0 0 2299490.1439871937 2714472.5833473206 0 2714472.5833473206 2661244.5327758789 0 0 0 0 3804197.4440130293 2945914.5203933716 0 2945914.5203933716 913705.65143585205 0 0 0 0 658927.76611208916 -76729.632846832275 0 -76729.632846832275 2524604.7182388306 0 0 0 0 -245714.82108793402 955536.44912049361 0 955536.44912049361 2556982.6266826168 0 0 0 0 -14931987.485089064 -23015774.44890213 0 -23015774.44890213 -15581530.724720001 0 0 0 0 -6648233.1455093324 9669838.908323288 0 9669838.908323288 23537968.658378601 0 0 0 0 -2788756.3466643095 11251125.52299881 0 11251125.52299881 10380346.292308807 0 0 0 0 -906882.77492182003 3916610.8593038823 0 3916610.8593038823 5698938.0561535144 0 0 0 0 -1288317.6370487213 2454941.1501045227 0 2454941.1501045227 6523877.0166378021 0 0 0 0 870621.95665873564 -5118.7923811562359 0 -5118.7923811562359 7371620.1279580276 0 0 0 0 -887005.01749382191 4327378.0911367573 0 4327378.0911367573 7705984.2671388425 0 0 0 0 2230897.2067685723 -3104.0401649475098 0 -3104.0401649475098 4550672.4369468689 0 0 0 0 5261519.3937826157 -44660.609638214111 0 -44660.609638214111 2851147.7320175171 0 0 0 0 2089993.2365250252 1194649.9697420597 0 1194649.9697420597 3234228.366897583 0 0 0 0 3971988.8240140975 1057074.2012329102 0 1057074.2012329102 1932958.8163375854 0 0 0 0 3942171.7934660912 -2591871.4618911743 0 -2591871.4618911743 4187984.0643501282 0 0 0 0 3397615.5971352458 -1244991.9673500061 0 -1244991.9673500061 2600871.1439819336 0 0 0 0 594520.3586989555 -752050.2747876104 0 -752050.2747876104 7417743.9214104572 0 0 0 0 2313699.6881658826 -1349585.2427390814 0 -1349585.2427390814 5685471.0318908691 0 0 0 0 -3644021.3613045402 201349.20007324219 0 201349.20007324219 13707641.995140076 0 0 0 0 770436.90448665619 213099.28641891479 0 213099.28641891479 6108386.1571044922 0 0 0 0 -1587456.0898624063 -1624079.2028160095 0 -1624079.2028160095 11526215.877731323 0 0 0 0 1603973.6713678837 -1987596.9389038086 0 -1987596.9389038086 14342121.408027649 0 0 0 0 -3431462.8628396988 8453.2626800537109 0 8453.2626800537109 5012836.3893699646 0 0 0 0 -1591821.2764011621 3742868.3088226318 0 3742868.3088226318 5743788.8629684448 0 0 0 0 -42559395.781211853 2005911.8896903992 0 2005911.8896903992 30390673.296863556 0 0 0 0 -1743406.0091012968 952696.64008804923 0 952696.64008804923 10480521.970746197 0 0 0 0 23574.312798833242 -180003.0705148112 0 -180003.0705148112 455273.69897972001 0 0 0 0 -216708.93633586256 4878961.5545053221 0 4878961.5545053221 5131716.0220379047 0 0 0 0 -10439808.990202904 7231657.1392264366 0 7231657.1392264366 13810161.006900787 0 0 0 0 139770.34771024599 -4632867.5304845655 0 -4632867.5304845655 11962384.054642303 0 0 0 0 -2449155.2453460693 4836664.7513237 0 4836664.7513237 13731368.989216805 0 0 0 0 -4785808.0981140137 9869499.7717132568 0 9869499.7717132568 14987743.673942566 0 0 0 0 -3011820.2351270691 1498534.7604981642 0 1498534.7604981642 8249762.2642891947 0 0 0 0 -547233.69418428559 184452.66679663851 0 184452.66679663851 707012.3399717398 0 0 0 0 -16887135.908706665 -3977543.7210464478 0 -3977543.7210464478 20567374.166748047 0 0 0 0 -3748924.0847549438 1214994.3840255737 0 1214994.3840255737 39389342.077987671 0 0 0 0 -2895013.5002420018 374845.29575381521 0 374845.29575381521 8634858.4746799823 0 0 0 0 2815870.0324363708 -3535014.1213054657 0 -3535014.1213054657 35362625.102966309 0 0 0 0 -12211873.314590454 7656162.2110786438 0 7656162.2110786438 34232935.506141663 0 0 0 0 -2620379.6700363159 8408793.7769699097 0 8408793.7769699097 32727751.098518372 0 0 0 0 693022.84797286987 1679890.3259372711 0 1679890.3259372711 29203789.264923096 0 0 0 0 -7753915.0489311218 9647501.8904838562 0 9647501.8904838562 22123680.561986923 0 0 0 0 12269954.100757599 -903834.84566497803 0 -903834.84566497803 19161822.877147675 0 0 0 0 6732084.7601089478 2978320.5111694336 0 2978320.5111694336 16668253.869091034 0 0 0 0 2205733.4969482422 -3026598.8082056046 0 -3026598.8082056046 24236368.482147217 0 0 0 0 3559151.4615402222 -6330782.951461792 0 -6330782.951461792 31359299.372076988 0 0 0 0 -261678.63295650482 953319.88296508789 0 953319.88296508789 30054844.507633209 0 0 0 0 -12118138.966928482 -9612775.2288722992 0 -9612775.2288722992 30209341.449008942 0 0 0 0 739211.56298133591 -1761798.8341173108 0 -1761798.8341173108 -316580.80964637455 0 0 0 0 2967525.0625716448 -7045095.5439857244 0 -7045095.5439857244 30749466.421588898 0 0 0 0 3281739.6551971436 -11521087.47486496 0 -11521087.47486496 36884071.832599163 0 0 0 0 3256062.7524633408 -13099067.507680893 0 -13099067.507680893 21935142.695266724 0 0 0 0 6596608.0907211304 -6151969.2439956665 0 -6151969.2439956665 26047448.68189621 0 0 0 0 19185943.890991211 -29688456.19178009 0 -29688456.19178009 39058482.91317749 0 0 0 0 -5658704.1530570984 -17445715.752585411 0 -17445715.752585411 39287446.124214172 0 0 0 0 1531691.9475326538 -11691605.37015152 0 -11691605.37015152 27494822.501361847 0 0 0 0 -555758.36795139313 -10744095.461566925 0 -10744095.461566925 27739272.369499207 0 0 0 0 400476.92554473877 -14057905.351585388 0 -14057905.351585388 36537422.091971397 0 0 0 0 13764666.41404295 -13812419.012609959 0 -13812419.012609959 20224071.350158691 0 0 0 0 -29367079.282879114 -2505065.006510973 0 -2505065.006510973 928751.04948425293 0 0 0 0 -29971523.148340225 -9526129.9956245422 0 -9526129.9956245422 2730320.3752441406 0 0 0 0 -5748956.2306022644 -59133760.545068741 0 -59133760.545068741 10450915.469635963 0 0 0 0 223723.25250089864 -1322945.9573156862 0 -1322945.9573156862 3782925.1540652122 0 0 0 0 -10223.145327939652 -509114.85668251629 0 -509114.85668251629 6739534.7164280023 0 0 0 0 1815594.7294530272 -2308333.8042964935 0 -2308333.8042964935 4318090.2143669128 0 0 0 0 -15815056.380645752 34382086.352124214 0 34382086.352124214 10167247.470016479 0 0 0 0 84530647.184278488 36951561.595827103 0 36951561.595827103 -27486324.476745605 0 0 0 0 -22692990.237036705 -7868291.5413532257 0 -7868291.5413532257 2633974.6998977661 0 0 0 0 -741053.2397404603 -251810.15975749912 0 -251810.15975749912 5616073.1719620749 0 0 0 0 -132299.76841312647 -2565666.3266830444 0 -2565666.3266830444 4670908.0459899902 0 0 0 0 -3892524.6823969781 -4999346.0794849396 0 -4999346.0794849396 7400538.5543556213 0 0 0 0 4973213.2278347015 -10996273.542892456 0 -10996273.542892456 12254339.190883636 0 0 0 0 -436871.52463927865 -2620792.5513491603 0 -2620792.5513491603 4757093.2571482863 0 0 0 0 7096532.6426296234 -4253292.1499614716 0 -4253292.1499614716 7263058.5536689758 0 0 0 0 7617928.4903850555 -12542643.790493011 0 -12542643.790493011 8813242.4459142685 0 0 0 0 -6155544.4854621887 870652.29941368103 0 870652.29941368103 10650156.821037292 0 0 0 0 4803815.3883781433 -12572203.136453629 0 -12572203.136453629 14857143.866851807 0 0 0 0 10391815.158315659 -12076048.535209656 0 -12076048.535209656 -13157522.737140656 0 0 0 0 2555511.7622438618 -4739180.1897454634 0 -4739180.1897454634 3430311.3700923808 0 0 0 0 -471663.23806438106 544049.86076024279 0 544049.86076024279 397810.61184321344 0 0 0 0 207152101.67915905 -61909400.405636191 0 -61909400.405636191 23236951.938095093 0 0 0 0 -4170075.1525864601 -2836761.5609760284 0 -2836761.5609760284 -91266.064575195312 0 0 0 0 -22638340.706719398 -4167645.0387744904 0 -4167645.0387744904 938058.74108886719 0 0 0 0 -665996.54841810698 -6814386.7455121912 0 -6814386.7455121912 8651062.5427463334 0 0 0 0 288906370.38236237 -82565790.426784515 0 -82565790.426784515 16092219.541797638 0 0 0 0 -5596.3559141755104 -4967401.0202178955 0 -4967401.0202178955 5971187.36277771 0 0 0 0 131401.19638875872 -4440026.6118936539 0 -4440026.6118936539 7142083.3630828857 0 0 0 0 11594847.329194963 -13585390.046993256 0 -13585390.046993256 14109555.486042023 0 0 0 0 11639279.495268954 -3306192.0784952939 0 -3306192.0784952939 4200401.2214431763 0 0 0 0 12612064.061087221 938346.58497238159 0 938346.58497238159 1709239.4167480469 0 0 0 0 10264091.858118922 -3868933.7599983215 0 -3868933.7599983215 3974262.4360961914 0 0 0 0 5641500.62020877 1010743.2556762695 0 1010743.2556762695 2017285.6146583557 0 0 0 0 7495446.2062632516 670658.01021957397 0 670658.01021957397 1205761.5114746094 0 0 0 0 6984472.3809832111 -2326981.1657261848 0 -2326981.1657261848 2802259.3756027222 0 0 0 0 5930837.1133338213 -6314973.6667404175 0 -6314973.6667404175 5804666.3316230774 0 0 0 0 8424477.8840938807 -2281004.8399848938 0 -2281004.8399848938 2603586.9187355042 0 0 0 0 13017281.116799377 192334691.20761681 0 192334691.20761681 1053955009.932518 0 0 0 0 729565.81883828831 85202189.17025058 0 85202189.17025058 404591348.82493591 0 0 0 0 145169098.57400528 32793626.329573631 0 32793626.329573631 67653190.379638672 0 0 0 0 -56397.57810456556 -12800.715746199712 0 -12800.715746199712 362343.35285290331 0 0 0 0 -230200416.63184896 718982896.01135826 0 718982896.01135826 2198356738.1514969 0 0 0 0 163780110.98391759 453445108.96790695 0 453445108.96790695 955194707.27368927 0 0 0 0 516321515.50676668 1156065871.6037827 0 1156065871.6037827 709408158.19567871 0 0 0 0 923287.59845224966 441349.13256314024 0 441349.13256314024 1629810.7471302971 0 0 0 0 644851722.86902261 792839138.8337698 0 792839138.8337698 -50930212.278671265 0 0 0 0 87639775.629207194 -52358670.663226604 0 -52358670.663226604 -115798803.07494354 0 0 0 0 102056549.07973143 -141301378.49810028 0 -141301378.49810028 46562312.616699219 0 0 0 0 -79557.067053405015 -26893.316459249705 0 -26893.316459249705 233453.01257489622 0 0 0 0 50912403.362363495 -106228791.18809509 0 -106228791.18809509 414415737.25003052 0 0 0 0 18537283.620800853 -2081142.6799049377 0 -2081142.6799049377 63816868.008693695 0 0 0 0 160175927.78084075 83932815.780742645 0 83932815.780742645 89113194.200187683 0 0 0 0 -198349867.96273279 -25611162.719421387 0 -25611162.719421387 108890081.94489861 0 0 0 0 -36439635.285927653 -29954226.900928497 0 -29954226.900928497 108083402.00745058 0 0 0 0 -129035200.59041989 -40128814.959018707 0 -40128814.959018707 -33372967.065612793 0 0 0 0 -378016.76204609522 156791.14694310911 0 156791.14694310911 6408177.1493266672 0 0 0 0 -245775726.14582384 77466989.424455643 0 77466989.424455643 76769721.259933472 0 0 0 0 13455764.458401106 -6449144.3935470581 0 -6449144.3935470581 -13939501.51625824 0 0 0 0 -19573832.676133156 11751132.059091568 0 11751132.059091568 15382296.029495239 0 0 0 0 -397740585.95704651 -12571231.250526428 0 -12571231.250526428 210943408.3278923 0 0 0 0 -442091446.80613565 277200425.465168 0 277200425.465168 -22873293.731842756 0 0 0 0 1092283.8983691765 1121022.0379916783 0 1121022.0379916783 3707585.8084968477 0 0 0 0 -65076362.552810416 -580467975.40571594 0 -580467975.40571594 2201686827.8641586 0 0 0 0 -240292869.95705271 259996487.84970665 0 259996487.84970665 2201955496.6992035 0 0 0 0 -136048169.27702093 -150063259.20282745 0 -150063259.20282745 591238589.14315033 0 0 0 0 139407606.17874104 280034287.04595947 0 280034287.04595947 323098247.8050766 0 0 0 0 104221286.1319194 -163706184.56513381 0 -163706184.56513381 -40676452.641189575 0 0 0 0 161864875.04758 -99451101.464523315 0 -99451101.464523315 -130901449.66393852 0 0 0 0 1571861122.2048068 -1174341944.0320857 0 -1174341944.0320857 465576017.46170044 0 0 0 0 353857865.70472455 614045870.05752182 0 614045870.05752182 725617447.2885437 0 0 0 0 401333.16729072214 -1035170.9252652832 0 -1035170.9252652832 1951819.5266972743 0 0 0 0 113058644.92245997 -1402613452.6205521 0 -1402613452.6205521 2201354930.4794974 0 0 0 0 -412853780.34495097 -505419664.85249805 0 -505419664.85249805 1189621129.6797104 0 0 0 0 -333109334.54537702 -1268817775.8934326 0 -1268817775.8934326 556782760.04988098 0 0 0 0 401385155.11369616 -1553103630.1156006 0 -1553103630.1156006 665671513.06428909 0 0 0 0 907156310.76614976 -651190760.51152039 0 -651190760.51152039 90262738.467422485 0 0 0 0 342064606.84332424 -548012497.40268707 0 -548012497.40268707 909007093.68849182 0 0 0 0 486375154.49472165 -439660457.87507248 0 -439660457.87507248 683418718.34384155 0 0 0 0 761107391.39581025 -795298907.6526947 0 -795298907.6526947 849182144.76083374 0 0 0 0 131234740.11413649 -97532973.459058046 0 -97532973.459058046 1151491648.8617401 0 0 0 0 -148690.43979226341 -82561.59514884837 0 -82561.59514884837 497332.22086411342 0 0 0 0 3166462.3969164491 18925232.194786072 0 18925232.194786072 12825389.810346127 0 0 0 0 246436677.67949736 -163437259.09731674 0 -163437259.09731674 25110211.95501709 0 0 0 0 88945426.901257694 240216802.21477318 0 240216802.21477318 435697422.56442261 0 0 0 0 -68162076.728866428 -71330018.879413605 0 -71330018.879413605 -61440923.649032593 0 0 0 0 40988.063580277718 -1105974.3175532403 0 -1105974.3175532403 4878372.516627904 0 0 0 0 -387228430.80345082 3439487.2137718201 0 3439487.2137718201 519445213.95573044 0 0 0 0 -653789.5737993092 -362529.89856929332 0 -362529.89856929332 1132797.0470354669 0 0 0 0 -22125184.240169168 -41000597.514115334 0 -41000597.514115334 -83277021.289382935 0 0 0 0 -3476594.4435575306 -4624222.6882781982 0 -4624222.6882781982 7227820.7598667145 0 0 0 0 -401252.23510769213 1646392.6354200647 0 1646392.6354200647 5873500.2624781653 0 0 0 0 -8002034.3521408141 -9687650.2229995728 0 -9687650.2229995728 7570024.2464904785 0 0 0 0 -1216431.9885223191 -1223897.223901011 0 -1223897.223901011 3056688.5605606101 0 0 0 0 -188451427.08898583 -115886463.4806819 0 -115886463.4806819 8858501.4694824219 0 0 0 0 -151438628.75748259 247856537.10071945 0 247856537.10071945 -195229727.29946041 0 0 0 0 70102496.017146945 -241730191.72225952 0 -241730191.72225952 -328632529.12216759 0 0 0 0 -20155749.51833912 17013772.818096161 0 17013772.818096161 21394605.047531128 0 0 0 0 5310427.8124337755 -23748467.043983459 0 -23748467.043983459 33638252.646408081 0 0 0 0 237414363.91016817 405565668.66223907 0 405565668.66223907 -159829694.3999939 0 0 0 0 -26518.327011193818 -408257.20702659898 0 -408257.20702659898 1243162.1925696954 0 0 0 0 5723957.0287777008 2447424.3191281557 0 2447424.3191281557 959640.31481170654 0 0 0 0 -1262616.3502829133 -1234275.2375823464 0 -1234275.2375823464 2352883.2200944871 0 0 0 0 -754558.9115367803 1072009.8757188916 0 1072009.8757188916 10310663.914960101 0 0 0 0 -10217446.93278099 -14857850.277085185 0 -14857850.277085185 23186246.549659729 0 0 0 0 -23588220.305326398 -5131131.5210876465 0 -5131131.5210876465 42390992.921308517 0 0 0 0 9050860.7447528541 -11843682.892348766 0 -11843682.892348766 23934885.777877808 0 0 0 0 6854538.5935605969 31399411.149321556 0 31399411.149321556 12365945.679847717 0 0 0 0 -10464933.886606485 6260042.2685203552 0 6260042.2685203552 11153522.806758881 0 0 0 0 -11182966.424454164 10741210.708545685 0 10741210.708545685 43777761.880119324 0 0 0 0 -1785222.5969424397 10204770.901878357 0 10204770.901878357 2788516.7749671936 0 0 0 0 -3614924.8288234025 5562723.0237531662 0 5562723.0237531662 9071562.7974052429 0 0 0 0 -131138.96494278754 4291299.0141110476 0 4291299.0141110476 -787510.43817188777 0 0 0 0 14336500.611976862 16058112.024452209 0 16058112.024452209 -44697460.115222931 0 0 0 0 25768.736549509456 203085.69758677483 0 203085.69758677483 403020.65325707383 0 0 0 0 -20564104.044036508 78306934.053876877 0 78306934.053876877 -210696353.35733032 0 0 0 0 71950.594731611287 570170.44854144787 0 570170.44854144787 55953.780246585608 0 0 0 0 -13431274.282577813 8769929.7236194611 0 8769929.7236194611 14027003.040485382 0 0 0 0 -1671209.8686300728 650815.98436431354 0 650815.98436431354 10188521.048713583 0 0 0 0 -103132025.16996443 -7809038.8169021606 0 -7809038.8169021606 9092199.1620941162 0 0 0 0 -156511542.24547845 21147095.425086021 0 21147095.425086021 23473067.638778687 0 0 0 0 -60970883.688668251 18210107.145935059 0 18210107.145935059 32927851.795852661 0 0 0 0 -60691745.320383549 14744872.558250427 0 14744872.558250427 -97880521.452041626 0 0 0 0 -272548403.70810986 -6759208.4185180664 0 -6759208.4185180664 24998477.742034912 0 0 0 0 21211526.092483044 -35571657.558425903 0 -35571657.558425903 4916109.2884168625 0 0 0 0 -78728558.345414877 21208595.851358414 0 21208595.851358414 20529260.641204834 0 0 0 0 -67704464.316248 -29966929.895469666 0 -29966929.895469666 -25467188.029350281 0 0 0 0 -120294062.24675804 612877.10044693947 0 612877.10044693947 -3441384.7148208618 0 0 0 0 -114393449.24679017 9175523.2553863525 0 9175523.2553863525 7759880.8842520714 0 0 0 0 -127959804.06782937 -883830.15328979492 0 -883830.15328979492 1705930.6806259155 0 0 0 0 -105241.08352408232 -116034.58705758862 0 -116034.58705758862 213842.0465035066 0 0 0 0 -141564009.22799009 -54567552.69671011 0 -54567552.69671011 -30515760.500450134 0 0 0 0 -11945137.89051567 34742165.599513054 0 34742165.599513054 23220771.45904541 0 0 0 0 -29061660.827725291 -79577697.50472641 0 -79577697.50472641 -23822233.801353455 0 0 0 0 -87506.69302027463 -228794.9877579771 0 -228794.9877579771 350708.24082643911 0 0 0 0 -24704699.181084275 -40694421.876712799 0 -40694421.876712799 -29445299.317985535 0 0 0 0 -37320446.411793113 -5091802.4395713806 0 -5091802.4395713806 -14823477.15222168 0 0 0 0 -10340580.787461996 -22573489.167972565 0 -22573489.167972565 -11377942.635918617 0 0 0 0 -28497189.377853215 -23047605.619087219 0 -23047605.619087219 58630248.213302612 0 0 0 0 -18002144.411640644 -50872102.870204926 0 -50872102.870204926 95303660.259086609 0 0 0 0 43425043.219219923 -76503580.290969849 0 -76503580.290969849 58646004.313009478 0 0 0 0 2640151.0138440132 -87100993.659275055 0 -87100993.659275055 117312623.00629425 0 0 0 0 -4785911.0080299377 -7925567.6290817261 0 -7925567.6290817261 -8593495.0472717285 0 0 0 0 -30206.485502678668 -124238.61357730441 0 -124238.61357730441 185255.18724064529 0 0 0 0 -25363392.424804434 -50737959.357525826 0 -50737959.357525826 143237527.50250244 0 0 0 0 45085976.92277348 -118797971.5890007 0 -118797971.5890007 113193683.20388222 0 0 0 0 88874236.82533735 -95693357.887197495 0 -95693357.887197495 -40522617.157394409 0 0 0 0 -164402.27949883524 -122199008.4582846 0 -122199008.4582846 141352554.61663818 0 0 0 0 360700.22350574977 -122189066.61389542 0 -122189066.61389542 141325096.58218193 0 0 0 0 58048798.581819534 91930320.32611084 0 91930320.32611084 113364177.96049309 0 0 0 0 46038219.081165813 -119778143.76185799 0 -119778143.76185799 23610765.710006714 0 0 0 0 -48226644.658928782 18025797.0104599 0 18025797.0104599 91212974.995498657 0 0 0 0 65683668.980486974 122405866.5990591 0 122405866.5990591 110997125.0320816 0 0 0 0 -28624.673365174462 61115.851036576554 0 61115.851036576554 303301.01137920842 0 0 0 0 -1703115.4755677921 -4645242.6033477783 0 -4645242.6033477783 16597303.709259033 0 0 0 0 -1844615.1563574795 -4877115.8914661407 0 -4877115.8914661407 20721244.373405457 0 0 0 0 -1933.6759225411965 -3052940.7041664124 0 -3052940.7041664124 14082629.430175781 0 0 0 0 5235.7802573752833 -2622733.6250678189 0 -2622733.6250678189 9445758.0231399536 0 0 0 0 -39505.871437689093 -169365.80888085067 0 -169365.80888085067 40556.829995613545 0 0 0 0 787089.26758749597 -4984318.5824356079 0 -4984318.5824356079 12207312.627124786 0 0 0 0 795183.33658626606 -4195430.5608149469 0 -4195430.5608149469 8983791.1002731323 0 0 0 0 -323907.80751049233 -227441.106061114 0 -227441.106061114 107313.14783030376 0 0 0 0 47240644.099851608 -131895278.55936813 0 -131895278.55936813 140764923.1433754 0 0 0 0 62605744.605597973 -48732280.493611336 0 -48732280.493611336 92753754.523651123 0 0 0 0 1105838.7640194381 -5261390.6305041909 0 -5261390.6305041909 -2814475.9418487549 0 0 0 0 1164581.819739528 -6885281.9673042297 0 -6885281.9673042297 12636919.641944885 0 0 0 0 -1968255.6746002007 -7833015.3698234558 0 -7833015.3698234558 12494889.536897659 0 0 0 0 -4307563.1315618353 -10065212.056196213 0 -10065212.056196213 22874665.001548767 0 0 0 0 -5542420.382981387 -6853926.522277832 0 -6853926.522277832 22330256.636996269 0 0 0 0 -11307496.038235709 -12659954.842292786 0 -12659954.842292786 29754394.602151871 0 0 0 0 18477638.410002068 -18539711.787773132 0 -18539711.787773132 -54438323.526794434 0 0 0 0 -645801.02154093143 -26954.584735002369 0 -26954.584735002369 605643.24500593171 0 0 0 0 -2697893.4634202225 -17376073.832853317 0 -17376073.832853317 7380991.7491493225 0 0 0 0 -4832544.2870962331 -19975126.172782898 0 -19975126.172782898 28570870.31929493 0 0 0 0 3972426.0127882957 -141011076.76499939 0 -141011076.76499939 244982596.18341827 0 0 0 0 -572681.2325308997 -184102.805082215 0 -184102.805082215 289371.7553757783 0 0 0 0 -93289965.21176219 -85844301.768867493 0 -85844301.768867493 94786165.681350708 0 0 0 0 -28584422.300402641 -67222422.460144043 0 -67222422.460144043 -4806467.0775985718 0 0 0 0 -202132857.8376362 -77503924.274464607 0 -77503924.274464607 2837757.6861724854 0 0 0 0 -236356564.89552021 167896535.7966156 0 167896535.7966156 -133545540.6240921 0 0 0 0 -113280816.56802893 71471229.415550232 0 71471229.415550232 25438154.999481201 0 0 0 0 -90148838.178251982 1239766.9832992554 0 1239766.9832992554 215512954.15143585 0 0 0 0 61104901.992772162 -53407328.943698883 0 -53407328.943698883 96958499.054542542 0 0 0 0 -9504969.7583091259 -107671405.41662979 0 -107671405.41662979 270070210.05801773 0 0 0 0 26703174.125133038 -16109934.215240479 0 -16109934.215240479 126452908.27224255 0 0 0 0 -31526958.285731018 30504900.07261467 0 30504900.07261467 116441798.54039001 0 0 0 0 -116018660.58469009 63392032.122253418 0 63392032.122253418 46770582.772918701 0 0 0 0 64026.015064716339 -20384925.293884277 0 -20384925.293884277 95840283.655021667 0 0 0 0 -106680942.42457151 32576691.234939575 0 32576691.234939575 42628364.768371582 0 0 0 0 21852643.916321367 -9124136.4715971947 0 -9124136.4715971947 -117120571.46070862 0 0 0 0 -106464270.95533371 34451614.542526245 0 34451614.542526245 2592747.6833190918 0 0 0 0 -5896714.9730536342 6912373.9361915588 0 6912373.9361915588 18533784.609321594 0 0 0 0 2514526.3619166017 37816428.203802109 0 37816428.203802109 16478418.627593994 0 0 0 0 -9555719.1201520562 19819583.264568329 0 19819583.264568329 121366602.20204926 0 0 0 0 451216.81907176971 192756.98837661743 0 192756.98837661743 95477453.517372131 0 0 0 0 -562819.6132204415 126974.53465926461 0 126974.53465926461 1112458.4787363019 0 0 0 0 2298855.8873015642 -46256316.407928467 0 -46256316.407928467 168033341.59751129 0 0 0 0 19453385.643692531 -57838488.738714218 0 -57838488.738714218 49594713.548316956 0 0 0 0 78372353.3928179 37419816.043346405 0 37419816.043346405 -76195404.106575012 0 0 0 0 -47033568.425274312 6499371.6190223694 0 6499371.6190223694 157526002.92460632 0 0 0 0 33507524.589832246 -116071977.82279587 0 -116071977.82279587 156207606.93106079 0 0 0 0 -19140834.383926854 -22870671.901988983 0 -22870671.901988983 116806370.85666275 0 0 0 0 11724273.47497605 55019636.019351959 0 55019636.019351959 83243556.02645874 0 0 0 0 22792322.611911234 30795715.249703407 0 30795715.249703407 32810713.62008667 0 0 0 0 8815239.3062048852 -2070513.9114990234 0 -2070513.9114990234 3248240.3570251465 0 0 0 0 48123946.086373441 30089794.303495407 0 30089794.303495407 7513694.568649292 0 0 0 0 -97014.911347990244 -46376.896950924769 0 -46376.896950924769 479677.31177850813 0 0 0 0 -8906438.6154169664 334700.58142471313 0 334700.58142471313 10506823.833969116 0 0 0 0 4694609.6198730022 -560325.68675231934 0 -560325.68675231934 5824107.7578887939 0 0 0 0 -5419380.2729039192 -418687.2639541626 0 -418687.2639541626 8409653.8124847412 0 0 0 0 2042994.6415388882 -1772961.6828765869 0 -1772961.6828765869 3848258.6293792725 0 0 0 0 -6763574.443830952 1164913.8875160217 0 1164913.8875160217 4222876.2425689697 0 0 0 0 5749967.1308335736 7177895.8058364391 0 7177895.8058364391 9262968.4529266357 0 0 0 0 -3085936.8903495111 745192.31977081299 0 745192.31977081299 5928657.5090026855 0 0 0 0 6465135.5767907202 1020154.5137023926 0 1020154.5137023926 2981662.9553451538 0 0 0 0 887296.68385042273 2955013.2773933411 0 2955013.2773933411 8242244.0405883789 0 0 0 0 10298607.874024967 13137999.616106033 0 13137999.616106033 16011991.196334839 0 0 0 0 13026625.424964743 2106443.7002563477 0 2106443.7002563477 6196884.62890625 0 0 0 0 28208906.66221166 8711653.9413375854 0 8711653.9413375854 3494450.9243774414 0 0 0 0 4452985.2030370384 4097784.2994306087 0 4097784.2994306087 10671097.948791504 0 0 0 0 8136274.0053843865 13391814.511528015 0 13391814.511528015 16097726.896438599 0 0 0 0 4244400.7747474145 10811052.508253098 0 10811052.508253098 20459229.015945435 0 0 0 0 8157657.7817035178 18190008.484794617 0 18190008.484794617 23572318.492584229 0 0 0 0 7575656.999142834 6893491.0778121948 0 6893491.0778121948 9075817.032585144 0 0 0 0 4836945.5352492034 2892923.9568099976 0 2892923.9568099976 6377357.3407363892 0 0 0 0 2513534.7035962548 5677953.94115448 0 5677953.94115448 15237590.177145004 0 0 0 0 3007932.950077042 8127538.7529525757 0 8127538.7529525757 14969695.901765823 0 0 0 0 672980.84675480123 9510074.6474380493 0 9510074.6474380493 23499804.833206177 0 0 0 0 -3085160.095194431 10296114.077853203 0 10296114.077853203 32544812.183242798 0 0 0 0 -7615113.6565204132 3079444.6181526184 0 3079444.6181526184 42293653.005449295 0 0 0 0 -1654044.0163382636 16348806.303180695 0 16348806.303180695 50120055.069286346 0 0 0 0 -3681977.6281775362 10804949.574836731 0 10804949.574836731 36033648.812080383 0 0 0 0 -10465349.00020377 -9166548.0574150085 0 -9166548.0574150085 37687677.605857849 0 0 0 0 -4998367.1975441929 -3305287.4452857971 0 -3305287.4452857971 28631445.267242432 0 0 0 0 -8411770.1994140241 -501410.07476043701 0 -501410.07476043701 26328259.144218445 0 0 0 0 -3617018.0993023505 5426356.1010322571 0 5426356.1010322571 26383358.714344025 0 0 0 0 -3537487.4247829067 5077203.6734962463 0 5077203.6734962463 27823565.482302666 0 0 0 0 -337862.30290032644 5423149.0418815613 0 5423149.0418815613 17429666.466407776 0 0 0 0 -460101.23278550059 5726152.7038536072 0 5726152.7038536072 20146584.019577026 0 0 0 0 -3248609.0065415809 3214268.4159660339 0 3214268.4159660339 23004475.224662781 0 0 0 0 -3135871.9352898742 1779856.0007824898 0 1779856.0007824898 21330540.635604858 0 0 0 0 -1314474.713958293 1904027.4151763916 0 1904027.4151763916 19835629.663818359 0 0 0 0 29812.653894793708 3277222.4127426147 0 3277222.4127426147 18716095.772041321 0 0 0 0 -109.88885763236885 1397362.5979156494 0 1397362.5979156494 18004999.983886719 0 0 0 0 -1258894.3061089681 1746483.842622757 0 1746483.842622757 19995610.292182922 0 0 0 0 -3932.102459707553 629557.45987701416 0 629557.45987701416 20406540.710361481 0 0 0 0 -2048934.8344513723 462315.94231796265 0 462315.94231796265 22915960.435710907 0 0 0 0 -3296857.7182798488 -2376481.4766769409 0 -2376481.4766769409 21895168.887372971 0 0 0 0 -4627794.0750927087 -3854517.7913475037 0 -3854517.7913475037 20363136.776016235 0 0 0 0 -1233.9915861756572 -2000553.5241278594 0 -2000553.5241278594 19281994.617584229 0 0 0 0 -6935372.6994113922 31094228.361885071 0 31094228.361885071 88659361.356226087 0 0 0 0 -63054334.459697962 11657005.5971241 0 11657005.5971241 134653954.65476227 0 0 0 0 -794687.29632245528 -1160833.1103631863 0 -1160833.1103631863 12247463.740997419 0 0 0 0 -967973.5032006884 630247.9729247354 0 630247.9729247354 2860309.3910929356 0 0 0 0 138459247.51454639 204495276.51983261 0 204495276.51983261 -50514378.183425903 0 0 0 0 -103934004.66550803 68757218.425285339 0 68757218.425285339 -16345265.627006531 0 0 0 0 -16235427.805867136 5135824.4180250168 0 5135824.4180250168 23524842.020309448 0 0 0 0 226696383.13844478 -96715914.442367554 0 -96715914.442367554 -39331243.987148285 0 0 0 0 -335765529.21722412 13095104.780395508 0 13095104.780395508 88188065.224496841 0 0 0 0 46710636.132500708 -32078046.609191895 0 -32078046.609191895 71083946.650966644 0 0 0 0 -9000985.492474854 172151601.48876286 0 172151601.48876286 340062502.45170593 0 0 0 0 189529182.23966235 244095062.16074681 0 244095062.16074681 171571010.7349472 0 0 0 0 -104040925.38801394 15879123.901750132 0 15879123.901750132 91897878.389801025 0 0 0 0 -3561452.4677071571 -57842460.885475159 0 -57842460.885475159 20177929.695861816 0 0 0 0 -80590328.769175768 8947079.1400222778 0 8947079.1400222778 73753326.453010559 0 0 0 0 -11715232.59842205 -5864038.1765241623 0 -5864038.1765241623 29933539.528259277 0 0 0 0 -89109549.049435854 -1939210.8992233276 0 -1939210.8992233276 61471973.453369141 0 0 0 0 -3431519.8558513983 1100075.0543942796 0 1100075.0543942796 21196478.955941699 0 0 0 0 -4289664.0306361755 -2945355.4858859531 0 -2945355.4858859531 9681928.9929441418 0 0 0 0 -11076933.316004753 -3197341.6208133698 0 -3197341.6208133698 37536703.583152771 0 0 0 0 -7936519.0059204102 1782665.1623935699 0 1782665.1623935699 30827325.663812637 0 0 0 0 -2343443.9186677933 -10849359.451200485 0 -10849359.451200485 51190919.128562927 0 0 0 0 -1497351.8087562737 -3008381.170312861 0 -3008381.170312861 7164296.918359844 0 0 0 0 -11590687.06980896 -15157433.536878586 0 -15157433.536878586 69795446.971824646 0 0 0 0 -4039459.517165184 120436.2152671814 0 120436.2152671814 12975070.786342621 0 0 0 0 -3570742.2733421805 294352.67884395318 0 294352.67884395318 10366239.109846011 0 0 0 0 -2901596.9810088873 778747.07383441925 0 778747.07383441925 18448538.168968081 0 0 0 0 -3505971.4266481549 -632460.5806697607 0 -632460.5806697607 18630907.022592545 0 0 0 0 -2382469.7699718475 -3263895.5137023926 0 -3263895.5137023926 9773409.510799408 0 0 0 0 -3807421.5665893881 -272997.03033650806 0 -272997.03033650806 15808727.771658601 0 0 0 0 -3721046.3491833881 561228.86070823669 0 561228.86070823669 7995592.4958248138 0 0 0 0 -4068097.0629987419 411332.31755423546 0 411332.31755423546 26258781.316867828 0 0 0 0 -2056531.3571109772 1246594.6635599136 0 1246594.6635599136 26304076.915967941 0 0 0 0 -3801813.7695491449 1026856.4230562702 0 1026856.4230562702 14183203.587605132 0 0 0 0 -4385306.7183432877 -682419.00201654434 0 -682419.00201654434 25990464.217422485 0 0 0 0 -2892021.7382315397 -96499.825941085815 0 -96499.825941085815 25969375.662668705 0 0 0 0 -4269029.0271439552 -2571439.2168598175 0 -2571439.2168598175 32516086.179131031 0 0 0 0 -4797293.9904969931 -1778261.0607042313 0 -1778261.0607042313 31070759.596376419 0 0 0 0 -4691490.5310335867 324932.489133358 0 324932.489133358 28711583.940700531 0 0 0 0 -2749383.3308529854 -3827821.4289646149 0 -3827821.4289646149 29587419.606422424 0 0 0 0 -12792996.033159971 467953.78006744385 0 467953.78006744385 2145054.4600830078 0 0 0 0 -13633406.316868782 -1250417.0386734009 0 -1250417.0386734009 1045312.0778045654 0 0 0 0 -4046917.0319083985 6081699.8398741707 0 6081699.8398741707 11544008.340860182 0 0 0 0 -3074610.8956928253 389141.53348636627 0 389141.53348636627 25772438.304479599 0 0 0 0 -2194895.5529187918 -2691768.6939706802 0 -2691768.6939706802 25655670.068864822 0 0 0 0 271086.32721393439 1694854.8332448923 0 1694854.8332448923 2291465.555628065 0 0 0 0 -4235691.2812156677 1551508.4162445068 0 1551508.4162445068 3721430.1519775391 0 0 0 0 -2581777.3914724039 -515367.57761532906 0 -515367.57761532906 13368288.747167032 0 0 0 0 -466184.77738347999 2545674.473785528 0 2545674.473785528 3266591.9761207104 0 0 0 0 -4098197.8866612911 2863225.4618530273 0 2863225.4618530273 5934631.7976226807 0 0 0 0 -4181962.3319211006 -13177.051635742188 0 -13177.051635742188 20457540.762119532 0 0 0 0 -3534959.7814796567 2745682.9710979462 0 2745682.9710979462 5942642.4249267578 0 0 0 0 -3843667.6563570499 1991727.7968215942 0 1991727.7968215942 8898586.8711242676 0 0 0 0 46668.118675470352 2719142.0864639282 0 2719142.0864639282 3675941.7977600098 0 0 0 0 -3444199.2374248728 4154395.2832208872 0 4154395.2832208872 4124636.687828064 0 0 0 0 -2273073.9868316003 3029387.0711854901 0 3029387.0711854901 11585297.231264161 0 0 0 0 -3528258.7654268742 2114883.3017654419 0 2114883.3017654419 4566739.5485992432 0 0 0 0 -1738542.4568327246 6141257.9603262302 0 6141257.9603262302 8913688.1687972173 0 0 0 0 -2459136.9564371416 3646063.0007712469 0 3646063.0007712469 3876709.8814218566 0 0 0 0 -1504061.3595807564 4018253.1540170806 0 4018253.1540170806 2912125.1314327642 0 0 0 0 -21217892.143769264 -3079784.2249145508 0 -3079784.2249145508 -17487846.444519043 0 0 0 0 -12832310.411184072 588691.84502410889 0 588691.84502410889 2478511.8892822266 0 0 0 0 -1658372.2077101311 1835964.6276848055 0 1835964.6276848055 9027449.4661945216 0 0 0 0 -8059392.6424373388 1457663.9277153015 0 1457663.9277153015 5280923.8819885254 0 0 0 0 3767525.7428898811 3912785.4868087769 0 3912785.4868087769 17018640.453430176 0 0 0 0 -647847.9420934529 -1402825.934670385 0 -1402825.934670385 13785608.629536882 0 0 0 0 -3940404.8573582051 -3740885.6552283019 0 -3740885.6552283019 20934863.566931721 0 0 0 0 -4568710.6909263134 5113016.8369903564 0 5113016.8369903564 21276021.75994873 0 0 0 0 -10632251.56289053 -1250338.4911499023 0 -1250338.4911499023 20511809.190948486 0 0 0 0 -14249867.199366093 -1770267.3829498291 0 -1770267.3829498291 21955205.161880493 0 0 0 0 -8533282.3471384943 6014968.8065443039 0 6014968.8065443039 22785824.465774536 0 0 0 0 -5110800.7755340338 8194324.3142166138 0 8194324.3142166138 17146986.524154663 0 0 0 0 -7251293.7490633726 4198815.4979724884 0 4198815.4979724884 21444928.725097656 0 0 0 0 -4907127.6200458854 7149375.4357223511 0 7149375.4357223511 20442480.23979187 0 0 0 0 -5622621.8380150795 7323770.1900024414 0 7323770.1900024414 20707466.478290558 0 0 0 0 -6665290.5850408077 4934287.1485862732 0 4934287.1485862732 34684243.903083801 0 0 0 0 -3467684.1393364966 9189292.8743934631 0 9189292.8743934631 23227444.236824036 0 0 0 0 -11024936.163172245 -7029770.2840633392 0 -7029770.2840633392 59700377.013748169 0 0 0 0 -1043196.3761861324 -6123515.828086853 0 -6123515.828086853 33465453.057752609 0 0 0 0 -3501476.6860140562 -972513.87170028687 0 -972513.87170028687 22722039.628089905 0 0 0 0 -3756500.952894479 1460379.9553928375 0 1460379.9553928375 28271209.25831604 0 0 0 0 2302838.9682615697 8743407.7059707642 0 8743407.7059707642 25699687.273248672 0 0 0 0 -7149536.1628899202 11213416.31754303 0 11213416.31754303 49249232.733093262 0 0 0 0 -13862413.419527888 -1111357.3457450867 0 -1111357.3457450867 47529584.833570004 0 0 0 0 -15307271.242036402 5060366.2082252502 0 5060366.2082252502 92469754.864234924 0 0 0 0 1078154.3185397983 23440606.121185303 0 23440606.121185303 48819677.159866333 0 0 0 0 6021002.9689152241 -9470182.6454582214 0 -9470182.6454582214 81762650.569038391 0 0 0 0 17171293.643222332 52635652.399291992 0 52635652.399291992 -95991822.232315063 0 0 0 0 -484027.32146021997 80704.44127096422 0 80704.44127096422 2030018.235002812 0 0 0 0 -35691184.457335204 -17355593.621436119 0 -17355593.621436119 106345460.10744476 0 0 0 0 -47208727.246162079 59387423.950617328 0 59387423.950617328 26056283.512008667 0 0 0 0 19879696.311135352 -21003120.288673401 0 -21003120.288673401 32550731.079559326 0 0 0 0 4409696.3225483894 3530342.964969635 0 3530342.964969635 3645678.030670166 0 0 0 0 -7854584.7639006376 -36910470.787475586 0 -36910470.787475586 67672330.349405289 0 0 0 0 -6189552.4600945711 -36895519.475959778 0 -36895519.475959778 25671953.417236328 0 0 0 0 1670453.8906143904 -73635706.701831818 0 -73635706.701831818 57488867.037261963 0 0 0 0 -48736095.904135317 -52481934.592038155 0 -52481934.592038155 65825304.594223022 0 0 0 0 46420535.077704787 -57641873.857479095 0 -57641873.857479095 33753579.365261078 0 0 0 0 179481.3047694788 366417.603109207 0 366417.603109207 1926909.7270085365 0 0 0 0 -254951480.41768575 -78657617.422409058 0 -78657617.422409058 472385879.65125275 0 0 0 0 42506078.243795395 -20998121.149326324 0 -20998121.149326324 12067259.907131195 0 0 0 0 -309906722.96314758 -385054869.48654556 0 -385054869.48654556 334158910.7620697 0 0 0 0 -44601946.981405199 -260443078.21537018 0 -260443078.21537018 -61291744.986022949 0 0 0 0 -33314629.647775888 42458230.153778076 0 42458230.153778076 55871886.66179657 0 0 0 0 -2090356.778313987 -50166001.478761911 0 -50166001.478761911 71192835.21105957 0 0 0 0 174989630.29615784 310933016.53747559 0 310933016.53747559 132241297.50652122 0 0 0 0 -1081503.2901341685 113487.10733298026 0 113487.10733298026 2339158.7820313871 0 0 0 0 -595601.19484924758 -284553.33579764888 0 -284553.33579764888 4011514.8505960964 0 0 0 0 36596115.339181185 136435448.47666931 0 136435448.47666931 -101254067.44872665 0 0 0 0 -29910624.849132061 316239632.63108826 0 316239632.63108826 183036706.02654648 0 0 0 0 43843190.276672363 -68160627.565185547 0 -68160627.565185547 64962868.932552338 0 0 0 0 49454492.483164668 -101214388.5963192 0 -101214388.5963192 234743596.67089844 0 0 0 0 901218.97553062439 -51461463.359375 0 -51461463.359375 61502736.440078735 0 0 0 0 -8839573.5614237785 -22939837.872634888 0 -22939837.872634888 15944706.822525024 0 0 0 0 -39875515.067731857 -13431286.605766296 0 -13431286.605766296 26662673.643848419 0 0 0 0 -65935391.032596588 -21862827.566184998 0 -21862827.566184998 23180389.671539307 0 0 0 0 -31039839.605010986 -37075545.812866211 0 -37075545.812866211 7276738.1307983398 0 0 0 0 -40049900.052635193 -40205859.598144531 0 -40205859.598144531 6439817.8521347046 0 0 0 0 -40376886.671073914 -12794120.71421814 0 -12794120.71421814 26304305.420852661 0 0 0 0 -15499037.768272877 -72959787.661186218 0 -72959787.661186218 99873166.411888123 0 0 0 0 -23069092.277763844 -59828909.539344788 0 -59828909.539344788 113447138.94600677 0 0 0 0 89082860.183751583 -87406811.425315857 0 -87406811.425315857 -219227433.49229431 0 0 0 0 -129750186.17709208 -81594717.473617554 0 -81594717.473617554 525275787.26844025 0 0 0 0 -15146853.642421722 -75959985.001548767 0 -75959985.001548767 118224397.39105988 0 0 0 0 -54587744.577367783 -101226832.13960266 0 -101226832.13960266 121955641.09369087 0 0 0 0 -32877566.719085217 39350940.857696533 0 39350940.857696533 -69772381.953727722 0 0 0 0 -59738613.197347641 -609934427.38168335 0 -609934427.38168335 125694744.856987 0 0 0 0 -100640623.81411982 484318313.64674377 0 484318313.64674377 950875623.01452637 0 0 0 0 55985952.969367027 138998846.72770691 0 138998846.72770691 283607691.42202759 0 0 0 0 114221883.32475829 -55444164.967758179 0 -55444164.967758179 29099199.039550781 0 0 0 0 80497670.957389832 -16557908.598197937 0 -16557908.598197937 -1311359.2929840088 0 0 0 0 588591.70868198725 -705679.40107394848 0 -705679.40107394848 77677.208365693688 0 0 0 0 60463553.768339634 25018007.890060425 0 25018007.890060425 37007670.135528564 0 0 0 0 -194672.44919216007 -143730.62063804641 0 -143730.62063804641 289272.5407826826 0 0 0 0 -4658934.5846716762 -39231241.839717865 0 -39231241.839717865 101303901.85787964 0 0 0 0 -630860.43927359581 -6365161.3017616272 0 -6365161.3017616272 46183396.722293854 0 0 0 0 -38380496.756231353 25863497.711242676 0 25863497.711242676 165703639.33493042 0 0 0 0 -36764941.307362705 -63251250.073982239 0 -63251250.073982239 128395264.70950317 0 0 0 0 -38587421.294329166 -57685443.594055176 0 -57685443.594055176 221695931.87796021 0 0 0 0 -37090046.02207613 37869080.489578247 0 37869080.489578247 226395034.46085262 0 0 0 0 -8109495.4154284 -2901980.2915802002 0 -2901980.2915802002 46702139.830795288 0 0 0 0 -559022.32113746682 -258024.71857249923 0 -258024.71857249923 1702805.1791359782 0 0 0 0 -10211535.742681807 5606070.4249763489 0 5606070.4249763489 5297096.6944580078 0 0 0 0 -1464001.9471633434 -298136.70439338684 0 -298136.70439338684 2612483.0170288086 0 0 0 0 -5340669.3853433207 -759329.43457889557 0 -759329.43457889557 1305838.6824035645 0 0 0 0 -238801.32600426505 -264600.02692059055 0 -264600.02692059055 2574271.0786096528 0 0 0 0 -518500.38454821846 -1362139.0293108951 0 -1362139.0293108951 2062930.2069082558 0 0 0 0 -584506.64542752504 -3066259.101064682 0 -3066259.101064682 3211515.1598052979 0 0 0 0 18520985.398310184 -10565807.421390533 0 -10565807.421390533 96999.337868690491 0 0 0 0 -462508.05432695267 -603464.63437684439 0 -603464.63437684439 931326.24300050735 0 0 0 0 -7812422.6295131445 988331.79626846313 0 988331.79626846313 8091407.181427002 0 0 0 0 -724916.12713396549 -1712932.9973335266 0 -1712932.9973335266 -4379081.3408966064 0 0 0 0 -8844120.8527939618 -4197345.3684310913 0 -4197345.3684310913 4594349.2643241882 0 0 0 0 -958338.37465697527 -4632738.6115276814 0 -4632738.6115276814 -9349518.0466156006 0 0 0 0 -495567.2548668923 -312113.77244411968 0 -312113.77244411968 2873034.2072999068 0 0 0 0 -21128778.77674675 -29052408.038450241 0 -29052408.038450241 29433060.946746826 0 0 0 0 -14352074.059595823 -9920158.8574151993 0 -9920158.8574151993 24074272.802001953 0 0 0 0 22487131.848738194 -19696245.638587952 0 -19696245.638587952 12782852.452056885 0 0 0 0 132852.68551317925 -334850.75843014754 0 -334850.75843014754 4222231.0552027896 0 0 0 0 5520666.8024482727 -17845334.74369812 0 -17845334.74369812 12920990.22902298 0 0 0 0 5415313.9592031837 -3661419.6319923401 0 -3661419.6319923401 -1539791.9144592285 0 0 0 0 -113396.07277393341 -4195297.6273078918 0 -4195297.6273078918 10151369.783233643 0 0 0 0 -356287.15096078627 -2991495.0902398159 0 -2991495.0902398159 16665169.574083094 0 0 0 0 -21402253.760129929 -7913025.9663906097 0 -7913025.9663906097 24785552.28758812 0 0 0 0 -16204547.812609673 -11972540.455570221 0 -11972540.455570221 20961321.365546227 0 0 0 0 -11372659.007017136 -3147224.5188493729 0 -3147224.5188493729 18997782.395191193 0 0 0 0 -12165481.979370117 -4319695.1293640137 0 -4319695.1293640137 26999876.272014618 0 0 0 0 -7538391.7512652874 -9786733.8956933022 0 -9786733.8956933022 16166298.996704102 0 0 0 0 -12307535.281212807 -11972818.724002838 0 -11972818.724002838 21064534.754789352 0 0 0 0 -8581338.360203743 -12041269.745749474 0 -12041269.745749474 20617310.437076569 0 0 0 0 -18786343.548503876 -4940806.0625762939 0 -4940806.0625762939 19300685.934354782 0 0 0 0 -7890694.7224903107 1454356.96717453 0 1454356.96717453 19603147.703041077 0 0 0 0 -1259532.292734507 -5078411.007662734 0 -5078411.007662734 18616264.461378619 0 0 0 0 -2977957.0228488748 -453282.36516894586 0 -453282.36516894586 8046058.7866476681 0 0 0 0 -19050053.11016655 4869545.2332820892 0 4869545.2332820892 20486800.355812073 0 0 0 0 -36774709.715245247 2245744.2199611664 0 2245744.2199611664 21359949.540504456 0 0 0 0 -1251395.2502861023 -13939290.300079346 0 -13939290.300079346 54978156.279663086 0 0 0 0 -7909812.4076623917 -7845288.7753195763 0 -7845288.7753195763 23145694.465438843 0 0 0 0 -4835311.9244203568 -15348478.611748695 0 -15348478.611748695 27019230.232910156 0 0 0 0 -928188.34962899936 6056593.2064168248 0 6056593.2064168248 11074001.028400561 0 0 0 0 -3717931.7172489166 6585497.8324928284 0 6585497.8324928284 25442505.790643692 0 0 0 0 -1546097.1893768311 1629940.3765258789 0 1629940.3765258789 4960770.2126846313 0 0 0 0 -2105372.8730650409 -4549913.1134686153 0 -4549913.1134686153 5118954.6901620673 0 0 0 0 28168.039598316769 320676.05876640137 0 320676.05876640137 10297854.75247369 0 0 0 0 -3543605.1374635743 1565183.2312776395 0 1565183.2312776395 22020809.246669043 0 0 0 0 -8217252.5847148895 6640219.3157024384 0 6640219.3157024384 27548986.130020142 0 0 0 0 -65525943.994934671 -28393082.584497452 0 -28393082.584497452 8939138.1176300049 0 0 0 0 -7287762.0367145538 4560450.9288959503 0 4560450.9288959503 21524997.938266754 0 0 0 0 31914083.461075217 -32497820.58039093 0 -32497820.58039093 -154175513.6415863 0 0 0 0 -11625926.700492412 17900329.471263647 0 17900329.471263647 61614124.573158264 0 0 0 0 -2691054.6288672849 -74723.614222548902 0 -74723.614222548902 9591042.038560003 0 0 0 0 13229019.011647925 32684531.030036926 0 32684531.030036926 116657934.56665039 0 0 0 0 -14299592.835744858 -11175697.56908226 0 -11175697.56908226 56045740.032898903 0 0 0 0 778898.72976493835 -4353339.4100642204 0 -4353339.4100642204 54972929.466739655 0 0 0 0 -25239948.014605522 13284656.454249859 0 13284656.454249859 40476001.210346222 0 0 0 0 -7629469.4638476372 3646944.4977550507 0 3646944.4977550507 35318178.335334778 0 0 0 0 -3767001.0425841659 11296874.290117294 0 11296874.290117294 24164202.216896057 0 0 0 0 -8211712.9455814362 12288366.239303589 0 12288366.239303589 28561250.355848312 0 0 0 0 -9188343.7471981049 14702636.74190712 0 14702636.74190712 23881825.783946991 0 0 0 0 -7294325.8070354462 11632556.879436493 0 11632556.879436493 24204817.115444183 0 0 0 0 -914637.63577144872 439101.25422136718 0 439101.25422136718 9098473.6249209139 0 0 0 0 -6968607.5147972107 13272993.594141006 0 13272993.594141006 23451167.933681488 0 0 0 0 -306695.26919811266 18920.062242150307 0 18920.062242150307 3537865.5668344391 0 0 0 0 -23212982.384008408 35410054.298214912 0 35410054.298214912 -6874543.3115139008 0 0 0 0 -70947242.846764565 22113518.719121933 0 22113518.719121933 42728753.290344238 0 0 0 0 -35177361.524250031 -48329298.360408783 0 -48329298.360408783 -866667.29600429535 0 0 0 0 -81080872.540328026 -27371279.714157104 0 -27371279.714157104 54781105.221744537 0 0 0 0 -57109788.421209335 -11932160.390129089 0 -11932160.390129089 64528232.891540527 0 0 0 0 -14022682.618412971 -12883458.628648758 0 -12883458.628648758 27886027.638473511 0 0 0 0 -5255874.5977811813 -20014545.051891327 0 -20014545.051891327 21938805.293468475 0 0 0 0 -5071815.2536172867 -11785432.725187302 0 -11785432.725187302 20198138.123348236 0 0 0 0 -30569991.18289566 -26883434.342189789 0 -26883434.342189789 20851168.721473694 0 0 0 0 -12379430.872724533 -3856164.8356647491 0 -3856164.8356647491 30225565.597124577 0 0 0 0 -34683319.337834358 4510084.1401481628 0 4510084.1401481628 44749649.993080139 0 0 0 0 -44650466.048402309 10998063.887102127 0 10998063.887102127 75830710.775001526 0 0 0 0 -36358486.678371429 5162113.2534503937 0 5162113.2534503937 56064648.035155296 0 0 0 0 -37470819.256572723 32539610.379850388 0 32539610.379850388 66808141.34799099 0 0 0 0 -25697829.244238377 27313803.637508869 0 27313803.637508869 38313506.495365143 0 0 0 0 -23295190.655251503 18786936.798334122 0 18786936.798334122 51563177.113933563 0 0 0 0 -11723979.87981987 16467793.707450867 0 16467793.707450867 49190801.608564377 0 0 0 0 -14601516.092788935 6211783.4840083122 0 6211783.4840083122 46340195.421455383 0 0 0 0 -9423707.8644638062 7024017.6000061035 0 7024017.6000061035 36406722.131345749 0 0 0 0 -10647883.928578615 10608352.667734385 0 10608352.667734385 31222806.011657715 0 0 0 0 -5868858.59075737 6052881.2282505035 0 6052881.2282505035 32721795.005940437 0 0 0 0 -20596165.056381226 33011276.897655487 0 33011276.897655487 31553780.865978241 0 0 0 0 -7077234.6779460907 11629793.034439087 0 11629793.034439087 13918160.79391098 0 0 0 0 -5366860.443655014 3147279.2059936523 0 3147279.2059936523 100550511.38627052 0 0 0 0 -84059.892497157678 -212922.60956145357 0 -212922.60956145357 1233739.0326671847 0 0 0 0 66456.728083610535 30247374.338300705 0 30247374.338300705 -12926173.476886749 0 0 0 0 -12209215.487413406 27755263.394025803 0 27755263.394025803 139805782.46443939 0 0 0 0 64379240.117141724 35093745.919342041 0 35093745.919342041 140458236.74810791 0 0 0 0 23927444.986143112 8227435.8967876434 0 8227435.8967876434 45795682.047645569 0 0 0 0 96239.06920298608 2501266.6900477251 0 2501266.6900477251 2329923.4969741683 0 0 0 0 -271386.27365963627 -317616.091317988 0 -317616.091317988 4236501.5837493036 0 0 0 0 -1738490.1323184967 -311042.45194244385 0 -311042.45194244385 64010866.458641052 0 0 0 0 324390.61450386047 10103138.569976807 0 10103138.569976807 54585905.739303589 0 0 0 0 -2558255.3872699738 18360291.222019196 0 18360291.222019196 39616276.888381958 0 0 0 0 -251245.80416161567 2337929.9767535105 0 2337929.9767535105 4704780.3489534585 0 0 0 0 -270583.3509759903 2288717.6388244629 0 2288717.6388244629 7302225.6809883118 0 0 0 0 4032947.5206794739 5764970.9809989929 0 5764970.9809989929 34287407.916302681 0 0 0 0 -440316.43875312805 1135920.2315559387 0 1135920.2315559387 7475125.9093322754 0 0 0 0 -103028.08381175995 1875211.9046459198 0 1875211.9046459198 7407482.1922531128 0 0 0 0 -814528.52023124695 1270999.4340324402 0 1270999.4340324402 7650593.3071060181 0 0 0 0 -1086055.0708713531 1332809.776348114 0 1332809.776348114 7694406.8649368286 0 0 0 0 -9874618.8436050415 10401539.280029297 0 10401539.280029297 5967514.2456283569 0 0 0 0 -4012296.0593986511 3985165.9907569885 0 3985165.9907569885 5306167.3651428223 0 0 0 0 -10297966.118476868 9798713.7013244629 0 9798713.7013244629 6664919.3903961182 0 0 0 0 -10318045.090235829 9297258.8374314308 0 9297258.8374314308 3771517.0035705566 0 0 0 0 -7593108.1420245171 15960097.285287857 0 15960097.285287857 -1322894.5039520264 0 0 0 0 -10592143.600989342 9238604.563337326 0 9238604.563337326 5018526.8005981445 0 0 0 0 -14395522.865810394 14527764.034675598 0 14527764.034675598 -1591813.1344146729 0 0 0 0 -15196476.421455383 6628522.8877563477 0 6628522.8877563477 6094499.077911377 0 0 0 0 -13936786.661300659 6769046.3134613037 0 6769046.3134613037 701392.17611694336 0 0 0 0 -18754685.608972549 5303941.6644630432 0 5303941.6644630432 5897805.3075256348 0 0 0 0 -76623.756310294382 4341890.5902140131 0 4341890.5902140131 9424983.7894808426 0 0 0 0 -8085393.5613088608 -2784138.2235507965 0 -2784138.2235507965 9409582.6564788818 0 0 0 0 -11991962.244665146 -2103330.1509342194 0 -2103330.1509342194 12488555.145523071 0 0 0 0 -17772859.749740601 3209034.7155609131 0 3209034.7155609131 17455004.095535278 0 0 0 0 1736747.9855970582 1124212.2984919115 0 1124212.2984919115 -2663479.3586045261 0 0 0 0 -3104742.997428298 14481561.438847363 0 14481561.438847363 44732963.758773804 0 0 0 0 -21650344.673454285 9886313.2337875366 0 9886313.2337875366 -19222061.760726929 0 0 0 0 -3739838.2105893558 5680864.0796900894 0 5680864.0796900894 9890919.0028195716 0 0 0 0 -3241361.4022445679 10583961.114093781 0 10583961.114093781 40609807.687286377 0 0 0 0 13290414.720397949 24199060.39434433 0 24199060.39434433 36761666.680217743 0 0 0 0 2348848.0920467377 19963118.392145634 0 19963118.392145634 45584132.223167419 0 0 0 0 1403925.7898788452 14186156.189735413 0 14186156.189735413 35417031.923034668 0 0 0 0 -7073699.0365486145 35950095.51543045 0 35950095.51543045 25295119.224479675 0 0 0 0 18723070.568458557 18334815.239822388 0 18334815.239822388 -13548786.042381287 0 0 0 0 -6488091.8419456482 -10248321.928138733 0 -10248321.928138733 15535316.089851379 0 0 0 0 7944219.9616413116 -642389.06622314453 0 -642389.06622314453 21907686.105140686 0 0 0 0 -15483513.043117523 -6309208.4309921265 0 -6309208.4309921265 26153688.781738281 0 0 0 0 8650966.6569805145 -4013911.2899971008 0 -4013911.2899971008 37434900.859062195 0 0 0 0 7957527.5728874207 15980093.098876953 0 15980093.098876953 26034617.364456177 0 0 0 0 7175229.9480543137 13728194.425189972 0 13728194.425189972 35311960.523674011 0 0 0 0 -4255841.5165176392 1505221.6968612671 0 1505221.6968612671 31495714.885536194 0 0 0 0 -491382.63095350284 208737.06463230401 0 208737.06463230401 9070833.3172010705 0 0 0 0 -11506940.99148941 593872.34104537964 0 593872.34104537964 33194909.223171234 0 0 0 0 -15340061.493454695 -1372477.5853934884 0 -1372477.5853934884 32194566.465442657 0 0 0 0 -2485909.2208592515 2891750.1920860428 0 2891750.1920860428 11239363.619586714 0 0 0 0 -9430076.9684791565 8475196.6269931793 0 8475196.6269931793 4497610.4834594727 0 0 0 0 -10568223.54221344 8535773.7512054443 0 8535773.7512054443 5400811.3898849487 0 0 0 0 -11378029.896230698 4758573.1661720276 0 4758573.1661720276 -1293973.2816162109 0 0 0 0 -4182265.5273633553 3103814.4371957015 0 3103814.4371957015 13696036.405711617 0 0 0 0 -3261353.0329284668 1347813.0888061523 0 1347813.0888061523 2642696.7741451263 0 0 0 0 -97078.898357957485 -478804.71230823686 0 -478804.71230823686 14888581.735481907 0 0 0 0 2086428.30078125 3971831.6798467636 0 3971831.6798467636 34167696.855236053 0 0 0 0 -944621.71592343971 773302.77481717337 0 773302.77481717337 8395223.8689829297 0 0 0 0 -11233782.279471397 6151437.9804267883 0 6151437.9804267883 31536896.710738182 0 0 0 0 257379.85515014187 1521822.5635032416 0 1521822.5635032416 2129874.4237710722 0 0 0 0 -1800726.2910205647 1950884.6099712248 0 1950884.6099712248 11797643.632411534 0 0 0 0 -179254.81631852686 330220.79787019826 0 330220.79787019826 2415695.4965698682 0 0 0 0 4388451.7250118256 5406574.2471523285 0 5406574.2471523285 30437101.485561371 0 0 0 0 -8145993.175617218 2185326.9479436874 0 2185326.9479436874 29640891.491596222 0 0 0 0 -568332.37842559814 2380950.0298194885 0 2380950.0298194885 37381670.966462851 0 0 0 0 -9402505.4382667542 25331482.912525177 0 25331482.912525177 58739095.321708679 0 0 0 0 -7133018.1900184155 -5408872.5815622807 0 -5408872.5815622807 18172394.934436798 0 0 0 0 7228721.5302586555 15642402.312958717 0 15642402.312958717 26129541.119651794 0 0 0 0 -3209992.9205741882 7926431.0575714111 0 7926431.0575714111 31300437.085754395 0 0 0 0 -6894837.3380583525 -10433762.968065262 0 -10433762.968065262 12703301.667694092 0 0 0 0 48494.210911318834 -116011.08732107561 0 -116011.08732107561 82677.665656432509 0 0 0 0 -10760209.076409221 5329531.6155014038 0 5329531.6155014038 10201006.363609314 0 0 0 0 4114290.0110827088 4238038.4567489624 0 4238038.4567489624 -2578771.8989334106 0 0 0 0 12827501.11371851 -2832843.2940979004 0 -2832843.2940979004 3268387.1967926025 0 0 0 0 -13938306.085610151 1673644.9863128662 0 1673644.9863128662 31397543.150680542 0 0 0 0 15817593.53101635 19658384.306503296 0 19658384.306503296 37605821.50377655 0 0 0 0 -6119326.6247134209 4733170.646194458 0 4733170.646194458 40738525.339775085 0 0 0 0 -16142901.071021229 21202338.005358696 0 21202338.005358696 29468357.316711426 0 0 0 0 3802620.2810436487 3707879.2059020996 0 3707879.2059020996 19824219.607727051 0 0 0 0 -1621665.1551607454 -741204.06414672174 0 -741204.06414672174 9890363.2936266214 0 0 0 0 -6104158.1238951683 9011086.6861572266 0 9011086.6861572266 33829934.592422485 0 0 0 0 -830418.5747140646 1500592.3348236084 0 1500592.3348236084 18848377.421264648 0 0 0 0 -1623038.2198629261 -25740.331082329154 0 -25740.331082329154 10261944.510360219 0 0 0 0 -6487289.0713777542 3891221.5038146973 0 3891221.5038146973 -3053799.1011581421 0 0 0 0 -272516.97645115852 -4115459.9074058533 0 -4115459.9074058533 6633034.4990844727 0 0 0 0 -1524125.7774438858 8384043.5788230896 0 8384043.5788230896 804504.71557617188 0 0 0 0 2731662.446429491 2309904.5149917603 0 2309904.5149917603 1784963.1352920532 0 0 0 0 1015891.5581462383 -2581723.7431793213 0 -2581723.7431793213 -3953976.1456832886 0 0 0 0 10687574.421949863 7593504.3094329834 0 7593504.3094329834 -1533736.2273101807 0 0 0 0 30071047.676154137 -5593772.0808410645 0 -5593772.0808410645 28037657.143154144 0 0 0 0 4861570.6010758877 110296.68769836426 0 110296.68769836426 26948400.933395386 0 0 0 0 3901798.8736977577 5517969.978729248 0 5517969.978729248 28429703.075012207 0 0 0 0 1116862.5643644333 -4914032.8088760376 0 -4914032.8088760376 23444968.274871826 0 0 0 0 11946287.896873951 -665899.48550033569 0 -665899.48550033569 10678351.532028198 0 0 0 0 1999851.0095621347 -3127101.7382488251 0 -3127101.7382488251 10073362.781265259 0 0 0 0 3801510.8921103477 -4821317.3853187561 0 -4821317.3853187561 11814735.148452759 0 0 0 0 -3339736.2383327484 1547246.3926925659 0 1547246.3926925659 19336801.833450317 0 0 0 0 -2476080.9999217093 -7481154.8148975372 0 -7481154.8148975372 12332782.221893311 0 0 0 0 -5483551.8328624666 -7661531.6164827347 0 -7661531.6164827347 11719662.999053955 0 0 0 0 -5071336.0112185478 -1201273.0489349365 0 -1201273.0489349365 10346692.109428406 0 0 0 0 1497461.9611933231 6202178.7341957092 0 6202178.7341957092 29015999.58757019 0 0 0 0 -234923.18769025803 -1569976.6254959106 0 -1569976.6254959106 22374203.145874023 0 0 0 0 1460478.9807670116 11103466.213962555 0 11103466.213962555 39416751.938690186 0 0 0 0 7358379.7528162003 9370155.2478027344 0 9370155.2478027344 23482456.159753799 0 0 0 0 -229762.91512668261 1218294.6314781699 0 1218294.6314781699 3840838.6700608078 0 0 0 0 12073167.211143553 15197291.217012405 0 15197291.217012405 28594101.815162659 0 0 0 0 9815729.9265925884 17888300.07421875 0 17888300.07421875 34046327.087486267 0 0 0 0 2681117.1107931137 4549868.705871582 0 4549868.705871582 29932492.381484985 0 0 0 0 23114898.740360737 30910495.441123962 0 30910495.441123962 34684512.584655762 0 0 0 0 2639248.570305258 3974709.0766310692 0 3974709.0766310692 62717042.903411865 0 0 0 0 -581334.21476364136 10660369.045715332 0 10660369.045715332 -34938.794784545898 0 0 0 0 3516218.0876746178 8862991.8314704895 0 8862991.8314704895 -13425663.929016113 0 0 0 0 4460463.3581290245 4245125.9590148926 0 4245125.9590148926 -2628668.2679748535 0 0 0 0 17221961.166315079 23053538.10357666 0 23053538.10357666 25351687.825802803 0 0 0 0 5281423.5744620562 1236146.2668685913 0 1236146.2668685913 -20479186.195549011 0 0 0 0 -168187.85708493611 623253.05627100915 0 623253.05627100915 1861796.4222042374 0 0 0 0 6424722.6455447674 24596775.726264954 0 24596775.726264954 47981402.516990662 0 0 0 0 -1738007.9327103279 1295926.1917184405 0 1295926.1917184405 10919823.263645431 0 0 0 0 -307316.3368473053 5165148.1954612732 0 5165148.1954612732 4086893.6340942383 0 0 0 0 -739666.07756614685 8810536.253288269 0 8810536.253288269 37380191.79161787 0 0 0 0 -133992.87417143933 6632253.8655836126 0 6632253.8655836126 3273265.8179808185 0 0 0 0 -380745.74868297577 4697462.1091270447 0 4697462.1091270447 7184993.6797904968 0 0 0 0 21358.627794953063 3217109.463906927 0 3217109.463906927 7039095.3742728904 0 0 0 0 160179.38842105865 1905006.6463470459 0 1905006.6463470459 3014137.1514282227 0 0 0 0 -86210.11012384115 961321.45307094604 0 961321.45307094604 1501375.3198662607 0 0 0 0 -7300543.5710277557 8203820.5710372925 0 8203820.5710372925 42295608.897371292 0 0 0 0 -4207182.8093767166 -2863550.5188064575 0 -2863550.5188064575 75122359.336860657 0 0 0 0 -1051169.2407115339 -135147.36061764695 0 -135147.36061764695 1395064.0398085639 0 0 0 0 261630.88727617264 11283367.86674118 0 11283367.86674118 -4174345.2561035156 0 0 0 0 812890.29689145018 3914668.4448851831 0 3914668.4448851831 3123070.4507011399 0 0 0 0 -660545.4525891766 3527063.7494316101 0 3527063.7494316101 3305513.7097625732 0 0 0 0 -600870.8373966217 4290324.2530899048 0 4290324.2530899048 3727772.484457016 0 0 0 0 1091405.1321102907 6332411.9270243719 0 6332411.9270243719 1996532.528177157 0 0 0 0 330301.81338119507 11143074.296928406 0 11143074.296928406 794645.31494903564 0 0 0 0 -26676023.513432503 26244891.021263123 0 26244891.021263123 -8312304.7225723267 0 0 0 0 7881898.7513164282 7840924.1748352051 0 7840924.1748352051 -41967524.247009277 0 0 0 0 158920.34246705551 1875405.5233980478 0 1875405.5233980478 766534.99137816578 0 0 0 0 -18001421.145733356 14876989.41394043 0 14876989.41394043 4064312.7117776871 0 0 0 0 -6770124.3593969345 33420936.656856537 0 33420936.656856537 -36030384.966651917 0 0 0 0 8122534.9284973145 13079655.31388092 0 13079655.31388092 -13883565.666417599 0 0 0 0 5672778.4554091692 19494036.86712265 0 19494036.86712265 -23334450.139083862 0 0 0 0 15732475.34126851 11983156.045872688 0 11983156.045872688 -29737921.5181427 0 0 0 0 13415707.619960785 1832425.7111434937 0 1832425.7111434937 -51294052.166870117 0 0 0 0 -20687994.094414592 38472027.140975952 0 38472027.140975952 -31395906.883087158 0 0 0 0 4493553.6042890549 28902090.530555725 0 28902090.530555725 -57412698.771591187 0 0 0 0 7952281.7358982563 7987929.5430698395 0 7987929.5430698395 -18718286.439300537 0 0 0 0 2883913.1207504272 5071640.8360519409 0 5071640.8360519409 -20084958.323825836 0 0 0 0 -1359219.3052043915 -1774437.2893638611 0 -1774437.2893638611 -21912402.800674438 0 0 0 0 8385857.3003787994 9392992.7997779846 0 9392992.7997779846 -25297974.386306763 0 0 0 0 14377533.530810833 5576876.3000793457 0 5576876.3000793457 -27813927.68315506 0 0 0 0 20194740.906590223 -2752812.650806427 0 -2752812.650806427 -19372825.659545898 0 0 0 0 12349882.46489203 1200691.2575368881 0 1200691.2575368881 -18778639.982192993 0 0 0 0 6531955.4774084091 3097219.6908721924 0 3097219.6908721924 -14732078.020751953 0 0 0 0 6263749.7334830165 -756274.77294826508 0 -756274.77294826508 -7338194.7401123047 0 0 0 0 1667214.9932131767 -4304332.4551391602 0 -4304332.4551391602 6382778.2620697021 0 0 0 0 12723526.86582303 -6104136.3667259216 0 -6104136.3667259216 -7880438.2281417847 0 0 0 0 854192.75653266907 -2889243.3634185791 0 -2889243.3634185791 3986157.3363342285 0 0 0 0 3188319.6467995942 -5444439.723120451 0 -5444439.723120451 1975208.7204742432 0 0 0 0 3152420.057057783 -6464241.7213083506 0 -6464241.7213083506 5296543.8262786865 0 0 0 0 20137818.076495171 -13574848.121765137 0 -13574848.121765137 -631158.24942016602 0 0 0 0 12273578.574909925 -2313646.496837616 0 -2313646.496837616 -14874888.694908142 0 0 0 0 586169.27116155624 -493177.72933197021 0 -493177.72933197021 11912159.419792175 0 0 0 0 23079815.501984596 -13203591.53698349 0 -13203591.53698349 -622587.92265319824 0 0 0 0 2662433.5855090618 -10753595.601165771 0 -10753595.601165771 20258350.104652405 0 0 0 0 8166863.9535102844 -15727267.4220047 0 -15727267.4220047 38587037.781181335 0 0 0 0 -758855.8220179081 -3832525.3379859924 0 -3832525.3379859924 6445480.9452056885 0 0 0 0 307523.98983812332 -2993772.9267997742 0 -2993772.9267997742 7102722.2707138062 0 0 0 0 5661057.8972187042 22845765.540748596 0 22845765.540748596 -24696593.035667419 0 0 0 0 10080674.399306059 20849147.10785675 0 20849147.10785675 -12256450.86656189 0 0 0 0 23815554.013264418 29447763.020507812 0 29447763.020507812 -22830834.153358459 0 0 0 0 39549854.435137987 -831931.6935043335 0 -831931.6935043335 -28061916.105466843 0 0 0 0 7862982.6872689724 12639406.433889389 0 12639406.433889389 -6809230.9882049561 0 0 0 0 39671388.026795864 -1884864.9951705933 0 -1884864.9951705933 -3290999.8709907532 0 0 0 0 57700478.26648517 21715176.84538126 0 21715176.84538126 22967651.818847656 0 0 0 0 50152300.594194889 -35398504.591644287 0 -35398504.591644287 17573528.02696228 0 0 0 0 77444907.333646774 -38099198.323104858 0 -38099198.323104858 39351816.572725296 0 0 0 0 31423406.448866844 30008608.973265648 0 30008608.973265648 -8783333.0894012451 0 0 0 0 42153876.894738436 -97814.507690429688 0 -97814.507690429688 -1297593.8327865601 0 0 0 0 14333700.835022211 12662223.734733582 0 12662223.734733582 15925282.947219849 0 0 0 0 3363643.6294081211 13282479.547782898 0 13282479.547782898 -3380051.6297302246 0 0 0 0 1988756.9290103912 29820663.100112915 0 29820663.100112915 -31462073.675582886 0 0 0 0 16223018.484372675 24295328.488703251 0 24295328.488703251 -19596698.592987061 0 0 0 0 -4346682.3087131977 32033670.987297058 0 32033670.987297058 -9492052.9999465942 0 0 0 0 12601906.215473711 31604323.118349075 0 31604323.118349075 -24222484.734268188 0 0 0 0 -16611302.369892836 42471057.938308716 0 42471057.938308716 -19526197.193069458 0 0 0 0 -3112412.8634082079 31055567.858213425 0 31055567.858213425 -30501358.931594849 0 0 0 0 -2222507.835157752 38405272.953620911 0 38405272.953620911 -30221198.001815796 0 0 0 0 -2217732.3260340691 40914777.952224731 0 40914777.952224731 -21529839.018325806 0 0 0 0 -21742516.634179592 33378318.076644897 0 33378318.076644897 -31913450.384908676 0 0 0 0 -48368737.853546858 34391297.421379089 0 34391297.421379089 -21217407.899131775 0 0 0 0 -17229265.209200978 41998694.685638428 0 41998694.685638428 -28133468.16796875 0 0 0 0 -17929608.401355982 25147420.809432983 0 25147420.809432983 -20828122.068305969 0 0 0 0 -36208528.110720873 47427939.775215149 0 47427939.775215149 -34114256.592483521 0 0 0 0 -56238229.56039381 50739957.299865723 0 50739957.299865723 -25978795.246871948 0 0 0 0 24676888.342901707 7312321.1460266113 0 7312321.1460266113 -20906170.991744995 0 0 0 0 -45369209.101737261 32791870.244255066 0 32791870.244255066 -41227708.111030579 0 0 0 0 -22323799.729085565 18316261.741266251 0 18316261.741266251 5851085.8291244507 0 0 0 0 -47359666.260643959 -57323899.530548096 0 -57323899.530548096 -6034505.7978820801 0 0 0 0 1745027.760161899 1149468.9435912855 0 1149468.9435912855 242287.33430033177 0 0 0 0 -22948445.591703415 16299721.11946106 0 16299721.11946106 45433112.848716736 0 0 0 0 -15878597.467638016 -3770165.6010017395 0 -3770165.6010017395 -76269692.245635986 0 0 0 0 1094601.3977110295 4314543.5540959574 0 4314543.5540959574 7429038.9810221549 0 0 0 0 -46638551.810192108 80103443.95841217 0 80103443.95841217 -43172336.800834656 0 0 0 0 -7918082.6815576553 7658980.6195259094 0 7658980.6195259094 6658946.1602783203 0 0 0 0 7737353.2751464844 70253739.618095398 0 70253739.618095398 -79565028.655529022 0 0 0 0 -5112081.3686742783 60108704.238540649 0 60108704.238540649 -51804266.685668945 0 0 0 0 19782312.28181076 1074762.3553009033 0 1074762.3553009033 -28633675.859115601 0 0 0 0 -53434325.749988556 22686625.633422852 0 22686625.633422852 -27483090.167358875 0 0 0 0 1911376.6748639876 893623.25882773846 0 893623.25882773846 -1657793.9444873296 0 0 0 0 2768319.7771457643 2039239.6265876405 0 2039239.6265876405 611700.98109292239 0 0 0 0 -12048261.304800987 26481492.522842407 0 26481492.522842407 -29165288.061599731 0 0 0 0 907816.59289360046 20305633.584899902 0 20305633.584899902 -38564100.832870483 0 0 0 0 -78637333.68847847 -15556823.438049316 0 -15556823.438049316 -40641077.834274292 0 0 0 0 -93701224.114835739 9553226.9825210571 0 9553226.9825210571 -14738162.035873413 0 0 0 0 47457310.776306152 1628474.4330749512 0 1628474.4330749512 -91992936.988739014 0 0 0 0 18329467.773125648 76372584.272817612 0 76372584.272817612 10545775.866729736 0 0 0 0 -16838867.939598083 46407488.301635742 0 46407488.301635742 35070643.674507141 0 0 0 0 -2224890.398771286 5149059.1459655762 0 5149059.1459655762 4150318.1268501282 0 0 0 0 253333.32598495483 3107904.2901916504 0 3107904.2901916504 5550378.7033843994 0 0 0 0 -5414697.0394859314 4328622.9584197998 0 4328622.9584197998 7419950.5058746338 0 0 0 0 -1660551.2758255005 1103613.0617904663 0 1103613.0617904663 8186914.1754350662 0 0 0 0 -3815814.8985242844 1916792.8047866821 0 1916792.8047866821 8270705.1148452759 0 0 0 0 -2021730.6689319611 2498278.0580749512 0 2498278.0580749512 7373763.6554224491 0 0 0 0 -2234181.501718998 2986514.2645273209 0 2986514.2645273209 6991895.0471496582 0 0 0 0 -422048.94451713562 2475620.0626373291 0 2475620.0626373291 7036983.8612542152 0 0 0 0 -1550781.2775742412 2177228.7269411087 0 2177228.7269411087 7353126.0324478149 0 0 0 0 -1595937.0730820894 1299080.3966056108 0 1299080.3966056108 7747657.0037536621 0 0 0 0 -390684.68483734131 2169337.2651367188 0 2169337.2651367188 7255836.5922775269 0 0 0 0 1276621.3239135928 3898013.2127212295 0 3898013.2127212295 5191036.3632327542 0 0 0 0 382525.26525688171 1987104.5135879517 0 1987104.5135879517 6641523.3630828857 0 0 0 0 -14853781.207012177 24393039.286758423 0 24393039.286758423 10563038.482910156 0 0 0 0 -2221255.9517784119 65379253.787368774 0 65379253.787368774 1161302.0184326172 0 0 0 0 2362251.5700655337 1591296.7171927253 0 1591296.7171927253 -3547704.6417875923 0 0 0 0 -16164364.858436584 39365959.000595093 0 39365959.000595093 31813196.515510559 0 0 0 0 -18006977.937297821 14461365.865856171 0 14461365.865856171 -20700807.817047119 0 0 0 0 -40404891.542808533 24804793.436355591 0 24804793.436355591 -26503080.221374512 0 0 0 0 -11947393.305362701 3745507.8896179199 0 3745507.8896179199 -58777413.7237854 0 0 0 0 -18700186.881275177 37816757.384567261 0 37816757.384567261 11299689.526092529 0 0 0 0 -20445304.383178711 27586652.718917847 0 27586652.718917847 5181070.5808105469 0 0 0 0 -16284229.706123352 34633789.893188477 0 34633789.893188477 7004683.5114593506 0 0 0 0 -18928078.643400192 32759602.527084351 0 32759602.527084351 16099461.378295898 0 0 0 0 -19273241.256824493 31285751.035140991 0 31285751.035140991 3460816.3977661133 0 0 0 0 -16194425.713401794 32986235.375839233 0 32986235.375839233 4193454.633026123 0 0 0 0 -20312797.207690954 24422246.056022644 0 24422246.056022644 -8405045.4538574219 0 0 0 0 -1219502.1072692871 49396310.194763184 0 49396310.194763184 461608.6588973999 0 0 0 0 -19979918.004737854 11284030.103973389 0 11284030.103973389 17206352.338624954 0 0 0 0 20121056.037166595 2914649.1571044922 0 2914649.1571044922 -92765788.861541748 0 0 0 0 33013376.822690964 23610800.397537231 0 23610800.397537231 -94592795.79019165 0 0 0 0 53902940.271465302 63234025.736434937 0 63234025.736434937 -70799779.271087646 0 0 0 0 -668788.14687624341 -246830.95888699405 0 -246830.95888699405 1711972.325119812 0 0 0 0 5250714.2386016846 29085207.064117432 0 29085207.064117432 -28677745.896461487 0 0 0 0 -7829797.556388855 35362622.501342773 0 35362622.501342773 -27035405.404907227 0 0 0 0 -17365526.372024536 9916242.5983734131 0 9916242.5983734131 -3443762.7704162598 0 0 0 0 -24629016.009727478 19425787.393722534 0 19425787.393722534 4464570.7472343445 0 0 0 0 -15144704.086479187 7600827.4989471436 0 7600827.4989471436 -6059389.7904968262 0 0 0 0 5083722.2929450274 5082299.4544258118 0 5082299.4544258118 -30328965.624313354 0 0 0 0 -12247333.810417175 17609976.534172058 0 17609976.534172058 -38047786.047088623 0 0 0 0 3946821.3050879384 4321177.7820799761 0 4321177.7820799761 1398597.0605990328 0 0 0 0 -63406890.864868164 -13403293.296394348 0 -13403293.296394348 58391321.458007812 0 0 0 0 -31010397.561965942 -27270129.772293091 0 -27270129.772293091 -31420708.308961868 0 0 0 0 -12307002.276584625 14331317.155006409 0 14331317.155006409 -613804.02033233643 0 0 0 0 -18850356.435665131 11913400.953109741 0 11913400.953109741 17887385.219329834 0 0 0 0 -24530514.575904846 39515567.117523193 0 39515567.117523193 51403954.195622444 0 0 0 0 3228725.0241630077 25514330.362480164 0 25514330.362480164 -25295607.688776016 0 0 0 0 -16505892.977288723 36094532.147397995 0 36094532.147397995 -29492266.76008606 0 0 0 0 34673676.113180161 6530636.7404899597 0 6530636.7404899597 -12849439.347427368 0 0 0 0 3189648.1969387354 2938545.2582447035 0 2938545.2582447035 939545.79530392587 0 0 0 0 -15438762.171930075 41539758.223739624 0 41539758.223739624 -29567029.107284546 0 0 0 0 1979537.9541940759 1050560.9972307147 0 1050560.9972307147 -1332337.8356004171 0 0 0 0 -10286432.205833435 38251951.623825073 0 38251951.623825073 2949635.0386047363 0 0 0 0 -15170882.056034088 45172051.776504517 0 45172051.776504517 26063120.494941711 0 0 0 0 2382.7223957336105 1272574.5450782776 0 1272574.5450782776 2121216.9908676147 0 0 0 0 382833.94316251343 1253012.0721053779 0 1253012.0721053779 1670557.2391052246 0 0 0 0 -793959.53163740691 2219779.0830574036 0 2219779.0830574036 1506419.2495193481 0 0 0 0 387721.12934084516 1851219.0313949585 0 1851219.0313949585 1212065.4392700195 0 0 0 0 -467098.60283256834 4098568.8366127014 0 4098568.8366127014 -1195678.8648300171 0 0 0 0 -839558.57520667522 2939171.0910680294 0 2939171.0910680294 1413363.4584197998 0 0 0 0 -444191.7512927358 3682727.7206192017 0 3682727.7206192017 5294660.268157959 0 0 0 0 -1186.8937591229642 1680322.8624382019 0 1680322.8624382019 13406798.350601196 0 0 0 0 1120539.3865648112 3029799.6127662659 0 3029799.6127662659 5546874.8420715332 0 0 0 0 -493269.5499745066 3621560.220284462 0 3621560.220284462 14986465.716598511 0 0 0 0 -172779.03346886637 2434751.1321163177 0 2434751.1321163177 16892914.569915771 0 0 0 0 379876.9185036791 3777875.5299034119 0 3777875.5299034119 18341972.160881042 0 0 0 0 4668061.8499574633 1968080.2325744629 0 1968080.2325744629 -3886180.4426651001 0 0 0 0 971917.82938617701 3933320.068862915 0 3933320.068862915 16086620.339065552 0 0 0 0 -708.99767138874631 6841.4744471814483 0 6841.4744471814483 8531.2096118903719 0 0 0 0 -3288651.9862794094 287439.7855758667 0 287439.7855758667 2217713.352722168 0 0 0 0 -73621.147630163468 3707028.8112068176 0 3707028.8112068176 17159965.716278076 0 0 0 0 232251.30540687218 3368017.3363733292 0 3368017.3363733292 16930330.499206543 0 0 0 0 55443.609833979048 3901731.7168064117 0 3901731.7168064117 16602777.778640747 0 0 0 0 157260.11181800626 3146700.2748260498 0 3146700.2748260498 17298462.985641479 0 0 0 0 -500943.93372596521 3222278.0293502808 0 3222278.0293502808 14818185.439620972 0 0 0 0 1489339.9528729813 6313558.6721343994 0 6313558.6721343994 15792742.535140991 0 0 0 0 -4318.8854272051303 21931.971976825967 0 21931.971976825967 26594.039172723889 0 0 0 0 -240475.19668527693 -5119.6990356445312 0 -5119.6990356445312 727920.48477554321 0 0 0 0 809684.82442996278 -285981.74633789062 0 -285981.74633789062 444535.38009643555 0 0 0 0 811222.62390627619 3552484.6314525604 0 3552484.6314525604 13770128.965881348 0 0 0 0 342661.97615044564 151819.3683385849 0 151819.3683385849 761477.99975585938 0 0 0 0 -8768.1001433745205 -11776.056093463674 0 -11776.056093463674 99183.989293778315 0 0 0 0 -191936.62920174375 -1441342.414604187 0 -1441342.414604187 2356861.5636978149 0 0 0 0 -749150.1671957185 3762495.8022983074 0 3762495.8022983074 -1470152.0569076538 0 0 0 0 -325303.34452930838 1428631.6611480713 0 1428631.6611480713 -1330342.7071847916 0 0 0 0 -1521082.9958977252 1221985.5941848755 0 1221985.5941848755 956223.70014953613 0 0 0 0 -1669079.2082301863 873851.28309249878 0 873851.28309249878 775480.39625549316 0 0 0 0 -1326332.4894986432 505020.72174835205 0 505020.72174835205 99901.834938049316 0 0 0 0 -375214.16267825663 -504503.46824645996 0 -504503.46824645996 1267822.3074188232 0 0 0 0 -140954.5854541999 31385.092781962827 0 31385.092781962827 479608.8750622496 0 0 0 0 -1068664.8398666717 1252183.2978744507 0 1252183.2978744507 264602.01330566406 0 0 0 0 -282620.58924211003 -582224.18615245819 0 -582224.18615245819 817690.4859161377 0 0 0 0 -570695.50530313305 365886.8618391417 0 365886.8618391417 2131382.5803883262 0 0 0 0 -143341.92079740073 -436465.52329896856 0 -436465.52329896856 -86445.628031916916 0 0 0 0 -1091537.7462124266 -667924.84988021851 0 -667924.84988021851 -456348.74435806274 0 0 0 0 -1420333.9061379186 -2424521.537364006 0 -2424521.537364006 -1394080.5916442871 0 0 0 0 -956685.79103601852 -251846.40916098468 0 -251846.40916098468 1857621.7630336583 0 0 0 0 -1300416.706154529 608475.67523574829 0 608475.67523574829 -605098.08106231689 0 0 0 0 -193494.50381887704 -236681.69371795654 0 -236681.69371795654 441594.21217346191 0 0 0 0 -188046.63481096923 134011.45434570312 0 134011.45434570312 516129.01784133911 0 0 0 0 -239716.03538663685 -93609.190444946289 0 -93609.190444946289 1252815.5446872711 0 0 0 0 -66052.217124912888 202047.42546844482 0 202047.42546844482 280807.11082458496 0 0 0 0 2952137.92271931 2025543.008895874 0 2025543.008895874 7743039.7102737427 0 0 0 0 -10453.569139622439 51341.545196503401 0 51341.545196503401 52076.060582871549 0 0 0 0 -54360.839083693922 95696.034339904785 0 95696.034339904785 131912.66201782227 0 0 0 0 756664.05933797662 1101650.5334205627 0 1101650.5334205627 9963928.8379669189 0 0 0 0 1881573.5919495174 3713766.2307052612 0 3713766.2307052612 12875621.090011597 0 0 0 0 1645223.9839858895 3907706.1882426739 0 3907706.1882426739 12779210.517562866 0 0 0 0 6229624.89238049 5103099.7797164917 0 5103099.7797164917 9150117.0415496826 0 0 0 0 3401307.3293243675 1630644.6100616455 0 1630644.6100616455 9707119.8845558167 0 0 0 0 -1586779.1553892419 3409679.2765960693 0 3409679.2765960693 10109697.265756607 0 0 0 0 3123335.145768282 1802841.3921585083 0 1802841.3921585083 10222329.229171753 0 0 0 0 3962182.5341716534 379969.05834579468 0 379969.05834579468 5642882.5973358154 0 0 0 0 -125432.36454754238 -164528.9863109584 0 -164528.9863109584 -4744.4106119200587 0 0 0 0 2738079.1601729547 -4590650.0068035126 0 -4590650.0068035126 7116178.3266601562 0 0 0 0 1187090.4024203159 1108122.6777496338 0 1108122.6777496338 1419509.9377441406 0 0 0 0 41.194389923821291 -18820.613749478012 0 -18820.613749478012 -2794.5482730860822 0 0 0 0 1200881.6379034957 -144944.60875320435 0 -144944.60875320435 -1594741.1408538818 0 0 0 0 -176189.73358505219 54057.905857086182 0 54057.905857086182 330551.15924072266 0 0 0 0 -5138.3082270176865 -6821.7418603338301 0 -6821.7418603338301 -903.55303353816271 0 0 0 0 -6759358.1658163313 -7805269.0412597656 0 -7805269.0412597656 133641.2893371582 0 0 0 0 3862845.323241604 -8476485.2232847214 0 -8476485.2232847214 -1616249.3933105469 0 0 0 0 -628662.8087946903 73392.39790395461 0 73392.39790395461 2387011.3074897155 0 0 0 0 4066180.8308668695 -2003037.6798629761 0 -2003037.6798629761 2954867.7719573975 0 0 0 0 4106859.0720199607 -2528542.23097229 0 -2528542.23097229 9175080.4417266846 0 0 0 0 -4825787.1864090338 3117736.9095191956 0 3117736.9095191956 1825188.605140686 0 0 0 0 4140692.4358130023 2011570.8257598877 0 2011570.8257598877 7359506.0731964111 0 0 0 0 4083031.5852771811 2916000.8104553223 0 2916000.8104553223 2124311.5403900146 0 0 0 0 -592585.10707465129 -147061.62403819524 0 -147061.62403819524 2642072.8728454337 0 0 0 0 -11208636.090909945 -7483010.1026000977 0 -7483010.1026000977 3762696.0045051575 0 0 0 0 -2863279.6220521927 -19801237.024082184 0 -19801237.024082184 46130784.331848145 0 0 0 0 -655858.76472270675 -2774266.5264892578 0 -2774266.5264892578 -1851932.8876342773 0 0 0 0 -11640712.468682528 -809806.65081787109 0 -809806.65081787109 9678928.0291442871 0 0 0 0 -17817317.131039619 -4385250.4928131104 0 -4385250.4928131104 15834329.816986084 0 0 0 0 -19675502.843869269 -18929395.750293255 0 -18929395.750293255 11902251.96534729 0 0 0 0 7249382.8915262222 21097505.435844421 0 21097505.435844421 -18561421.652206421 0 0 0 0 -10345189.195911407 -3934952.8743133545 0 -3934952.8743133545 10905707.39414978 0 0 0 0 263.84153856226476 270643.91054359078 0 270643.91054359078 283315.60898277909 0 0 0 0 -14575366.223369122 -7305743.9914779663 0 -7305743.9914779663 15624311.514610291 0 0 0 0 -6118904.1243124008 -3764289.7081222534 0 -3764289.7081222534 17894057.962776184 0 0 0 0 8164012.8314633369 2526321.6344833374 0 2526321.6344833374 6898022.9874649048 0 0 0 0 -321233.32507658005 6577461.1955566406 0 6577461.1955566406 22651766.864395142 0 0 0 0 7497382.7303724289 7974503.7914123535 0 7974503.7914123535 -12107357.232252121 0 0 0 0 -3262067.7079425454 -17484987.834172726 0 -17484987.834172726 -5257165.6401062012 0 0 0 0 17842899.211547375 -3321824.3407974243 0 -3321824.3407974243 6546514.2278747559 0 0 0 0 181980.29940617678 870681.46513218246 0 870681.46513218246 832330.8254802227 0 0 0 0 -20994860.434298992 10343521.696918488 0 10343521.696918488 19960844.063949585 0 0 0 0 5682697.8231945038 4985187.2106018066 0 4985187.2106018066 2793240.2933502197 0 0 0 0 -1414059.0934791565 1955358.8369750977 0 1955358.8369750977 22070530.054561615 0 0 0 0 -11260506.57783699 -183101.22254943848 0 -183101.22254943848 5732602.1598510742 0 0 0 0 -1290119.0727448463 7661370.7259216309 0 7661370.7259216309 4811049.1429748535 0 0 0 0 9630833.3202152252 35234127.181137085 0 35234127.181137085 19104099.897476196 0 0 0 0 6362090.0197629929 23515963.69758606 0 23515963.69758606 8705436.9575042725 0 0 0 0 19540256.082784653 37490352.962402344 0 37490352.962402344 13014036.270568848 0 0 0 0 -1944570.6184039116 39640916.404830933 0 39640916.404830933 62929447.651165009 0 0 0 0 16293260.871617168 8674211.3047828674 0 8674211.3047828674 19322441.424255371 0 0 0 0 -5822319.8690519333 13434022.760040283 0 13434022.760040283 53848295.908592224 0 0 0 0 1785607.7810482979 -5694346.4450531006 0 -5694346.4450531006 -37448321.7631073 0 0 0 0 -93912.68757425237 165831.11418709904 0 165831.11418709904 584119.6891258806 0 0 0 0 12853412.406166077 7149508.5951309204 0 7149508.5951309204 -80826422.827194214 0 0 0 0 3476489.1159524918 -11167638.703041077 0 -11167638.703041077 2716424.0748434067 0 0 0 0 -2589893.3081021309 8363809.118309021 0 8363809.118309021 -16559163.32257843 0 0 0 0 -36887785.094839096 75438473.389709473 0 75438473.389709473 21070198.613464355 0 0 0 0 11204736.573257923 6384883.5724143982 0 6384883.5724143982 5156905.5141334534 0 0 0 0 20100622.333677709 34239320.51289463 0 34239320.51289463 -24396774.847442627 0 0 0 0 59961678.476501465 -70468210.490844727 0 -70468210.490844727 -11377667.365982056 0 0 0 0 -156519.07853531302 131693.01201194152 0 131693.01201194152 259523.38840120099 0 0 0 0 67099.577224284119 363110.42479667068 0 363110.42479667068 95803.078839920461 0 0 0 0 -1820290.4818572998 -2631959.8487701416 0 -2631959.8487701416 -5112495.7252502441 0 0 0 0 1098511.3622718104 1295854.1148082763 0 1295854.1148082763 848558.20144608244 0 0 0 0 16615582.796777964 2727522.2897377014 0 2727522.2897377014 -5018521.334777832 0 0 0 0 -135944.5226669613 701311.60274852347 0 701311.60274852347 1719594.8165589385 0 0 0 0 5407144.7785773277 -2571901.4448852539 0 -2571901.4448852539 1387135.4701728821 0 0 0 0 -2734424.8704938889 1191266.00365448 0 1191266.00365448 -1988032.0037689209 0 0 0 0 1053828.6821985245 7093746.4114074707 0 7093746.4114074707 -16849703.348632812 0 0 0 0 1431472.5456080437 192913.56694412231 0 192913.56694412231 -3888867.8263244629 0 0 0 0 3293633.0648732185 -3398286.8660507202 0 -3398286.8660507202 -3313687.4158058167 0 0 0 0 4432022.6246471405 -1048490.873134613 0 -1048490.873134613 1477269.8332519531 0 0 0 0 1909451.4440665245 -3191277.3384017944 0 -3191277.3384017944 2412503.2559967041 0 0 0 0 973301.83629345894 -2301532.860748291 0 -2301532.860748291 5749096.4009857178 0 0 0 0 438195.24704694748 -2262957.4394454956 0 -2262957.4394454956 5785026.4017601013 0 0 0 0 557056.06242358685 -1519873.4171929359 0 -1519873.4171929359 5608413.7948760986 0 0 0 0 3413019.6302198172 1854925.0109024048 0 1854925.0109024048 2268805.29637146 0 0 0 0 -637810.48935222626 29981.972106933594 0 29981.972106933594 1666135.4679260254 0 0 0 0 4392160.2433824539 -1600836.8305587769 0 -1600836.8305587769 2971182.3827004433 0 0 0 0 5416814.898794651 -155702.18873596191 0 -155702.18873596191 4995864.896900177 0 0 0 0 5760075.0025842786 -1646906.891576767 0 -1646906.891576767 3870162.3774414062 0 0 0 0 70471.262973435456 243145.74084052816 0 243145.74084052816 153421.14861360192 0 0 0 0 7457919.6733155251 -1336973.8756332397 0 -1336973.8756332397 1645821.5720367432 0 0 0 0 -141959.33418966309 776971.48071096558 0 776971.48071096558 1589325.8320832178 0 0 0 0 -6331407.8340679742 -623363.82613372803 0 -623363.82613372803 1957341.2941436768 0 0 0 0 -9443655.1786589846 -1961947.8000831604 0 -1961947.8000831604 11737747.759857178 0 0 0 0 -5742568.7544507794 7608809.9719161987 0 7608809.9719161987 13501790.037612915 0 0 0 0 16369979.560222669 -13590581.668121338 0 -13590581.668121338 -24940261.493164062 0 0 0 0 11240463.241110103 14198067.807098389 0 14198067.807098389 1142484.6513519287 0 0 0 0 6858907.9156016819 17869661.500869751 0 17869661.500869751 21505489.097198486 0 0 0 0 -5799482.0499012582 -5360757.0790901184 0 -5360757.0790901184 -13429571.810501099 0 0 0 0 -15270403.774604434 -5086814.9703102112 0 -5086814.9703102112 27152626.838165283 0 0 0 0 -413808.54833413486 402985.73710927367 0 402985.73710927367 874874.18599456828 0 0 0 0 -1587695.3665299416 2182299.7745132446 0 2182299.7745132446 -1591047.5460739136 0 0 0 0 -203935.10097902839 567024.25884221122 0 567024.25884221122 774096.44862594455 0 0 0 0 -221081.84002351761 463807.47200012207 0 463807.47200012207 356564.55444717407 0 0 0 0 65650.571980464942 451909.86803808995 0 451909.86803808995 915701.36916536093 0 0 0 0 14025938.788881479 16631707.154510498 0 16631707.154510498 11223289.091506958 0 0 0 0 -51081.596420838359 223665.56535963528 0 223665.56535963528 420880.49657772575 0 0 0 0 4155262.8179799914 91842.123489379883 0 91842.123489379883 -404638.27460670471 0 0 0 0 -247699.00046576952 78077.550912827253 0 78077.550912827253 325439.13683201745 0 0 0 0 1504309.0476747267 1577751.6712722778 0 1577751.6712722778 1869201.9684104919 0 0 0 0 36882976.249432161 13525322.311645508 0 13525322.311645508 -6409328.7442474365 0 0 0 0 44780.989668789109 94666.482277533971 0 94666.482277533971 57084.786277774721 0 0 0 0 -404762.41013520211 -4664728.0399780273 0 -4664728.0399780273 4498627.4540863037 0 0 0 0 3384519.1291548051 -2850909.7584877014 0 -2850909.7584877014 1576579.4220123291 0 0 0 0 -1335513.4740969939 -762979.59362602234 0 -762979.59362602234 1823440.4946746826 0 0 0 0 -1414592.2247639885 794805.6296749115 0 794805.6296749115 1355915.5477294922 0 0 0 0 -1254049.3799617961 -741454.22387313843 0 -741454.22387313843 676161.42695617676 0 0 0 0 128620.91643130053 341594.58534521936 0 341594.58534521936 206347.90160984546 0 0 0 0 -1639029.1629070742 687058.25967216492 0 687058.25967216492 2470080.4385681152 0 0 0 0 -1577343.5122145712 -51809.430606842041 0 -51809.430606842041 2562374.3648376465 0 0 0 0 -1626367.0395657085 581160.14208984375 0 581160.14208984375 1602216.3649749756 0 0 0 0 -1430279.1399990842 470414.20738220215 0 470414.20738220215 1653971.8330230713 0 0 0 0 -1531366.4469107594 29194.020610809326 0 29194.020610809326 896060.13784790039 0 0 0 0 6663165.4942725301 7902255.5696563721 0 7902255.5696563721 -3746923.7814483643 0 0 0 0 -1308395.8990559131 2200781.7052354813 0 2200781.7052354813 3459877.7318267822 0 0 0 0 -12815803.628381073 3178292.713924408 0 3178292.713924408 18031920.341293335 0 0 0 0 65492.178844793343 176779.25494254287 0 176779.25494254287 134079.23095544428 0 0 0 0 8356531.1425325274 3501740.1670532227 0 3501740.1670532227 -1260501.9594421387 0 0 0 0 3129810.0992598683 8472836.1759109497 0 8472836.1759109497 -2408695.045211792 0 0 0 0 4699992.87056721 4892076.4089813232 0 4892076.4089813232 -4626839.3918609619 0 0 0 0 6702876.5626191124 5963045.7957992554 0 5963045.7957992554 -4065814.7379226685 0 0 0 0 -801221.97273908556 3384138.7851409912 0 3384138.7851409912 2342729.8346099854 0 0 0 0 181927.5606457199 586510.41902152169 0 586510.41902152169 459833.55567964166 0 0 0 0 2597723.481232632 1874484.9038047791 0 1874484.9038047791 -57287.81457901001 0 0 0 0 -1122603.8943442851 1347305.3170089722 0 1347305.3170089722 2274738.824798584 0 0 0 0 720538.51385967236 1495387.5270871613 0 1495387.5270871613 1786128.4271648526 0 0 0 0 1404265.2167061269 1191525.0710754395 0 1191525.0710754395 1528936.6302642822 0 0 0 0 413370.1916004977 595761.72900042683 0 595761.72900042683 194812.26344574988 0 0 0 0 -379190.61539054121 152546.54591477057 0 152546.54591477057 722541.58116988838 0 0 0 0 1582024.5109606534 3428450.2361907959 0 3428450.2361907959 1754242.5807189941 0 0 0 0 -573606.81662034988 222628.55017471313 0 222628.55017471313 494843.10628509521 0 0 0 0 -565355.98379404098 660138.9783411026 0 660138.9783411026 771996.86024475098 0 0 0 0 -1237665.2626448534 927552.55624389648 0 927552.55624389648 895935.68576049805 0 0 0 0 -1234430.2815938145 835570.17374420166 0 835570.17374420166 1454081.5954284668 0 0 0 0 -1689604.1947840601 575874.67623901367 0 575874.67623901367 1608527.4545898438 0 0 0 0 -1428756.1791149527 538758.5089263916 0 538758.5089263916 1387673.9349975586 0 0 0 0 -2146458.3503415436 116838.18266296387 0 116838.18266296387 1322588.4562072754 0 0 0 0 -11936.843075589331 46016.922588006593 0 46016.922588006593 60976.174566786736 0 0 0 0 -1554191.5059866719 540857.82601928711 0 540857.82601928711 2550944.5239257812 0 0 0 0 -1490284.4260737486 1094379.6732025146 0 1094379.6732025146 1844001.1285247803 0 0 0 0 -1297309.0363630764 826046.09322357178 0 826046.09322357178 1709479.5571975708 0 0 0 0 -1365924.1054491084 1218103.6428794861 0 1218103.6428794861 979521.47384643555 0 0 0 0 -1612569.6439298959 1220066.4731884003 0 1220066.4731884003 2185023.2872314453 0 0 0 0 -1274176.451370243 1423387.8004646301 0 1423387.8004646301 765655.28055953979 0 0 0 0 -1527233.5746802711 513651.48095178604 0 513651.48095178604 2164828.2195281982 0 0 0 0 -1369824.1141787306 1691570.3373508453 0 1691570.3373508453 4637262.7495803833 0 0 0 0 -1779438.8555955663 833402.97806549072 0 833402.97806549072 2844143.7281532288 0 0 0 0 -2098970.6805792656 -149235.0019569397 0 -149235.0019569397 5187882.5369567871 0 0 0 0 -7088267.1667152047 -1388764.9664535522 0 -1388764.9664535522 5035754.5101013184 0 0 0 0 -2338452.9297230411 2269438.2931442261 0 2269438.2931442261 7702678.6983184814 0 0 0 0 200674.29320383351 3051955.1618900299 0 3051955.1618900299 6995878.2894592285 0 0 0 0 -14346.612309123055 73330.715003684163 0 73330.715003684163 230672.10289672762 0 0 0 0 -846834.55055648647 2263961.7012996674 0 2263961.7012996674 6803087.1046600342 0 0 0 0 -226410.7751860898 2136429.8534240723 0 2136429.8534240723 6418026.2185173035 0 0 0 0 -1025224.555546388 943306.58700561523 0 943306.58700561523 4778795.8533792496 0 0 0 0 279701.12087888829 855582.34972000122 0 855582.34972000122 5005447.0613574982 0 0 0 0 -57613.305531316902 832380.04578399658 0 832380.04578399658 6665452.9741821289 0 0 0 0 -2314.9580411656893 2033409.7377614686 0 2033409.7377614686 8103203.7354049683 0 0 0 0 4423.650266907588 2001729.715877533 0 2001729.715877533 5092221.1792907715 0 0 0 0 846.27360553970539 1151.8720633983612 0 1151.8720633983612 894.6531733199954 0 0 0 0 392680.06668206584 1590548.9914283752 0 1590548.9914283752 4378866.9890823364 0 0 0 0 -258520.39041009545 641942.00960159302 0 641942.00960159302 2172856.2793045044 0 0 0 0 327387.90391149605 1850762.4106521606 0 1850762.4106521606 4596612.0117931366 0 0 0 0 460.55829031977169 612.85189504362643 0 612.85189504362643 174.89863775297999 0 0 0 0 1065576.2394468337 2032735.0041503906 0 2032735.0041503906 1524261.7747917175 0 0 0 0 766.5791560424384 853892.471118927 0 853892.471118927 1787812.9449310303 0 0 0 0 617463.02156855131 1014175.9344015121 0 1014175.9344015121 1774191.177406311 0 0 0 0 -6632503.1758729741 6911258.9810028076 0 6911258.9810028076 40800119.707885742 0 0 0 0 3195442.0026636012 19213664.921035767 0 19213664.921035767 -1921681.437789917 0 0 0 0 -6464847.0007509142 8558822.2422332764 0 8558822.2422332764 74182060.88861084 0 0 0 0 -1383369.9579490349 6657015.6425323486 0 6657015.6425323486 40675612.244812012 0 0 0 0 17645315.225432813 2656179.3997573853 0 2656179.3997573853 -28592104.971382141 0 0 0 0 11255650.205050528 36576782.70022583 0 36576782.70022583 119628560.26300049 0 0 0 0 10886562.925446227 10172525.315711975 0 10172525.315711975 39375682.563049316 0 0 0 0 43377366.603582203 -2843206.7817077637 0 -2843206.7817077637 71486164.601081848 0 0 0 0 8286007.4624951482 3252194.4857635498 0 3252194.4857635498 70928094.780174255 0 0 0 0 58645298.8838678 30055238.515106201 0 30055238.515106201 56650898.71660614 0 0 0 0 29850235.587027609 34576955.885681152 0 34576955.885681152 56487514.843040466 0 0 0 0 6128349.5467966124 6340047.4786834717 0 6340047.4786834717 36407450.048614502 0 0 0 0 3520536.3077141941 32388255.107368469 0 32388255.107368469 21321682.403564453 0 0 0 0 800789.59794288874 771077.37509155273 0 771077.37509155273 36525094.588878632 0 0 0 0 -115770.14882935776 44284.991997011006 0 44284.991997011006 212422.48315602168 0 0 0 0 18482854.671451099 -38489922.059623718 0 -38489922.059623718 51409096.199940681 0 0 0 0 -20634434.570947513 11946561.230606079 0 11946561.230606079 -4136830.370174408 0 0 0 0 -9609270.4496818483 52917274.956210136 0 52917274.956210136 -39084285.703956604 0 0 0 0 1122526.0278408527 684057.93618011475 0 684057.93618011475 -27829424.489784241 0 0 0 0 -1093.306723428836 18964267.607847266 0 18964267.607847266 -68173.036575317383 0 0 0 0 19084685.402264953 -55716982.531845093 0 -55716982.531845093 93494503.490988433 0 0 0 0 -14516.138954585833 19613650.727962084 0 19613650.727962084 -39793871.236099243 0 0 0 0 -65569.62020681813 13703.91804876551 0 13703.91804876551 133108.53159216791 0 0 0 0 108185.67364965641 -1090314.078527302 0 -1090314.078527302 92708460.867004395 0 0 0 0 20344014.764967892 -25551882.334087372 0 -25551882.334087372 63249787.3748703 0 0 0 0 4760.7542007397651 28486.63871460408 0 28486.63871460408 160901.08995615784 0 0 0 0 -14913468.256753936 -5338311.2024269104 0 -5338311.2024269104 61920311.005607605 0 0 0 0 8459169.6319231093 -26623966.156364441 0 -26623966.156364441 53654218.571529388 0 0 0 0 31410150.896208294 -30875803.652924538 0 -30875803.652924538 49660308.327972412 0 0 0 0 6491977.5865669064 -12377675.123248577 0 -12377675.123248577 37874110.017089844 0 0 0 0 9107330.8378426135 -3376975.8845024109 0 -3376975.8845024109 9361482.5060214996 0 0 0 0 162689.02328936756 3043043.6484184265 0 3043043.6484184265 9646133.3885040283 0 0 0 0 -3090566.3315100819 -4166415.480506897 0 -4166415.480506897 29694968.887313843 0 0 0 0 8144915.1018502712 -16053634.712799072 0 -16053634.712799072 28130068.486044884 0 0 0 0 3131022.8910336196 -10315790.815162659 0 -10315790.815162659 23845423.999328613 0 0 0 0 836140.00888210535 -12633251.653575897 0 -12633251.653575897 35433538.946533203 0 0 0 0 9426821.9598656297 -19865204.718009949 0 -19865204.718009949 31144472.507518768 0 0 0 0 10007802.730913937 -18009956.814649582 0 -18009956.814649582 36667961.212745667 0 0 0 0 3578374.631597966 -16844638.898151398 0 -16844638.898151398 34070441.198669434 0 0 0 0 23205907.564783879 -26254909.464431763 0 -26254909.464431763 36928892.460324764 0 0 0 0 -46335420.654885352 -21583979.079963684 0 -21583979.079963684 4097109.0136089325 0 0 0 0 53257.052729600895 18166.065940925851 0 18166.065940925851 6853.8743569739163 0 0 0 0 -6891342.2314264178 60082666.382400513 0 60082666.382400513 106970401.89788437 0 0 0 0 -26402617.906562626 28510429.361049652 0 28510429.361049652 14290433.248352051 0 0 0 0 -54530351.814264327 -7418747.8495445251 0 -7418747.8495445251 66424602.642845154 0 0 0 0 -28589350.165727288 41819810.97603035 0 41819810.97603035 106075658.84484863 0 0 0 0 -215876.95716445235 26156.005284477025 0 26156.005284477025 271585.04726265371 0 0 0 0 11167852.11210829 -25352653.769187927 0 -25352653.769187927 37603819.435437202 0 0 0 0 13015108.749946468 -20912022.477485657 0 -20912022.477485657 29870796.774902344 0 0 0 0 3278766.5247657299 -16313088.730133057 0 -16313088.730133057 32735991.348449707 0 0 0 0 6560702.0489644408 -14898024.152656555 0 -14898024.152656555 25598347.391392983 0 0 0 0 216829.5710080266 -13204334.901977539 0 -13204334.901977539 38885099.480552673 0 0 0 0 721148.9908272624 -13297220.108879089 0 -13297220.108879089 29194398.295791626 0 0 0 0 3696391.5436230302 -20021598.760730743 0 -20021598.760730743 35004399.618392944 0 0 0 0 2711897.6712364852 -16104101.07478714 0 -16104101.07478714 25918247.810638428 0 0 0 0 3775463.3806722164 -13431839.039398193 0 -13431839.039398193 23524009.342880249 0 0 0 0 1177955.3475352526 -13440056.653884888 0 -13440056.653884888 26802616.022262573 0 0 0 0 1557674.3752013445 -11150055.546977997 0 -11150055.546977997 23531299.123352051 0 0 0 0 1418789.0848740786 -16680688.291334152 0 -16680688.291334152 32686074.262710571 0 0 0 0 4224595.6590499282 -16954261.702827454 0 -16954261.702827454 28773470.613739014 0 0 0 0 114441.10481017828 -12251096.352905273 0 -12251096.352905273 31209527.114124298 0 0 0 0 171991.0817347765 -8739880.3093032837 0 -8739880.3093032837 24560922.51307869 0 0 0 0 2101071.6990469694 -13597934.407363892 0 -13597934.407363892 23606415.97467041 0 0 0 0 682134.4522562623 -5099987.0334625244 0 -5099987.0334625244 16746395.213348389 0 0 0 0 2306479.7731153965 -10346858.973518372 0 -10346858.973518372 14921580.286026001 0 0 0 0 2098957.8458057046 -11691628.187110901 0 -11691628.187110901 22304826.591262817 0 0 0 0 2661687.2965903878 -2536016.7777557373 0 -2536016.7777557373 8272824.2445678711 0 0 0 0 -627149.56288260221 -83690.826652526855 0 -83690.826652526855 5901751.5850372314 0 0 0 0 -879542.96367073059 -2625785.9819717407 0 -2625785.9819717407 23355633.573040962 0 0 0 0 2841155.3793436289 -3593088.1256484985 0 -3593088.1256484985 7220769.708656311 0 0 0 0 705753.78376698494 -603534.03042221069 0 -603534.03042221069 6374104.6069641113 0 0 0 0 -4904345.2761209011 1154846.1023864746 0 1154846.1023864746 4745389.9198455811 0 0 0 0 3020.7511588372436 306494.1616381132 0 306494.1616381132 481940.95208346844 0 0 0 0 -1654479.4615278542 2897614.9455604553 0 2897614.9455604553 3726828.2438964844 0 0 0 0 -2891044.6346738935 2553227.4981842041 0 2553227.4981842041 2736207.5923156738 0 0 0 0 1270513.3431978226 -1232242.9353485107 0 -1232242.9353485107 2931947.6221580505 0 0 0 0 2923715.6653155088 -6616012.5121917725 0 -6616012.5121917725 7875420.4825363159 0 0 0 0 5763018.157728672 -3177291.8551940918 0 -3177291.8551940918 -2709878.6170349121 0 0 0 0 6440052.488897562 -10196096.482955933 0 -10196096.482955933 6320829.6647796631 0 0 0 0 48205.587547015566 112650.83074533846 0 112650.83074533846 34268.614708017558 0 0 0 0 -7879426.5507477075 2537490.1503601074 0 2537490.1503601074 5510304.4579162598 0 0 0 0 2069347.6335016489 -4547584.8161392212 0 -4547584.8161392212 7774289.8104858398 0 0 0 0 2838375.8006328344 -12107781.259048462 0 -12107781.259048462 14409497.076126099 0 0 0 0 2566013.4445649385 -10062533.318698883 0 -10062533.318698883 17141594.125610352 0 0 0 0 1341782.3102765083 -11701156.232254028 0 -11701156.232254028 22965649.808761597 0 0 0 0 4942876.0426744521 -9502051.824224472 0 -9502051.824224472 13553665.525146484 0 0 0 0 5112234.2301374674 -6473170.2295436859 0 -6473170.2295436859 -2403264.90184021 0 0 0 0 -870689.842628479 -8892367.9898834229 0 -8892367.9898834229 14397593.722869873 0 0 0 0 6112051.1326711178 -2465901.1615028381 0 -2465901.1615028381 -6821667.2361984253 0 0 0 0 523239.67573524371 597143.03976117261 0 597143.03976117261 341913.3081266284 0 0 0 0 326194.51143303653 260754.30245435238 0 260754.30245435238 52672.858569031116 0 0 0 0 -13101.13551440835 132233.97641372681 0 132233.97641372681 -19282.767066955566 0 0 0 0 2640515.9408669472 1925554.2699508667 0 1925554.2699508667 1173506.8875522614 0 0 0 0 1170008.3046353459 -269143.43525218964 0 -269143.43525218964 1935867.3740310669 0 0 0 0 689120.73229544063 610983.25152237713 0 610983.25152237713 224390.27821309492 0 0 0 0 491962.94826793671 592575.94445037842 0 592575.94445037842 3093762.2349493504 0 0 0 0 192019.06203042658 -62138.821077890694 0 -62138.821077890694 -289595.52340834588 0 0 0 0 5817828.8612517118 6536397.7873659134 0 6536397.7873659134 -6592039.2459793091 0 0 0 0 -255657.3357322216 -5684844.4545288086 0 -5684844.4545288086 7784294.0188064575 0 0 0 0 14153842.345500588 -16423938.638824463 0 -16423938.638824463 17096938.909187317 0 0 0 0 9574381.8889150023 -4528929.1453475952 0 -4528929.1453475952 14043935.525909424 0 0 0 0 7657790.4233900309 -5131696.5938568115 0 -5131696.5938568115 7033810.5733261108 0 0 0 0 9970916.2820938826 -15269246.344909668 0 -15269246.344909668 21631848.768238068 0 0 0 0 4343066.9212409258 -14917570.933296204 0 -14917570.933296204 22161432.558418274 0 0 0 0 20762344.185971379 -31915288.356369019 0 -31915288.356369019 37595553.104251862 0 0 0 0 5491804.645940423 -13765485.666976929 0 -13765485.666976929 31362404.710601807 0 0 0 0 15481995.579584241 -17604167.155952454 0 -17604167.155952454 32858421.344741821 0 0 0 0 19480380.972086072 -20119053.048961639 0 -20119053.048961639 19767077.854095459 0 0 0 0 21981154.620895267 -42395299.53004837 0 -42395299.53004837 60139960.934310913 0 0 0 0 17180866.327682734 -31003857.069564819 0 -31003857.069564819 34897341.843986511 0 0 0 0 13169768.659006834 -26206191.752632141 0 -26206191.752632141 -33195846.646636963 0 0 0 0 -2189957.0382581353 -12063658.563850403 0 -12063658.563850403 84626428.409461975 0 0 0 0 17067.618547546532 9805.308601828292 0 9805.308601828292 18351.889723076485 0 0 0 0 -15414532.71941936 -509496.68419647217 0 -509496.68419647217 26414582.369949341 0 0 0 0 11012311.422370553 -42828940.435752869 0 -42828940.435752869 28150837.812713623 0 0 0 0 -7680119.4726193007 -2132024.22352314 0 -2132024.22352314 54370975.392074585 0 0 0 0 -7402991.0563983154 -14340022.084449768 0 -14340022.084449768 37526096.464981079 0 0 0 0 8377679.6657967567 -15114704.375080109 0 -15114704.375080109 64611971.368125916 0 0 0 0 11819559.757690176 1580091.1664824486 0 1580091.1664824486 85422657.831268311 0 0 0 0 -20993988.201164603 26139191.952438354 0 26139191.952438354 187286031.91655731 0 0 0 0 17163643.95565325 63392435.419752121 0 63392435.419752121 163937610.00540161 0 0 0 0 -12321175.411694951 22176008.385469437 0 22176008.385469437 60271501.502281189 0 0 0 0 -9765085.2276515961 34869418.859745026 0 34869418.859745026 122853790.30024719 0 0 0 0 -6055490.9335455894 11887991.684070587 0 11887991.684070587 36699239.840957642 0 0 0 0 -9196645.6040735245 49356795.727088928 0 49356795.727088928 203877002.15046692 0 0 0 0 -5683.8228525982704 63489.915475506335 0 63489.915475506335 43352.199099124409 0 0 0 0 -436.83121829864103 100624.89726942591 0 100624.89726942591 63536.279498988297 0 0 0 0 305413.38208788633 -561549.71255302429 0 -561549.71255302429 55912803.878303528 0 0 0 0 -4493115.8919742256 3663461.0565223694 0 3663461.0565223694 70096425.076133728 0 0 0 0 -6052128.1935082078 6438297.9830322266 0 6438297.9830322266 54960813.762615204 0 0 0 0 2302169.4173150957 824115.26601409912 0 824115.26601409912 36146575.922775269 0 0 0 0 -1496533.6211631298 5001987.8749084473 0 5001987.8749084473 33601621.538726807 0 0 0 0 -20359168.886778831 -5072197.09715271 0 -5072197.09715271 68084983.495243073 0 0 0 0 -11495725.76417017 -1731709.3098602295 0 -1731709.3098602295 45862469.120788574 0 0 0 0 -10824581.496461809 -447669.70530700684 0 -447669.70530700684 36998802.819396973 0 0 0 0 9605.0763415343245 -6375.6691008135676 0 -6375.6691008135676 76593.922474929132 0 0 0 0 -533941.05201590061 -997682.72834777832 0 -997682.72834777832 -1069301.2919006348 0 0 0 0 2361995.7344803214 -9665147.4837341309 0 -9665147.4837341309 30995114.624946594 0 0 0 0 -7343.0397364881646 -4111.8977022878826 0 -4111.8977022878826 24550.391958307475 0 0 0 0 -14762233.82023716 -16057305.069747925 0 -16057305.069747925 25604682.394439697 0 0 0 0 -1986059.5566469729 -8811554.2508001328 0 -8811554.2508001328 33746899.321365356 0 0 0 0 240963.10670534219 -63276.990804808214 0 -63276.990804808214 -26579.806929240003 0 0 0 0 -257556.85128055082 -52085.20565004833 0 -52085.20565004833 231207.3371729292 0 0 0 0 3669062.5677359104 -9891759.2387390137 0 -9891759.2387390137 25593335.670542322 0 0 0 0 2993458.4504269958 -10351587.077606201 0 -10351587.077606201 31545334.347457886 0 0 0 0 -4800485.3666881919 -2680290.5910186768 0 -2680290.5910186768 -818299.52861022949 0 0 0 0 2057979.0916538835 -8748357.8859672546 0 -8748357.8859672546 -20707382.717533112 0 0 0 0 -27145746.671142757 -31354731.900753021 0 -31354731.900753021 -29682273.3567276 0 0 0 0 -33650972.340490751 -38544720.5711689 0 -38544720.5711689 -31082057.484664917 0 0 0 0 -37866236.680236578 -24622753.518859863 0 -24622753.518859863 -28075474.889343262 0 0 0 0 91430.783871565567 11191.470712702721 0 11191.470712702721 -20189.493876119144 0 0 0 0 -38291984.171168074 -31342094.410552979 0 -31342094.410552979 -29012409.015697479 0 0 0 0 1421483.7571109757 2251196.3156528473 0 2251196.3156528473 63321759.451057434 0 0 0 0 6112257.7960427403 4649934.5953292847 0 4649934.5953292847 37478493.49433136 0 0 0 0 -2607493.7736787349 7593056.1330451965 0 7593056.1330451965 57120745.216453552 0 0 0 0 14915379.171161398 713032.30392456055 0 713032.30392456055 55751155.152069092 0 0 0 0 -626977.73416694999 50084769.300300598 0 50084769.300300598 79494019.880580902 0 0 0 0 14233189.039119005 51911477.961875916 0 51911477.961875916 -49507692.835172653 0 0 0 0 25601122.82882683 37882869.316238403 0 37882869.316238403 -42092255.204803467 0 0 0 0 -10750675.008156359 18873252.539775848 0 18873252.539775848 47840748.554555893 0 0 0 0 4295.5760313639475 42239.534958697855 0 42239.534958697855 26181.167386867106 0 0 0 0 3571266.4544311687 -8328534.4206295013 0 -8328534.4206295013 70646136.637023926 0 0 0 0 -45230391.161120921 11780560.327774048 0 11780560.327774048 105567577.13909912 0 0 0 0 -74729066.091083378 -22362728.843795776 0 -22362728.843795776 37113028.135734558 0 0 0 0 -29397.925214634575 -28777.77997929696 0 -28777.77997929696 378362.83747465163 0 0 0 0 -66779999.242507048 41830990.000778198 0 41830990.000778198 64450905.804656982 0 0 0 0 -64291686.73335439 13639567.036781311 0 13639567.036781311 -31253889.386444092 0 0 0 0 -3514504.6083958447 37356716.240577698 0 37356716.240577698 -22220916.130943298 0 0 0 0 -9888252.2555788755 26033943.070243835 0 26033943.070243835 19560255.377969742 0 0 0 0 -32872436.341679454 15764720.351398468 0 15764720.351398468 17466320.907043457 0 0 0 0 -34222.027562685798 30109.087246252224 0 30109.087246252224 330912.71159170195 0 0 0 0 3195.8229718610933 2976627.606338501 0 2976627.606338501 -2308835.8686141968 0 0 0 0 -3233.3458346615485 1557875.5544128418 0 1557875.5544128418 -1282281.227973938 0 0 0 0 -3709984.3027850026 1666357.6077709198 0 1666357.6077709198 -273418.22148132324 0 0 0 0 -2727012.1915129642 2977234.923614502 0 2977234.923614502 -1965349.5564575195 0 0 0 0 -1825637.9319786064 166607.11339187622 0 166607.11339187622 540087.43168640137 0 0 0 0 -24993393.845536798 2597777.3208770752 0 2597777.3208770752 67226241.645183563 0 0 0 0 5761606.3932912052 19970441.034866333 0 19970441.034866333 -96112827.308349609 0 0 0 0 -46437292.802864313 -29986504.037902832 0 -29986504.037902832 -23580206.917541504 0 0 0 0 -52865366.918733239 -45998114.506225586 0 -45998114.506225586 -7288811.7221679688 0 0 0 0 -15841665.800454259 -89799161.27571106 0 -89799161.27571106 32822908.494018555 0 0 0 0 -44640491.259098679 -22973279.986473083 0 -22973279.986473083 -28267430.195671082 0 0 0 0 -56995848.037691236 -39566791.595054626 0 -39566791.595054626 -11421052.389709473 0 0 0 0 -1486.088848614274 -100045.37412646599 0 -100045.37412646599 260997.93663975596 0 0 0 0 -45915444.490419626 -27782962.014190674 0 -27782962.014190674 -24583857.663131714 0 0 0 0 -54412531.985233113 -25667105.346733093 0 -25667105.346733093 -23480433.743270874 0 0 0 0 -43017419.644083112 -31287619.648971558 0 -31287619.648971558 -20835445.12512207 0 0 0 0 1310.4319910845988 -3036.7430175268091 0 -3036.7430175268091 9387.2712018787861 0 0 0 0 11687737.737493068 20295376.681777954 0 20295376.681777954 66153719.866355896 0 0 0 0 23695038.195148289 59389778.629058838 0 59389778.629058838 144615198.34539795 0 0 0 0 10443.633882720977 23058753.122192383 0 23058753.122192383 60262556.114971161 0 0 0 0 35948.550602376388 54179.751123880967 0 54179.751123880967 97675.944522392005 0 0 0 0 -216114.40959337764 234914.04199028015 0 234914.04199028015 7339.3229217529297 0 0 0 0 -3060676.5907207262 22241788.266433716 0 22241788.266433716 68919017.650657654 0 0 0 0 41016813.371488392 5920606.3788204193 0 5920606.3788204193 25947893.966796875 0 0 0 0 6233558.9084484577 10505687.910987854 0 10505687.910987854 -531326.5711555481 0 0 0 0 55067532.352921009 10186032.796852112 0 10186032.796852112 -768685.72722625732 0 0 0 0 61892063.792346954 -12096472.991485596 0 -12096472.991485596 -3173394.8572311401 0 0 0 0 43751508.728624105 -8984917.6445007324 0 -8984917.6445007324 -3651050.6446743011 0 0 0 0 65362441.599361658 -7277336.5635757446 0 -7277336.5635757446 31989614.39938736 0 0 0 0 58038560.321545482 33204283.109973907 0 33204283.109973907 59496131.104492188 0 0 0 0 52554925.76251477 28217376.990097046 0 28217376.990097046 12469567.561187744 0 0 0 0 39973254.623364449 6134587.9461898804 0 6134587.9461898804 31103031.997520447 0 0 0 0 28788829.175589323 44918518.683006287 0 44918518.683006287 43547107.448894501 0 0 0 0 14693742.382755041 29617926.266971588 0 29617926.266971588 38114855.150985718 0 0 0 0 33890654.810591698 23333509.296401978 0 23333509.296401978 59916859.738807678 0 0 0 0 15889398.414667368 43431107.364444733 0 43431107.364444733 81203971.260101318 0 0 0 0 33882547.920858741 36285595.850627899 0 36285595.850627899 -9320941.6750488281 0 0 0 0 8600579.2027475834 35919513.710021973 0 35919513.710021973 38039379.455154419 0 0 0 0 26604893.925901175 51490442.047698975 0 51490442.047698975 -7770685.589840889 0 0 0 0 13143433.331990719 73046962.980712891 0 73046962.980712891 -34399643.948532104 0 0 0 0 19575313.402724981 19196955.842971802 0 19196955.842971802 27694384.392141342 0 0 0 0 27624670.37868762 44255638.129470825 0 44255638.129470825 5021359.7599487305 0 0 0 0 22173970.543792248 38124859.603549957 0 38124859.603549957 -426049.04644012451 0 0 0 0 20437771.179205418 16589997.93996048 0 16589997.93996048 -24577881.69984436 0 0 0 0 -10312414.269188046 56041440.210601807 0 56041440.210601807 -9934324.7841949463 0 0 0 0 -12027562.625623703 52693110.430297852 0 52693110.430297852 -72299743.373207092 0 0 0 0 -32150467.3753196 34396862.509534836 0 34396862.509534836 -24018161.497436523 0 0 0 0 34201841.979160592 95879239.192552328 0 95879239.192552328 -18457996.515411377 0 0 0 0 -32281389.250490904 33755898.446300507 0 33755898.446300507 -29895202.703765869 0 0 0 0 -40783045.047933817 86856683.456771851 0 86856683.456771851 5605487.678237915 0 0 0 0 -10803315.332816362 115727097.05297852 0 115727097.05297852 30533931.767959595 0 0 0 0 32977359.122244716 -8289803.1559715271 0 -8289803.1559715271 -32318692.021980286 0 0 0 0 -18486771.37342906 8708270.34009552 0 8708270.34009552 -13157526.249061584 0 0 0 0 387967.88977130665 137962.45305827074 0 137962.45305827074 -333428.06763840467 0 0 0 0 -110430898.74413419 90730693.004188538 0 90730693.004188538 -33917599.618530273 0 0 0 0 -74112597.451953411 87473982.889129639 0 87473982.889129639 -61580258.309089661 0 0 0 0 -28660678.891327024 43383915.617168427 0 43383915.617168427 -46972882.861846924 0 0 0 0 -102651031.09339762 47595419.777603149 0 47595419.777603149 -27075456.193145752 0 0 0 0 -6598730.5707039833 22473908.728660583 0 22473908.728660583 -38874821.286212921 0 0 0 0 -10416156.196907043 17493584.901758194 0 17493584.901758194 -17640732.273910522 0 0 0 0 19314624.380851984 10923693.59677124 0 10923693.59677124 -30554604.210777283 0 0 0 0 -36030730.701589704 37598540.157581329 0 37598540.157581329 -33822017.169128418 0 0 0 0 3488292.588509798 17341497.183074951 0 17341497.183074951 -39596500.341220856 0 0 0 0 36907730.958765268 5274443.9976615906 0 5274443.9976615906 -22063162.788650513 0 0 0 0 -4173248.8579597473 10247190.894470215 0 10247190.894470215 -15297791.578857422 0 0 0 0 30246221.033201218 -15557628.786399841 0 -15557628.786399841 -5917094.4073104858 0 0 0 0 37040781.684976101 -5599862.3932876587 0 -5599862.3932876587 -17106476.245475769 0 0 0 0 15053849.238427162 -2266613.7472991943 0 -2266613.7472991943 -5001597.8946380615 0 0 0 0 27234180.314588457 5583258.2078437805 0 5583258.2078437805 -20183405.671951294 0 0 0 0 24631916.492904276 -3362958.3845233917 0 -3362958.3845233917 12153019.895721436 0 0 0 0 48716786.999696732 -16662902.990577698 0 -16662902.990577698 -7091379.1416854858 0 0 0 0 50982121.822788715 -11760718.65473938 0 -11760718.65473938 -734540.06201171875 0 0 0 0 65642883.021558762 -26185940.59928894 0 -26185940.59928894 11508034.327102661 0 0 0 0 83334668.296702862 -20323600.049087524 0 -20323600.049087524 5326354.5950775146 0 0 0 0 40114927.765954971 -3086152.8663597107 0 -3086152.8663597107 26601559.688537598 0 0 0 0 130967076.78202629 -19410829.74823761 0 -19410829.74823761 599239.0590057373 0 0 0 0 116987498.72312546 -16819341.607849121 0 -16819341.607849121 8294738.6066894531 0 0 0 0 90275753.993771076 -428124.34023284912 0 -428124.34023284912 14175129.166900635 0 0 0 0 44044.070773781612 253801.60518355644 0 253801.60518355644 81486.29899269715 0 0 0 0 -1925080.6704186052 10140509.281527758 0 10140509.281527758 17070733.889190674 0 0 0 0 5660.7395915172528 14218.417990569025 0 14218.417990569025 24123.22055409383 0 0 0 0 64251917.825153351 -8610631.0746612549 0 -8610631.0746612549 16666776.543991089 0 0 0 0 111811686.26182652 10984820.120040894 0 10984820.120040894 -8166420.0773258209 0 0 0 0 -137567.72092500576 38837.34381132503 0 38837.34381132503 1290249.8515611924 0 0 0 0 57787871.646152258 -8914096.9798126221 0 -8914096.9798126221 -3411843.09324646 0 0 0 0 62025322.035323262 -12067294.01414299 0 -12067294.01414299 -6514825.0857696533 0 0 0 0 -3700214.2474372387 3205175.4354782104 0 3205175.4354782104 -443575.44933319092 0 0 0 0 45724909.211292669 -21670890.976880074 0 -21670890.976880074 -4719198.4195098877 0 0 0 0 36963790.478244685 -17484459.406489223 0 -17484459.406489223 -1803462.5028381348 0 0 0 0 49011379.141244888 -15885960.405036926 0 -15885960.405036926 -8558535.380569458 0 0 0 0 53001205.674747944 -21862680.886852264 0 -21862680.886852264 -2966401.8530731201 0 0 0 0 -2310698.643032074 2314151.2636871338 0 2314151.2636871338 6234795.7451992035 0 0 0 0 8357989.2988042831 -517741.95686340332 0 -517741.95686340332 719481.83891677856 0 0 0 0 287966.12192131754 464990.7227784358 0 464990.7227784358 256886.47658596095 0 0 0 0 -1183030.3863787651 1960499.9466247559 0 1960499.9466247559 -583226.06351280212 0 0 0 0 -2213322.469838623 -2094764.495767653 0 -2094764.495767653 11163639.674850464 0 0 0 0 2651882.3407790661 -1042440.3217163086 0 -1042440.3217163086 -2060269.3511629105 0 0 0 0 1746128.2701326609 2563506.8556747437 0 2563506.8556747437 -2085810.4738616943 0 0 0 0 11753044.581771493 -7768540.8581809998 0 -7768540.8581809998 2742021.2507133484 0 0 0 0 2579349.3098606467 5893624.4781036377 0 5893624.4781036377 79082.43822479248 0 0 0 0 284020.1341779232 3393771.5998306274 0 3393771.5998306274 -2515255.07213974 0 0 0 0 -16731341.439758658 4169250.6681976318 0 4169250.6681976318 6379528.0386009216 0 0 0 0 -115055.31954562664 4345449.5925302505 0 4345449.5925302505 -974111.09646606445 0 0 0 0 7906504.4563699365 9509575.2848434448 0 9509575.2848434448 -5082601.3415985107 0 0 0 0 15364274.554950714 -10754072.653018951 0 -10754072.653018951 10199509.838541031 0 0 0 0 13482129.879488766 -8347730.3751926422 0 -8347730.3751926422 20942355.478637695 0 0 0 0 46037414.164581776 -18363145.534603119 0 -18363145.534603119 449535.2357711792 0 0 0 0 12087456.195453435 -19652176.452564955 0 -19652176.452564955 9658067.9155197144 0 0 0 0 -61413.84076272633 -40440.193063915707 0 -40440.193063915707 1104633.196603518 0 0 0 0 46084604.49360323 -11083795.154800415 0 -11083795.154800415 -5857180.9354305267 0 0 0 0 52730366.756775022 -10903195.09286499 0 -10903195.09286499 -14202303.389194489 0 0 0 0 54488179.072048426 10045669.021366119 0 10045669.021366119 30845745.981708527 0 0 0 0 51339401.861480594 -22835589.676259995 0 -22835589.676259995 4042241.8141555786 0 0 0 0 -22900.571529242821 -39057.416914718226 0 -39057.416914718226 860767.88318942487 0 0 0 0 -20556350.224111438 -7593686.29114151 0 -7593686.29114151 47406867.510902405 0 0 0 0 101872764.00396323 39636308.991640091 0 39636308.991640091 -24996507.984649658 0 0 0 0 133211043.72866511 158620116.26262665 0 158620116.26262665 166324875.10654449 0 0 0 0 2018.5134901710007 -11972.165385178756 0 -11972.165385178756 355878.25781846046 0 0 0 0 52504076.88562125 68864453.327720642 0 68864453.327720642 177691815.1268158 0 0 0 0 61344905.46819073 65584725.905122757 0 65584725.905122757 96345748.983924866 0 0 0 0 33957206.921685934 -29026456.674495697 0 -29026456.674495697 15657997.68334198 0 0 0 0 -27078176.966140665 -1472073.3960278034 0 -1472073.3960278034 20399672.893371582 0 0 0 0 53906894.506844759 -96445895.810817719 0 -96445895.810817719 121290281.87136078 0 0 0 0 59617563.933132887 -8276234.921245575 0 -8276234.921245575 -28090745.742401123 0 0 0 0 33632819.495133996 -52768176.52129364 0 -52768176.52129364 94715330.005172729 0 0 0 0 14388942.865748048 -20712906.576892853 0 -20712906.576892853 128472857.45094299 0 0 0 0 21108174.210788727 322586.10279083252 0 322586.10279083252 125777708.08139229 0 0 0 0 -13852171.30406177 -44525573.157913208 0 -44525573.157913208 321075242.96479034 0 0 0 0 76572054.853118181 123512227.70680428 0 123512227.70680428 251125507.81719971 0 0 0 0 154335182.47748685 71140357.741893768 0 71140357.741893768 166772906.25121832 0 0 0 0 21043768.049853921 52902189.069522858 0 52902189.069522858 188604343.02727413 0 0 0 0 18597948.216343224 87081933.356719971 0 87081933.356719971 258183575.56532288 0 0 0 0 31733612.674207449 93541057.349746704 0 93541057.349746704 172884500.09284115 0 0 0 0 -10370091.017395973 61513240.565681458 0 61513240.565681458 286000276.61435318 0 0 0 0 31732454.963770092 127814093.53001213 0 127814093.53001213 343868976.17948151 0 0 0 0 73462594.628100157 5463841.7463130951 0 5463841.7463130951 323459716.55952454 0 0 0 0 46536076.922795236 58276477.134599686 0 58276477.134599686 247894175.55579376 0 0 0 0 3649534.1030616947 60642225.122569799 0 60642225.122569799 246359259.12281799 0 0 0 0 -8722791.9801599979 81343698.945449829 0 81343698.945449829 282116069.35738373 0 0 0 0 6761484.6487884521 54041167.23323822 0 54041167.23323822 323565819.2520256 0 0 0 0 21379624.941238761 132817349.30268097 0 132817349.30268097 265012590.89625549 0 0 0 0 11715378.579136133 65217201.64213562 0 65217201.64213562 346106554.55958557 0 0 0 0 28757181.27508527 33711068.726758957 0 33711068.726758957 246647147.35792542 0 0 0 0 65431708.732628942 -33862687.523384094 0 -33862687.523384094 371038992.94281006 0 0 0 0 -2445706.1150504351 45434138.215145111 0 45434138.215145111 313922361.0862999 0 0 0 0 42819128.869987726 29384246.852054596 0 29384246.852054596 189698105.96455383 0 0 0 0 44248952.177212119 43784378.123634338 0 43784378.123634338 164620723.75341034 0 0 0 0 61521945.651649952 -6253693.5147171021 0 -6253693.5147171021 247769260.16678572 0 0 0 0 82087678.208263636 36816897.146327972 0 36816897.146327972 174420805.79110718 0 0 0 0 84324496.714449167 7211805.1727371216 0 7211805.1727371216 146299897.22097778 0 0 0 0 70680302.740190834 35966162.851567805 0 35966162.851567805 110042367.58335876 0 0 0 0 71383445.606613189 -6432917.4715875983 0 -6432917.4715875983 121367451.50868225 0 0 0 0 61937967.057649732 26197416.192886353 0 26197416.192886353 79346598.38457489 0 0 0 0 60280209.501435637 -7370424.5411338806 0 -7370424.5411338806 56985012.855155945 0 0 0 0 17113122.883962393 59702607.776268005 0 59702607.776268005 159772099.71798706 0 0 0 0 41920023.833290577 40850433.064071655 0 40850433.064071655 120276837.23764324 0 0 0 0 13677854.296065092 47685165.816551208 0 47685165.816551208 128318286.48408508 0 0 0 0 -2437527.0292155743 45228712.775173187 0 45228712.775173187 128048876.64709473 0 0 0 0 24980677.375002742 44466522.243808746 0 44466522.243808746 120109978.02510071 0 0 0 0 25522368.582784653 35373102.435745239 0 35373102.435745239 82751632.832458496 0 0 0 0 52624689.926822901 42439285.323974609 0 42439285.323974609 72541931.199645996 0 0 0 0 74687657.063004017 9852509.206703186 0 9852509.206703186 72106607.276599884 0 0 0 0 41996676.846525311 35581377.060192108 0 35581377.060192108 108115433.92817688 0 0 0 0 42373498.050507069 52742143.847122192 0 52742143.847122192 160880983.94969177 0 0 0 0 77376681.744092703 30114769.770599365 0 30114769.770599365 108942967.68437004 0 0 0 0 69591190.163615942 47080868.558036804 0 47080868.558036804 160941665.44221497 0 0 0 0 76507786.780474305 45268858.764953613 0 45268858.764953613 146847975.01371765 0 0 0 0 108886474.93764734 19456167.498001099 0 19456167.498001099 167399087.41971588 0 0 0 0 80509181.559864163 13494355.621520996 0 13494355.621520996 235587532.11550903 0 0 0 0 85995064.159498096 76939743.981689453 0 76939743.981689453 214815224.40484619 0 0 0 0 54757219.823922396 90246898.969810486 0 90246898.969810486 211299030.85272217 0 0 0 0 6161680.5434737206 87142801.076560974 0 87142801.076560974 253904874.14627075 0 0 0 0 29635151.480651855 54304568.3907547 0 54304568.3907547 160933149.19224548 0 0 0 0 -10622660.982781112 58841135.833082199 0 58841135.833082199 191929393.78735352 0 0 0 0 -8340985.8029768467 69289226.762023926 0 69289226.762023926 232816307.57875061 0 0 0 0 58055273.909548879 150722328.72319412 0 150722328.72319412 368653289.57855225 0 0 0 0 19942718.860247374 73991356.484275818 0 73991356.484275818 251368455.49204063 0 0 0 0 -41090868.537449121 53850024.280899048 0 53850024.280899048 354662056.00437927 0 0 0 0 167552721.53528929 10528325.102577209 0 10528325.102577209 235680941.90130663 0 0 0 0 178558396.17503762 65750817.896873474 0 65750817.896873474 215344572.40265656 0 0 0 0 375594503.01869702 -8539372.0226745605 0 -8539372.0226745605 277578488.95316505 0 0 0 0 135508503.44832635 29230361.901187897 0 29230361.901187897 273018868.14126587 0 0 0 0 95365619.769300938 -235060570.14801788 0 -235060570.14801788 236471245.76620483 0 0 0 0 85312014.41256845 -72493349.46213913 0 -72493349.46213913 589549070.565979 0 0 0 0 84997110.002294064 206974109.97277832 0 206974109.97277832 675903268.29896545 0 0 0 0 46781569.105313897 199572627.24900055 0 199572627.24900055 375921787.32095337 0 0 0 0 -32623013.08324194 -6997481.8891525269 0 -6997481.8891525269 296697040.21427917 0 0 0 0 -37913424.295467615 17637127.269081116 0 17637127.269081116 406820261.6018734 0 0 0 0 -29366937.281083465 -3295920.0675430298 0 -3295920.0675430298 287060312.94996643 0 0 0 0 -1949573.3632588387 -90470497.436889648 0 -90470497.436889648 293539559.56513977 0 0 0 0 -16030335.694260597 -45351776.239349365 0 -45351776.239349365 190280731.96252441 0 0 0 0 -41994830.826457024 -907272.74687957764 0 -907272.74687957764 235122859.38226318 0 0 0 0 -18401590.183610082 -49477900.613792419 0 -49477900.613792419 195188857.08670044 0 0 0 0 -32987617.859704316 -11828198.982035637 0 -11828198.982035637 245540734.12973022 0 0 0 0 -62078916.852680206 37796726.708656311 0 37796726.708656311 217208738.34272957 0 0 0 0 -40743178.550718546 1891220.723815918 0 1891220.723815918 175438510.0198822 0 0 0 0 -30589558.835297108 47448609.869167328 0 47448609.869167328 177594933.44553375 0 0 0 0 -38440183.24963665 29776828.460105896 0 29776828.460105896 141505391.28826523 0 0 0 0 -57543273.70529747 63737432.516004562 0 63737432.516004562 178525432.58580017 0 0 0 0 -49185813.249933004 10872676.392368317 0 10872676.392368317 213606533.29055786 0 0 0 0 -60104535.400044203 49184664.771450043 0 49184664.771450043 242818419.34317017 0 0 0 0 -89833883.919297218 50006928.803077698 0 50006928.803077698 247872913.34889221 0 0 0 0 -79316889.963519573 51398140.371047974 0 51398140.371047974 242583564.30717468 0 0 0 0 -68220414.860799551 43353184.902416229 0 43353184.902416229 242330579.11372375 0 0 0 0 -63983990.695823669 51582009.516563416 0 51582009.516563416 258177249.98270416 0 0 0 0 -53950393.902486563 38647033.146034241 0 38647033.146034241 259078016.5038147 0 0 0 0 -40646176.248139545 45644047.634818316 0 45644047.634818316 257417524.51028442 0 0 0 0 -59178988.164581299 33399414.459877014 0 33399414.459877014 288232148.10337067 0 0 0 0 -60332336.958675861 25632639.639743805 0 25632639.639743805 249021439.03395081 0 0 0 0 72228783.681587368 94652732.306193113 0 94652732.306193113 68905602.460365295 0 0 0 0 78501438.154126167 160090164.87635803 0 160090164.87635803 66164774.946986198 0 0 0 0 -66102832.728738308 91456886.957614899 0 91456886.957614899 238698235.80826569 0 0 0 0 -71325157.417603076 123544262.88872528 0 123544262.88872528 275062103.53184509 0 0 0 0 -89156291.59238863 54737355.012939453 0 54737355.012939453 279744156.60580063 0 0 0 0 -46702826.739943981 196880708.89237595 0 196880708.89237595 425790575.56655884 0 0 0 0 117812418.03180361 254230976.90683365 0 254230976.90683365 217462935.19265747 0 0 0 0 121738885.35528664 156901522.14136684 0 156901522.14136684 -45481357.768096924 0 0 0 0 -91547666.285374641 154232852.86508942 0 154232852.86508942 792015919.99679565 0 0 0 0 -130668742.60427094 20721372.594024658 0 20721372.594024658 363014258.85028839 0 0 0 0 -59518190.141932487 -18240752.587249756 0 -18240752.587249756 258508534.16603708 0 0 0 0 -79298601.032481194 36506092.860679626 0 36506092.860679626 263849568.54853058 0 0 0 0 -85186768.55095315 26578478.283992767 0 26578478.283992767 249016097.14437866 0 0 0 0 -62681423.321686029 8921398.4520835876 0 8921398.4520835876 145688405.47354126 0 0 0 0 -65857508.322144032 35757342.143333435 0 35757342.143333435 133692569.31712341 0 0 0 0 -19791840.053025246 14482430.346061707 0 14482430.346061707 77580177.151054382 0 0 0 0 -33643010.115516663 36299893.30783844 0 36299893.30783844 92292142.918902397 0 0 0 0 15050831.349099241 30425043.666625559 0 30425043.666625559 42684765.972816467 0 0 0 0 18056438.144695759 -44612217.23815918 0 -44612217.23815918 101699573.14108276 0 0 0 0 -56137107.78499651 46757946.626594543 0 46757946.626594543 203500477.16110992 0 0 0 0 -54747525.722374916 46807673.616363525 0 46807673.616363525 185563494.29882812 0 0 0 0 -43158369.72982192 69816086.059185028 0 69816086.059185028 251259930.33334351 0 0 0 0 -52133567.713129997 49278656.518943787 0 49278656.518943787 204433809.3203392 0 0 0 0 -74343659.262669802 54717390.587940216 0 54717390.587940216 249997531.42514038 0 0 0 0 -77344240.758555174 47883604.090068817 0 47883604.090068817 234704393.02429199 0 0 0 0 -73919380.902646542 42584056.019302368 0 42584056.019302368 223641715.92235565 0 0 0 0 -85112710.094359875 34450988.983261108 0 34450988.983261108 226650169.69051361 0 0 0 0 -64389173.445255354 23729736.838635921 0 23729736.838635921 159316321.49304199 0 0 0 0 -63259627.768144131 41685363.15007782 0 41685363.15007782 152276492.9118042 0 0 0 0 -79144298.665215492 10844962.699264526 0 10844962.699264526 208900783.17815781 0 0 0 0 -74596703.119440079 44394908.52130127 0 44394908.52130127 105408850.24230957 0 0 0 0 -57727381.866281033 17101039.060855865 0 17101039.060855865 120677183.24557495 0 0 0 0 -44844235.548799992 42840412.919090271 0 42840412.919090271 123672353.98322296 0 0 0 0 -36981027.628207207 25199273.777843475 0 25199273.777843475 102364915.81057739 0 0 0 0 -24483966.81164217 53835208.729469299 0 53835208.729469299 190168881.23461914 0 0 0 0 -27731018.694295883 41199362.148662567 0 41199362.148662567 147806454.87832642 0 0 0 0 -4431791.8322272301 33142795.190029144 0 33142795.190029144 90509154.11100769 0 0 0 0 -31583464.992894173 44006578.860145569 0 44006578.860145569 148021723.59241199 0 0 0 0 -13906942.974046707 34469595.635528564 0 34469595.635528564 90591209.24041748 0 0 0 0 -14517710.455552578 24976812.915512085 0 24976812.915512085 48688638.351516724 0 0 0 0 -43261532.55896759 31562007.618339539 0 31562007.618339539 100913425.69192696 0 0 0 0 -40229909.981455803 31773651.247077942 0 31773651.247077942 67052930.036071777 0 0 0 0 -29131850.710645437 18824997.690368652 0 18824997.690368652 5636393.3500823975 0 0 0 0 6806042.983161211 24620826.369384766 0 24620826.369384766 -14864055.292297363 0 0 0 0 -31882095.466627121 22604478.38923645 0 22604478.38923645 48587235.302989483 0 0 0 0 27607478.805794477 53877103.547940254 0 53877103.547940254 -70915664.040878296 0 0 0 0 4450049.1193113327 25779966.846466064 0 25779966.846466064 -14170405.979766846 0 0 0 0 -132815.78377687931 9956453.3793754578 0 9956453.3793754578 -65544879.37322998 0 0 0 0 -75231794.473649025 8549458.889503479 0 8549458.889503479 4029293.9865570068 0 0 0 0 49937032.878882885 29542206.532485962 0 29542206.532485962 -132368858.59085083 0 0 0 0 -26097624.789272308 -2281146.344833374 0 -2281146.344833374 -70897957.164909363 0 0 0 0 -39907777.171952963 -46327967.548721313 0 -46327967.548721313 -129771055.37503052 0 0 0 0 17222648.548992157 -19460188.250747681 0 -19460188.250747681 -130643427.00999212 0 0 0 0 16605728.529289722 -11687921.040664673 0 -11687921.040664673 -171371341.89460754 0 0 0 0 52312690.704778671 64814304.020652771 0 64814304.020652771 -66401555.063140869 0 0 0 0 -130024043.54551721 43555794.483585358 0 43555794.483585358 -70843289.212188721 0 0 0 0 -145094528.17036104 87886131.654272079 0 87886131.654272079 -58957977.730316162 0 0 0 0 -55212568.32370472 89785511.842758179 0 89785511.842758179 -131467819.25222778 0 0 0 0 -90853038.139325142 82869953.247589111 0 82869953.247589111 -132556564.63228226 0 0 0 0 -348322133.38066244 97378590.720565796 0 97378590.720565796 -83842461.435844421 0 0 0 0 -119087855.69096661 62343552.144699097 0 62343552.144699097 -54470789.634811401 0 0 0 0 -67210504.952216625 4601286.4103240967 0 4601286.4103240967 -26195491.140241623 0 0 0 0 -180243646.4757638 -6612572.8291244507 0 -6612572.8291244507 -26744563.962173462 0 0 0 0 -123811913.8847332 35375281.981269836 0 35375281.981269836 17932376.277709961 0 0 0 0 -83847885.221712112 62889206.948867798 0 62889206.948867798 -19011701.269592285 0 0 0 0 -127780671.86428547 49268202.786422729 0 49268202.786422729 -22966125.889144897 0 0 0 0 -75534747.633766174 72867422.172485352 0 72867422.172485352 -57153317.656219482 0 0 0 0 -77189404.298930168 40154400.355003357 0 40154400.355003357 9906182.3474121094 0 0 0 0 -64265106.237824261 47071909.889090538 0 47071909.889090538 37711691.807449341 0 0 0 0 -84418013.06881696 58706310.837116241 0 58706310.837116241 34031402.8097229 0 0 0 0 -69698446.500519753 11424659.27772522 0 11424659.27772522 56410283.913848877 0 0 0 0 -66811392.32596159 40047179.529754639 0 40047179.529754639 41477843.972610474 0 0 0 0 -77297944.988185883 22365206.922644615 0 22365206.922644615 21053996.645050049 0 0 0 0 -62576728.872351646 20139198.23324585 0 20139198.23324585 106581174.77267456 0 0 0 0 -54429459.697885036 35584937.358791351 0 35584937.358791351 85674298.965911865 0 0 0 0 -71786703.015794754 20885896.544998169 0 20885896.544998169 80067402.351425171 0 0 0 0 -52984842.967831612 22565570.718544006 0 22565570.718544006 79186477.433349609 0 0 0 0 -52728811.244848728 58620462.650779724 0 58620462.650779724 45797131.03440094 0 0 0 0 -29266793.069726467 38123613.253334045 0 38123613.253334045 22478494.722145081 0 0 0 0 -10587633.412986279 55313499.481533051 0 55313499.481533051 -23425143.022766113 0 0 0 0 564471.23040103912 26918159.754745483 0 26918159.754745483 14944438.973709106 0 0 0 0 -19547125.550259113 46159736.761810303 0 46159736.761810303 19787117.629081726 0 0 0 0 -3574919.2223525643 19933761.897212744 0 19933761.897212744 -4194383.368927002 0 0 0 0 -4449941.7455124855 29047871.123039246 0 29047871.123039246 -53104384.462615967 0 0 0 0 -2632702.457331419 26126321.641054153 0 26126321.641054153 -50846266.432548523 0 0 0 0 -53996984.106970549 69379298.920452118 0 69379298.920452118 -26235494.847229004 0 0 0 0 -16540736.876921177 52380045.956092834 0 52380045.956092834 -48042002.007461548 0 0 0 0 -56691769.260703802 70224811.512825012 0 70224811.512825012 -6490115.3870849609 0 0 0 0 -79447593.58439064 73291158.946990967 0 73291158.946990967 -26301933.739311218 0 0 0 0 -15407149.023085594 58217497.647567749 0 58217497.647567749 -24284497.287975311 0 0 0 0 -34390656.570683002 74578575.712921143 0 74578575.712921143 -75582185.889892578 0 0 0 0 -55347466.220282555 77923990.673416138 0 77923990.673416138 -76106804.117500305 0 0 0 0 2582468.896604538 33821172.192382812 0 33821172.192382812 -107413575.3555603 0 0 0 0 26585083.117918015 24001238.452346802 0 24001238.452346802 -137669241.46859741 0 0 0 0 -43037385.743679047 101918336.21109772 0 101918336.21109772 -198869789.92874146 0 0 0 0 -5983269.6903915405 42747936.54498291 0 42747936.54498291 -113599172.20376587 0 0 0 0 23884070.417177677 51110571.836952209 0 51110571.836952209 -199603606.6439209 0 0 0 0 30979691.094470978 41076178.88949585 0 41076178.88949585 -204727961.39129639 0 0 0 0 1185198.7081260772 5590767.0849113734 0 5590767.0849113734 3810294.7547967122 0 0 0 0 7619322.6434593201 12563540.504070282 0 12563540.504070282 -23449603.221504211 0 0 0 0 -16216061.734418392 22004133.965246201 0 22004133.965246201 -130333.93937683105 0 0 0 0 -10209382.990728378 11417154.006725311 0 11417154.006725311 -11878415.855484009 0 0 0 0 24370420.270653486 -4725463.1668505669 0 -4725463.1668505669 -45411033.524894714 0 0 0 0 17058948.235827923 20392830.311016083 0 20392830.311016083 -17528180.27897644 0 0 0 0 20013836.294334173 44542759.696105003 0 44542759.696105003 2542988.2699737549 0 0 0 0 5823407.8197097778 18726294.689479828 0 18726294.689479828 -12107273.510223389 0 0 0 0 17236049.911176205 51156007.58540535 0 51156007.58540535 61878313.409500122 0 0 0 0 -6797981.5951085091 30181335.518198013 0 30181335.518198013 6957343.8341827393 0 0 0 0 6696559.1155815125 20795265.057792664 0 20795265.057792664 -7457554.2912216187 0 0 0 0 -8520543.484038353 15834772.056938171 0 15834772.056938171 15209984.19575882 0 0 0 0 -7654948.1351594925 17679638.227436066 0 17679638.227436066 -8921688.7879981995 0 0 0 0 -13291922.049140215 28520678.599654198 0 28520678.599654198 1182299.0940093994 0 0 0 0 9802730.8231110573 -177378725.27513123 0 -177378725.27513123 -105485196.06088161 0 0 0 0 88870990.84392345 123232027.00950623 0 123232027.00950623 -70996415.645736694 0 0 0 0 -12938641.429473639 38634459.476402283 0 38634459.476402283 148114459.96151733 0 0 0 0 646057.21776273719 362050.93757157214 0 362050.93757157214 2381.5436219125986 0 0 0 0 -6985199.7371366024 116765992.88246155 0 116765992.88246155 12425738.441207886 0 0 0 0 26232284.632113457 210497328.28193665 0 210497328.28193665 197226203.93678665 0 0 0 0 93561741.233967781 182679456.99261475 0 182679456.99261475 -10262720.679252625 0 0 0 0 34417137.858471811 100723590.95359993 0 100723590.95359993 -92067066.874893188 0 0 0 0 230450698.34493399 310537109.79456329 0 310537109.79456329 -11874334.711410522 0 0 0 0 120340485.64038479 120304172.09869957 0 120304172.09869957 -254098146.59417725 0 0 0 0 334351443.302665 60307643.339115143 0 60307643.339115143 -518785105.01776123 0 0 0 0 -277519141.20381498 -218022775.58457947 0 -218022775.58457947 -235819364.49740601 0 0 0 0 954945.39518982149 5855245.6766410079 0 5855245.6766410079 9135123.9340438284 0 0 0 0 -120704083.20210505 217393529.05410767 0 217393529.05410767 204322372.67575073 0 0 0 0 -298229449.69217873 -202761133.0587616 0 -202761133.0587616 -130244633.41746521 0 0 0 0 -163392699.38744259 155563030.72279358 0 155563030.72279358 -199943541.17440796 0 0 0 0 -73405526.546216965 123057288.98294067 0 123057288.98294067 -250114644.38237 0 0 0 0 -549663.68938296265 832536.7917740345 0 832536.7917740345 1638506.9694930776 0 0 0 0 5369655.7182693481 36417909.163368225 0 36417909.163368225 1881512.4119796753 0 0 0 0 -186054928.33396959 90256983.734657288 0 90256983.734657288 -8666098.2206802368 0 0 0 0 5081407.2050597668 -262868792.24148941 0 -262868792.24148941 -224328378.64274979 0 0 0 0 185590333.95956612 151248507.11843872 0 151248507.11843872 -293851071.95548153 0 0 0 0 188167806.66669655 172371598.44311523 0 172371598.44311523 -158969672.35718846 0 0 0 0 163495044.51076698 36704682.521455765 0 36704682.521455765 -53980452.673103333 0 0 0 0 154794247.64629173 -7927601.5272941589 0 -7927601.5272941589 -152246340.53102732 0 0 0 0 153586762.6876812 -19945220.902698517 0 -19945220.902698517 -265009149.05919552 0 0 0 0 22044966.794959068 36157395.217227936 0 36157395.217227936 -61772721.342605591 0 0 0 0 188046951.95866299 50000652.583610535 0 50000652.583610535 -21144196.956016541 0 0 0 0 155512554.09399223 -49762374.228933334 0 -49762374.228933334 50862045.363792419 0 0 0 0 165763934.53356171 -32948425.95463562 0 -32948425.95463562 -26592630.405532837 0 0 0 0 168047933.49295235 8192944.210483551 0 8192944.210483551 107332300.69126892 0 0 0 0 458194858.97574043 218998093.81975174 0 218998093.81975174 -84328130.260604858 0 0 0 0 116067600.40568177 177245186.08631492 0 177245186.08631492 -100976139.58253479 0 0 0 0 115455197.12258053 2784803.7261161804 0 2784803.7261161804 -51104443.364589691 0 0 0 0 -369589672.31064051 365210190.54727936 0 365210190.54727936 49458039.725463867 0 0 0 0 -2626023.3653130531 175782116.80036926 0 175782116.80036926 -54180312.405357361 0 0 0 0 107580871.89842987 480035684.55390167 0 480035684.55390167 -86184021.705093384 0 0 0 0 199969202.45478487 395725241.61594391 0 395725241.61594391 -54589369.234500885 0 0 0 0 160570705.33783317 374129570.37766647 0 374129570.37766647 -21237847.079742432 0 0 0 0 663091224.12256813 421268833.94622803 0 421268833.94622803 -27695929.110229492 0 0 0 0 997742.95435811428 440973.02472288162 0 440973.02472288162 -633158.99287993461 0 0 0 0 -30696637.401222229 248151834.4564209 0 248151834.4564209 -14274168.420974731 0 0 0 0 242309368.34665489 -357743061.31808472 0 -357743061.31808472 -588292601.42523193 0 0 0 0 -129876554.30445099 686863036.9851265 0 686863036.9851265 -314176610.77230835 0 0 0 0 -236723528.11391461 654372102.01133347 0 654372102.01133347 -30234264.701843262 0 0 0 0 101329865.16804862 529620513.86598206 0 529620513.86598206 -362979095.99812317 0 0 0 0 98428434.490709573 612782960.62187767 0 612782960.62187767 9197412.4327087402 0 0 0 0 -11095097.095451355 97009166.216903687 0 97009166.216903687 -785484455.31868744 0 0 0 0 96511788.037002563 85285333.380065918 0 85285333.380065918 -88697920.348571777 0 0 0 0 73400518.717553139 14553636.773262024 0 14553636.773262024 -248827343.68301773 0 0 0 0 104503126.21087414 941928923.77677846 0 941928923.77677846 157716697.08557129 0 0 0 0 8529143.5925626755 -51100422.701553345 0 -51100422.701553345 -154822170.83483887 0 0 0 0 15453601.214818001 -1624694.8035736084 0 -1624694.8035736084 -41400833.127025604 0 0 0 0 -20080296.279672146 -8148237.1582775116 0 -8148237.1582775116 -9329838.7117385864 0 0 0 0 384409.51652190194 3310168.4327577986 0 3310168.4327577986 -715343.41396230459 0 0 0 0 596667.08347138087 5074959.9938244512 0 5074959.9938244512 3857181.0004530801 0 0 0 0 -43339619.817680359 -43867043.099277496 0 -43867043.099277496 -54324000.781547546 0 0 0 0 136049399.86038828 379451959.31871796 0 379451959.31871796 -273536147.50849533 0 0 0 0 -156217015.41845703 -98138677.174528122 0 -98138677.174528122 276212798.81655884 0 0 0 0 36697196.727673292 37429296.207035065 0 37429296.207035065 55518311.8175354 0 0 0 0 24745632.265068531 52636283.766052246 0 52636283.766052246 95755916.406387329 0 0 0 0 329283.75465757598 -771839.56384067796 0 -771839.56384067796 1845246.9109596172 0 0 0 0 -24269264.041956425 26791465.320289612 0 26791465.320289612 -5537070.9907455444 0 0 0 0 -2022294.0901159584 3800987.4184533358 0 3800987.4184533358 9134249.0951841697 0 0 0 0 -109852214.61853838 15905221.364589691 0 15905221.364589691 39288172.885631561 0 0 0 0 -23421804.407047272 38001310.030179977 0 38001310.030179977 4113998.336807251 0 0 0 0 135951862.64541435 116528708.0636673 0 116528708.0636673 43041967.156276703 0 0 0 0 347629618.23458862 201403365.34706497 0 201403365.34706497 42976220.050357819 0 0 0 0 51615738.615212679 183804918.00520325 0 183804918.00520325 128897011.03735352 0 0 0 0 79804898.66457653 147212807.07404327 0 147212807.07404327 132800432.72249603 0 0 0 0 -17519669.756229401 148382526.18475342 0 148382526.18475342 144971378.4888382 0 0 0 0 98186479.901726723 177782556.45663452 0 177782556.45663452 182232318.59296417 0 0 0 0 34518960.461785793 164827052.22777367 0 164827052.22777367 177890509.34684753 0 0 0 0 240254495.95876026 -9834866.6927490234 0 -9834866.6927490234 -638300511.38923645 0 0 0 0 -11020975.777477264 53297234.655826569 0 53297234.655826569 283393704.34453964 0 0 0 0 416966.05458774348 -994319.7261867933 0 -994319.7261867933 390112.15966466069 0 0 0 0 72882708.664186478 161251154.521492 0 161251154.521492 173454570.65842056 0 0 0 0 15391287.423979759 157026871.52047348 0 157026871.52047348 478032351.94062042 0 0 0 0 80622286.237526417 135042758.22899628 0 135042758.22899628 233657203.94654846 0 0 0 0 172782250.05281448 106133520.9390564 0 106133520.9390564 207559016.35752869 0 0 0 0 158846494.47727394 266017984.69744873 0 266017984.69744873 358010408.0605545 0 0 0 0 367963702.84734917 225873852.35984802 0 225873852.35984802 82817516.948196411 0 0 0 0 -137906389.296175 -56241714.058895111 0 -56241714.058895111 -19820135.887741089 0 0 0 0 -8576551.742879428 -5338695.1106576007 0 -5338695.1106576007 38165760.09311381 0 0 0 0 124907547.17150021 117103020.33850098 0 117103020.33850098 122645522.18058014 0 0 0 0 -131733767.7216934 -66611214.336973429 0 -66611214.336973429 -20200014.914749146 0 0 0 0 172364583.87837601 89116516.899272919 0 89116516.899272919 137335943.59005737 0 0 0 0 -154967059.31987381 -62904161.938568115 0 -62904161.938568115 -17740657.988079071 0 0 0 0 -279974714.37947464 -256886823.8838768 0 -256886823.8838768 -180662381.27166939 0 0 0 0 -11371315.714467049 50841814.155736923 0 50841814.155736923 -121704353.3228302 0 0 0 0 -157312186.51292372 -50215882.158532143 0 -50215882.158532143 -15662855.242126465 0 0 0 0 113109785.07610822 76471893.443368912 0 76471893.443368912 6143140.542678833 0 0 0 0 46795303.674710155 187732439.24996948 0 187732439.24996948 85113182.905738831 0 0 0 0 -138366273.27424884 136565429.23331451 0 136565429.23331451 178871944.85787964 0 0 0 0 -216129292.67192456 140420142.68376541 0 140420142.68376541 212580638.67422485 0 0 0 0 -152984050.73921537 -81261372.907241821 0 -81261372.907241821 17901546.739964485 0 0 0 0 -424559135.49235106 -22439806.604896545 0 -22439806.604896545 191197649.3916626 0 0 0 0 -235931370.86704254 -333543559.82918549 0 -333543559.82918549 -53810825.09765625 0 0 0 0 -144487328.06519318 -181134581.09452057 0 -181134581.09452057 109438607.56535339 0 0 0 0 -776778.14931706339 -132390.24102154188 0 -132390.24102154188 941681.65043711662 0 0 0 0 -7967446.8259614911 -6802387.7737224679 0 -6802387.7737224679 39367076.364257053 0 0 0 0 -544125961.85275984 233212543.01623535 0 233212543.01623535 173295553.71862793 0 0 0 0 -484723779.26588917 163220330.89894104 0 163220330.89894104 251165742.09790039 0 0 0 0 -443630626.12006396 412950354.41168976 0 412950354.41168976 -110407396.08328247 0 0 0 0 -74392808.836051941 -96286301.606987 0 -96286301.606987 54957262.288284302 0 0 0 0 -68801534.323936462 63231365.881637573 0 63231365.881637573 -332755295.36188507 0 0 0 0 -121835847.07860947 -110587972.39164352 0 -110587972.39164352 55646971.966560364 0 0 0 0 -127120653.46741486 -120981507.73125458 0 -120981507.73125458 92277925.216537476 0 0 0 0 -154441629.88697433 -187502702.94471741 0 -187502702.94471741 168789110.29893494 0 0 0 0 -125325264.86981201 -113784581.91226959 0 -113784581.91226959 116125333.3139801 0 0 0 0 -123148033.94376755 -160449890.55169296 0 -160449890.55169296 301813590.40681458 0 0 0 0 25684566.375087738 -216482227.22760677 0 -216482227.22760677 163326822.26596069 0 0 0 0 -191055241.75944138 -60795636.312965393 0 -60795636.312965393 51580474.903457642 0 0 0 0 -919102.47725873836 1950216.2522670208 0 1950216.2522670208 5503589.4556410611 0 0 0 0 -53362008.053949118 55986121.639358521 0 55986121.639358521 59460172.573455811 0 0 0 0 147219555.38749489 260143791.90028 0 260143791.90028 129620635.7190094 0 0 0 0 376025777.26569796 145023334.27207947 0 145023334.27207947 138029725.10148716 0 0 0 0 59890624.148965478 162076810.43684387 0 162076810.43684387 134100682.98355103 0 0 0 0 -240201899.39590591 278356559.1570797 0 278356559.1570797 304530528.03996277 0 0 0 0 -27918801.798760951 435020078.93134308 0 435020078.93134308 202766822.89456177 0 0 0 0 -212403704.91041636 225766220.28935242 0 225766220.28935242 40101038.625183105 0 0 0 0 -109611358.44437027 -370177551.88064575 0 -370177551.88064575 -487395685.48817825 0 0 0 0 72180246.095567703 68833486.697845459 0 68833486.697845459 76916900.507492065 0 0 0 0 -171668539.85122788 143200632.01577759 0 143200632.01577759 -563708458.92434692 0 0 0 0 -184080909.58186048 147068094.44433594 0 147068094.44433594 99619248.058532715 0 0 0 0 -179051808.09442163 -459614268.43147278 0 -459614268.43147278 -85316813.153465271 0 0 0 0 83122034.25729537 559718592.23041916 0 559718592.23041916 1065828120.8756409 0 0 0 0 317535934.67647076 316859090.90242767 0 316859090.90242767 239774862.89694977 0 0 0 0 1229864448.5939832 601822334.91781235 0 601822334.91781235 106262307.14772034 0 0 0 0 -30580843.309100151 -224457530.68821716 0 -224457530.68821716 312145492.2998848 0 0 0 0 -247929.59867307995 769563.85812418442 0 769563.85812418442 1868538.0521602072 0 0 0 0 459407207.96089935 577455873.17270279 0 577455873.17270279 431721508.07077026 0 0 0 0 63675276.686905861 -517870449.10350037 0 -517870449.10350037 1355931194.2576675 0 0 0 0 83259369.826106071 289288918.34063721 0 289288918.34063721 -272947540.90363312 0 0 0 0 809610856.03482294 -112146371.99436569 0 -112146371.99436569 -78641737.621673584 0 0 0 0 -263945978.54692459 -18047076.711071014 0 -18047076.711071014 66986707.034622192 0 0 0 0 -524785731.07313013 -697435113.41834259 0 -697435113.41834259 132654181.77597809 0 0 0 0 -657889419.36775112 -404688928.82746124 0 -404688928.82746124 139536725.18151855 0 0 0 0 -6266843.8407039717 -9563317.8859131616 0 -9563317.8859131616 36993954.850323282 0 0 0 0 -685556742.19734478 -363132300.67977905 0 -363132300.67977905 374857345.60042572 0 0 0 0 -501672963.90937233 -151795138.15933228 0 -151795138.15933228 493545418.59584808 0 0 0 0 -6574251.0574836731 -219162424.82967377 0 -219162424.82967377 348524825.59634399 0 0 0 0 -551014025.39688039 -593275539.49205303 0 -593275539.49205303 472113128.49691772 0 0 0 0 -209489211.03389192 -292049704.11347961 0 -292049704.11347961 755296545.93167114 0 0 0 0 -165472735.06481731 -559570337.41508102 0 -559570337.41508102 386191978.33041382 0 0 0 0 -228742517.23078156 -22879553.530036926 0 -22879553.530036926 39256089.833366394 0 0 0 0 -203782791.16174698 12901446.167625427 0 12901446.167625427 -3877428.5341529846 0 0 0 0 -631431756.76216912 -236785302.31708717 0 -236785302.31708717 -1390204792.8412476 0 0 0 0 -599503801.79158354 -213120703.76660919 0 -213120703.76660919 64718792.226005554 0 0 0 0 -2873160.7745802505 -1068343.2893406022 0 -1068343.2893406022 3772716.8483168706 0 0 0 0 -6108774.6180508155 -2571232.7052772092 0 -2571232.7052772092 40996361.965152651 0 0 0 0 -161959963.62582016 -224353689.93820953 0 -224353689.93820953 -98251368.764984131 0 0 0 0 -3741084.1695017815 -298906112.31018829 0 -298906112.31018829 -569445396.74460983 0 0 0 0 54694782.979633391 -50532411.758504391 0 -50532411.758504391 -142257342.14904785 0 0 0 0 216360955.28815222 114126369.82043457 0 114126369.82043457 -26157196.784793854 0 0 0 0 -144941421.6491394 -5886490.98985672 0 -5886490.98985672 133773108.20828247 0 0 0 0 -39969954.241576195 19277577.692435265 0 19277577.692435265 181557656.56259155 0 0 0 0 -99766457.714012146 -45806231.007232666 0 -45806231.007232666 112479462.84864998 0 0 0 0 -149934189.57836151 -32860953.521057129 0 -32860953.521057129 122328167.49728203 0 0 0 0 -107778754.23753452 -12643357.136138916 0 -12643357.136138916 69195703.172943115 0 0 0 0 -163379290.22130966 10278245.336425781 0 10278245.336425781 -4854613.5173950195 0 0 0 0 -279535714.95449448 61304259.685909271 0 61304259.685909271 35324815.437400818 0 0 0 0 -216749749.4932518 -10175641.044677734 0 -10175641.044677734 91389617.09463501 0 0 0 0 -177475730.25728607 1098709.6080207825 0 1098709.6080207825 59878223.523925781 0 0 0 0 -225677220.06373596 19062622.036598206 0 19062622.036598206 80460314.746887207 0 0 0 0 -168853715.83767319 25384775.912746429 0 25384775.912746429 105578448.51298523 0 0 0 0 -180931787.66061592 68755555.926320076 0 68755555.926320076 35744920.750328064 0 0 0 0 -184803562.63358307 59217020.610443115 0 59217020.610443115 16397717.553314209 0 0 0 0 -171122876.65676641 33697794.317462921 0 33697794.317462921 81511382.18548584 0 0 0 0 -201556256.36917114 31671168.62417984 0 31671168.62417984 89914842.502696991 0 0 0 0 -99987049.203325272 52784916.35590744 0 52784916.35590744 68992441.41925621 0 0 0 0 -78235055.498265266 -43364417.928874016 0 -43364417.928874016 170842905.22525024 0 0 0 0 -19173326.4951334 -30983159.167764664 0 -30983159.167764664 139053216.66027069 0 0 0 0 33052937.478201389 -99610142.50836277 0 -99610142.50836277 168299894.2581749 0 0 0 0 105184006.37406349 -3804437.3930397034 0 -3804437.3930397034 221984385.13983727 0 0 0 0 192833737.35102367 74850547.774171829 0 74850547.774171829 166762395.97472191 0 0 0 0 -45207583.145359993 -13377769.482079506 0 -13377769.482079506 281328792.1699791 0 0 0 0 431617039.93273163 415614133.46302414 0 415614133.46302414 425719815.96362305 0 0 0 0 119270218.4487648 142964575.70828152 0 142964575.70828152 193451242.42965698 0 0 0 0 795664695.93133688 222385463.69102097 0 222385463.69102097 1274959.852973938 0 0 0 0 162076534.8466866 44340325.772817612 0 44340325.772817612 24952405.689533234 0 0 0 0 692221.61431407137 662740.46650903486 0 662740.46650903486 239261.9863311369 0 0 0 0 -5702411.4061255455 -149385280.61628151 0 -149385280.61628151 622463257.3467865 0 0 0 0 16114978.61946106 364938274.04598999 0 364938274.04598999 786678923.88130951 0 0 0 0 798071747.97830534 99412844.239006042 0 99412844.239006042 165605786.22607803 0 0 0 0 -54954544.513902664 36196366.271781921 0 36196366.271781921 677822056.48053741 0 0 0 0 306507851.08493805 -149398717.75977993 0 -149398717.75977993 -243419177.74282074 0 0 0 0 110206.31413885951 -1254986.9473986011 0 -1254986.9473986011 768542.24230892025 0 0 0 0 -75735666.980335951 89034438.023030281 0 89034438.023030281 189016641.46235657 0 0 0 0 -4209048.2200574875 16420577.332134247 0 16420577.332134247 42694770.86085701 0 0 0 0 -2245219.2684965134 12817414.445457458 0 12817414.445457458 43386354.903909683 0 0 0 0 -5475836.9188737869 -57693804.76471138 0 -57693804.76471138 -36498656.285373688 0 0 0 0 26895104.161892891 -4628810.1120090485 0 -4628810.1120090485 -59129124.274047852 0 0 0 0 -54836216.361816406 -143042396.46776199 0 -143042396.46776199 -168733383.56016541 0 0 0 0 -93248502.924291611 -42198744.9635849 0 -42198744.9635849 -23167720.322799683 0 0 0 0 93017516.786854744 -34358146.894156456 0 -34358146.894156456 -54080938.09287262 0 0 0 0 -16817176.827521324 47940389.121189117 0 47940389.121189117 89625180.864505768 0 0 0 0 -22755662.906812668 -146872005.99561119 0 -146872005.99561119 130073893.16575623 0 0 0 0 -119608.07431210484 -777500.78620783985 0 -777500.78620783985 502372.89800136071 0 0 0 0 -179478383.18324661 -17287921.713214874 0 -17287921.713214874 255918904.67473793 0 0 0 0 55446913.869016334 17800377.677373886 0 17800377.677373886 94657710.488510132 0 0 0 0 47511700.426295348 -11113600.995059967 0 -11113600.995059967 2185624.9519023895 0 0 0 0 26427299.63607049 13874139.95243454 0 13874139.95243454 58005698.607727051 0 0 0 0 -231480.66458626796 -104790.78607713431 0 -104790.78607713431 633615.40968413465 0 0 0 0 28475149.586342692 29006829.761585236 0 29006829.761585236 21379153.616146088 0 0 0 0 63616542.083755136 97703755.141242981 0 97703755.141242981 154576252.84467506 0 0 0 0 92808285.575955391 157771096.98854637 0 157771096.98854637 187300906.43898106 0 0 0 0 -19842003.002883196 72637973.722852707 0 72637973.722852707 211741542.10399437 0 0 0 0 3235415.5537648201 62909574.200738907 0 62909574.200738907 96685424.431892395 0 0 0 0 -19260089.916017532 48367685.022632599 0 48367685.022632599 38687075.655586243 0 0 0 0 32160478.203525543 -63865447.740402222 0 -63865447.740402222 73627314.096673965 0 0 0 0 -4744193.8904943466 243490162.46120262 0 243490162.46120262 324642137.27657318 0 0 0 0 -33839857.66421032 12707179.68627739 0 12707179.68627739 453749525.24207306 0 0 0 0 78875740.809939265 234515310.38794136 0 234515310.38794136 245108797.41028214 0 0 0 0 177459.83989567845 -1023745.1998937894 0 -1023745.1998937894 656382.66214035451 0 0 0 0 240422145.05817461 132800095.29141998 0 132800095.29141998 -84888919.919368744 0 0 0 0 -10889.043716917979 -486532.96547766775 0 -486532.96547766775 350994.76367063168 0 0 0 0 113662118.25011158 288768558.50453186 0 288768558.50453186 323993550.62427139 0 0 0 0 24839748.959295034 216232160.4929657 0 216232160.4929657 258932024.04379272 0 0 0 0 46208152.619383439 102922542.32135868 0 102922542.32135868 167364265.63516617 0 0 0 0 235612938.76797545 183435959.49295044 0 183435959.49295044 162772706.41453338 0 0 0 0 108532958.68228114 112466260.16279793 0 112466260.16279793 126842011.24030685 0 0 0 0 114337479.18694651 86543589.662791252 0 86543589.662791252 221826093.22209167 0 0 0 0 159594796.06741691 167150149.07699585 0 167150149.07699585 157479200.0563736 0 0 0 0 104169258.65979272 150235994.2430954 0 150235994.2430954 165190493.50709724 0 0 0 0 156528800.72518194 145967530.74270058 0 145967530.74270058 161402151.27671051 0 0 0 0 117096988.4867509 176205077.84516525 0 176205077.84516525 213404382.00538254 0 0 0 0 128522065.68256378 29793444.393989563 0 29793444.393989563 37398820.015838623 0 0 0 0 2908335.9585040212 70687632.529138565 0 70687632.529138565 120989585.03032684 0 0 0 0 25921342.373174667 -4707201.3733406067 0 -4707201.3733406067 46173041.00157547 0 0 0 0 7660955.4717588425 24272741.023767471 0 24272741.023767471 47644045.254806519 0 0 0 0 -43431566.397674084 -5883487.5627250671 0 -5883487.5627250671 75305423.668048859 0 0 0 0 -14748189.527293682 -496231.29090881348 0 -496231.29090881348 69554953.97731781 0 0 0 0 -92705261.017884851 -5616711.2164325714 0 -5616711.2164325714 93722602.742515564 0 0 0 0 -135069473.37751579 -129592841.97891998 0 -129592841.97891998 -41715827.813591003 0 0 0 0 -153486868.64957428 -13976974.077896118 0 -13976974.077896118 45083772.7989254 0 0 0 0 -41280852.694645166 -68686814.537918091 0 -68686814.537918091 -70237084.471931458 0 0 0 0 -20820840.23950386 -17136325.160667419 0 -17136325.160667419 20107929.809326172 0 0 0 0 -36031693.165139198 -15552502.094161987 0 -15552502.094161987 33522692.046779633 0 0 0 0 -54760921.142442226 -9959453.128074646 0 -9959453.128074646 110805506.75687408 0 0 0 0 25055286.588213444 71706252.425815582 0 71706252.425815582 149047407.32756805 0 0 0 0 101595952.63611388 82996781.016777039 0 82996781.016777039 78604686.282169342 0 0 0 0 -10137131.680114985 -67570644.096687317 0 -67570644.096687317 104301308.80402374 0 0 0 0 98212348.674361914 -85986357.909029961 0 -85986357.909029961 314828161.6917038 0 0 0 0 113383274.40780568 144231595.12553215 0 144231595.12553215 200348726.70541382 0 0 0 0 194050636.73152024 168676166.87078667 0 168676166.87078667 184366600.43948364 0 0 0 0 -50767575.519798279 39247242.973236084 0 39247242.973236084 76858157.942895889 0 0 0 0 -29534833.060386658 -97539877.180706024 0 -97539877.180706024 -75966588.307525635 0 0 0 0 -713466.40642273519 -67841.223736728542 0 -67841.223736728542 816211.94903385639 0 0 0 0 -157969130.82076645 -87844560.158836365 0 -87844560.158836365 45708355.540733337 0 0 0 0 -108733131.71041107 -49399999.802772522 0 -49399999.802772522 -16138157.449314117 0 0 0 0 -59405769.964126587 -46134093.678070068 0 -46134093.678070068 -17536576.598609924 0 0 0 0 -26332653.384155273 -61043799.915645599 0 -61043799.915645599 -39150240.700241089 0 0 0 0 -137261969.83231354 -80868593.835399628 0 -80868593.835399628 -28293295.93548584 0 0 0 0 -1222845.5047438089 -205077.69637185475 0 -205077.69637185475 1502838.3053990602 0 0 0 0 -101053104.84321594 -81745358.312934875 0 -81745358.312934875 -34548910.159767151 0 0 0 0 -57518736.027759552 -79559821.779655457 0 -79559821.779655457 -35085222.020431519 0 0 0 0 -131681784.15725172 -64862816.491372824 0 -64862816.491372824 -12753586.247711182 0 0 0 0 -34447203.648359299 2148969.3582839966 0 2148969.3582839966 -41785608.56388855 0 0 0 0 10729139.290409088 4608360.5965900421 0 4608360.5965900421 -156134.69177246094 0 0 0 0 -27013355.013073921 -49022585.375564575 0 -49022585.375564575 12188814.342811584 0 0 0 0 -22947455.445740223 -31103657.007961273 0 -31103657.007961273 57010008.594009399 0 0 0 0 -20318089.830412865 -63382985.445599556 0 -63382985.445599556 42179672.720619202 0 0 0 0 -6408021.7408618927 -44367522.637485504 0 -44367522.637485504 49721503.641563416 0 0 0 0 -41868858.096452713 -73806169.911909103 0 -73806169.911909103 34353360.761634827 0 0 0 0 -38130898.617759705 -45841845.38596344 0 -45841845.38596344 31608722.403553009 0 0 0 0 -65427023.862067223 -44569343.003322601 0 -44569343.003322601 60915454.502009392 0 0 0 0 -74743967.974806547 -61060756.452346802 0 -61060756.452346802 36640073.923965454 0 0 0 0 -27609872.998180866 -83308178.205400467 0 -83308178.205400467 -155898169.02629852 0 0 0 0 -85146034.741926193 -55532547.29599762 0 -55532547.29599762 34619961.209352493 0 0 0 0 -58457897.400715351 -86993038.439031601 0 -86993038.439031601 -39308683.454978943 0 0 0 0 -14688135.828548431 -31655795.46383667 0 -31655795.46383667 -57269753.668109894 0 0 0 0 -10974117.41113472 -37523389.56703949 0 -37523389.56703949 -28256894.299819946 0 0 0 0 1348680.0264881579 -2849091.5516511817 0 -2849091.5516511817 -9870224.7569886409 0 0 0 0 -14429366.856977463 -34715972.990150452 0 -34715972.990150452 -26283173.098148346 0 0 0 0 66202337.585188389 -39208102.889368773 0 -39208102.889368773 58110092.780235291 0 0 0 0 -8151679.5898965681 -6561833.9897326436 0 -6561833.9897326436 29624366.64304468 0 0 0 0 -24755802.622665405 -60105369.729815483 0 -60105369.729815483 90236703.473190308 0 0 0 0 -8690526.0344161987 -180737592.54666138 0 -180737592.54666138 44047739.9347229 0 0 0 0 -84442784.412805557 -60998591.92653656 0 -60998591.92653656 -52147729.333251953 0 0 0 0 -6167.2377215567976 -1057132.2744835 0 -1057132.2744835 -2631149.9930223413 0 0 0 0 -65441685.384654999 -56656589.12059021 0 -56656589.12059021 126493426.25224686 0 0 0 0 42213054.576389313 -131911241.45598602 0 -131911241.45598602 40019502.980163574 0 0 0 0 102151970.10111141 -27396519.525175095 0 -27396519.525175095 -197810771.25732422 0 0 0 0 -96479402.313011169 -5261747.2538146973 0 -5261747.2538146973 44853647.934936523 0 0 0 0 47803061.253346443 -102825194.11312675 0 -102825194.11312675 15543635.450172424 0 0 0 0 -9099801.1812888011 -4879385.5061211977 0 -4879385.5061211977 35638018.324797541 0 0 0 0 172931190.42415926 109397982.24676287 0 109397982.24676287 -18087511.460494995 0 0 0 0 -191494472.11557388 -80614869.549964905 0 -80614869.549964905 62568738.760490417 0 0 0 0 -208474705.71333694 16787233.455921173 0 16787233.455921173 53806069.0443573 0 0 0 0 148229861.74520111 40225667.546344757 0 40225667.546344757 50163725.032749176 0 0 0 0 60403341.76889801 -2151964.6797866821 0 -2151964.6797866821 32549871.424121857 0 0 0 0 150212315.84900284 -7943647.3566360474 0 -7943647.3566360474 51444099.692238808 0 0 0 0 143486564.1586647 -18487546.119750977 0 -18487546.119750977 43462447.312858582 0 0 0 0 131005992.28636169 -23613536.509170532 0 -23613536.509170532 57569714.843765259 0 0 0 0 131580390.39037704 -34634657.255477905 0 -34634657.255477905 40953701.559860229 0 0 0 0 93611712.763824463 -39413344.319793701 0 -39413344.319793701 42173747.4600811 0 0 0 0 4916125.4237327455 208814.01787949353 0 208814.01787949353 9117182.7265427932 0 0 0 0 -87748200.665743113 37678776.093975067 0 37678776.093975067 274481755.57838821 0 0 0 0 -18265360.360825539 -2887158.9918041229 0 -2887158.9918041229 279602066.94726801 0 0 0 0 -19693277.940043449 -33383004.745109558 0 -33383004.745109558 176277712.39591599 0 0 0 0 37344356.038582802 47470031.235870361 0 47470031.235870361 159770632.73674774 0 0 0 0 -10672541.086342812 46451435.95375061 0 46451435.95375061 266055367.27967644 0 0 0 0 -92779566.566478252 -114045806.35587311 0 -114045806.35587311 342955436.46716309 0 0 0 0 205527.38594410341 427480.45178473834 0 427480.45178473834 108559.22214685939 0 0 0 0 -34190086.334942818 161562374.31188011 0 161562374.31188011 523868743.02215958 0 0 0 0 55433744.925694704 193196171.21048641 0 193196171.21048641 141517273.23233414 0 0 0 0 98055084.361526966 303520057.28274345 0 303520057.28274345 415189845.84107971 0 0 0 0 -16051348.42856884 18832285.630247116 0 18832285.630247116 -35741314.693484306 0 0 0 0 -25221321.11195612 -5861900.8070907593 0 -5861900.8070907593 -42495859.858436584 0 0 0 0 -7570740.6240442395 -12775318.02659318 0 -12775318.02659318 28104372.155774534 0 0 0 0 -349201.67188853957 657201.43066380732 0 657201.43066380732 5458699.4949090648 0 0 0 0 -100833839.76224422 -4788067.2481460571 0 -4788067.2481460571 45947760.140353203 0 0 0 0 17511195.721608281 -88759508.051616907 0 -88759508.051616907 -47461251.905864716 0 0 0 0 -6020231.4727238044 -14735613.134711687 0 -14735613.134711687 16887919.63309522 0 0 0 0 33560835.221492767 120220518.90123081 0 120220518.90123081 -82641766.251155853 0 0 0 0 -57955447.88297081 26551343.286652565 0 26551343.286652565 336781911.21313858 0 0 0 0 2877732.9905106337 -3491935.8764346321 0 -3491935.8764346321 -4430183.1138848122 0 0 0 0 227936843.43695641 115243258.92977524 0 115243258.92977524 578224282.0995636 0 0 0 0 243573113.83487368 239445782.24669933 0 239445782.24669933 220394724.86214828 0 0 0 0 -921182.5677690506 -34830310.157989502 0 -34830310.157989502 22805602.750457764 0 0 0 0 94864091.360048771 -19190336.257586479 0 -19190336.257586479 -33240246.52180481 0 0 0 0 200483603.87641239 159864957.95789814 0 159864957.95789814 95161643.937309265 0 0 0 0 -14386665.415153503 18814516.554973602 0 18814516.554973602 31963397.174045563 0 0 0 0 1688187.7670574188 191923216.87634277 0 191923216.87634277 293941645.57905388 0 0 0 0 61033499.990813255 94652400.798015594 0 94652400.798015594 84298432.409828186 0 0 0 0 -81910485.512022972 89160202.459918976 0 89160202.459918976 191015935.01395798 0 0 0 0 -86404744.325957537 44196248.537772655 0 44196248.537772655 538726965.00089264 0 0 0 0 682381.40507420548 -69612.783014930785 0 -69612.783014930785 189756.40532760881 0 0 0 0 10056294.990792871 35331093.743788004 0 35331093.743788004 -26811143.935806274 0 0 0 0 44319793.611301422 11048837.283864975 0 11048837.283864975 -22237344.271853924 0 0 0 0 643978.36725531495 -166539.60114545096 0 -166539.60114545096 -563646.53993282467 0 0 0 0 34301943.075639963 -34364645.710926533 0 -34364645.710926533 -21874203.789642334 0 0 0 0 705119.81442666054 1145046.0349974632 0 1145046.0349974632 -1148592.8167152405 0 0 0 0 325954.94086146657 -313400.00386345573 0 -313400.00386345573 117238.82142121065 0 0 0 0 32646285.127382278 -9132614.7115097046 0 -9132614.7115097046 -35748024.997612 0 0 0 0 67203.069316864014 -306421.63525390625 0 -306421.63525390625 -1997865.9356231689 0 0 0 0 1182619.4355758969 439966.12344855722 0 439966.12344855722 -49949.180057832971 0 0 0 0 157130.72641468048 449589.53441238403 0 449589.53441238403 -1074735.918576479 0 0 0 0 -37590953.273489952 21291660.57100296 0 21291660.57100296 -54829919.48972702 0 0 0 0 861912.73166683316 1415864.5064692846 0 1415864.5064692846 -130322.17754709162 0 0 0 0 24413952.047698021 67232566.211524963 0 67232566.211524963 -97863911.224657059 0 0 0 0 -1780821.6414642334 -398126.27827835083 0 -398126.27827835083 4793507.2048301697 0 0 0 0 160186.56030207034 -501033.50036013313 0 -501033.50036013313 73598.692134377081 0 0 0 0 -32299874.797858238 46584615.073181152 0 46584615.073181152 -25140388.374652863 0 0 0 0 8078783.9331283569 77212637.494217873 0 77212637.494217873 1523041.3787002563 0 0 0 0 -13357812.443336487 15843041.87405014 0 15843041.87405014 44406412.037433624 0 0 0 0 67663129.075775981 3350422.7760543823 0 3350422.7760543823 -16782839.300743103 0 0 0 0 39727493.719178617 43333218.383558273 0 43333218.383558273 159205073.09531403 0 0 0 0 43554627.321659088 53388153.092937946 0 53388153.092937946 66255893.661514282 0 0 0 0 467503.5993350473 962320.61759634828 0 962320.61759634828 189184.14998184517 0 0 0 0 -40514363.200411797 -18483112.325756073 0 -18483112.325756073 22269670.097576141 0 0 0 0 -20023462.393150751 945217.23699586093 0 945217.23699586093 33193312.269325256 0 0 0 0 -36824530.70440197 83722682.322673798 0 83722682.322673798 6872179.7254924774 0 0 0 0 -106474902.89025998 65344561.388882637 0 65344561.388882637 11274598.082695007 0 0 0 0 91227673.611407876 -99438328.804743052 0 -99438328.804743052 -55358025.18144989 0 0 0 0 -26185283.9744277 -55606316.659168243 0 -55606316.659168243 78452696.490217209 0 0 0 0 87619264.644037008 -2673024.4128055573 0 -2673024.4128055573 49995216.664619446 0 0 0 0 1107185.2915251255 -93750490.037266731 0 -93750490.037266731 -28276095.427459717 0 0 0 0 -117359810.35473299 -90623799.491752625 0 -90623799.491752625 -16950433.799022675 0 0 0 0 -78323385.20813489 -156637547.49769974 0 -156637547.49769974 -61719223.103453636 0 0 0 0 102397835.35598755 -307019322.1661129 0 -307019322.1661129 45395295.43050766 0 0 0 0 -6130102.4839902911 -13936059.542539347 0 -13936059.542539347 19445822.611602437 0 0 0 0 -61455067.922963381 -107124017.43367863 0 -107124017.43367863 -51623449.665336609 0 0 0 0 -72979034.467436314 -106602292.89710236 0 -106602292.89710236 19052935.700668335 0 0 0 0 -96474027.031028748 -123653060.62899399 0 -123653060.62899399 -44881068.507463455 0 0 0 0 -236451539.58090687 111424116.43680954 0 111424116.43680954 222653047.90351486 0 0 0 0 213676895.54324532 156888905.00355911 0 156888905.00355911 227018263.2069912 0 0 0 0 -10560859.314902306 -172679242.25523663 0 -172679242.25523663 192916757.75786591 0 0 0 0 135821034.25485039 206522726.91067123 0 206522726.91067123 410836097.96006775 0 0 0 0 517475.49802254746 -106989.32511824835 0 -106989.32511824835 -203205.85732835159 0 0 0 0 35047778.845756531 -19991181.768421173 0 -19991181.768421173 -30783752.151191711 0 0 0 0 28166320.722513199 3874409.3950281143 0 3874409.3950281143 134605402.3261528 0 0 0 0 122473398.95280933 18669172.085126877 0 18669172.085126877 -20988346.682495117 0 0 0 0 75841680.789424896 3504851.7699317932 0 3504851.7699317932 -22247065.012969017 0 0 0 0 96780.230049623642 991724.93876326387 0 991724.93876326387 1191889.1665146779 0 0 0 0 17996002.876046658 -28709611.714370728 0 -28709611.714370728 30952829.647224426 0 0 0 0 505075427.11377716 -233021254.69812775 0 -233021254.69812775 -23882559.286636353 0 0 0 0 87086494.97520256 394453569.98753452 0 394453569.98753452 76112191.248451114 0 0 0 0 -6611769.3722717119 -12916912.745456327 0 -12916912.745456327 20241237.956569314 0 0 0 0 -16393178.694514871 -131569235.64773369 0 -131569235.64773369 -167801271.8407402 0 0 0 0 26042768.699542999 -7855249.0664587021 0 -7855249.0664587021 54095724.769576073 0 0 0 0 2280514.4571299553 -5607326.7455825806 0 -5607326.7455825806 -86599565.552177429 0 0 0 0 -57952548.167488337 -96594083.185119629 0 -96594083.185119629 -39375568.05173111 0 0 0 0 27891348.044708252 19497594.467550278 0 19497594.467550278 28835368.664150238 0 0 0 0 28425750.308856964 20489213.411034584 0 20489213.411034584 15744012.922412872 0 0 0 0 21329882.091495514 24169570.70593071 0 24169570.70593071 26990864.647788048 0 0 0 0 13600674.492692947 24445169.872022152 0 24445169.872022152 53250796.185108185 0 0 0 0 -597219.5431842804 9314098.6844215393 0 9314098.6844215393 56637170.330673218 0 0 0 0 2534398.9790486097 25847009.45362699 0 25847009.45362699 88496704.502542496 0 0 0 0 28261066.799689531 45674537.418408155 0 45674537.418408155 67442822.387586594 0 0 0 0 1174293.3942891723 2612183.9848593641 0 2612183.9848593641 3233986.2520456938 0 0 0 0 62422284.379528046 45251013.319202423 0 45251013.319202423 29341991.041458607 0 0 0 0 -20163909.454295158 -18288839.20983696 0 -18288839.20983696 16639060.839881897 0 0 0 0 23879212.31111908 13447705.231193542 0 13447705.231193542 11089610.931877136 0 0 0 0 -13814192.880126953 3690901.8007736206 0 3690901.8007736206 -17813765.938926697 0 0 0 0 -13214315.858261108 12604111.505210876 0 12604111.505210876 -14808357.187826157 0 0 0 0 -14137209.497039795 14140017.882343292 0 14140017.882343292 -4815220.5876102448 0 0 0 0 -12567920.440155029 -3389634.35887146 0 -3389634.35887146 2465859.1170158386 0 0 0 0 -11160587.917388916 -7115872.0255889893 0 -7115872.0255889893 -9910671.2710418701 0 0 0 0 -11062307.091117859 -8810297.1910667419 0 -8810297.1910667419 -4702515.6598129272 0 0 0 0 2137922.5558956563 -292150.6652135551 0 -292150.6652135551 26395679.206863403 0 0 0 0 -11720493.852931976 -6328226.2829399109 0 -6328226.2829399109 14952102.248699188 0 0 0 0 2257898.7057762146 3467610.222946167 0 3467610.222946167 596940.31170654297 0 0 0 0 -11107716.90322113 6785383.9116783142 0 6785383.9116783142 11758394.179855347 0 0 0 0 22846382.606320381 -10135440.976834297 0 -10135440.976834297 23656425.828334808 0 0 0 0 25219843.319530487 -9293901.6176528931 0 -9293901.6176528931 13996241.442447662 0 0 0 0 34248441.498793125 -26746182.756719112 0 -26746182.756719112 23384658.65259552 0 0 0 0 -251755.08308410645 -462979.30261611938 0 -462979.30261611938 14046307.61713028 0 0 0 0 28435870.772640228 -13840786.690448761 0 -13840786.690448761 13929217.13826336 0 0 0 0 56310340.825948715 32500848.308002472 0 32500848.308002472 -15651772.445167542 0 0 0 0 -27416580.308675051 15800322.713758945 0 15800322.713758945 10701484.849128723 0 0 0 0 79740652.586765289 2307883.3345012665 0 2307883.3345012665 -40077426.807170868 0 0 0 0 81376376.270648956 13681904.59790802 0 13681904.59790802 -31138983.874994278 0 0 0 0 83062140.744874001 7181911.8982954025 0 7181911.8982954025 -26650437.399333954 0 0 0 0 78372111.939552546 27625557.42310977 0 27625557.42310977 -3696313.8228111267 0 0 0 0 551104.00443399581 460926.12085925974 0 460926.12085925974 -498451.52097996417 0 0 0 0 134650609.18444932 -19717361.933543921 0 -19717361.933543921 114474339.88971329 0 0 0 0 131481425.96841145 -47705061.112792969 0 -47705061.112792969 1026754.8513069153 0 0 0 0 62408922.804961205 -51804602.083108902 0 -51804602.083108902 65704966.414871216 0 0 0 0 209878798.23081446 -85946341.877616405 0 -85946341.877616405 -107804730.3866806 0 0 0 0 39169606.788692474 12582968.248008728 0 12582968.248008728 11979704.107006073 0 0 0 0 354210.62789765513 601289.68859969499 0 601289.68859969499 -172199.88948428165 0 0 0 0 19038208.850442886 11928375.042640686 0 11928375.042640686 56627665.015720367 0 0 0 0 27859778.285253525 -624868.68081283569 0 -624868.68081283569 -2415269.0111789703 0 0 0 0 13130629.526130676 1091399.4220190048 0 1091399.4220190048 -6135479.90990448 0 0 0 0 7083267.7456092834 3968034.4810533524 0 3968034.4810533524 -2544193.3901329041 0 0 0 0 14882157.621264458 8285235.2255721092 0 8285235.2255721092 -11025855.910118103 0 0 0 0 -9084109.2659130096 12953243.182540894 0 12953243.182540894 3162082.8531856537 0 0 0 0 -5064679.2235927582 21905227.582630157 0 21905227.582630157 10679051.561687469 0 0 0 0 13609008.538099766 21559641.559011459 0 21559641.559011459 14589279.347007751 0 0 0 0 9059474.2904911041 13993130.529993057 0 13993130.529993057 2245399.6618461609 0 0 0 0 5623359.2353668213 18435933.3307724 0 18435933.3307724 20694776.710819244 0 0 0 0 24954282.966176987 5324527.5094041824 0 5324527.5094041824 12622760.039386749 0 0 0 0 3355631.8020057678 12715907.067965508 0 12715907.067965508 6267558.3760528564 0 0 0 0 -14464267.080440521 9687944.7284393311 0 9687944.7284393311 9915904.5302703381 0 0 0 0 1061170.8359231949 2037163.0363512039 0 2037163.0363512039 1565900.9130096436 0 0 0 0 521733.2630733205 3310291.9623066508 0 3310291.9623066508 4641366.2522339039 0 0 0 0 -29055712.49478817 8634687.5579285622 0 8634687.5579285622 8554453.175075531 0 0 0 0 -21151971.770126343 20475390.996936798 0 20475390.996936798 6201313.7273101807 0 0 0 0 2632275.8243342703 744487.96776624548 0 744487.96776624548 1096185.5325083621 0 0 0 0 14235936.810531616 8524820.8645133972 0 8524820.8645133972 17435750.142967224 0 0 0 0 5622889.3250556113 3457505.0173830125 0 3457505.0173830125 1422669.1893674745 0 0 0 0 -14951323.836589813 11045870.142427444 0 11045870.142427444 -520914.55250930786 0 0 0 0 -14355354.560050488 -54584324.745789289 0 -54584324.745789289 -153942083.50436687 0 0 0 0 653930.68626117706 -13007371.891331434 0 -13007371.891331434 -134702936.22248983 0 0 0 0 -6350036.5662169456 19985320.977187395 0 19985320.977187395 1837998.331413269 0 0 0 0 5530622.4950546389 5403860.7824924449 0 5403860.7824924449 4585617.2132636076 0 0 0 0 11987843.813641548 7100373.3117798567 0 7100373.3117798567 15968868.031839848 0 0 0 0 862146.06274049764 2216054.6358032213 0 2216054.6358032213 1268128.4559291087 0 0 0 0 4369316.0208323877 847911.19046125002 0 847911.19046125002 -674408.79905577609 0 0 0 0 5545894.9244441986 65940910.290159941 0 65940910.290159941 -12402024.373346001 0 0 0 0 4990964.3954026233 -72135.180986123276 0 -72135.180986123276 415395.59086970624 0 0 0 0 10415295.142848969 8657754.8761997223 0 8657754.8761997223 8265344.3427581787 0 0 0 0 19748669.594802856 16157062.202419281 0 16157062.202419281 10727401.1272192 0 0 0 0 18470653.029679298 9398986.4439406395 0 9398986.4439406395 18534464.047515869 0 0 0 0 29532922.996101379 2792810.0131416321 0 2792810.0131416321 -4722054.8367004395 0 0 0 0 15147082.054992676 12081641.717514992 0 12081641.717514992 5791319.6154088974 0 0 0 0 11053673.435994506 -2375807.7970145941 0 -2375807.7970145941 2602305.5277137756 0 0 0 0 13418381.896582842 16696606.362586141 0 16696606.362586141 25130278.319293976 0 0 0 0 1446083.7394766137 -250411.37653147988 0 -250411.37653147988 -1160629.7677553683 0 0 0 0 1310951.2510201931 2169695.4250450134 0 2169695.4250450134 -7934876.0389060974 0 0 0 0 1367686.5353721124 2531928.1284926985 0 2531928.1284926985 884220.00979584269 0 0 0 0 -1876799.756182909 -8023602.4919042587 0 -8023602.4919042587 13631394.430309772 0 0 0 0 -15733759.286462784 7594026.4884052277 0 7594026.4884052277 8708405.6839084625 0 0 0 0 2700168.9190788269 -2658647.4341411591 0 -2658647.4341411591 -16435135.581382751 0 0 0 0 -17671734.176962852 -20717727.995582581 0 -20717727.995582581 -2970469.9968986511 0 0 0 0 5348988.0820575953 6420677.4614751339 0 6420677.4614751339 1098910.1551780701 0 0 0 0 -9781384.3402972221 -208659.66385650635 0 -208659.66385650635 3906181.5191192627 0 0 0 0 -264520.32548264181 -368518.45586029906 0 -368518.45586029906 -18781.092669149861 0 0 0 0 -9998745.7103993893 724089.2877779007 0 724089.2877779007 1256538.7805175781 0 0 0 0 -8327094.0471916199 23943825.752573013 0 23943825.752573013 -15271095.645973206 0 0 0 0 9071159.7820596695 -20135499.636247635 0 -20135499.636247635 22246716.507313013 0 0 0 0 -18695216.156959772 7545433.7181925774 0 7545433.7181925774 25027615.294309616 0 0 0 0 7226360.5111751556 26809555.978652954 0 26809555.978652954 13679087.730398178 0 0 0 0 44369195.754353523 13073389.078779221 0 13073389.078779221 -9212678.1407356262 0 0 0 0 554876.38541057939 34761.097545540892 0 34761.097545540892 -575360.10150548816 0 0 0 0 57294838.003952026 3753933.5812616348 0 3753933.5812616348 -39009255.608407974 0 0 0 0 17822067.091432571 55803025.079829931 0 55803025.079829931 -58988014.843200684 0 0 0 0 -5606246.238424778 6070768.6660308838 0 6070768.6660308838 7632730.1233024597 0 0 0 0 11500283.270263672 620892.54821014404 0 620892.54821014404 -58255778.563234091 0 0 0 0 852957.21233267745 75364.61175134778 0 75364.61175134778 -970143.05164673924 0 0 0 0 30946927.699421525 26869856.612671375 0 26869856.612671375 -65664687.092752457 0 0 0 0 -65072260.644027412 75365203.320299625 0 75365203.320299625 -39082267.821142197 0 0 0 0 -17525260.701361656 -16297105.01376152 0 -16297105.01376152 31302305.178182602 0 0 0 0 38465826.361773491 36786678.708220482 0 36786678.708220482 -9828453.8424186707 0 0 0 0 128545358.15068293 -30364212.176103592 0 -30364212.176103592 -16119838.709150314 0 0 0 0 854672.1666314574 702808.26465219166 0 702808.26465219166 -777417.64058991335 0 0 0 0 94907399.817922354 -46463274.654075623 0 -46463274.654075623 -22011764.592739105 0 0 0 0 65878966.2318573 -6580248.2690982819 0 -6580248.2690982819 75318409.638214111 0 0 0 0 809518.31279605464 1308365.7721960659 0 1308365.7721960659 -204242.62270992622 0 0 0 0 54265261.548712254 19076871.123762131 0 19076871.123762131 -2889583.307182312 0 0 0 0 -23469383.869640827 -287066.1257610321 0 -287066.1257610321 -34420253.004858017 0 0 0 0 56732098.357017517 17769456.764125824 0 17769456.764125824 -44932780.998336792 0 0 0 0 35286175.439085484 -21247974.466268539 0 -21247974.466268539 -15673404.734111786 0 0 0 0 270220.28117308492 66363.787352261133 0 66363.787352261133 -613125.63233528193 0 0 0 0 -69774065.95325236 91568140.23375392 0 91568140.23375392 -55957021.138160706 0 0 0 0 122048.23310906813 28739780.221207142 0 28739780.221207142 -61278504.807411194 0 0 0 0 -8499152.3084673285 739225.28777742386 0 739225.28777742386 5732027.2020730972 0 0 0 0 -50656921.735506296 3838905.9825401306 0 3838905.9825401306 20192430.842285156 0 0 0 0 1505583.6012057825 2653829.8771609431 0 2653829.8771609431 638458.64196646027 0 0 0 0 38471094.47591114 25037692.305873871 0 25037692.305873871 -7381871.7657203674 0 0 0 0 69805472.595459342 82975904.443097115 0 82975904.443097115 30082111.573745728 0 0 0 0 145450758.72012186 87545975.6469841 0 87545975.6469841 -41715667.967904091 0 0 0 0 24613051.466001153 62932080.551888466 0 62932080.551888466 27676623.038057327 0 0 0 0 -45667139.279777527 -1958902.3541412354 0 -1958902.3541412354 25114783.198858261 0 0 0 0 26034074.688819647 51125722.046643257 0 51125722.046643257 61463040.595977783 0 0 0 0 149241.81033212552 -293048.3545750659 0 -293048.3545750659 -258640.05561321974 0 0 0 0 -98292614.951235533 -38706619.192703247 0 -38706619.192703247 80327383.150964737 0 0 0 0 -4312660.7173131108 -19583980.287165165 0 -19583980.287165165 -37455399.732627869 0 0 0 0 -25580237.095974743 -39143330.329397202 0 -39143330.329397202 -27689518.148605347 0 0 0 0 29121040.121383965 16826516.827615738 0 16826516.827615738 -45803339.563503265 0 0 0 0 61653030.906643093 -157430187.3401413 0 -157430187.3401413 14936299.993693352 0 0 0 0 153900613.53143418 -77694425.186105728 0 -77694425.186105728 -31527302.733737946 0 0 0 0 -23511145.534440994 -14119071.411563873 0 -14119071.411563873 5441067.1095180511 0 0 0 0 -28252195.428909779 3088422.7993888855 0 3088422.7993888855 -5557623.5065498352 0 0 0 0 -46639473.522956014 -11778834.488035202 0 -11778834.488035202 7349168.7873001099 0 0 0 0 202139.33964743401 -377817.00162279047 0 -377817.00162279047 -111447.51409844402 0 0 0 0 7694361.3824570179 -1067386.4769234657 0 -1067386.4769234657 -5929687.6629867554 0 0 0 0 104691293.90127945 -55290255.549383163 0 -55290255.549383163 -20846277.715637207 0 0 0 0 296818676.35238457 1843960.2612991333 0 1843960.2612991333 -4619698.7282156944 0 0 0 0 256243895.98698926 -162715093.22041988 0 -162715093.22041988 6254137.6691474915 0 0 0 0 81340497.817752361 -110078647.89299536 0 -110078647.89299536 262240248.53569794 0 0 0 0 144642298.93500328 79218398.812034607 0 79218398.812034607 184525783.48303986 0 0 0 0 736959.33965836337 301554.88038107567 0 301554.88038107567 -70015.890755029395 0 0 0 0 151636332.36149764 -205046057.75682545 0 -205046057.75682545 401603014.01020622 0 0 0 0 182518415.10021973 155189776.35120153 0 155189776.35120153 -52578783.002717972 0 0 0 0 78631251.667866945 167671557.84737968 0 167671557.84737968 211977558.68562341 0 0 0 0 133242056.98948455 60493985.125254154 0 60493985.125254154 -74282863.191755295 0 0 0 0 1440522.4954661867 780256.41946499515 0 780256.41946499515 440289.08164846618 0 0 0 0 124439922.59091234 -167753884.93888187 0 -167753884.93888187 165009994.10910606 0 0 0 0 -36783474.188695908 -105348774.94686508 0 -105348774.94686508 72777232.497711182 0 0 0 0 119807638.46624851 -69135222.034072876 0 -69135222.034072876 96350383.746429443 0 0 0 0 -2572358.3731479645 -49652818.346628189 0 -49652818.346628189 162808911.57694161 0 0 0 0 -43979974.821131229 43693601.777432442 0 43693601.777432442 48797383.377426147 0 0 0 0 11826476.081306458 -37954736.639468193 0 -37954736.639468193 106361961.72880936 0 0 0 0 -76864319.927931786 20686563.133592606 0 20686563.133592606 114908428.95117188 0 0 0 0 -41582434.821572304 -18030564.276639938 0 -18030564.276639938 128892878.85502243 0 0 0 0 -176126719.73718929 44122366.117511749 0 44122366.117511749 102872022.3301897 0 0 0 0 -49383522.519212723 98555849.937397003 0 98555849.937397003 14211370.017478943 0 0 0 0 -25883290.33417511 49816908.827589035 0 49816908.827589035 49838181.308338165 0 0 0 0 3275813.8216629028 69231481.69877243 0 69231481.69877243 2250382.1543922424 0 0 0 0 -34451931.389325142 65500531.043233871 0 65500531.043233871 29738506.870422363 0 0 0 0 3551889.1078643799 47134753.335849762 0 47134753.335849762 13700071.973060608 0 0 0 0 -23179795.18400383 39331141.229560852 0 39331141.229560852 17067413.433289528 0 0 0 0 37569376.215507507 87096309.776290894 0 87096309.776290894 50455723.656644583 0 0 0 0 495066.67317621806 174522.45005205646 0 174522.45005205646 -586040.52666823938 0 0 0 0 -6446578.1292228699 -130757937.16598511 0 -130757937.16598511 240282220.42649841 0 0 0 0 8511067.1595535278 36323231.851139069 0 36323231.851139069 53405085.632064819 0 0 0 0 -200846638.84395146 47985011.429429531 0 47985011.429429531 26866431.010967255 0 0 0 0 -287071.69107584329 224485.31022507139 0 224485.31022507139 928227.1519821668 0 0 0 0 -9600188.7739157677 67066832.191543579 0 67066832.191543579 3293709.5343208313 0 0 0 0 -168424386.19618893 -19862858.459133148 0 -19862858.459133148 -751456.52198791504 0 0 0 0 503421.09803137789 2108011.1238771644 0 2108011.1238771644 2556566.3920271266 0 0 0 0 -115120882.13524914 -1118340.7201576233 0 -1118340.7201576233 5836515.4815292358 0 0 0 0 -100181506.66904449 78242350.334869385 0 78242350.334869385 35925859.628964424 0 0 0 0 28757.45826292038 637210.23581123352 0 637210.23581123352 7444041.3174285889 0 0 0 0 21279.753888010979 554793.39022517204 0 554793.39022517204 6594975.4391555786 0 0 0 0 -1046177.057841748 489754.99255645275 0 489754.99255645275 7651978.2389602661 0 0 0 0 -15961436.870339394 79805071.087003708 0 79805071.087003708 110361569.46550083 0 0 0 0 -19966712.689525604 -60315301.509017944 0 -60315301.509017944 190732243.57390213 0 0 0 0 -36424085.925393105 32904325.145359039 0 32904325.145359039 -6444098.0408477783 0 0 0 0 -175406172.39426994 87179550.129495621 0 87179550.129495621 79908822.961091995 0 0 0 0 -216011927.07786274 63632997.981523514 0 63632997.981523514 53447006.136242867 0 0 0 0 -32085557.362009525 44327905.771474838 0 44327905.771474838 32306877.266490936 0 0 0 0 -133550270.9113121 138881471.23448372 0 138881471.23448372 -53919646.301868439 0 0 0 0 49246710.05725956 37070378.828308105 0 37070378.828308105 7469661.5878992081 0 0 0 0 102257501.32126808 -6941120.032286644 0 -6941120.032286644 16739806.732040405 0 0 0 0 -20113662.842905998 -21107296.209690094 0 -21107296.209690094 -20281159.012939453 0 0 0 0 28359771.366058826 21285491.749233246 0 21285491.749233246 -24666938.170755625 0 0 0 0 387555.17875531036 -100293.4923515371 0 -100293.4923515371 -563301.86782721058 0 0 0 0 -233143575.85908017 105906749.3325057 0 105906749.3325057 -63838984.403572083 0 0 0 0 698054.29933453584 1772303.1336637256 0 1772303.1336637256 2150743.6532888226 0 0 0 0 3861305.3469762802 -5566557.8851089478 0 -5566557.8851089478 9742801.1172103882 0 0 0 0 11222989.104328156 -8765797.8011894226 0 -8765797.8011894226 11997889.269939423 0 0 0 0 3544738.3785028458 -4331065.8334255219 0 -4331065.8334255219 10260858.752773285 0 0 0 0 -232750541.75243065 112394227.4606775 0 112394227.4606775 -102247994.53157425 0 0 0 0 -239841240.01959038 304538180.80713654 0 304538180.80713654 -73940535.506523371 0 0 0 0 -2275362.8484959602 394917.99720954895 0 394917.99720954895 7791504.4719314575 0 0 0 0 -3875077.6032676697 -7854.8219032287598 0 -7854.8219032287598 9405935.0048046112 0 0 0 0 -690262.07157373428 -1328218.4113464355 0 -1328218.4113464355 9012405.8126983643 0 0 0 0 4458923.14097929 -3623846.3635425568 0 -3623846.3635425568 8035443.66065979 0 0 0 0 1021970.8792309761 -528129.82648277283 0 -528129.82648277283 6662183.1388092041 0 0 0 0 -4462188.3263731003 -3317077.4324569702 0 -3317077.4324569702 15815607.202568054 0 0 0 0 2444496.6480226517 -5575492.4680862427 0 -5575492.4680862427 11717698.433326721 0 0 0 0 -933152.26617288589 -1776759.0418272018 0 -1776759.0418272018 10071879.04473114 0 0 0 0 -1611835.1850605011 -2727333.6181755066 0 -2727333.6181755066 10259744.756523132 0 0 0 0 -6953586.7907209396 439074.85691833496 0 439074.85691833496 11874150.988996506 0 0 0 0 -5442326.8129816055 3258556.9890823364 0 3258556.9890823364 8083260.5006637573 0 0 0 0 -2645432.2947444916 1155724.6033096313 0 1155724.6033096313 8338911.7669754028 0 0 0 0 -5244264.3137808442 2086029.8488969803 0 2086029.8488969803 9446250.0360946655 0 0 0 0 -8442331.2856684923 3716996.4130787849 0 3716996.4130787849 9506074.7294769287 0 0 0 0 -7847647.8277072906 6469131.2926578522 0 6469131.2926578522 4532676.0028343201 0 0 0 0 -12592050.069974899 4490262.322719574 0 4490262.322719574 14030036.917922974 0 0 0 0 -3734963.3388023376 -1137942.4075546265 0 -1137942.4075546265 11899041.592765808 0 0 0 0 -2134959.4055528641 -2470417.4657020569 0 -2470417.4657020569 13968768.226085663 0 0 0 0 -8101449.3459157944 -2153662.1159305573 0 -2153662.1159305573 20260038.953147888 0 0 0 0 -18101032.13916111 6483160.6656627655 0 6483160.6656627655 14441783.883190155 0 0 0 0 -13567571.49763298 9356876.4644622803 0 9356876.4644622803 15254235.978530884 0 0 0 0 1227414.5731671131 5048824.6495839218 0 5048824.6495839218 8630131.5802183077 0 0 0 0 -19766681.936705589 17435398.229757309 0 17435398.229757309 8456372.4637107849 0 0 0 0 -115365260.76416636 108685980.74887562 0 108685980.74887562 -24039286.732078552 0 0 0 0 853451.69196339464 1508129.3816951127 0 1508129.3816951127 1554036.6360410154 0 0 0 0 11290991.090268135 -12069971.24105072 0 -12069971.24105072 20521517.981422424 0 0 0 0 9669661.9139976501 -5514249.8929252625 0 -5514249.8929252625 23320615.932320595 0 0 0 0 -1379179.5713148117 -6850288.6760673523 0 -6850288.6760673523 21265447.469558716 0 0 0 0 8036359.2188405991 -9350870.0294303894 0 -9350870.0294303894 21263894.854957581 0 0 0 0 -7413726.3508644104 19733191.338195801 0 19733191.338195801 20968630.863708496 0 0 0 0 -9626600.6304215193 -1849988.3948550224 0 -1849988.3948550224 34763164.965595245 0 0 0 0 39268328.704808712 -36331172.607578278 0 -36331172.607578278 52464519.707241058 0 0 0 0 -3250408.9091663361 9504180.4492645264 0 9504180.4492645264 41555998.934761047 0 0 0 0 -1933751.6961107254 23769472.54466629 0 23769472.54466629 79903163.115180969 0 0 0 0 20658121.54301548 24373093.318717957 0 24373093.318717957 59722253.813716888 0 0 0 0 1118025.7385253601 1063249.7649182426 0 1063249.7649182426 322710.52137370035 0 0 0 0 -95753984.149873734 56074432.592952728 0 56074432.592952728 359849715.81124878 0 0 0 0 29953399.016288757 -99070884.23330307 0 -99070884.23330307 213467504.79148102 0 0 0 0 -580201041.78135872 366562619.8118515 0 366562619.8118515 -33019983.34412384 0 0 0 0 15387141.889970779 435229273.37842178 0 435229273.37842178 -111622393.98455763 0 0 0 0 869368.63424292905 -185571.81078934716 0 -185571.81078934716 -1095351.5189156123 0 0 0 0 -198100512.48428947 -114714378.22972441 0 -114714378.22972441 -43287966.990310669 0 0 0 0 644786649.28503621 -138985399.65141106 0 -138985399.65141106 -236358233.67329788 0 0 0 0 153623905.6206584 -346055527.17839241 0 -346055527.17839241 -132735844.50101471 0 0 0 0 1205955668.7830925 985767983.8187561 0 985767983.8187561 1185070218.3435974 0 0 0 0 792995.94221638865 -108168.09192463942 0 -108168.09192463942 -830906.54261143878 0 0 0 0 49164765.666519351 -265959065.5123446 0 -265959065.5123446 -187331964.55065918 0 0 0 0 -83175532.604605675 -324401232.7305336 0 -324401232.7305336 296502691.33271027 0 0 0 0 -332616334.53545809 -259418511.71399879 0 -259418511.71399879 95984076.038986206 0 0 0 0 -311488652.03165436 -295077625.47357559 0 -295077625.47357559 -276450363.35105896 0 0 0 0 -23919715.730098248 228487744.30224228 0 228487744.30224228 -337843862.45837402 0 0 0 0 -54147856.025437593 240598775.58766174 0 240598775.58766174 101614432.495224 0 0 0 0 -843227900.24287367 -1240399294.9378834 0 -1240399294.9378834 -298457181.87548065 0 0 0 0 89947202.085847378 467066239.10782242 0 467066239.10782242 387565856.91384125 0 0 0 0 494777309.96282387 -121002885.08354759 0 -121002885.08354759 156164727.44358063 0 0 0 0 1749580.7734535895 -801305.42459075805 0 -801305.42459075805 2453158.9018132403 0 0 0 0 92791926.963554382 242719092.5413208 0 242719092.5413208 713512941.80976391 0 0 0 0 -178102811.45949173 -264518948.82614899 0 -264518948.82614899 566119990.63591576 0 0 0 0 140064713.55188394 12725730.943173409 0 12725730.943173409 130636952.44332123 0 0 0 0 299905855.32340658 108365152.53763771 0 108365152.53763771 84108763.908882141 0 0 0 0 -21589654.440217793 20761240.637732029 0 20761240.637732029 381548641.82179642 0 0 0 0 104101135.91990185 152903152.08665085 0 152903152.08665085 325974988.70149803 0 0 0 0 684005782.17970216 368226168.41788483 0 368226168.41788483 196597542.37451553 0 0 0 0 260562209.05805254 9994660.9496593475 0 9994660.9496593475 2063728.971868515 0 0 0 0 219917920.47401372 -45597363.458820343 0 -45597363.458820343 -63364438.126396179 0 0 0 0 397726195.83910275 -33111096.223325729 0 -33111096.223325729 -72408369.729179382 0 0 0 0 158948264.91093001 -113418957.12131977 0 -113418957.12131977 -70383340.907863617 0 0 0 0 169000583.7275877 56383228.649806976 0 56383228.649806976 14515688.944396973 0 0 0 0 154373304.64339828 -5246889.7702064514 0 -5246889.7702064514 3060977.5191345215 0 0 0 0 105406266.83365583 -16530873.545700073 0 -16530873.545700073 8089488.3776350021 0 0 0 0 113273737.63037825 42801351.988494873 0 42801351.988494873 16902112.119740963 0 0 0 0 107461812.57503366 -52970706.925693512 0 -52970706.925693512 -82601648.753788948 0 0 0 0 101537027.18391448 -47917925.92291069 0 -47917925.92291069 -59847426.492954254 0 0 0 0 121436713.4403398 -115464432.39409637 0 -115464432.39409637 -32880018.884820342 0 0 0 0 146089329.81452155 -74396463.935320377 0 -74396463.935320377 -25961444.01467514 0 0 0 0 140142212.2574656 -115984847.15032387 0 -115984847.15032387 -52538965.262325287 0 0 0 0 10973910.187703133 -88246344.796527863 0 -88246344.796527863 -19343545.993249893 0 0 0 0 21891754.015843153 -6275336.060952425 0 -6275336.060952425 -14013448.567703247 0 0 0 0 133427837.24659491 -11515962.421687126 0 -11515962.421687126 -27426841.804866791 0 0 0 0 -94404628.657108545 -18680760.274921417 0 -18680760.274921417 -1759793.9586601257 0 0 0 0 53876956.99458909 -32117036.560398102 0 -32117036.560398102 -553476.28630065918 0 0 0 0 -131299774.64830518 -187364200.72982216 0 -187364200.72982216 8115761.139465332 0 0 0 0 124681001.99260545 -161705777.72651863 0 -161705777.72651863 -4293136.463142395 0 0 0 0 161967753.499681 -121806582.4390583 0 -121806582.4390583 -51699557.247253418 0 0 0 0 
</DataArray>
<DataArray type="Float64" Name="cross_section_updated" format="ascii">
1 1 1 1 1 0.049816457033280893 1 1 1 1 1 1 1 0.052191565997967447 1 1 1 1 0.055525323808838574 1 1 0.052183125004628156 1 1 1 1 0.061879252114606632 1 1 1 1 0.048990687554780712 1 1 1 1 1 1 1 1 1 1 1 1 1 0.05017327772251335 1 1 0.049972293003635218 1 1 1 1 1 0.051755298370993089 1 1 1 1 1 1 1 0.061527505436482 1 1 1 1 0.049297902270240168 1 1 1 1 1 1 1 1 1 0.04849958032170288 1 1 0.049652667944707254 1 1 0.050542368503574589 1 1 1 1 0.052982957566882399 1 1 1 1 1 1 1 0.049953339899589395 0.049993256504563398 0.050012623847263342 1 1 0.049816429620643428 1 1 1 1 1 0.049999799819161819 1 1 1 1 1 1 1 1 1 1 1 1 1 0.049997179928862143 1 1 1 0.052238805520704368 1 1 1 1 1 1 0.050956576407941274 1 1 1 1 1 1 1 1 1 1 1 1 1 1 1 1 1 1 1 1 1 1 1 1 1 0.04991628451839978 1 1 1 0.050672067879697538 1 1 0.050497043917106729 1 1 1 1 1 1 1 1 1 1 1 0.050824725265614282 1 1 1 1 1 1 1 1 0.052033652668584042 1 1 1 1 1 1 1 1 0.052476341386250278 1 1 1 1 1 1 1 1 1 0.050227541122065622 1 1 1 1 1 1 1 1 1 1 1 1 1 1 1 1 1 1 1 1 1 1 1 0.049999257307613634 1 1 1 0.061009417651104979 1 0.049967148288425869 1 0.057267260647496168 1 1 0.051153510272801114 1 1 1 0.053016334098953316 1 0.048901015020055366 1 0.049410796437324427 1 0.057256331435990994 0.049499339754720519 1 0.049709297127909065 1 1 0.049567098003357637 1 0.05038103963660464 1 1 1 0.053166847216657556 1 0.052526522516139595 0.050143994697324154 1 1 0.050304779065405807 1 1 1 0.051726983343107026 1 0.049925582242450209 0.050606527001307314 0.050667705273564172 1 0.050145522485674471 1 1 1 0.050010140711541265 1 0.050993962294507755 0.05147356235152075 0.049704961205120357 1 1 0.051175236477552059 0.051673754108857661 1 1 1 1 0.052829403205356923 1 0.049758938409938482 1 1 0.051814586011971586 1 1 1 0.050141945766415633 1 0.050968746619522734 0.050665389466303501 0.050330817284405749 1 1 1 0.049723536547532581 1 0.051302074598832924 0.053042922854798391 0.049530817115492322 0.050859206148883583 1 1 1 0.052976175126114113 0.050000011666315874 1 1 0.050866845947730006 0.052556318527415609 0.049645956637997625 1 0.049479090506459628 1 1 1 1 0.050002232660632966 1 1 1 1 1 1 1 0.050499518342853641 1 1 1 1 1 1 0.051472350963322977 0.050000308964055946 1 1 1 0.050251271739947166 1 1 1 0.050020044137801277 1 0.049693592673012203 1 0.048005420994242085 0.055989020003880452 1 1 1 1 0.04957403497853486 1 1 0.055495932660139094 1 1 1 1 0.050009685920744451 1 0.049994275650269773 1 1 1 1 1 0.052393429565396638 0.053003962225610511 1 1 1 1 1 1 1 1 0.050200695083901396 1 1 1 0.049637944224967194 1 1 0.055287342995249719 1 0.049997366399548861 1 1 1 1 1 1 1 1 1 1 1 0.055330021428632241 1 0.050987583577203226 1 0.05433589126388539 1 1 1 0.050488670139188029 1 0.050005143315145904 1 0.051025271705835956 1 1 1 1 1 1 0.0533222004322189 1 0.054081017750964369 1 1 1 0.053443993105728546 1 1 1 0.056972513532845992 1 0.051489475198308834 0.051753314507487345 1 1 1 1 0.056556892670606325 1 1 1 1 0.052954723713445138 0.051645323646569694 1 1 0.049387387757247506 1 0.052713386175925532 1 0.049867074343575915 0.049945668089399327 1 1 1 0.050037695021511688 1 1 1 1 0.053923445619812667 1 1 1 1 1 1 1 1 1 1 1 0.050001026784168567 1 1 1 1 0.051743792155101352 1 1 1 0.052118274345833222 1 0.051739412239666112 0.052997028378026917 0.049999250885174554 1 1 1 0.05327404727250324 0.059524199588039561 1 0.060137022846051311 1 1 0.049789678166942235 1 1 1 1 0.060977770114787916 1 1 1 1 1 1 1 1 1 1 1 0.06167286268892809 0.061097241681520198 1 1 0.052200041069316722 1 1 1 0.050007013098234021 1 1 1 1 1 1 0.064727522958304445 1 1 1 0.046379238501780121 1 1 1 0.055133768945815731 1 1 1 1 1 1 1 1 1 1 1 0.064715591883930015 1 1 1 0.064614803496548107 1 1 1 1 1 1 1 0.050120449997831322 1 1 1 1 1 0.050316849593980778 1 1 1 1 1 1 1 1 1 1 1 1 1 1 1 1 1 1 1 0.049832433378166806 1 1 1 1 0.049971389462158761 1 1 0.0500152492707895 1 1 1 1 1 1 1 0.050092723429550609 1 1 1 1 1 1 1 1 0.04999856907583014 1 0.050273068213795652 1 1 0.050066852012882038 1 1 1 0.04988825960350237 1 1 0.049684037114786778 1 1 1 0.052440577702233281 1 0.05404187679995591 1 1 0.050001049567898359 1 0.047686424840443463 1 1 1 1 1 1 1 1 1 1 1 1 1 1 1 1 1 1 1 1 1 1 0.050069712217964739 1 0.04987141059731616 1 0.049956837388027676 1 1 1 1 1 1 1 1 1 1 1 1 1 1 1 0.050035160388617439 1 1 1 1 1 1 1 1 1 0.05003455182934731 1 1 1 1 1 1 1 1 1 1 1 1 1 1 1 1 1 1 1 1 1 1 1 1 1 1 1 1 1 0.049997640375222245 1 1 0.050000238779903144 1 1 1 0.04980659075281231 0.051151107083382594 1 0.050904936737527683 1 1 1 1 1 0.050019227365144768 1 1 1 1 1 0.050227411636959055 1 1 1 1 1 1 1 1 1 1 1 1 1 1 1 1 1 1 1 1 1 1 1 1 1 1 1 1 1 1 1 1 1 1 1 1 1 1 1 1 1 1 1 1 1 1 1 1 1 0.050049841036601012 1 1 1 1 1 1 1 1 1 1 1 1 1 1 1 0.050624953135579479 1 1 1 1 0.050235834161914308 1 1 1 1 1 1 1 1 1 1 1 1 1 1 1 1 1 1 1 1 1 1 1 1 1 1 1 0.055592622743562581 1 1 0.051674965216003031 1 0.052192364217099045 0.050228402115450682 0.045474354222603035 0.061825347048203694 1 1 0.050010433423799759 1 1 1 1 1 1 1 1 1 1 1 1 1 1 1 1 1 0.052249118579695761 1 1 0.047854409307788587 1 0.051266642103155534 1 1 1 1 0.055494010177562413 1 0.049443280922984348 1 1 1 1 0.050094151353663519 1 1 1 0.053861967765912809 1 1 1 1 1 0.05001059328640893 1 0.050106657139245218 1 1 0.051774782406888521 0.053240819012960371 1 0.0493185582305821 1 1 1 1 1 1 1 1 1 1 1 0.063355620382361713 1 1 1 0.063130098739054452 1 1 1 0.051275013905410075 1 1 0.062463175287620888 0.049856464620400609 0.04995315294162838 1 1 1 1 1 1 1 1 1 1 1 0.05002134180623178 1 1 1 1 1 1 1 1 0.06210071472200368 0.058982348274860139 0.061709388808085505 1 1 1 1 1 1 1 1 0.057376431869755593 0.050031550210789671 1 1 1 0.049057402053750129 1 1 0.050640079632369731 1 1 1 1 1 1 1 1 1 1 1 0.050208688091180016 1 1 1 1 1 1 1 1 0.050156555578918127 1 1 1 1 1 1 1 1 1 1 0.049970301297284872 1 0.069111012041326358 0.046233933155873611 0.050933683947268077 1 1 1 1 1 1 1 0.065309462250480746 0.057311263849340863 1 0.051216811065587182 1 1 1 1 1 0.050185826112001897 1 0.049978741615719087 0.050917565555348841 1 1 1 0.050603550234591947 1 0.050266166476721323 1 1 1 1 0.050024923139174449 1 1 1 1 1 1 1 1 1 1 1 1 1 1 1 1 1 0.049709766133730196 1 1 1 0.050580054726955932 1 1 1 1 1 0.049914557943989295 1 1 1 1 1 1 0.050418149605412708 1 0.050159504299210726 1 1 1 1 1 1 1 1 0.050511400748172813 1 1 1 0.065861993673890215 1 1 1 1 1 1 1 1 1 1 1 1 1 1 1 1 1 1 1 1 1 1 1 1 1 0.050925788670900488 0.055684266992208263 0.053400534958792281 1 1 1 1 0.054178361522306526 1 1 1 1 0.053733919692184114 1 1 1 1 1 1 1 0.050122185357555846 1 1 1 1 1 1 1 1 0.050276074446893484 1 1 1 1 1 1 1 1 1 1 1 1 0.050714344388415926 1 1 1 1 1 1 0.049865200959630887 1 1 1 1 1 1 1 1 0.0595209285768067 1 1 1 0.052111294336550734 1 1 1 1 1 1 1 1 1 1 1 1 0.050153889089337628 1 1 1 1 1 1 1 1 1 1 1 1 1 1 1 1 1 1 1 1 1 1 1 1 1 1 1 1 1 1 1 1 1 1 1 1 1 1 1 1 1 1 1 1 1 1 1 0.050141236144624138 1 1 1 1 1 1 1 1 1 1 1 1 1 1 1 1 1 1 1 1 1 1 1 1 0.050131073011684665 1 1 1 1 1 1 1 1 1 1 0.049976326927652019 1 1 0.050365272513580729 1 1 1 1 1 1 1 1 1 0.049905593893929803 1 0.049817181981598707 1 1 1 1 0.05054936710337106 1 1 0.050001420382161862 1 0.05002135519785577 1 1 1 1 1 0.050415882135945111 1 1 1 1 1 1 1 1 0.049447792549222574 1 1 1 1 1 1 1 1 1 1 1 1 1 1 0.050691859863482569 1 0.050240287787991757 0.05002835140430735 1 1 1 1 1 0.050014076334230953 1 1 1 1 1 1 1 1 1 1 1 1 1 1 1 0.050907506835851754 1 1 1 1 1 1 1 1 1 1 1 1 1 1 1 1 0.050276409098851692 1 1 1 1 1 0.05312071448117435 0.049966824737850399 1 1 0.052354222623612938 1 1 1 1 1 1 1 1 1 1 0.05091251112354344 1 1 1 1 1 1 1 1 1 0.050605461465629109 1 0.065782535647278484 1 1 1 1 1 0.04941196142504619 1 1 1 1 0.067383276091908542 1 1 1 0.047923855103231168 1 1 1 0.064958861933439457 1 1 0.050930958356003156 1 1 1 1 1 1 1 1 1 1 1 1 1 1 1 1 0.050289733891176427 1 1 1 1 1 1 1 0.049459328127824512 1 1 1 1 1 1 1 1 1 1 1 1 1 1 1 1 1 1 1 1 1 1 1 1 1 1 1 0.05648838490170003 1 1 1 1 0.050304297970732124 1 1 1 0.056794188651168726 1 1 1 1 1 1 1 1 1 0.05701037691302023 1 0.049999304553734414 1 1 1 1 1 1 1 1 1 1 1 1 1 1 1 1 1 1 0.049995900366668643 0.054411465697120083 1 1 1 0.049940911003656489 1 1 0.052575252969793797 1 1 0.050798663074937543 1 1 1 0.050221465187674973 1 1 0.050306747139341898 1 1 1 1 1 1 1 1 1 1 1 1 1 1 1 1 1 1 1 1 0.050497874286526669 1 0.050812190053998493 1 1 1 1 1 1 1 1 1 1 1 0.05198311841525502 1 0.052560960317942607 1 1 1 0.083327505159307452 1 1 1 1 1 0.049934981940265938 1 1 1 1 1 1 0.044051903318027642 1 1 1 1 1 1 1 1 1 1 1 0.043111707081639139 1 1 1 1 1 1 1 1 0.081390574693534168 1 1 1 0.070508304169456457 1 1 0.042146208321626105 1 1 1 1 1 0.056480501783620629 1 1 1 1 1 1 1 1 1 0.050085444526902806 1 1 0.064164619085200589 1 0.057243318402344118 1 0.054610192937342726 0.056666479177995152 0.050749948510452884 1 0.04998982202784534 1 1 1 1 1 1 0.067002497891413451 1 1 1 1 1 1 0.050222961991521452 1 1 1 1 1 1 1 0.063366016185621502 1 1 1 1 0.0596163147446271 1 1 1 1 1 0.064168312429185331 1 0.050001630423818041 1 1 1 1 1 1 1 1 1 1 0.050598278392756803 1 1 1 1 1 1 1 0.05353680899463694 1 1 1 1 1 1 1 0.050000874447421365 1 0.050883786326125037 1 1 1 1 1 1 1 1 0.055491127632211354 1 1 1 0.059510420376479682 0.050031421719287379 1 1 1 1 1 0.05445515166273892 0.050048291152176697 1 0.053591376932591313 1 1 0.048614713131812329 1 1 0.053775567093861165 1 1 1 1 1 1 1 1 0.05747742458572986 1 1 1 1 1 0.066369793399720128 1 1 1 1 0.0639734472575232 1 1 0.062017905358917165 1 1 1 1 1 1 1 1 1 1 1 1 1 1 1 1 1 1 1 1 1 1 1 1 1 1 1 1 1 1 1 1 1 1 1 1 1 1 1 1 1 0.049979941377161274 1 1 0.050093095533100727 1 1 1 1 1 0.050436984500362513 1 1 1 1 0.05011924081250077 1 1 1 1 1 1 1 1 1 1 1 1 1 1 1 1 1 1 1 1 1 1 1 1 0.050412504105193656 1 1 1 0.05018827415288056 1 1 1 1 1 1 0.05002074832201156 1 1 1 1 1 1 1 1 1 1 1 0.062273157032110865 1 0.054148928765693646 0.049755321080746415 1 1 0.053512545074713272 1 1 1 1 1 1 1 1 1 1 1 0.059576874209622495 1 1 0.051274919062939218 1 1 1 1 1 1 1 1 1 1 1 1 1 1 1 0.057130847479658069 1 1 1 1 1 1 1 0.0499397786228961 1 0.050305359095980988 1 1 1 1 0.055993040452687694 1 0.050315727574452677 1 1 1 1 1 1 1 1 1 0.04953870202496919 1 1 1 1 1 1 1 1 1 1 1 1 1 1 1 1 1 0.053253211949993787 1 1 1 1 1 1 1 1 1 1 1 1 1 1 1 1 1 1 1 1 1 1 1 1 1 0.049979081369468728 0.049884532295471233 1 1 1 1 1 1 1 1 1 1 1 0.050023247684137004 1 1 1 1 0.050061137825120477 1 1 1 1 0.04999253806960717 1 1 1 1 1 1 1 1 0.048675609328011668 1 1 1 1 1 1 1 1 1 0.049555670575643078 1 1 1 1 1 1 1 1 1 1 1 1 1 1 1 1 1 1 1 1 0.053858824265410297 1 1 1 1 1 1 1 1 1 1 1 1 1 1 0.06326734520981768 1 0.050034496621324892 1 1 1 1 1 1 1 1 0.062774926804762265 1 1 0.050055244943336456 1 1 1 1 1 1 1 1 1 1 1 1 1 1 1 1 1 1 1 1 1 1 1 1 1 1 1 1 1 1 1 1 1 1 1 1 0.050129448247722197 1 1 0.050027471981552024 1 1 1 1 0.0532338920452805 1 0.047654998952472105 1 1 0.048115024423950527 1 0.050526109033113505 1 1 1 1 1 0.050227509759193219 1 1 1 1 1 1 1 1 1 1 1 1 0.049938449821806348 1 1 1 0.053950664041174858 1 1 1 1 1 1 1 1 1 0.052021733112628615 1 1 1 1 0.051725040536458378 0.052474111025661824 1 1 1 1 1 1 1 1 0.050023269682067058 1 1 1 1 1 0.05823782268932913 1 1 1 0.05743576219132622 1 1 1 0.052872635506296846 1 1 1 1 0.063660183361342798 1 1 1 1 1 1 1 1 1 1 1 1 1 1 0.054162824330433845 1 1 1 1 1 1 0.053537209784498545 1 0.056243052745652271 0.050000984004221746 1 0.06508986183144061 1 0.05010399048291287 1 1 1 1 0.050077516234679764 1 1 1 1 0.050166570750147126 1 1 1 1 1 1 1 1 1 0.050251577194823073 1 1 1 1 1 1 1 1 1 1 1 1 1 1 0.050550176468743352 1 1 1 0.050115252910411329 1 1 1 0.050307030040356963 1 0.049991514663658955 1 1 1 1 1 1 1 1 1 1 1 1 1 1 1 1 0.050446820543877662 1 1 1 1 1 1 0.051436108439468581 1 1 1 1 1 1 1 1 1 1 1 1 1 1 1 1 1 1 0.05352903877041322 1 1 1 1 1 1 1 1 1 1 1 1 1 1 1 1 1 1 1 1 1 1 1 1 1 1 1 1 1 1 1 1 1 1 0.049389817532498007 1 1 1 1 0.049895775142237385 1 1 1 1 1 1 1 0.053053336004798009 1 1 1 1 1 1 1 1 1 0.048695134212630622 1 1 0.055391004355884274 1 1 1 1 1 0.049964257870784984 1 1 1 0.050077779822237031 1 1 0.052242571408586624 1 1 1 1 1 1 1 1 1 1 1 1 1 1 1 1 1 1 1 1 0.047707010738566417 1 1 1 1 1 1 1 1 1 1 0.054587756737663411 0.04596974204100629 1 0.053669962021219986 1 1 1 1 1 0.053760375734865071 1 1 1 1 0.052802967543467805 1 1 1 1 1 0.04994761535008297 1 0.049976475132472518 1 1 0.048716946748403524 1 1 1 1 1 1 1 1 0.049583071225387111 1 1 1 1 1 1 0.049953782332960869 1 1 1 1 1 1 0.049882257258560721 1 1 1 1 0.048892729395832432 1 1 0.051770556827733988 1 0.049031168281298679 1 1 0.050021534337039236 1 1 1 1 1 1 0.050972053841651238 1 1 1 1 0.05005637071678188 1 1 1 1 1 1 1 1 0.056195946795131554 0.048077597626424731 1 1 1 1 1 1 1 1 0.053265035998524612 1 1 1 1 1 1 0.051509534200383747 1 1 1 1 1 1 1 0.049447164296708333 1 1 1 0.051221410832690564 1 1 1 1 1 1 1 1 1 1 1 1 0.052978878562895529 1 1 1 1 0.053529332014380523 1 1 0.049323329938392543 1 1 1 1 0.051717031909049832 1 1 1 0.050032453354981035 0.052759764865635897 1 1 1 0.050101928467592566 1 1 1 0.054107128565229055 1 1 1 1 1 1 1 1 1 0.054047136533668536 1 1 1 0.050000252008791525 1 1 1 1 1 1 1 1 1 1 1 1 0.053796273435644346 1 0.050002534627008363 1 1 0.051204931644396406 1 1 0.050829145296651945 1 1 1 1 1 1 1 0.04999834671700179 1 1 1 1 1 0.0500149730732962 1 0.050390908252480195 1 1 1 0.051701401958030219 0.049455099628226563 1 0.051727045776656148 0.053735906135744471 1 0.051755751962361242 1 1 1 1 1 1 0.050222541240728023 1 0.058603618431957473 1 1 1 1 1 1 1 1 1 1 1 1 1 0.050016401575773549 1 1 0.052811981675557798 1 0.050705359270339603 1 1 0.056952917934538341 1 1 1 0.051351156673324717 0.048253034699362693 1 1 0.057817675679114916 1 1 1 1 1 1 1 1 1 1 1 1 1 1 1 1 1 1 1 1 1 1 1 0.051233577572594453 0.05006432590651079 1 0.049496737311127539 1 0.050074894730870179 1 1 0.050000898072076645 0.055046615570106858 1 1 0.049999181686054786 1 1 0.050615744894490805 1 1 0.054887033075570357 1 0.050570766085597893 1 1 1 1 0.05004449151104165 1 1 1 1 0.050360501674351202 1 0.051059314045035165 0.052491077647676666 1 0.052623530790732786 1 1 0.050483504962038309 0.050762265414536045 1 1 1 0.050024853042800861 1 1 1 1 0.052454189994254594 0.050122226166996062 1 1 1 1 1 0.050528432199660613 1 1 1 1 1 1 1 1 1 1 1 0.050664256282208948 1 0.052024228717951343 1 0.053003426839623682 1 1 0.050000973138459304 1 0.052212006761759029 1 1 1 1 1 1 1 1 0.050320001468568215 1 1 0.05159712520132155 1 1 1 1 0.050161819546895109 1 1 1 1 1 1 1 1 1 1 1 1 0.050827080662804988 1 1 1 1 1 1 1 1 1 1 1 0.049883291827231474 1 1 1 1 1 1 0.050966865133344433 1 0.050934923935703667 1 1 0.049863883798655972 1 1 1 1 1 1 1 1 1 1 1 1 1 1 1 1 1 0.049999337283105967 0.05089005838227003 1 1 1 0.04975296890504817 1 1 0.050265414594349175 1 1 1 1 1 1 1 1 1 1 1 1 1 1 1 1 1 1 1 1 1 1 1 1 1 0.049956487811351952 0.048256125124150243 1 1 1 1 1 1 1 1 1 1 1 0.04652873311895267 1 1 1 1 1 1 1 1 1 1 1 1 1 1 1 1 1 1 1 1 1 1 1 1 1 1 1 1 1 1 1 1 1 0.049999656526768591 1 1 1 1 1 0.049945074114980045 1 1 0.050121129215664494 1 1 0.048173674441677146 0.063160355872289131 1 1 1 1 1 1 1 1 1 1 1 1 1 0.062606566201650379 1 1 0.05004189547833026 1 1 1 1 1 1 0.050006298890826056 1 1 0.061388832444593228 1 1 1 1 1 1 1 1 1 1 1 1 1 0.055395042554362853 1 1 1 1 1 1 1 0.050054419641184678 1 1 1 1 1 1 1 1 1 1 1 1 0.051910223651462126 1 1 0.050943358518117703 1 1 1 1 1 1 1 1 1 1 1 1 1 1 1 1 1 1 1 1 0.054229589849163942 1 1 0.052387652340171148 1 0.053378595107927904 1 1 1 0.049647126484823868 1 1 0.049438787668616875 1 0.05113748314227598 1 1 1 0.050360262208123466 1 1 1 1 0.049996957098087519 1 1 1 1 1 1 1 0.049998362608952393 1 1 1 0.04961711767607635 1 1 1 1 1 1 1 1 1 1 1 1 0.051333225837281823 1 1 1 1 1 1 1 1 0.049573220789583518 1 1 1 1 1 1 1 1 1 1 1 0.049857832119716144 1 1 1 1 1 1 1 1 1 1 1 1 1 1 1 1 1 1 1 0.048720711269712391 0.050219472130778896 1 1 1 0.050083169908707481 1 1 1 1 1 1 1 1 1 1 1 1 0.050146344930448075 1 1 1 1 1 1 1 1 1 0.050412764180703604 1 1 1 1 1 1 1 1 1 1 1 1 1 1 1 1 0.049617869216446016 1 0.05006806150698833 1 1 1 1 1 0.049802167103354063 1 1 1 1 0.049987244872814696 1 1 1 0.049995047369130255 1 1 1 0.050126218340282039 1 1 1 1 1 1 1 1 1 0.049981556315619381 1 1 1 0.049920917649580815 1 1 0.049999986204003734 1 1 1 1 1 1 0.050000600647559235 1 1 1 1 1 1 1 1 0.04998621854542333 1 1 1 0.04999933942185579 1 1 1 1 1 1 1 1 1 1 1 1 1 1 1 1 1 1 1 1 1 1 1 1 1 1 1 0.050122571246970796 1 1 1 1 1 1 1 0.050041859222053973 1 1 1 1 1 1 1 1 1 1 1 1 1 1 1 1 1 1 1 1 1 1 1 1 1 0.050380867165629097 1 0.050128569126957359 1 1 1 1 1 1 0.05060667714002038 1 1 1 0.050231762216662187 1 1 0.050674415782636276 1 1 1 1 1 1 1 1 1 1 1 1 0.055323917140675694 1 1 1 1 1 0.054790491287569826 1 1 1 1 1 1 1 1 1 1 1 1 1 0.050354379101348649 1 1 1 0.05021165434282044 1 1 1 1 1 1 1 1 1 1 1 1 0.050613627998378201 0.054994540266038679 1 1 1 1 0.056625837148393837 1 1 1 1 1 1 1 1 1 0.050075747577168726 0.046460452879915015 1 1 1 1 1 0.045171903174672193 1 1 1 1 1 0.049975032484117519 1 1 1 1 1 0.049999033749427386 1 0.055069331655540968 1 1 1 1 0.049476026966675961 1 0.05151043193868228 1 0.054578102893177091 0.0499927684605984 1 1 1 1 1 1 1 0.0500270167095829 0.04990658862954566 1 1 1 1 1 1 0.050000474330205075 0.050133981436616411 0.049999016134296775 1 0.051826926014190866 0.052024418285246732 1 1 1 0.05106660772283235 1 1 1 1 1 0.052395522164354648 0.049917840547548172 0.05000004159083303 1 0.05410238828347274 1 1 1 0.049983302870154442 1 0.048835783031948368 0.050122621726315889 1 1 1 1 1 1 1 0.049687292044840729 0.051281401643359439 1 1 0.050425594613931278 0.049353530065399699 0.053096068935105836 1 1 1 1 1 1 1 1 1 1 1 1 1 1 1 1 1 1 1 1 1 1 1 1 1 1 1 1 1 1 1 1 1 1 1 1 1 1 1 1 0.050016657778865936 1 1 1 1 1 1 1 1 1 1 0.050297310357597907 1 1 1 1 1 1 0.05086296914669336 1 1 0.051325575954772287 1 1 1 1 1 1 1 1 1 1 1 1 1 0.05199210844783754 1 0.054784963586586993 1 1 1 1 0.049837844499659965 1 1 1 0.049993896019028476 1 1 0.048940638232565455 1 1 1 0.050000470603556259 1 1 0.054219751534277758 1 1 1 1 1 0.053512162707149077 1 1 1 1 1 1 1 0.051498891566302246 1 1 1 1 1 1 1 0.04994675511849471 1 1 0.050687147671959122 1 1 1 1 0.050246865962712516 1 0.050359445184493132 1 1 1 1 1 0.050741367325573758 1 1 1 1 0.050261035995725033 1 1 1 1 1 1 0.050762683455877963 0.04951533244100581 1 1 1 1 1 0.052022748496682376 1 1 0.054980800802115627 1 1 1 1 1 1 1 1 1 1 0.049834043847749518 1 1 1 1 1 1 1 1 1 1 1 1 1 1 1 1 1 1 0.04992520555888616 1 1 1 1 1 1 0.049984753783371354 1 1 1 1 1 1 1 0.055890301372216275 0.049994323407823414 1 1 1 1 0.050011571895145164 1 1 1 1 1 1 1 0.052871452655372152 1 1 0.049951490807235391 1 0.049842699562891335 0.052019648672395433 0.04867410426574563 1 1 1 1 1 1 0.050043304074582004 1 1 1 1 1 0.05000139305931206 1 1 1 1 0.049373284894797836 1 1 1 0.052201074639428233 1 1 1 0.051923092213708513 1 1 1 1 1 1 1 1 1 1 1 1 1 1 1 1 1 1 1 1 1 1 1 1 1 0.056681392390200966 1 1 1 1 1 1 1 0.051116522527244843 1 0.057856302294771941 1 1 1 1 1 1 0.051350576717934832 1 1 0.050563426121942402 1 1 1 0.049962614808546281 1 1 0.054207608994386952 1 1 1 1 1 0.048344124543856518 1 1 1 0.049512326840086981 0.051829272275998962 1 1 1 1 1 1 1 1 1 1 1 1 0.05069740108192923 1 1 1 1 1 1 1 1 1 0.051671283411131023 1 1 1 1 1 0.049995551132293301 0.050168044812330483 1 1 1 1 1 1 1 1 1 0.050059845231051933 1 1 1 1 1 1 1 1 0.050674662693386698 1 1 1 1 1 1 1 1 1 1 1 1 1 1 1 1 1 1 0.049717404622614703 1 1 1 1 0.049334522298691057 1 0.050393852100186917 1 0.050731638153674305 1 1 1 1 1 1 1 1 1 1 1 1 1 1 1 1 1 0.051459573148680056 1 1 1 1 1 0.049628216569879161 1 1 1 0.051448286822103485 0.049474866512811751 1 1 1 1 1 0.050201079648654147 1 1 1 1 0.05022653456563133 1 1 1 1 1 1 1 1 0.050364807295773348 1 1 1 1 1 1 1 0.050235886594025642 1 1 1 1 1 1 1 1 1 0.050025259679068804 1 1 1 1 1 1 1 1 1 1 1 1 1 1 1 1 1 1 0.050042003404012401 1 1 1 1 1 1 1 1 1 1 1 1 1 0.049918567462780103 1 1 1 1 1 1 0.050036077631786094 1 1 0.049986879123567543 1 1 0.050080825875520624 1 1 1 1 1 1 1 1 1 1 1 1 1 1 1 1 1 1 1 1 1 1 1 1 1 1 0.05001538502068259 1 0.047229599336163997 1 0.050000549176784162 0.05363321322109002 1 1 1 0.047569411714831318 1 1 1 1 1 1 1 1 1 0.050133746668064645 0.049756790229264158 1 0.060588690106384201 1 1 1 1 1 1 1 1 1 1 1 1 1 1 0.04999791471478273 1 0.055706547965973408 0.05189520349998232 1 0.053993793984686136 1 1 1 1 1 1 1 1 1 0.059810090487310487 0.049779240895189619 1 1 1 1 1 1 1 1 1 1 1 1 1 1 1 1 1 1 1 1 1 1 0.050753581070116807 1 1 1 1 1 0.049807701291535472 1 1 1 1 1 0.049363740876315662 1 1 1 0.052340253624413344 1 1 1 1 1 1 1 1 1 0.049938825275871769 1 1 1 1 0.060198721865404918 1 1 1 1 1 1 0.059419021740056005 1 1 1 1 1 1 1 0.050079463329428434 1 1 1 1 0.057735805200238861 1 1 1 1 1 1 1 1 1 1 0.049996391190796144 1 1 1 1 0.052979756131054469 1 1 1 0.052307805089050641 1 1 1 1 1 0.050111818662428809 1 1 1 1 1 1 1 1 1 1 1 1 1 1 0.050384626673888058 0.055267718802396434 1 1 0.053859435460304125 1 1 1 1 1 1 1 0.050176530343660236 1 1 1 1 1 1 0.050267250576434504 1 1 1 1 1 1 1 1 1 1 1 1 1 1 1 1 1 1 1 1 1 1 1 0.050626631300505695 1 1 1 1 1 1 1 1 0.050202006178939183 1 1 1 1 0.050585771519764018 1 1 1 1 1 0.050757162621275193 1 0.050003407919377005 1 0.051507598331046914 1 1 1 1 1 1 1 0.050005390987122769 1 1 1 0.04922711722130238 1 1 1 1 1 0.050119538845605473 1 1 1 1 1 0.050011666952548356 1 0.050000131181313495 1 1 0.049989387461791233 1 0.050874302421298374 1 1 1 1 1 0.050172622588718942 1 1 1 0.050353001623947173 1 1 1 1 1 1 1 1 1 1 0.050016274187155152 1 1 1 1 1 1 1 1 1 1 1 1 1 1 1 1 1 1 1 1 1 1 0.050037557346802895 1 1 1 1 1 1 1 1 1 1 1 1 1 1 1 1 1 1 0.050072782257443493 1 1 1 0.050056960083727634 1 1 1 1 1 1 0.049024586570327024 1 1 1 0.049429642446736526 0.050846672218583008 1 0.049074013190080298 1 0.050617852776965871 0.049186679107805331 1 0.048917628068471553 1 1 0.049999007376800332 1 1 0.050052786604915744 0.049994900263898981 1 1 1 1 1 1 1 1 0.049998317450279398 1 0.049999542061632263 1 1 1 1 1 1 1 1 1 1 1 1 1 1 1 1 1 1 1 1 1 1 0.051783308413522078 1 1 1 1 1 1 1 1 0.05204741276227369 1 1 0.050016047727060989 1 1 0.052286173878857298 0.050023550244690629 1 1 0.050009363031933617 1 1 1 1 1 1 1 1 1 1 1 1 1 1 1 1 1 1 1 1 1 1 1 1 1 1 1 1 1 1 1 1 1 1 1 1 1 1 1 0.049641819370721096 1 0.049334470486250462 1 1 1 1 1 1 1 1 1 1 1 1 1 1 1 1 1 1 1 1 1 1 1 1 1 1 1 1 1 1 1 1 1 1 1 1 1 1 1 1 0.049963942417656448 1 1 0.049896992717360797 1 1 1 1 1 0.050152712737929629 1 0.050120263254771889 1 1 0.050823200525388697 1 1 1 1 1 1 0.051353779870016186 1 1 1 1 1 1 1 1 1 1 1 0.049953065488047003 1 1 0.055907937778352672 0.049925542416716803 1 0.050283858779694615 1 1 0.053511648291405159 1 1 1 1 0.04995407222842433 1 1 1 1 1 1 1 1 1 0.050003999039062393 1 0.058818087223147394 1 1 1 1 1 1 1 0.049910254321963519 1 0.058875498684015551 1 1 1 1 1 1 1 1 1 0.050307175299259724 1 0.059589676412351578 1 1 1 1 1 1 1 1 1 1 0.050964434535329589 1 1 1 0.057921628187325595 1 1 0.049999074054359216 1 1 0.049847599126803442 1 1 1 1 0.049910555350555059 1 1 1 0.050044748243734526 1 1 1 1 1 1 1 1 1 1 1 1 1 1 0.049969934189630319 1 1 1 1 1 1 0.049777963364737138 1 0.050214148170382909 1 0.050806384115782505 1 1 1 0.049948916607144275 1 1 1 1 1 1 1 1 0.05098478708598133 1 1 1 1 1 0.04999351893667018 1 1 0.051309833645896412 1 1 1 1 1 1 1 1 1 0.050628478316355904 1 1 1 0.050252577476937552 1 1 1 1 1 1 0.050877922477566437 1 1 1 1 1 1 1 1 1 1 1 1 1 1 1 1 1 1 1 1 1 1 1 1 1 1 1 1 1 1 1 0.04980270083965422 1 1 1 1 1 0.049844974990958565 1 1 0.050849475763885578 0.050090028536219522 1 1 1 1 0.049331791085599833 1 1 1 1 1 0.050907421804621031 1 1 1 1 1 1 1 1 1 1 1 1 1 1 1 1 0.049879187642326836 1 1 1 1 1 1 1 1 0.049983876168297449 0.049987577898130069 1 1 1 1 1 1 0.050017804899235095 1 1 1 1 0.049968459377723838 1 1 1 1 1 1 1 1 1 1 1 1 1 1 1 1 1 1 1 1 1 1 1 1 0.049962781371074627 1 1 0.050039268173747223 1 1 1 1 1 1 1 1 1 1 1 1 1 1 1 1 1 1 1 1 1 1 1 1 1 1 1 0.049993805348184435 1 0.050045631352481627 1 1 1 1 1 0.050097279884139818 1 1 1 1 1 1 1 1 1 1 1 1 1 1 1 1 1 1 1 1 0.049963951868314073 0.05021249040995017 1 0.049990425058895359 1 1 1 1 1 1 1 1 1 1 1 1 1 1 1 1 0.049998734060590987 1 1 1 0.05000042588152092 1 1 1 1 1 1 1 1 1 1 1 1 1 0.050051648531658194 1 1 1 1 1 1 1 1 1 1 1 1 1 1 1 1 1 1 1 1 1 1 0.050140673843228262 1 1 1 1 1 1 1 1 1 1 1 1 1 0.051921593674940265 1 0.051409302153097344 1 1 0.048987535637325913 0.055493594246599033 1 1 1 1 1 1 1 1 1 1 1 1 1 1 1 1 1 1 1 1 0.051270317496859938 1 1 0.064032846162111787 1 1 1 0.050129301587477561 1 1 1 1 1 1 0.062125767320771338 1 1 1 0.049709468863321289 1 1 1 1 1 1 1 1 0.049997666220101863 1 1 0.045961012893789524 1 1 0.055179082808968355 1 0.055554276565351141 1 1 1 1 0.048756470238361202 0.049615118982236979 1 1 0.051698649243612851 0.049522531746282177 1 1 0.047369483294244161 1 1 1 1 0.050935445710767975 1 1 0.048550027560104805 0.052694153744281269 1 0.049993730743094905 1 1 1 1 1 1 1 1 1 1 1 1 1 1 1 1 1 1 1 1 0.050978963428464759 1 1 1 1 0.050318900939904779 1 1 1 1 0.050130656599116363 0.051545982359714838 1 1 1 1 1 1 1 1 1 1 1 1 0.050517162879685995 1 1 1 0.05521664451449837 1 1 1 1 1 1 1 0.053970247641613935 1 1 1 0.051112299290948404 1 1 0.050321112716117208 0.050883667157195389 1 1 1 0.05252263845526825 1 1 1 0.050293088577231887 1 1 1 1 1 1 1 1 1 1 1 1 1 1 1 1 1 1 0.049972854248783879 1 1 1 1 1 1 1 1 1 1 1 1 1 1 1 1 1 1 0.050046404385528986 0.049909960824078989 1 1 1 1 1 0.04984712761441 0.050132720843971718 1 0.049803782698267296 1 1 1 1 1 1 1 1 1 0.050413099202251614 1 1 1 0.05002595023235952 1 1 1 1 1 1 1 1 1 1 1 1 1 1 0.051127685280346308 1 1 1 1 1 1 1 0.049309715754709001 1 1 0.049655865425740256 1 1 1 1 1 1 0.054628809314485424 1 1 1 1 0.055128983352144056 1 1 1 1 1 1 0.050725823275784725 1 1 1 1 1 1 1 1 0.050028110705914487 0.05404152071395521 1 1 1 0.049725620534593368 0.052285737834058793 1 1 1 1 1 0.049913899604454852 1 1 1 1 1 1 0.050801351046748398 1 1 1 1 0.049889543320439558 1 1 1 1 1 0.050256467755339915 1 1 1 1 0.051216663747823611 1 1 1 1 1 1 1 1 1 1 1 1 1 1 1 1 1 1 1 1 1 1 1 1 1 0.050082759616400241 1 1 1 1 0.048599514527519948 1 0.053983805124642785 1 0.047061675233266785 1 1 0.055410652621503714 1 1 0.051667163505712349 1 1 0.049750406738769619 1 1 1 1 1 1 0.055897898537558895 1 1 0.05302296482479784 1 0.050194648436434383 0.050840852368963352 0.052004531944553151 1 1 0.047605621806880223 1 0.049742263013066362 0.04913887877631512 1 1 1 0.0503047457721887 1 0.050012727768104517 1 1 1 1 1 1 0.050948811995022381 1 1 1 0.049981376537531597 1 1 1 1 1 1 1 0.051872102759802363 1 1 1 0.049293399836578253 1 0.061133551290863841 0.060086884667027753 1 1 1 1 1 1 1 0.050107794054013589 1 1 1 1 1 1 1 1 0.050025480613906159 0.049866251016618512 1 1 1 1 0.049169882196004225 1 1 0.049287924283913577 1 1 1 0.049999943978853767 1 1 1 0.049551264377238578 0.050281665582553231 1 1 1 1 0.050038067004263831 1 1 1 1 1 0.049737755919382065 0.049688053322868943 1 1 1 1 1 1 1 1 1 1 1 1 1 1 1 1 1 1 1 1 1 1 1 1 1 1 1 1 1 1 1 0.050082046042789076 1 1 1 0.049977606566407026 1 1 1 1 1 1 1 1 1 1 1 1 1 1 1 0.050041562300953871 1 0.05009250315091595 0.049572253121704539 1 1 0.050033421819166535 1 1 1 1 1 1 1 1 1 1 1 1 1 1 1 1 1 1 1 1 1 1 1 0.050218629982918109 1 1 0.049683282363776615 0.049975736626868918 1 1 1 1 1 1 1 0.049791940372550136 1 1 1 0.050259473934204213 1 1 1 1 0.050039462184857192 0.050013486882201565 1 1 1 1 1 1 1 0.049433491516832018 1 1 1 1 0.049731980311974414 1 1 1 1 0.049957599351350364 1 1 1 1 1 1 1 1 1 1 1 1 1 1 1 1 1 1 1 0.050235373474766337 1 1 1 1 1 1 1 1 1 1 1 1 1 1 1 1 0.050801653016619826 1 1 1 0.050276470574594306 1 1 1 1 1 1 1 1 1 0.049942705473201586 1 1 1 1 1 1 1 1 1 1 1 1 1 1 1 1 1 1 1 1 1 0.049825300163992892 1 1 1 1 1 1 1 1 1 1 1 1 1 1 1 1 1 0.049483931288716386 1 1 1 1 1 0.050003556402323346 1 1 1 1 1 1 1 1 1 1 1 1 1 1 1 1 1 1 1 1 1 1 1 1 1 1 1 0.05006712845288968 1 1 0.054472910463485881 1 1 1 0.054654739210763345 1 1 1 1 1 1 1 1 1 1 1 1 1 1 1 0.059206638167588442 1 0.047873007850951194 1 1 1 1 1 1 1 1 1 0.057298889847097294 1 1 1 1 1 1 1 1 1 0.051134164152152689 0.054585264671188245 1 1 1 1 1 1 1 1 1 1 1 1 1 1 1 1 1 1 1 1 1 1 1 1 1 1 1 1 1 1 1 1 1 1 1 1 1 1 1 1 1 1 1 1 1 1 1 1 1 1 1 1 1 1 1 1 1 1 1 1 1 1 1 1 1 1 1 1 1 1 1 0.051270053903187257 1 1 1 1 1 1 0.053286669946348203 1 1 1 1 1 1 1 1 1 0.051492551480869272 1 0.053150780195313635 1 1 1 1 1 1 1 1 1 1 1 1 1 1 1 1 1 1 1 1 1 1 1 1 1 1 1 1 1 1 1 1 1 1 0.050278352875665185 1 1 1 0.049829781917489435 0.049793530081274427 1 1 1 1 1 1 1 1 1 1 1 1 1 1 1 1 1 1 1 1 1 1 0.050016714825981433 0.049363717741468791 1 1 1 1 1 1 1 1 0.049178838651550545 1 1 1 1 1 1 0.049059141898125644 1 1 1 1 1 0.050076745034027398 1 1 1 1 0.050019908271591806 1 1 1 0.058778787401395353 1 1 1 0.056796108542723801 1 1 0.0539823569909103 1 1 1 1 1 1 1 1 1 1 1 1 1 0.049938506547381988 1 1 1 1 1 1 1 1 0.050330089032502259 1 1 1 1 1 1 1 1 1 1 1 0.051954302485600998 1 1 1 0.050684819724244219 1 1 1 1 0.049812957703899902 1 1 1 1 1 1 1 1 0.049073250424483641 1 0.054276429146179798 1 1 0.048511041836495815 1 1 1 1 1 0.0539009053627134 1 1 1 1 1 1 1 1 1 1 1 1 0.050445622283765146 1 1 1 1 1 1 1 1 1 0.04945460831034619 1 1 1 1 1 1 0.051196805628479954 1 1 1 1 1 1 1 0.050620916966651212 1 1 1 1 1 0.051066539250416335 1 1 1 1 1 1 1 1 1 1 1 1 1 1 1 1 1 1 1 1 1 1 1 1 1 1 1 1 1 1 1 1 1 1 1 1 1 1 1 1 1 1 1 1 1 1 1 0.051172140857347385 1 0.052998540400408536 1 1 1 1 1 1 1 1 1 1 1 1 1 1 0.04980897444039141 1 1 1 1 1 1 1 1 1 1 1 1 1 1 1 0.050365208790669233 1 1 0.050871706301361154 1 0.051596123653901219 1 1 1 1 1 0.052508898524053528 1 1 1 1 1 1 1 1 1 1 1 1 1 1 1 1 1 1 1 1 0.054949838374108856 1 1 1 1 1 1 1 1 1 1 1 0.055614675668090113 1 0.050012411918123882 1 1 0.056092069489261251 1 0.045766940946890024 1 1 1 1 1 1 1 0.050060476489626721 1 0.063220959187402878 1 1 1 1 0.065725551441539742 1 1 1 1 0.050031637505189838 0.053078864157642902 1 1 0.058156119356877901 1 1 1 1 1 1 1 1 1 1 1 1 1 1 1 1 0.050973068167007987 1 1 1 1 1 1 1 1 1 1 1 1 1 1 0.052846726855957711 1 0.05005687061370926 1 1 1 1 1 1 1 0.062473105936461916 1 0.066737850102489865 1 1 1 1 1 1 1 1 1 0.050075280234327189 0.061423504326772294 1 1 1 0.062004782635704747 1 1 1 1 0.045140842802573161 1 0.054721741147331734 1 1 0.04980625687847795 1 0.0359990723917182 0.043342023303018978 0.049146597844594408 1 1 0.049990831739541525 1 1 1 0.040815855154129235 0.056857326892529328 0.05392300907310317 1 1 1 1 1 1 1 1 1 1 1 0.052600788789398993 1 1 1 1 1 1 0.063631095729583739 1 1 1 0.049749179704738473 1 1 1 1 1 1 1 1 0.051455663907295474 1 1 1 0.050476769715019743 1 1 1 1 1 1 1 1 1 1 1 1 1 1 1 1 1 1 1 1 1 1 1 1 1 1 1 1 1 1 1 1 1 1 1 1 1 1 1 1 1 1 1 1 1 1 1 1 1 1 1 1 1 1 1 1 1 1 1 1 0.049881895680135027 1 1 1 1 1 0.049437581762459902 1 1 1 1 0.049839969100378551 1 1 1 0.046994139283052655 1 1 1 1 1 1 1 1 1 1 1 1 1 1 1 1 1 1 1 1 1 1 1 1 1 1 1 1 1 1 1 1 1 1 1 1 1 1 1 1 0.050125859202085565 1 1 0.050338053891226725 1 1 1 1 1 1 1 0.04999458191596759 1 1 1 1 1 1 1 1 1 1 1 0.04998253827434132 1 1 0.050001106575813394 1 0.049727203340747136 1 1 1 0.050471080367706263 1 1 1 1 1 1 1 1 0.050032220673370348 1 1 1 1 0.050016138050557074 1 1 1 1 0.050726495210905727 1 0.049734745883154519 1 1 1 1 1 1 1 1 1 1 1 1 0.050647117630657462 1 0.050726741203524189 1 1 1 1 1 1 1 1 1 1 1 1 1 0.049939267010474603 1 1 1 1 1 1 1 1 1 0.049886646623472614 1 1 1 0.049947379612998041 1 1 1 1 1 1 1 1 1 1 1 1 1 1 1 1 1 1 1 1 1 1 1 1 1 1 1 1 1 1 1 1 1 1 1 0.049937942355450335 1 1 0.050007529606349077 1 1 1 1 0.050067873731224156 1 1 1 1 1 1 1 1 1 1 1 1 1 1 1 0.050107337580394297 1 1 1 1 1 1 1 1 1 0.05022229497848868 1 0.05008373969732402 1 1 1 1 1 1 1 0.050061509954820192 1 1 1 1 1 1 1 1 1 1 1 1 1 1 0.051676750125662557 1 1 1 1 1 1 1 1 1 1 1 0.054547435029411465 1 1 1 1 1 1 1 1 1 1 1 1 1 1 1 1 1 1 1 1 1 1 1 0.04988634456060053 1 0.050060712186432675 1 1 1 1 1 1 0.050080823930317049 1 0.05173986195122085 1 1 1 0.049026034861403806 1 1 1 0.055410964334985865 1 1 1 0.047951602947176056 1 1 0.053411837514924759 1 1 1 1 1 1 1 0.051158257642618291 1 1 1 1 1 1 1 0.056774303656983757 1 1 1 1 1 1 1 1 1 1 1 1 1 0.050760875145340896 1 1 1 1 1 1 1 1 0.055244601876188112 1 1 1 1 1 1 1 1 1 1 1 1 1 1 1 1 1 1 1 1 0.056523126732068482 1 1 1 1 1 1 1 1 1 1 1 1 1 1 1 1 1 1 1 1 1 1 1 1 1 1 1 1 1 1 1 1 1 1 1 1 1 1 1 1 1 1 1 1 1 1 1 1 1 1 0.050332814380829032 1 0.051906160664330396 1 1 1 0.049750517107367637 1 1 0.050009872864273178 0.052629294702802955 1 0.050888002480653914 1 1 1 1 1 1 1 1 1 1 1 1 1 1 1 1 1 1 1 1 1 1 1 1 1 1 1 1 1 1 1 1 1 1 1 0.050099760681369621 1 1 1 1 0.050272308504584876 1 1 0.015123892459940343 1 1 1 0.049959411607276433 1 1 1 1 0.050501639127832995 1 0.049992806560416388 0.049937002982578353 1 1 1 1 0.050020656483642269 1 1 1 0.050408524210019505 1 1 1 0.049942742789315625 1 1 1 1 1 1 0.050001415385192344 1 1 1 1 1 1 1 1 1 1 1 1 1 1 1 1 1 1 1 1 0.050215378292679969 1 1 1 1 1 1 1 1 1 1 1 1 1 1 1 1 1 1 0.050091701497135772 1 1 0.050247775560201074 1 1 0.051547172174707688 1 1 1 1 1 1 1 1 1 1 1 0.050369992630137195 1 1 1 1 0.050747937554859221 1 1 1 1 0.049696702425737371 1 1 1 0.05021112088572792 1 1 1 1 1 1 1 1 1 1 1 1 1 1 1 1 1 1 1 1 1 1 1 1 1 0.050043056517669313 1 1 1 1 1 1 1 1 0.050211149407648786 1 1 1 0.050431995689068657 1 1 1 1 1 1 1 1 1 1 1 1 1 1 1 1 1 1 1 1 1 1 1 1 0.048122018435890278 1 1 1 0.049806575693593237 1 1 1 1 1 1 1 1 0.048189428451148486 1 1 0.054365618920445467 1 1 1 1 0.051600984355290799 1 1 1 1 1 1 1 0.049171805925738096 1 0.053596550122903486 1 1 0.054890995609938431 1 1 0.048771158845578338 0.049990865229503002 1 1 1 1 1 1 1 1 1 1 1 1 1 1 1 1 1 1 1 1 1 0.049880783586722523 1 1 1 1 0.049580141042648594 1 1 1 1 1 1 1 1 1 1 1 1 1 0.049070120358253304 1 1 0.050020428186988389 1 1 1 1 1 1 1 1 1 1 1 1 1 1 1 1 1 1 1 1 1 1 1 1 1 1 1 1 1 1 1 1 1 1 1 1 1 1 1 1 1 1 1 1 1 1 1 1 1 1 1 1 1 1 1 1 1 1 1 1 1 1 1 1 1 1 1 1 1 1 1 1 1 1 1 1 1 1 1 1 1 1 1 1 1 1 1 1 1 1 1 1 1 1 1 1 1 1 1 1 1 1 1 1 1 1 1 1 1 1 1 1 1 1 1 1 1 1 1 1 1 1 1 1 1 1 1 1 0.051228255458698364 1 1 1 1 1 1 1 0.049806297189729426 1 1 1 1 1 1 1 1 1 0.049042259744176517 1 0.051857544902616362 1 1 1 0.051017058993801941 1 1 0.052122740047523902 1 1 1 1 1 1 1 1 1 1 1 1 1 1 1 1 1 1 1 1 1 1 1 1 1 1 1 1 1 1 1 1 1 1 1 1 1 0.051019051670388629 1 1 0.049982344290759213 0.05391129043212161 1 1 0.049800290128674526 1 1 0.051649344057482977 1 1 1 0.05211948036330151 1 1 1 1 1 1 1 1 1 0.052860501083525864 1 1 1 1 1 1 0.050689005299411283 1 1 1 1 1 1 1 1 1 1 1 1 1 1 1 1 1 1 1 1 1 1 1 1 1 1 1 1 1 1 1 0.048924097963707204 1 1 1 1 1 1 1 1 1 1 1 1 1 1 1 1 1 1 1 1 1 1 1 1 1 1 1 1 1 1 1 1 1 1 1 1 1 1 1 1 1 1 1 1 1 1 0.053763069860925522 1 0.054474463939506092 1 1 1 1 0.049929096068655122 1 1 1 1 0.057493476803960025 1 1 1 1 0.049876371588037122 1 1 1 1 1 1 1 1 0.056633265570970232 1 1 0.050042719680361711 1 0.049716688383804643 1 1 1 1 0.048100257141277615 1 1 0.058621456101026863 0.046828641656328343 1 1 1 1 1 1 0.050037249264333492 1 1 1 1 1 1 1 1 1 1 0.058823904022944323 0.049934143376819867 1 1 1 1 1 0.050105273782178376 1 1 0.05830120683647777 1 1 1 1 0.054272728166858152 1 1 0.050877016149184801 1 1 1 1 1 1 1 1 1 1 1 1 1 1 1 1 1 1 1 1 1 1 1 1 1 1 1 1 1 0.05538227292813213 1 0.052237538123447648 1 1 1 1 1 1 1 1 1 1 1 1 1 0.049989590443617796 1 1 1 1 0.051332293909516026 0.050152171093817643 1 1 1 1 1 1 1 1 1 1 1 1 1 1 1 1 1 1 1 1 1 1 1 1 1 1 1 1 1 1 1 1 1 1 1 1 1 1 1 1 1 1 0.049978855796883263 1 1 1 0.049989265353265457 1 1 1 1 1 1 1 1 1 1 1 1 1 1 1 1 1 1 1 1 0.05187428581896604 1 1 0.051582622565666564 1 1 1 1 1 1 1 1 1 0.051678739693665446 1 1 1 1 1 0.054163106772157792 1 1 1 1 1 0.05000214554335896 1 0.050000013541547463 1 1 1 1 1 1 1 1 1 1 1 1 1 0.049160942450643619 1 1 1 0.04985853478137546 0.053140451632949705 1 1 1 1 1 1 1 1 0.054037224227835981 1 1 0.052013350908433384 1 1 0.049954360156767533 0.05090520562711924 1 1 1 1 1 0.050991386543698988 1 1 1 1 1 1 1 0.050433986848447715 1 1 0.050823459623680393 0.051559226435508705 1 1 1 1 1 1 0.049926571121416477 0.050027834225490724 1 1 1 0.049983449476359833 1 1 1 1 1 1 1 0.049959763334968751 1 1 1 1 1 1 1 1 1 1 1 1 1 1 1 1 1 1 1 1 1 1 1 1 1 1 0.071538207500049203 1 1 1 1 1 1 1 0.049741834772564837 1 1 1 1 1 1 1 1 1 1 1 0.066014453736445586 1 1 1 1 1 1 1 1 0.048813269964439354 1 1 1 1 1 1 1 1 1 1 1 1 1 1 1 1 0.050794578112803496 1 1 1 0.04936216423537769 1 1 1 1 1 0.05288311186321043 1 1 1 1 1 1 1 1 1 1 1 1 1 1 0.050818932536313664 1 1 1 1 0.052299877736897489 1 1 0.053384595933933875 1 1 1 1 1 0.0499191843029805 1 1 1 1 1 1 1 1 1 1 1 1 1 1 0.049702688011156793 1 0.044671065295292647 1 1 1 0.056263189512181379 1 0.061935589951855205 1 0.041583163540980461 1 1 1 1 1 1 0.049968535993874921 0.074837067863477935 1 1 1 1 1 1 0.07283580269395519 1 0.049510206033780049 1 1 1 1 1 1 1 1 1 1 1 1 1 1 1 1 1 0.044511474546953263 1 1 1 0.0499729282130945 0.046470570326141228 1 1 1 1 1 0.04783719756927475 1 1 0.049951833652145637 0.049258361231939801 1 1 1 1 1 1 1 1 1 1 1 1 1 1 1 1 1 1 1 1 1 1 1 1 1 1 1 1 1 1 1 1 1 1 1 1 1 1 1 1 1 1 1 1 0.056914421260047289 1 1 0.048528606234757611 0.049814581268583499 0.049605034145331295 1 1 1 1 1 1 0.049920980395381835 1 1 1 1 1 1 1 1 1 0.049881257869723479 1 1 1 0.056320127092891373 1 1 1 1 1 1 1 1 1 1 1 1 1 1 1 1 1 1 1 1 0.054550438839278299 1 1 1 1 0.051642884683103581 1 1 1 1 1 1 1 1 1 1 1 1 1 1 1 1 1 1 1 1 1 1 1 1 1 1 1 1 1 1 1 1 1 1 0.051536618050209877 1 0.050608007841374342 1 1 1 1 1 1 1 1 0.051525461693237441 1 1 1 0.054585735343909023 1 0.050917453851863088 1 1 1 1 1 1 1 1 0.059416176746298455 1 1 1 1 0.052947145892614081 1 1 1 1 0.05740803120563838 1 1 1 1 1 1 1 0.05785189253060688 1 1 1 1 0.053492978618667655 1 1 1 1 1 1 1 1 1 1 1 1 1 1 1 1 1 1 1 1 1 1 1 1 1 1 1 1 1 1 1 1 1 1 1 1 1 1 1 1 1 1 1 1 1 1 0.05047648785829377 1 1 1 1 0.051978777726393255 0.053836445555445429 1 1 0.054535080210940015 0.050927992279200224 1 1 1 1 1 1 1 1 1 1 1 1 1 1 1 1 1 1 1 0.050565128032613038 1 1 1 0.051656446498958515 0.051105289576533861 1 1 1 1 1 1 1 1 1 1 1 1 1 1 1 1 1 1 1 1 1 1 1 1 1 1 1 0.050600640030114531 1 1 1 1 1 1 1 0.05103591748442652 1 1 1 1 1 1 1 1 1 1 1 1 1 1 1 0.051586002384393349 1 1 1 1 1 1 1 1 0.050526865911612165 1 0.050352893160285378 0.051346954684690527 1 1 1 1 1 1 1 1 1 1 1 1 0.049451105729061667 1 1 1 1 1 1 1 1 1 1 1 1 1 1 1 1 1 1 0.04595247003740098 1 1 1 0.04525504213983228 1 1 1 1 1 1 1 1 0.048360354645734356 1 1 1 1 1 1 1 1 1 1 1 1 1 1 1 0.049899457078274777 1 1 1 0.050134340852193655 1 1 1 1 1 1 1 1 1 1 1 1 1 1 1 1 1 1 1 1 1 1 1 1 1 1 1 1 1 1 1 1 1 0.051021136687061555 1 0.050421162588594255 1 1 1 1 1 1 1 1 0.049862643260120562 1 1 1 1 1 1 1 1 1 0.05160462317484156 1 1 0.048458329823110352 1 1 1 1 1 0.049194700031291186 1 1 1 1 0.050032321844181146 1 1 1 1 0.046853700940165902 1 1 1 0.046991833353953932 1 0.057941526385246335 1 1 0.05827471693908827 1 1 1 1 1 1 1 1 1 1 1 1 1 1 0.049826975432065504 1 1 0.051356133805960325 1 0.049739671040583668 1 1 1 0.053735287651469191 1 1 0.052464631978253927 1 1 1 1 0.058807586491881787 1 0.049069547505905906 1 1 1 1 1 1 0.049702821658516576 1 0.050221475231969986 1 1 1 1 1 0.049543406894183843 1 1 1 1 0.059480300283157019 1 1 1 1 1 1 0.048874817337005931 1 1 1 1 1 1 1 1 1 1 1 1 1 1 1 1 1 1 1 1 1 1 1 1 1 1 1 1 1 1 1 1 1 0.050107619315070615 0.049993876928194556 1 1 1 1 1 1 1 1 1 1 0.047671926234397421 1 1 0.060073846139357054 0.04794378890647321 1 0.049979625916539011 1 1 1 1 1 1 1 0.046843608164795561 1 1 1 1 1 1 1 1 1 1 1 1 0.052880095147176044 1 1 1 1 0.050955828250643723 1 1 1 1 1 1 1 1 1 1 1 1 0.053024835220701144 1 1 1 1 1 1 1 1 1 1 1 1 1 1 1 1 1 0.052246605415893099 1 1 1 1 1 0.05057903722034908 1 1 1 0.053126371421611543 1 1 1 1 1 1 0.052420601879879944 1 0.053600485018045055 1 1 1 0.05175590018509612 1 1 1 1 1 1 1 1 1 0.054977359935824033 1 1 0.049993279321131887 1 1 1 1 1 1 1 0.05096049988233705 1 1 1 1 1 1 1 1 1 1 1 1 1 0.049423768494987246 1 1 0.050887413918151103 1 1 1 1 1 1 0.049998616115612363 1 1 1 1 1 1 0.056373173680052652 1 1 1 1 1 1 1 0.05917682311010504 1 1 1 1 1 1 1 1 1 1 1 1 1 1 1 1 1 1 1 1 1 1 0.051091918398200119 1 1 1 1 1 1 1 1 1 1 0.045972959330961877 1 1 1 1 0.044135926879275429 0.055133144218558597 1 1 1 1 0.053997825859775014 1 1 1 1 1 1 1 1 1 0.05291139087801864 1 1 1 1 1 1 1 1 1 1 1 0.052568304725786746 1 1 1 0.049498059601055369 1 1 1 0.050833316242954417 1 1 1 1 1 1 1 1 1 1 1 1 0.047956641033462137 1 1 1 1 1 0.049980508342809767 1 1 0.049973100692382526 1 1 1 1 1 1 1 1 1 1 1 1 1 1 0.050832649829071208 1 1 1 1 1 1 1 0.051595900171797222 1 1 1 0.050673719236379818 1 1 1 1 1 0.049993341088175602 1 1 1 1 1 1 1 1 1 0.050000748738602836 1 1 1 1 1 1 1 1 0.048870834370444483 1 1 1 1 1 0.050222705427734618 1 1 1 1 1 1 1 0.050069957048681675 1 1 1 1 1 1 1 1 1 1 1 1 1 1 1 1 1 1 1 1 1 1 1 1 1 1 1 1 1 1 1 1 1 1 1 1 1 1 1 1 1 1 1 1 1 1 1 1 0.051666269424068656 1 1 1 1 1 1 1 0.051903794395347862 1 1 1 1 1 1 1 1 1 1 1 1 1 1 1 1 1 1 1 1 1 1 0.052718034002756133 0.049732966112980177 1 1 0.055176780154310892 0.047596438499765463 1 1 1 1 1 1 1 0.049188655128464022 1 1 1 1 1 1 1 1 1 1 1 1 1 1 0.053181026095494417 1 1 1 1 1 1 1 1 0.051559831700273916 1 1 0.050358965252732681 1 1 1 0.050578381986938016 1 1 1 1 1 1 1 1 1 1 1 1 1 1 1 1 1 1 1 1 1 1 1 1 1 1 1 1 0.053178748920447674 1 1 1 1 1 1 1 1 0.049790684166860159 1 1 1 1 1 1 0.058797054680005859 0.048885504949809311 1 1 1 1 0.049534630003460194 1 1 0.055386690336578809 1 1 0.054936414845874415 1 1 1 1 1 1 0.050192534494882618 1 1 1 1 1 1 1 1 0.050333104797192947 1 1 1 1 1 1 1 1 1 1 1 0.050770945628227884 1 1 0.050438363707720868 1 1 1 1 1 1 1 0.051091562561766536 1 1 1 0.050387496151200986 1 0.050123730880304952 1 0.050670894247774705 1 1 1 1 1 1 1 1 1 1 1 1 1 1 1 1 1 0.052143341659987859 1 0.04999880523224081 1 1 1 1 1 1 1 1 1 1 0.051519603600605306 1 1 1 1 1 1 1 0.050135024261334579 1 1 1 0.049995187209892544 1 0.051190918005792604 0.049652488833563033 1 1 0.045992727672064609 1 1 1 1 0.05337480652828186 1 1 1 0.049414969855221293 1 1 1 0.05064236160953401 1 0.051169665626235677 0.059224443921820566 1 1 1 1 1 1 0.0505979053361401 1 1 1 1 1 1 1 1 0.059429936242988618 0.049999351384832545 0.053133827562112414 1 0.064851223573991174 1 1 0.046967006522892034 0.050000279890133024 1 1 0.046914522618281669 1 1 1 1 1 1 1 1 1 1 1 0.050070118000712857 1 1 1 1 1 1 1 1 1 1 1 1 1 0.054639103637889708 0.057122451004124927 1 1 1 1 0.056027701188158821 1 1 1 0.050394758502361081 1 1 1 1 1 0.054900751574932224 0.05000237096301148 1 1 1 0.048581613059751644 1 1 1 1 1 1 1 1 1 1 1 1 1 1 1 0.050154079791588368 1 1 1 0.052010779720618669 1 1 1 0.050092708905045066 1 1 1 1 1 1 0.054757766360201444 1 1 1 1 1 0.054321620031205831 1 1 1 1 1 1 1 1 0.052282890298648355 1 1 1 1 1 1 1 1 1 0.050153735061380079 1 1 1 1 0.055532974026163764 1 0.049843633145978797 1 1 0.056318502314626782 1 0.049615508488096094 1 1 1 1 1 1 0.050208347525790842 1 0.049973342639837673 0.061300371301062064 1 1 1 1 1 1 1 1 0.046593652409334434 1 0.049931650832650963 1 0.049996778199819236 1 0.061210637565207532 1 1 1 1 1 1 1 1 1 1 1 0.050143738508001398 1 1 1 0.050335737419814272 1 1 1 1 1 1 1 1 0.050191998911812856 1 1 1 1 1 1 1 1 1 0.050061482452960548 1 1 1 1 0.049839816378081936 1 1 0.049532132789605762 1 1 1 1 1 1 1 1 1 0.049448355729023959 1 1 1 0.049352667355663661 1 1 1 1 1 1 1 1 1 1 1 1 1 1 1 1 1 1 1 0.049720180906923178 1 1 1 1 1 1 1 1 1 1 0.050259062864025345 1 1 1 1 1 1 1 1 1 1 1 1 1 1 1 1 1 1 1 1 1 1 1 1 1 1 1 1 1 1 1 1 1 1 1 1 1 1 1 1 1 1 1 1 1 0.063474948049737745 0.04984964594760341 1 1 1 1 1 1 1 1 1 1 1 1 1 0.071754670659082739 0.044917138921221317 1 1 1 0.047307548769264164 1 1 0.055196149596283509 1 1 1 0.057911300166318777 1 1 1 0.064341940696615418 1 1 1 1 1 1 1 1 0.048911718442643914 1 1 0.051645525964766605 1 0.058003543209729447 0.051606905489742769 1 1 1 1 1 1 0.059596407998509508 1 0.048219813714285346 0.051308810126659929 0.050194712643263986 1 1 0.053050128738724542 1 1 0.05689198457195211 0.05728493820097464 1 1 1 1 1 1 1 1 1 1 1 1 1 1 1 1 1 1 1 1 1 0.049897578799882436 1 1 1 1 1 1 1 1 1 0.050926971868622911 1 1 1 1 1 1 1 0.048998943840158141 0.049808730923418809 1 1 1 1 1 1 1 1 1 1 1 1 1 1 1 1 1 1 1 1 1 1 1 0.050941231450244852 1 0.049976006381053505 1 1 1 1 1 1 1 0.050736971554683583 1 1 1 0.052266218235734963 0.049815449574304019 1 1 0.049851705563953505 1 1 1 1 0.052476159425348418 1 1 1 0.052709623935570465 1 1 1 0.069035817136691588 1 1 1 1 1 1 1 1 1 0.072034779174102004 0.04698184886018085 1 1 1 1 1 0.056037061754291718 1 1 0.046003441844292524 0.060757529925415069 0.07240359927292804 1 1 1 1 1 0.04878194979319022 1 1 1 1 1 1 1 1 1 0.049617426196830773 1 0.049837505328916572 1 1 1 1 1 1 1 1 1 1 1 1 1 1 1 1 1 1 1 1 1 1 1 1 0.049888568968241509 1 1 1 1 0.048426171962239473 0.049677079753875676 1 1 1 0.048711907188884032 1 1 1 1 1 1 1 1 1 1 1 1 1 1 1 1 0.06132102963479262 1 1 1 0.050017779192236919 1 1 0.043704301034927784 1 1 1 1 1 1 1 1 1 1 1 1 1 0.049495252215542962 1 1 0.060113969122170569 1 1 1 0.04569637267252917 1 0.06599344010775593 1 0.050047224341169066 1 0.051521106297253802 0.059674006795161383 0.050012077263230467 1 1 1 1 1 1 1 1 0.049955520720982846 1 1 1 1 1 1 1 1 0.055637741575400371 1 1 0.050494606062220532 1 1 1 1 1 1 1 1 1 1 1 1 1 1 1 1 1 1 1 1 1 0.049493528083448493 1 1 1 1 1 1 1 1 1 1 0.049674804771752165 1 0.049361243250734155 1 1 0.050346907107049067 1 0.050354612009349889 1 0.050001977471431959 1 1 0.050025119441655802 1 0.056521081262911894 1 1 0.049199156703535016 1 1 1 0.049939879646873131 1 1 1 1 1 1 1 1 1 1 1 1 1 1 1 1 1 1 1 1 1 1 1 1 1 1 1 1 1 1 1 1 1 1 1 1 1 1 1 1 1 1 1 1 1 1 1 1 1 1 1 1 1 1 1 1 1 1 1 1 1 0.052390859101743494 1 1 0.060309206544030089 1 1 1 1 1 1 0.049727681524133108 0.054157369810510371 1 1 1 1 1 1 1 1 1 1 1 1 1 1 1 1 1 1 0.058353999074773774 1 1 1 0.050101611611548823 1 1 1 1 1 1 1 1 1 1 1 1 1 1 1 1 0.049932509783408352 1 1 1 1 1 1 1 0.0577870993721823 1 1 1 1 1 1 1 1 0.055573341307086924 1 0.050171694936996504 1 1 1 1 1 1 1 1 1 1 1 1 1 1 1 1 0.049997701465200287 1 1 1 1 1 1 1 0.049990374829307335 1 1 1 1 0.050004099969372391 1 1 1 1 1 1 1 0.050011549810999978 1 1 0.05118303464048217 0.050052149015156908 1 1 0.049347201686826894 1 1 1 1 1 1 0.049976959432114131 1 1 1 1 1 1 1 1 1 0.050047899331575371 1 1 0.050004493711113991 1 1 0.050001221519976172 1 1 0.051661494925684559 1 1 1 1 1 0.052096726914649151 1 1 1 1 1 1 1 1 0.050017361091845812 1 1 1 1 1 1 1 0.050023524115490492 1 1 1 1 1 1 1 1 1 1 1 1 0.049884675129037125 1 1 1 1 1 1 1 0.050037773390631493 0.049995209102897967 1 0.052322840457718199 1 0.051657484895618527 1 1 1 1 1 1 1 1 1 1 1 1 1 1 1 0.050002666444809434 1 0.051492336284569958 1 1 1 1 1 1 1 1 0.049441790189872242 1 0.050674202106540417 1 0.050861664100406212 1 0.049882924210363236 1 0.049994185760035496 1 1 0.050030614980763465 1 1 1 1 1 0.050109969772024796 1 1 1 1 1 1 1 1 0.049979535586026538 1 1 1 1 1 0.049938008082171047 1 1 0.052378291832063884 1 0.049692532197017719 0.050720578715293806 1 1 1 1 1 1 1 1 0.049999948675643703 1 1 1 1 1 1 1 1 1 1 1 1 1 0.04996639562138061 1 1 1 1 1 1 1 0.049999690530165689 1 1 1 0.049999690174003013 1 1 1 1 1 1 1 1 1 1 1 1 1 1 1 1 1 0.050063129235370665 1 1 1 1 1 1 1 0.05002900233731554 1 1 0.049999854130201929 1 1 1 1 1 1 1 1 1 1 1 1 1 1 1 0.05003458106497953 1 1 1 1 0.050001938675314377 1 1 1 1 1 1 1 1 1 1 1 1 1 1 1 1 1 1 1 1 1 1 1 1 1 0.050431913831726474 1 1 1 1 1 1 0.050004052063583035 1 1 1 1 1 1 1 1 1 0.051128422576591524 0.05031104995251378 1 1 1 0.050646700111274645 1 0.049990497691467017 1 1 1 1 1 1 1 1 1 1 1 1 1 1 1 0.05001413415973547 1 1 1 1 1 1 1 1 1 1 1 1 0.050006509647518328 0.050019722031537178 1 1 1 1 1 1 1 1 0.050017849851417398 1 1 0.050001338394925099 1 1 0.050283474035832484 0.049871239105310321 1 1 1 1 1 1 1 0.050089345952382736 1 1 1 1 1 1 1 1 1 0.050013212384018839 1 1 1 0.050416416222612961 1 1 1 1 1 0.050341417380580636 1 1 1 1 1 1 1 1 1 1 1 1 0.050320538167328871 1 1 1 0.050011353107299102 1 1 1 0.050006106702553496 1 1 1 1 1 1 1 1 1 1 1 1 1 1 1 1 1 1 1 1 1 1 1 1 1 1 1 1 1 1 1 1 0.049909102434214002 1 1 1 1 1 1 1 1 1 1 1 1 1 1 1 1 1 1 1 1 1 1 1 1 0.050059724824372223 1 0.050003756731274517 1 1 0.051424202370109098 1 1 1 1 1 1 1 1 1 0.050232006206187098 1 1 1 1 1 1 1 1 1 1 1 1 1 1 0.051228412469176858 1 1 1 1 0.050958215685445882 1 1 1 0.050395700274841526 1 1 1 1 1 1 1 1 1 1 1 1 1 1 1 1 1 1 1 1 1 1 1 1 1 1 1 1 1 1 1 1 1 1 1 1 1 1 1 1 1 1 1 1 1 1 1 1 1 1 1 1 1 1 1 1 1 1 1 1 1 1 1 1 1 1 1 1 1 1 1 1 1 1 1 1 1 1 1 1 1 1 1 1 1 1 1 1 1 1 1 1 1 1 1 1 1 1 1 1 1 1 1 1 1 1 1 1 1 1 1 1 1 1 1 1 1 1 1 1 1 1 1 1 1 1 1 1 1 1 1 1 1 1 1 1 1 1 1 1 1 1 1 1 1 1 1 1 1 1 1 1 1 1 1 1 1 1 1 1 1 1 1 1 1 1 1 1 1 1 1 1 1 1 1 1 1 1 1 1 1 1 1 1 1 1 1 1 1 0.05246686554245817 1 1 1 1 1 1 1 1 1 1 1 1 1 1 1 1 0.050766647536785961 1 1 1 1 1 1 1 1 0.063106568689455328 1 1 1 1 0.049577044052868599 1 1 1 1 1 1 1 1 1 1 1 1 1 1 1 1 1 1 1 1 1 1 0.050544923231887737 1 1 1 1 1 1 1 1 1 1 1 1 1 0.048671327924830747 0.051714918066704939 1 1 1 1 1 0.050224390615627633 1 0.059461259328376086 1 1 1 1 1 1 1 1 1 1 1 0.050262819886149473 1 1 1 1 1 1 1 0.084780831737452128 1 1 1 1 1 1 1 1 1 1 1 1 1 1 1 0.050278834362143393 0.08735344319865071 1 1 1 1 1 1 1 1 1 1 1 1 0.055757934746679567 1 1 1 1 1 1 1 1 1 1 1 1 1 1 1 1 0.051937735427162054 1 1 1 1 1 1 1 0.088465034462200942 1 1 1 1 1 1 1 1 1 1 0.049815844334775719 0.0851818396091929 1 1 1 1 1 1 1 1 1 1 1 1 1 1 1 1 1 1 1 1 1 1 1 1 1 1 1 1 1 1 0.050971471661487425 1 1 1 1 1 0.05098676090816559 1 1 1 1 1 1 1 1 1 1 0.050423997043836238 1 1 1 1 0.050012126311944453 1 1 1 1 1 1 1 1 1 1 0.050896415092062754 1 0.050333651227733395 1 1 1 1 1 1 1 1 1 1 1 1 1 1 1 1 1 1 1 1 1 1 1 1 1 1 1 1 1 1 1 0.050168222940385712 1 1 1 1 1 0.050447057302529109 1 1 1 1 1 1 1 1 1 1 1 1 1 1 1 1 1 1 0.050461153281799495 1 1 0.078901186025273504 1 1 1 0.050155288305715806 1 1 1 1 1 0.082079046909654896 1 1 1 1 1 1 1 1 1 1 0.055523096307547835 1 1 1 1 1 1 0.050339967032800567 1 1 1 1 1 0.039692146265188681 0.049757051453286523 1 1 0.066738115677396542 1 1 0.050405422517781448 1 1 1 1 1 1 1 1 1 1 0.050687674820968885 1 1 0.050277079842564139 1 1 0.050181137715127978 1 1 0.051422751688181716 1 1 0.050621517376107386 1 1 0.049905349627595394 1 1 1 1 1 1 0.050707545838976055 1 1 1 1 1 1 1 1 1 1 1 0.066736169567278014 1 1 1 1 1 1 1 0.050308562886816927 1 1 1 1 0.050493362357536188 1 1 1 0.065598696651132812 1 1 1 1 1 1 1 1 1 1 1 0.051507152196054909 1 1 1 1 1 1 1 1 1 1 1 1 1 1 1 1 1 1 1 1 1 1 1 1 0.050022957899528382 1 1 1 1 1 0.050120755440670572 1 1 1 1 1 1 1 1 1 1 1 1 1 1 0.052325674941261752 1 1 0.050996709176394719 1 0.057945022708289683 1 1 1 1 0.061647331635289931 1 0.049806023925881293 0.050184571237831245 1 0.052183777118578668 1 1 1 1 1 1 1 0.050007918114332618 1 0.052276239166118489 1 1 1 1 1 1 0.049429015765077591 1 1 1 1 1 1 0.050021993351624876 1 1 1 1 0.050010165680841448 1 1 1 1 1 0.050021574015140749 1 1 0.050445194410921025 1 1 1 1 0.04987912967125304 1 1 1 1 0.052086846098732868 1 1 1 1 1 1 0.049802851021307826 1 1 1 1 1 1 1 1 1 0.050002144841164151 1 1 1 1 1 1 0.050638679604445375 1 1 1 1 0.051824361542132984 1 1 1 1 1 1 1 1 1 1 1 1 1 1 1 1 0.050047142351743519 1 1 1 0.049729058302960177 1 1 0.054191686819776208 1 1 1 1 1 1 1 1 1 1 1 1 1 1 1 1 0.049820002248863272 1 0.053653807844729867 1 1 1 1 1 1 1 1 1 1 1 1 1 1 1 1 1 1 1 1 1 1 1 1 1 1 0.061997380809204285 1 1 0.053053426294504089 1 1 1 1 1 1 1 1 1 1 0.051898246931090783 1 1 1 1 0.049728306687170654 1 1 1 1 0.049908304438307377 1 1 1 1 1 1 1 1 1 0.051815522874918619 1 1 1 1 1 1 1 1 1 1 1 1 1 1 1 1 1 1 1 1 1 1 1 1 1 1 1 1 
</DataArray>
</CellData>
</Piece>
</UnstructuredGrid>
</VTKFile>
