<?xml version="1.0"?>
<VTKFile type="UnstructuredGrid" version="0.1" byte_order="LittleEndian">
<UnstructuredGrid>
<Piece NumberOfPoints="31898" NumberOfCells="11152">
<Points>
<DataArray type="Float64" NumberOfComponents="3" format="ascii">
-0.5 -0.5 0 -0.47620991077874902 -0.44978878706170539 0 -0.49999999999999473 -0.42132396840504388 0 -0.5 -0.5 0 -0.47160970827802529 -0.4793630013852106 0 -0.47620991077874902 -0.44978878706170539 0 -0.5 -0.5 0 -0.47160970827802529 -0.4793630013852106 0 -0.44860394795025399 -0.5 0 -0.47160970827802529 -0.4793630013852106 0 -0.44860394795025399 -0.5 0 -0.4490820238307246 -0.45820516232899983 0 -0.44860394795025399 -0.5 0 -0.4490820238307246 -0.45820516232899983 0 -0.42881687682924802 -0.47781464288736519 0 -0.4490820238307246 -0.45820516232899983 0 -0.45555437223955858 -0.42914059360647611 0 -0.4490820238307246 -0.45820516232899983 0 -0.45555437223955858 -0.42914059360647611 0 -0.43867285131603428 -0.4271457417558665 0 -0.4490820238307246 -0.45820516232899983 0 -0.43867285131603428 -0.4271457417558665 0 -0.4263356171060747 -0.44269880333887462 0 -0.47160970827802529 -0.4793630013852106 0 -0.4490820238307246 -0.45820516232899983 0 -0.47620991077874902 -0.44978878706170539 0 -0.4490820238307246 -0.45820516232899983 0 -0.47620991077874902 -0.44978878706170539 0 -0.45555437223955858 -0.42914059360647611 0 -0.47620991077874902 -0.44978878706170539 0 -0.48101336032419229 -0.41069999664450008 0 -0.45555437223955858 -0.42914059360647611 0 -0.47620991077874902 -0.44978878706170539 0 -0.49999999999999473 -0.42132396840504388 0 -0.48101336032419229 -0.41069999664450008 0 -0.49999999999999473 -0.42132396840504388 0 -0.48101336032419229 -0.41069999664450008 0 -0.5 -0.393886241813306 0 -0.49999999999999473 -0.42132396840504388 0 -0.48101336032419229 -0.41069999664450008 0 -0.5 -0.393886241813306 0 -0.47854472220918332 -0.38978458738689759 0 -0.48422759779560409 -0.37130120630367158 0 -0.5 -0.393886241813306 0 -0.5 -0.36644851522156802 0 -0.48422759779560409 -0.37130120630367158 0 -0.48101336032419229 -0.41069999664450008 0 -0.5 -0.393886241813306 0 -0.47854472220918332 -0.38978458738689759 0 -0.48101336032419229 -0.41069999664450008 0 -0.47854472220918332 -0.38978458738689759 0 -0.46202672064839212 -0.40007602488395211 0 -0.48101336032419229 -0.41069999664450008 0 -0.46202672064839212 -0.40007602488395211 0 -0.47854472220918332 -0.38978458738689759 0 -0.46725442735267431 -0.37660061361585562 0 -0.46202672064839212 -0.40007602488395211 0 -0.47854472220918332 -0.38978458738689759 0 -0.46725442735267431 -0.37660061361585562 0 -0.48422759779560409 -0.37130120630367158 0 -0.46725442735267431 -0.37660061361585562 0 -0.46202672064839212 -0.40007602488395211 0 -0.46725442735267431 -0.37660061361585562 0 -0.45645674801697989 -0.38644133236760531 0 -0.46202672064839212 -0.40007602488395211 0 -0.46725442735267431 -0.37660061361585562 0 -0.45645674801697989 -0.38644133236760531 0 -0.4540003998136638 -0.37455519391687309 0 -0.45645674801697989 -0.38644133236760531 0 -0.46202672064839212 -0.40007602488395211 0 -0.44257020456291563 -0.38918913383950271 0 -0.46202672064839212 -0.40007602488395211 0 -0.44257020456291563 -0.38918913383950271 0 -0.44727608925983742 -0.41095911152778891 0 -0.46202672064839212 -0.40007602488395211 0 -0.44257020456291563 -0.38918913383950271 0 -0.44257020456291563 -0.38918913383950271 0 -0.44727608925983742 -0.41095911152778891 0 -0.43479358559901082 -0.4041454901736512 0 -0.44257020456291563 -0.38918913383950271 0 -0.4540003998136638 -0.37455519391687309 0 -0.44172858264042247 -0.37082207246888088 0 -0.45645674801697989 -0.38644133236760531 0 -0.44257020456291563 -0.38918913383950271 0 -0.4540003998136638 -0.37455519391687309 0 -0.46202672064839212 -0.40007602488395211 0 -0.45555437223955858 -0.42914059360647611 0 -0.44727608925983742 -0.41095911152778891 0 -0.46202672064839212 -0.40007602488395211 0 -0.45555437223955858 -0.42914059360647611 0 -0.48101336032419229 -0.41069999664450008 0 -0.46202672064839212 -0.40007602488395211 0 -0.45555437223955858 -0.42914059360647611 0 -0.44727608925983742 -0.41095911152778891 0 -0.43867285131603428 -0.4271457417558665 0 -0.43676601469929588 -0.41441201227470881 0 -0.44727608925983742 -0.41095911152778891 0 -0.43676601469929588 -0.41441201227470881 0 -0.43479358559901082 -0.4041454901736512 0 -0.45555437223955858 -0.42914059360647611 0 -0.44727608925983742 -0.41095911152778891 0 -0.43867285131603428 -0.4271457417558665 0 -0.43867285131603428 -0.4271457417558665 0 -0.42681803064840879 -0.42717069814352421 0 -0.4263356171060747 -0.44269880333887462 0 -0.42681803064840879 -0.42717069814352421 0 -0.41531815884496182 -0.42985383783075998 0 -0.4263356171060747 -0.44269880333887462 0 -0.42681803064840879 -0.42717069814352421 0 -0.42624289495594048 -0.42089725947505818 0 -0.42083332353326591 -0.42146747131641099 0 -0.42681803064840879 -0.42717069814352421 0 -0.43096994786351572 -0.41951492446283251 0 -0.42624289495594048 -0.42089725947505818 0 -0.43867285131603428 -0.4271457417558665 0 -0.42681803064840879 -0.42717069814352421 0 -0.43096994786351572 -0.41951492446283251 0 -0.43867285131603428 -0.4271457417558665 0 -0.43676601469929588 -0.41441201227470881 0 -0.43096994786351572 -0.41951492446283251 0 -0.43676601469929588 -0.41441201227470881 0 -0.43096994786351572 -0.41951492446283251 0 -0.42907264086257813 -0.41311715872526122 0 -0.43676601469929588 -0.41441201227470881 0 -0.42907264086257813 -0.41311715872526122 0 -0.43479358559901082 -0.4041454901736512 0 -0.42907264086257813 -0.41311715872526122 0 -0.43479358559901082 -0.4041454901736512 0 -0.42460885511582858 -0.40417321677700252 0 -0.42907264086257813 -0.41311715872526122 0 -0.41997834854398469 -0.41180534796019508 0 -0.42907264086257813 -0.41311715872526122 0 -0.42635027777857132 -0.41543594397746519 0 -0.41997834854398469 -0.41180534796019508 0 -0.42907264086257813 -0.41311715872526122 0 -0.41997834854398469 -0.41180534796019508 0 -0.42460885511582858 -0.40417321677700252 0 -0.42635027777857132 -0.41543594397746519 0 -0.41997834854398469 -0.41180534796019508 0 -0.42635027777857132 -0.41543594397746519 0 -0.42083332353326591 -0.42146747131641099 0 -0.41997834854398469 -0.41180534796019508 0 -0.43096994786351572 -0.41951492446283251 0 -0.42624289495594048 -0.42089725947505818 0 -0.42635027777857132 -0.41543594397746519 0 -0.43096994786351572 -0.41951492446283251 0 -0.42907264086257813 -0.41311715872526122 0 -0.42635027777857132 -0.41543594397746519 0 -0.42624289495594048 -0.42089725947505818 0 -0.42635027777857132 -0.41543594397746519 0 -0.42083332353326591 -0.42146747131641099 0 -0.42083332353326591 -0.42146747131641099 0 -0.41997834854398469 -0.41180534796019508 0 -0.40992282953163789 -0.42011435591993562 0 -0.41997834854398469 -0.41180534796019508 0 -0.39756877647335259 -0.40857286797681719 0 -0.41997834854398469 -0.41180534796019508 0 -0.40992282953163789 -0.42011435591993562 0 -0.39756877647335259 -0.40857286797681719 0 -0.40992282953163789 -0.42011435591993562 0 -0.41531815884496182 -0.42985383783075998 0 -0.39591554026262499 -0.42887225451549271 0 -0.41531815884496182 -0.42985383783075998 0 -0.39591554026262499 -0.42887225451549271 0 -0.41160927495564159 -0.44339431233754628 0 -0.42083332353326591 -0.42146747131641099 0 -0.40992282953163789 -0.42011435591993562 0 -0.41531815884496182 -0.42985383783075998 0 -0.42681803064840879 -0.42717069814352421 0 -0.42083332353326591 -0.42146747131641099 0 -0.41531815884496182 -0.42985383783075998 0 -0.44257020456291563 -0.38918913383950271 0 -0.42311368847744002 -0.37830224279505142 0 -0.42594061475171041 -0.39368797999533162 0 -0.44257020456291563 -0.38918913383950271 0 -0.42311368847744002 -0.37830224279505142 0 -0.44172858264042247 -0.37082207246888088 0 -0.44257020456291563 -0.38918913383950271 0 -0.42311368847744002 -0.37830224279505142 0 -0.42311368847744002 -0.37830224279505142 0 -0.42594061475171041 -0.39368797999533162 0 -0.416587075656149 -0.38785930376960043 0 -0.44257020456291563 -0.38918913383950271 0 -0.42594061475171041 -0.39368797999533162 0 -0.43479358559901082 -0.4041454901736512 0 -0.42594061475171041 -0.39368797999533162 0 -0.43479358559901082 -0.4041454901736512 0 -0.42460885511582858 -0.40417321677700252 0 -0.41997834854398469 -0.41180534796019508 0 -0.41325908582185972 -0.39811010703057192 0 -0.39770572831670092 -0.39911486077581648 0 -0.41997834854398469 -0.41180534796019508 0 -0.39770572831670092 -0.39911486077581648 0 -0.42594061475171041 -0.39368797999533162 0 -0.42460885511582858 -0.40417321677700252 0 -0.41325908582185972 -0.39811010703057192 0 -0.41997834854398469 -0.41180534796019508 0 -0.42460885511582858 -0.40417321677700252 0 -0.41325908582185972 -0.39811010703057192 0 -0.42594061475171041 -0.39368797999533162 0 -0.41325908582185972 -0.39811010703057192 0 -0.416587075656149 -0.38785930376960043 0 -0.41325908582185972 -0.39811010703057192 0 -0.416587075656149 -0.38785930376960043 0 -0.40403491357358612 -0.38133688525744702 0 -0.42311368847744002 -0.37830224279505142 0 -0.40403491357358612 -0.38133688525744702 0 -0.40365717239196519 -0.36741535175059892 0 -0.42311368847744002 -0.37830224279505142 0 -0.416587075656149 -0.38785930376960043 0 -0.40403491357358612 -0.38133688525744702 0 -0.40403491357358612 -0.38133688525744702 0 -0.39190790742475001 -0.38540387676521748 0 -0.39770572831670092 -0.39911486077581648 0 -0.40403491357358612 -0.38133688525744702 0 -0.39190790742475001 -0.38540387676521748 0 -0.3904578797192948 -0.37473938743617019 0 -0.41325908582185972 -0.39811010703057192 0 -0.40403491357358612 -0.38133688525744702 0 -0.39770572831670092 -0.39911486077581648 0 -0.39770572831670092 -0.39911486077581648 0 -0.37543310808941849 -0.38642437359143528 0 -0.39770572831670092 -0.39911486077581648 0 -0.37515920440272033 -0.40534038799344108 0 -0.37543310808941849 -0.38642437359143528 0 -0.39770572831670092 -0.39911486077581648 0 -0.37515920440272033 -0.40534038799344108 0 -0.39756877647335259 -0.40857286797681719 0 -0.37515920440272033 -0.40534038799344108 0 -0.37543310808941849 -0.38642437359143528 0 -0.37543310808941849 -0.38642437359143528 0 -0.3904578797192948 -0.37473938743617019 0 -0.37568304780698558 -0.36916333065311507 0 -0.39190790742475001 -0.38540387676521748 0 -0.37543310808941849 -0.38642437359143528 0 -0.3904578797192948 -0.37473938743617019 0 -0.37543310808941849 -0.38642437359143528 0 -0.37568304780698558 -0.36916333065311507 0 -0.39190790742475001 -0.38540387676521748 0 -0.39770572831670092 -0.39911486077581648 0 -0.37543310808941849 -0.38642437359143528 0 -0.41997834854398469 -0.41180534796019508 0 -0.39770572831670092 -0.39911486077581648 0 -0.39756877647335259 -0.40857286797681719 0 -0.40992282953163789 -0.42011435591993562 0 -0.39591554026262499 -0.42887225451549271 0 -0.39756877647335259 -0.40857286797681719 0 -0.37515920440272033 -0.40534038799344108 0 -0.39591554026262499 -0.42887225451549271 0 -0.39756877647335259 -0.40857286797681719 0 -0.37515920440272033 -0.40534038799344108 0 -0.39756877647335259 -0.40857286797681719 0 -0.37515920440272033 -0.40534038799344108 0 -0.39591554026262499 -0.42887225451549271 0 -0.37472313619600889 -0.43545561783144832 0 -0.39591554026262499 -0.42887225451549271 0 -0.39301703415267508 -0.44654444244683272 0 -0.37472313619600889 -0.43545561783144832 0 -0.39301703415267508 -0.44654444244683272 0 -0.37428706798929601 -0.46557084766945539 0 -0.37472313619600889 -0.43545561783144832 0 -0.39591554026262499 -0.42887225451549271 0 -0.39301703415267508 -0.44654444244683272 0 -0.41160927495564159 -0.44339431233754628 0 -0.39301703415267508 -0.44654444244683272 0 -0.40396056051613372 -0.45751466911048011 0 -0.41160927495564159 -0.44339431233754628 0 -0.40396056051613372 -0.45751466911048011 0 -0.39245383412573559 -0.47875733455523922 0 -0.41207507163844148 -0.46917161410542801 0 -0.40396056051613372 -0.45751466911048011 0 -0.38912381425271458 -0.46154275838996711 0 -0.39245383412573559 -0.47875733455523922 0 -0.40396056051613372 -0.45751466911048011 0 -0.39245383412573559 -0.47875733455523922 0 -0.40396056051613372 -0.45751466911048011 0 -0.40649676728151513 -0.45682610390212369 0 -0.40396056051613372 -0.45751466911048011 0 -0.38912381425271458 -0.46154275838996711 0 -0.39301703415267508 -0.44654444244683272 0 -0.40396056051613372 -0.45751466911048011 0 -0.38912381425271458 -0.46154275838996711 0 -0.39301703415267508 -0.44654444244683272 0 -0.38912381425271458 -0.46154275838996711 0 -0.37428706798929601 -0.46557084766945539 0 -0.38912381425271458 -0.46154275838996711 0 -0.37428706798929601 -0.46557084766945539 0 -0.38912381425271458 -0.46154275838996711 0 -0.38378714202547332 -0.47159002408209011 0 -0.37428706798929601 -0.46557084766945539 0 -0.38378714202547332 -0.47159002408209011 0 -0.39245383412573559 -0.47875733455523922 0 -0.37411677223754131 -0.47733161267270968 0 -0.39245383412573559 -0.47875733455523922 0 -0.37240076261097882 -0.48974555046165519 0 -0.37411677223754131 -0.47733161267270968 0 -0.38378714202547332 -0.47159002408209011 0 -0.37411677223754131 -0.47733161267270968 0 -0.37428706798929601 -0.46557084766945539 0 -0.38912381425271458 -0.46154275838996711 0 -0.38378714202547332 -0.47159002408209011 0 -0.39245383412573559 -0.47875733455523922 0 -0.38094710773533791 -0.49999999999999839 0 -0.39245383412573559 -0.47875733455523922 0 -0.38094710773533791 -0.49999999999999839 0 -0.39245383412573559 -0.47875733455523922 0 -0.37240076261097882 -0.48974555046165519 0 -0.38094710773533791 -0.49999999999999839 0 -0.39245383412573559 -0.47875733455523922 0 -0.40997732063196057 -0.5 0 -0.39245383412573559 -0.47875733455523922 0 -0.41207507163844148 -0.46917161410542801 0 -0.40997732063196057 -0.5 0 -0.41207507163844148 -0.46917161410542801 0 -0.40997732063196057 -0.5 0 -0.42881687682924802 -0.47781464288736519 0 -0.44860394795025399 -0.5 0 -0.40997732063196057 -0.5 0 -0.42881687682924802 -0.47781464288736519 0 -0.41207507163844148 -0.46917161410542801 0 -0.42881687682924802 -0.47781464288736519 0 -0.42627766738448791 -0.46032764904509182 0 -0.4490820238307246 -0.45820516232899983 0 -0.42881687682924802 -0.47781464288736519 0 -0.42627766738448791 -0.46032764904509182 0 -0.4490820238307246 -0.45820516232899983 0 -0.42627766738448791 -0.46032764904509182 0 -0.4263356171060747 -0.44269880333887462 0 -0.42627766738448791 -0.46032764904509182 0 -0.4263356171060747 -0.44269880333887462 0 -0.41655419253802572 -0.45404861160063659 0 -0.4263356171060747 -0.44269880333887462 0 -0.41160927495564159 -0.44339431233754628 0 -0.41655419253802572 -0.45404861160063659 0 -0.41531815884496182 -0.42985383783075998 0 -0.4263356171060747 -0.44269880333887462 0 -0.41160927495564159 -0.44339431233754628 0 -0.40396056051613372 -0.45751466911048011 0 -0.41160927495564159 -0.44339431233754628 0 -0.40649676728151513 -0.45682610390212369 0 -0.41160927495564159 -0.44339431233754628 0 -0.40649676728151513 -0.45682610390212369 0 -0.41655419253802572 -0.45404861160063659 0 -0.40396056051613372 -0.45751466911048011 0 -0.41160927495564159 -0.44339431233754628 0 -0.41207507163844148 -0.46917161410542801 0 -0.40649676728151513 -0.45682610390212369 0 -0.41655419253802572 -0.45404861160063659 0 -0.40396056051613372 -0.45751466911048011 0 -0.41207507163844148 -0.46917161410542801 0 -0.40649676728151513 -0.45682610390212369 0 -0.41207507163844148 -0.46917161410542801 0 -0.42627766738448791 -0.46032764904509182 0 -0.41655419253802572 -0.45404861160063659 0 -0.45662330498375908 -0.25656877445722759 0 -0.43445882011373449 -0.25478651907497341 0 -0.45662330498375908 -0.25656877445722759 0 -0.43445882011373449 -0.25478651907497341 0 -0.45034617445999431 -0.24335722649563979 0 -0.44999384684511368 -0.2755750489792308 0 -0.45662330498375908 -0.25656877445722759 0 -0.43445882011373449 -0.25478651907497341 0 -0.44999384684511368 -0.2755750489792308 0 -0.43077531442077321 -0.27459050524281542 0 -0.43445882011373449 -0.25478651907497341 0 -0.44999384684511368 -0.2755750489792308 0 -0.441361257405879 -0.29303276451920029 0 -0.43077531442077321 -0.27459050524281542 0 -0.44999384684511368 -0.2755750489792308 0 -0.4670541169931961 -0.26846056693166809 0 -0.46910519348062618 -0.28320526693770848 0 -0.44999384684511368 -0.2755750489792308 0 -0.4670541169931961 -0.26846056693166809 0 -0.45662330498375908 -0.25656877445722759 0 -0.45662330498375908 -0.25656877445722759 0 -0.47878778985378329 -0.25835102983948688 0 -0.4670541169931961 -0.26846056693166809 0 -0.45662330498375908 -0.25656877445722759 0 -0.47878778985378329 -0.25835102983948688 0 -0.45662330498375908 -0.25656877445722759 0 -0.47878778985378329 -0.25835102983948688 0 -0.47142395938804471 -0.23802335247430181 0 -0.47878778985378329 -0.25835102983948688 0 -0.5 -0.25669760885461612 0 -0.48361763707807442 -0.27426406281091331 0 -0.47878778985378329 -0.25835102983948688 0 -0.5 -0.25669760885461612 0 -0.4875835208682564 -0.24248539692068891 0 -0.5 -0.25669760885461612 0 -0.48361763707807442 -0.27426406281091331 0 -0.5 -0.28413533544635422 0 -0.4670541169931961 -0.26846056693166809 0 -0.47878778985378329 -0.25835102983948688 0 -0.48361763707807442 -0.27426406281091331 0 -0.4670541169931961 -0.26846056693166809 0 -0.48361763707807442 -0.27426406281091331 0 -0.46910519348062618 -0.28320526693770848 0 -0.46910519348062618 -0.28320526693770848 0 -0.48580896399913942 -0.29193665231809679 0 -0.47164434439118558 -0.29859902487093259 0 -0.48361763707807442 -0.27426406281091331 0 -0.46910519348062618 -0.28320526693770848 0 -0.48580896399913942 -0.29193665231809679 0 -0.5 -0.28413533544635422 0 -0.48580896399913942 -0.29193665231809679 0 -0.5 -0.3115730620380921 0 -0.48361763707807442 -0.27426406281091331 0 -0.5 -0.28413533544635422 0 -0.48580896399913942 -0.29193665231809679 0 -0.48580896399913942 -0.29193665231809679 0 -0.5 -0.3115730620380921 0 -0.48293754746551898 -0.30617437981156609 0 -0.48293754746551898 -0.30617437981156609 0 -0.47164434439118558 -0.29859902487093259 0 -0.47203566342767839 -0.31514771464943409 0 -0.48580896399913942 -0.29193665231809679 0 -0.48293754746551898 -0.30617437981156609 0 -0.47164434439118558 -0.29859902487093259 0 -0.47164434439118558 -0.29859902487093259 0 -0.46096111539772322 -0.3069557537098867 0 -0.47203566342767839 -0.31514771464943409 0 -0.46096111539772322 -0.3069557537098867 0 -0.44739706002137658 -0.30395698434733032 0 -0.45229582611609759 -0.31444164243390338 0 -0.46096111539772322 -0.3069557537098867 0 -0.45682111422556548 -0.29317658806621089 0 -0.44739706002137658 -0.30395698434733032 0 -0.47164434439118558 -0.29859902487093259 0 -0.46096111539772322 -0.3069557537098867 0 -0.45682111422556548 -0.29317658806621089 0 -0.44999384684511368 -0.2755750489792308 0 -0.46910519348062618 -0.28320526693770848 0 -0.45682111422556548 -0.29317658806621089 0 -0.46910519348062618 -0.28320526693770848 0 -0.47164434439118558 -0.29859902487093259 0 -0.45682111422556548 -0.29317658806621089 0 -0.44999384684511368 -0.2755750489792308 0 -0.45682111422556548 -0.29317658806621089 0 -0.441361257405879 -0.29303276451920029 0 -0.45682111422556548 -0.29317658806621089 0 -0.441361257405879 -0.29303276451920029 0 -0.44739706002137658 -0.30395698434733032 0 -0.441361257405879 -0.29303276451920029 0 -0.44739706002137658 -0.30395698434733032 0 -0.43527018611072049 -0.30465000121327751 0 -0.44739706002137658 -0.30395698434733032 0 -0.44024276041750632 -0.31887045497680111 0 -0.43527018611072049 -0.30465000121327751 0 -0.44739706002137658 -0.30395698434733032 0 -0.45229582611609759 -0.31444164243390338 0 -0.44024276041750632 -0.31887045497680111 0 -0.44024276041750632 -0.31887045497680111 0 -0.45653421084860168 -0.32646185290925811 0 -0.44024276041750632 -0.31887045497680111 0 -0.43930980958642257 -0.33554338078202212 0 -0.45653421084860168 -0.32646185290925811 0 -0.45229582611609759 -0.31444164243390338 0 -0.44024276041750632 -0.31887045497680111 0 -0.45653421084860168 -0.32646185290925811 0 -0.43930980958642257 -0.33554338078202212 0 -0.44966367396753332 -0.33841986907325933 0 -0.46855294336124231 -0.32873531729210143 0 -0.43930980958642257 -0.33554338078202212 0 -0.4507851133594416 -0.34910720111649318 0 -0.43930980958642257 -0.33554338078202212 0 -0.44966367396753332 -0.33841986907325933 0 -0.4507851133594416 -0.34910720111649318 0 -0.44966367396753332 -0.33841986907325933 0 -0.46855294336124231 -0.32873531729210143 0 -0.46386644800117471 -0.33586508895417932 0 -0.43930980958642257 -0.33554338078202212 0 -0.46855294336124231 -0.32873531729210143 0 -0.43930980958642257 -0.33554338078202212 0 -0.46855294336124231 -0.32873531729210143 0 -0.45653421084860168 -0.32646185290925811 0 -0.44966367396753332 -0.33841986907325933 0 -0.4586808436472537 -0.3401528003513713 0 -0.45711636988675219 -0.34547487934353349 0 -0.44966367396753332 -0.33841986907325933 0 -0.4586808436472537 -0.3401528003513713 0 -0.46386644800117471 -0.33586508895417932 0 -0.4586808436472537 -0.3401528003513713 0 -0.46472493826860672 -0.34236766697450172 0 -0.45711636988675219 -0.34547487934353349 0 -0.4586808436472537 -0.3401528003513713 0 -0.46472493826860672 -0.34236766697450172 0 -0.46386644800117471 -0.33586508895417932 0 -0.46855294336124231 -0.32873531729210143 0 -0.46207595183026873 -0.31834845619891672 0 -0.47203566342767839 -0.31514771464943409 0 -0.46855294336124231 -0.32873531729210143 0 -0.45653421084860168 -0.32646185290925811 0 -0.46207595183026873 -0.31834845619891672 0 -0.46096111539772322 -0.3069557537098867 0 -0.45229582611609759 -0.31444164243390338 0 -0.46207595183026873 -0.31834845619891672 0 -0.45229582611609759 -0.31444164243390338 0 -0.45653421084860168 -0.32646185290925811 0 -0.46207595183026873 -0.31834845619891672 0 -0.46096111539772322 -0.3069557537098867 0 -0.46207595183026873 -0.31834845619891672 0 -0.47203566342767839 -0.31514771464943409 0 -0.48293754746551898 -0.30617437981156609 0 -0.47203566342767839 -0.31514771464943409 0 -0.47770984076123751 -0.32964979107966252 0 -0.48293754746551898 -0.30617437981156609 0 -0.47770984076123751 -0.32964979107966252 0 -0.48293754746551898 -0.30617437981156609 0 -0.48763303240419292 -0.31981883507337211 0 -0.47770984076123751 -0.32964979107966252 0 -0.46855294336124231 -0.32873531729210143 0 -0.47203566342767839 -0.31514771464943409 0 -0.47770984076123751 -0.32964979107966252 0 -0.5 -0.3115730620380921 0 -0.5 -0.33901078862982997 0 -0.49048543526404831 -0.32960291085151988 0 -0.5 -0.3115730620380921 0 -0.48763303240419292 -0.31981883507337211 0 -0.49048543526404831 -0.32960291085151988 0 -0.5 -0.3115730620380921 0 -0.48293754746551898 -0.30617437981156609 0 -0.48763303240419292 -0.31981883507337211 0 -0.48763303240419292 -0.31981883507337211 0 -0.49048543526404831 -0.32960291085151988 0 -0.47770984076123751 -0.32964979107966252 0 -0.49048543526404831 -0.32960291085151988 0 -0.47770984076123751 -0.32964979107966252 0 -0.48708430315481122 -0.3479620774366432 0 -0.5 -0.33901078862982997 0 -0.49048543526404831 -0.32960291085151988 0 -0.48708430315481122 -0.3479620774366432 0 -0.47770984076123751 -0.32964979107966252 0 -0.47248213405695583 -0.35312520234775913 0 -0.47770984076123751 -0.32964979107966252 0 -0.47248213405695583 -0.35312520234775913 0 -0.48708430315481122 -0.3479620774366432 0 -0.46472493826860672 -0.34236766697450172 0 -0.47770984076123751 -0.32964979107966252 0 -0.47248213405695583 -0.35312520234775913 0 -0.46855294336124231 -0.32873531729210143 0 -0.46386644800117471 -0.33586508895417932 0 -0.47770984076123751 -0.32964979107966252 0 -0.46472493826860672 -0.34236766697450172 0 -0.46386644800117471 -0.33586508895417932 0 -0.47770984076123751 -0.32964979107966252 0 -0.47248213405695583 -0.35312520234775913 0 -0.48708430315481122 -0.3479620774366432 0 -0.48422759779560409 -0.37130120630367158 0 -0.5 -0.33901078862982997 0 -0.48708430315481122 -0.3479620774366432 0 -0.5 -0.36644851522156802 0 -0.48708430315481122 -0.3479620774366432 0 -0.5 -0.36644851522156802 0 -0.48422759779560409 -0.37130120630367158 0 -0.46725442735267431 -0.37660061361585562 0 -0.47248213405695583 -0.35312520234775913 0 -0.48422759779560409 -0.37130120630367158 0 -0.46725442735267431 -0.37660061361585562 0 -0.47248213405695583 -0.35312520234775913 0 -0.46725442735267431 -0.37660061361585562 0 -0.4540003998136638 -0.37455519391687309 0 -0.46226041713245919 -0.36267102145096558 0 -0.46725442735267431 -0.37660061361585562 0 -0.47248213405695583 -0.35312520234775913 0 -0.46226041713245919 -0.36267102145096558 0 -0.4540003998136638 -0.37455519391687309 0 -0.46226041713245919 -0.36267102145096558 0 -0.45167034254705118 -0.36337553476545958 0 -0.47248213405695583 -0.35312520234775913 0 -0.46226041713245919 -0.36267102145096558 0 -0.46130034509645268 -0.35111989715704561 0 -0.46472493826860672 -0.34236766697450172 0 -0.47248213405695583 -0.35312520234775913 0 -0.46130034509645268 -0.35111989715704561 0 -0.46472493826860672 -0.34236766697450172 0 -0.46130034509645268 -0.35111989715704561 0 -0.45711636988675219 -0.34547487934353349 0 -0.46130034509645268 -0.35111989715704561 0 -0.45711636988675219 -0.34547487934353349 0 -0.4507851133594416 -0.34910720111649318 0 -0.46226041713245919 -0.36267102145096558 0 -0.4507851133594416 -0.34910720111649318 0 -0.45167034254705118 -0.36337553476545958 0 -0.46226041713245919 -0.36267102145096558 0 -0.46130034509645268 -0.35111989715704561 0 -0.4507851133594416 -0.34910720111649318 0 -0.46226041713245919 -0.36267102145096558 0 -0.4507851133594416 -0.34910720111649318 0 -0.4507851133594416 -0.34910720111649318 0 -0.44504098357239391 -0.35771747353496869 0 -0.45167034254705118 -0.36337553476545958 0 -0.44966367396753332 -0.33841986907325933 0 -0.45711636988675219 -0.34547487934353349 0 -0.4507851133594416 -0.34910720111649318 0 -0.4507851133594416 -0.34910720111649318 0 -0.44408457896710762 -0.34741130507322732 0 -0.44504098357239391 -0.35771747353496869 0 -0.43930980958642257 -0.33554338078202212 0 -0.4507851133594416 -0.34910720111649318 0 -0.44408457896710762 -0.34741130507322732 0 -0.44408457896710762 -0.34741130507322732 0 -0.43834809566141358 -0.35386966642967582 0 -0.4310745521241639 -0.35060051531725012 0 -0.44408457896710762 -0.34741130507322732 0 -0.43834809566141358 -0.35386966642967582 0 -0.44504098357239391 -0.35771747353496869 0 -0.43834809566141358 -0.35386966642967582 0 -0.44504098357239391 -0.35771747353496869 0 -0.43256408976529492 -0.36260533289695268 0 -0.44504098357239391 -0.35771747353496869 0 -0.44172858264042247 -0.37082207246888088 0 -0.43256408976529492 -0.36260533289695268 0 -0.4540003998136638 -0.37455519391687309 0 -0.44172858264042247 -0.37082207246888088 0 -0.45167034254705118 -0.36337553476545958 0 -0.44504098357239391 -0.35771747353496869 0 -0.44172858264042247 -0.37082207246888088 0 -0.45167034254705118 -0.36337553476545958 0 -0.42311368847744002 -0.37830224279505142 0 -0.44172858264042247 -0.37082207246888088 0 -0.43256408976529492 -0.36260533289695268 0 -0.42311368847744002 -0.37830224279505142 0 -0.43256408976529492 -0.36260533289695268 0 -0.41867380740831611 -0.36398836527224071 0 -0.43256408976529492 -0.36260533289695268 0 -0.42210656065146929 -0.35476551363046099 0 -0.41867380740831611 -0.36398836527224071 0 -0.44408457896710762 -0.34741130507322732 0 -0.4310745521241639 -0.35060051531725012 0 -0.42443636388738298 -0.3390060521705498 0 -0.43834809566141358 -0.35386966642967582 0 -0.43256408976529492 -0.36260533289695268 0 -0.4310745521241639 -0.35060051531725012 0 -0.4310745521241639 -0.35060051531725012 0 -0.42266042161335821 -0.34652378860874011 0 -0.42210656065146929 -0.35476551363046099 0 -0.4310745521241639 -0.35060051531725012 0 -0.42266042161335821 -0.34652378860874011 0 -0.42443636388738298 -0.3390060521705498 0 -0.43256408976529492 -0.36260533289695268 0 -0.4310745521241639 -0.35060051531725012 0 -0.42210656065146929 -0.35476551363046099 0 -0.42210656065146929 -0.35476551363046099 0 -0.41243440171204931 -0.35621682403100541 0 -0.41867380740831611 -0.36398836527224071 0 -0.41243440171204931 -0.35621682403100541 0 -0.40365717239196519 -0.36741535175059892 0 -0.40302160193259851 -0.3439916005776541 0 -0.42210656065146929 -0.35476551363046099 0 -0.41714587076776338 -0.34786779488983011 0 -0.41243440171204931 -0.35621682403100541 0 -0.42266042161335821 -0.34652378860874011 0 -0.42210656065146929 -0.35476551363046099 0 -0.41714587076776338 -0.34786779488983011 0 -0.42266042161335821 -0.34652378860874011 0 -0.41714587076776338 -0.34786779488983011 0 -0.41853876063601031 -0.34037906703560689 0 -0.41714587076776338 -0.34786779488983011 0 -0.41853876063601031 -0.34037906703560689 0 -0.41714587076776338 -0.34786779488983011 0 -0.41243440171204931 -0.35621682403100541 0 -0.40302160193259851 -0.3439916005776541 0 -0.41714587076776338 -0.34786779488983011 0 -0.40302160193259851 -0.3439916005776541 0 -0.41853876063601031 -0.34037906703560689 0 -0.42311368847744002 -0.37830224279505142 0 -0.41867380740831611 -0.36398836527224071 0 -0.40365717239196519 -0.36741535175059892 0 -0.42311368847744002 -0.37830224279505142 0 -0.40365717239196519 -0.36741535175059892 0 -0.41243440171204931 -0.35621682403100541 0 -0.41867380740831611 -0.36398836527224071 0 -0.40365717239196519 -0.36741535175059892 0 -0.40403491357358612 -0.38133688525744702 0 -0.40365717239196519 -0.36741535175059892 0 -0.40403491357358612 -0.38133688525744702 0 -0.40365717239196519 -0.36741535175059892 0 -0.3904578797192948 -0.37473938743617019 0 -0.40365717239196519 -0.36741535175059892 0 -0.38979507995825918 -0.35965881973269581 0 -0.40365717239196519 -0.36741535175059892 0 -0.3904578797192948 -0.37473938743617019 0 -0.38979507995825918 -0.35965881973269581 0 -0.3904578797192948 -0.37473938743617019 0 -0.38979507995825918 -0.35965881973269581 0 -0.37568304780698558 -0.36916333065311507 0 -0.37568304780698558 -0.36916333065311507 0 -0.37593298752455201 -0.35190228771479481 0 -0.38979507995825918 -0.35965881973269581 0 -0.37568304780698558 -0.36916333065311507 0 -0.37593298752455201 -0.35190228771479481 0 -0.38979507995825918 -0.35965881973269581 0 -0.37595629511297179 -0.35029264644438168 0 -0.40302160193259851 -0.3439916005776541 0 -0.37595629511297179 -0.35029264644438168 0 -0.40302160193259851 -0.3439916005776541 0 -0.38842354837557669 -0.33756560667471242 0 -0.37595629511297179 -0.35029264644438168 0 -0.40302160193259851 -0.3439916005776541 0 -0.37595629511297179 -0.35029264644438168 0 -0.37607676276689278 -0.3419730509543204 0 -0.37390838074359528 -0.35076941925389299 0 -0.37595629511297179 -0.35029264644438168 0 -0.37607676276689278 -0.3419730509543204 0 -0.37595629511297179 -0.35029264644438168 0 -0.37593298752455201 -0.35190228771479481 0 -0.37390838074359528 -0.35076941925389299 0 -0.37595629511297179 -0.35029264644438168 0 -0.37593298752455201 -0.35190228771479481 0 -0.38979507995825918 -0.35965881973269581 0 -0.37595629511297179 -0.35029264644438168 0 -0.37593298752455201 -0.35190228771479481 0 -0.38979507995825918 -0.35965881973269581 0 -0.37593298752455201 -0.35190228771479481 0 -0.40365717239196519 -0.36741535175059892 0 -0.40302160193259851 -0.3439916005776541 0 -0.40365717239196519 -0.36741535175059892 0 -0.38979507995825918 -0.35965881973269581 0 -0.40302160193259851 -0.3439916005776541 0 -0.40302160193259851 -0.3439916005776541 0 -0.40263324863316441 -0.32967896077653092 0 -0.40263324863316441 -0.32967896077653092 0 -0.38842354837557669 -0.33756560667471242 0 -0.38442983343225828 -0.32189177462067481 0 -0.40302160193259851 -0.3439916005776541 0 -0.40263324863316441 -0.32967896077653092 0 -0.38842354837557669 -0.33756560667471242 0 -0.37607676276689278 -0.3419730509543204 0 -0.37641717267996733 -0.3184640617331177 0 -0.38842354837557669 -0.33756560667471242 0 -0.37607676276689278 -0.3419730509543204 0 -0.38442983343225828 -0.32189177462067481 0 -0.37607676276689278 -0.3419730509543204 0 -0.38442983343225828 -0.32189177462067481 0 -0.37595629511297179 -0.35029264644438168 0 -0.38842354837557669 -0.33756560667471242 0 -0.37607676276689278 -0.3419730509543204 0 -0.37607676276689278 -0.3419730509543204 0 -0.37641717267996733 -0.3184640617331177 0 -0.38442983343225828 -0.32189177462067481 0 -0.37641717267996733 -0.3184640617331177 0 -0.38442983343225828 -0.32189177462067481 0 -0.3841914044669909 -0.30132118344037401 0 -0.37641717267996733 -0.3184640617331177 0 -0.38442983343225828 -0.32189177462067481 0 -0.40263324863316441 -0.32967896077653092 0 -0.38442983343225828 -0.32189177462067481 0 -0.40185461233875269 -0.30098256284660307 0 -0.40263324863316441 -0.32967896077653092 0 -0.38442983343225828 -0.32189177462067481 0 -0.40263324863316441 -0.32967896077653092 0 -0.40185461233875269 -0.30098256284660307 0 -0.40263324863316441 -0.32967896077653092 0 -0.41242695344044827 -0.31820451366256841 0 -0.40185461233875269 -0.30098256284660307 0 -0.41242695344044827 -0.31820451366256841 0 -0.41920998916455232 -0.33677027649670849 0 -0.42301959421646518 -0.31628833020920039 0 -0.41920998916455232 -0.33677027649670849 0 -0.42301959421646518 -0.31628833020920039 0 -0.41242695344044827 -0.31820451366256841 0 -0.42301959421646518 -0.31628833020920039 0 -0.41541732284930832 -0.30730243798379953 0 -0.40302160193259851 -0.3439916005776541 0 -0.41920998916455232 -0.33677027649670849 0 -0.41853876063601031 -0.34037906703560689 0 -0.40302160193259851 -0.3439916005776541 0 -0.40263324863316441 -0.32967896077653092 0 -0.41920998916455232 -0.33677027649670849 0 -0.40263324863316441 -0.32967896077653092 0 -0.41920998916455232 -0.33677027649670849 0 -0.40263324863316441 -0.32967896077653092 0 -0.41242695344044827 -0.31820451366256841 0 -0.41920998916455232 -0.33677027649670849 0 -0.40302160193259851 -0.3439916005776541 0 -0.41853876063601031 -0.34037906703560689 0 -0.41853876063601031 -0.34037906703560689 0 -0.42443636388738298 -0.3390060521705498 0 -0.41920998916455232 -0.33677027649670849 0 -0.42443636388738298 -0.3390060521705498 0 -0.41920998916455232 -0.33677027649670849 0 -0.41853876063601031 -0.34037906703560689 0 -0.42443636388738298 -0.3390060521705498 0 -0.41920998916455232 -0.33677027649670849 0 -0.41853876063601031 -0.34037906703560689 0 -0.43930980958642257 -0.33554338078202212 0 -0.44408457896710762 -0.34741130507322732 0 -0.42443636388738298 -0.3390060521705498 0 -0.43930980958642257 -0.33554338078202212 0 -0.42443636388738298 -0.3390060521705498 0 -0.42301959421646518 -0.31628833020920039 0 -0.41920998916455232 -0.33677027649670849 0 -0.42443636388738298 -0.3390060521705498 0 -0.42301959421646518 -0.31628833020920039 0 -0.44408457896710762 -0.34741130507322732 0 -0.42443636388738298 -0.3390060521705498 0 -0.42266042161335821 -0.34652378860874011 0 -0.41853876063601031 -0.34037906703560689 0 -0.42443636388738298 -0.3390060521705498 0 -0.43930980958642257 -0.33554338078202212 0 -0.42443636388738298 -0.3390060521705498 0 -0.43930980958642257 -0.33554338078202212 0 -0.42301959421646518 -0.31628833020920039 0 -0.44024276041750632 -0.31887045497680111 0 -0.42395130998641067 -0.31127905704434472 0 -0.44024276041750632 -0.31887045497680111 0 -0.43930980958642257 -0.33554338078202212 0 -0.42301959421646518 -0.31628833020920039 0 -0.44024276041750632 -0.31887045497680111 0 -0.42301959421646518 -0.31628833020920039 0 -0.42395130998641067 -0.31127905704434472 0 -0.42301959421646518 -0.31628833020920039 0 -0.42395130998641067 -0.31127905704434472 0 -0.42395130998641067 -0.31127905704434472 0 -0.42709180872781188 -0.29439449141065738 0 -0.44024276041750632 -0.31887045497680111 0 -0.42395130998641067 -0.31127905704434472 0 -0.43527018611072049 -0.30465000121327751 0 -0.42395130998641067 -0.31127905704434472 0 -0.42709180872781188 -0.29439449141065738 0 -0.41541732284930832 -0.30730243798379953 0 -0.42395130998641067 -0.31127905704434472 0 -0.43527018611072049 -0.30465000121327751 0 -0.42709180872781188 -0.29439449141065738 0 -0.441361257405879 -0.29303276451920029 0 -0.43527018611072049 -0.30465000121327751 0 -0.42709180872781188 -0.29439449141065738 0 -0.42709180872781188 -0.29439449141065738 0 -0.43077531442077321 -0.27459050524281542 0 -0.42709180872781188 -0.29439449141065738 0 -0.41684225135067149 -0.28376244362903152 0 -0.43077531442077321 -0.27459050524281542 0 -0.441361257405879 -0.29303276451920029 0 -0.42709180872781188 -0.29439449141065738 0 -0.441361257405879 -0.29303276451920029 0 -0.42709180872781188 -0.29439449141065738 0 -0.43077531442077321 -0.27459050524281542 0 -0.42709180872781188 -0.29439449141065738 0 -0.41684225135067149 -0.28376244362903152 0 -0.40618483967714292 -0.29638963380315841 0 -0.42709180872781188 -0.29439449141065738 0 -0.40618483967714292 -0.29638963380315841 0 -0.41684225135067149 -0.28376244362903152 0 -0.40690107601488551 -0.28490397733270861 0 -0.40618483967714292 -0.29638963380315841 0 -0.41541732284930832 -0.30730243798379953 0 -0.40185461233875269 -0.30098256284660307 0 -0.40618483967714292 -0.29638963380315841 0 -0.42709180872781188 -0.29439449141065738 0 -0.41541732284930832 -0.30730243798379953 0 -0.40618483967714292 -0.29638963380315841 0 -0.41541732284930832 -0.30730243798379953 0 -0.40618483967714292 -0.29638963380315841 0 -0.41242695344044827 -0.31820451366256841 0 -0.41541732284930832 -0.30730243798379953 0 -0.40185461233875269 -0.30098256284660307 0 -0.41541732284930832 -0.30730243798379953 0 -0.40185461233875269 -0.30098256284660307 0 -0.42301959421646518 -0.31628833020920039 0 -0.41541732284930832 -0.30730243798379953 0 -0.42395130998641067 -0.31127905704434472 0 -0.41541732284930832 -0.30730243798379953 0 -0.42301959421646518 -0.31628833020920039 0 -0.42395130998641067 -0.31127905704434472 0 -0.41541732284930832 -0.30730243798379953 0 -0.38442983343225828 -0.32189177462067481 0 -0.40185461233875269 -0.30098256284660307 0 -0.39448508010510541 -0.297525044214214 0 -0.40185461233875269 -0.30098256284660307 0 -0.40174149504185092 -0.29681366012781812 0 -0.40618483967714292 -0.29638963380315841 0 -0.40185461233875269 -0.30098256284660307 0 -0.40174149504185092 -0.29681366012781812 0 -0.40185461233875269 -0.30098256284660307 0 -0.39448508010510541 -0.297525044214214 0 -0.40174149504185092 -0.29681366012781812 0 -0.40185461233875269 -0.30098256284660307 0 -0.39448508010510541 -0.297525044214214 0 -0.39448508010510541 -0.297525044214214 0 -0.40174149504185092 -0.29681366012781812 0 -0.37641717267996733 -0.3184640617331177 0 -0.37669606201677502 -0.29920373422444158 0 -0.38442983343225828 -0.32189177462067481 0 -0.39448508010510541 -0.297525044214214 0 -0.38442983343225828 -0.32189177462067481 0 -0.39448508010510541 -0.297525044214214 0 -0.3841914044669909 -0.30132118344037401 0 -0.37641717267996733 -0.3184640617331177 0 -0.3841914044669909 -0.30132118344037401 0 -0.37669606201677502 -0.29920373422444158 0 -0.39448508010510541 -0.297525044214214 0 -0.3841914044669909 -0.30132118344037401 0 -0.37928718982873688 -0.29895646409505849 0 -0.39448508010510541 -0.297525044214214 0 -0.37928718982873688 -0.29895646409505849 0 -0.3841914044669909 -0.30132118344037401 0 -0.37928718982873688 -0.29895646409505849 0 -0.3841914044669909 -0.30132118344037401 0 -0.37928718982873688 -0.29895646409505849 0 -0.37669606201677502 -0.29920373422444158 0 -0.37928718982873688 -0.29895646409505849 0 -0.37669606201677502 -0.29920373422444158 0 -0.37671758341694961 -0.29771744858697219 0 -0.37928718982873688 -0.29895646409505849 0 -0.37671758341694961 -0.29771744858697219 0 -0.37928718982873688 -0.29895646409505849 0 -0.37669606201677502 -0.29920373422444158 0 -0.37669606201677502 -0.29920373422444158 0 -0.37671758341694961 -0.29771744858697219 0 -0.37671758341694961 -0.29771744858697219 0 -0.38607699004493318 -0.28757386461908069 0 -0.38483052758877101 -0.28123782127595193 0 -0.37671758341694961 -0.29771744858697219 0 -0.3770412393053626 -0.27536550612006683 0 -0.37671758341694961 -0.29771744858697219 0 -0.38483052758877101 -0.28123782127595193 0 -0.3770412393053626 -0.27536550612006683 0 -0.37928718982873688 -0.29895646409505849 0 -0.37671758341694961 -0.29771744858697219 0 -0.38467000758835601 -0.29297497791584359 0 -0.37671758341694961 -0.29771744858697219 0 -0.38467000758835601 -0.29297497791584359 0 -0.38607699004493318 -0.28757386461908069 0 -0.39448508010510541 -0.297525044214214 0 -0.37928718982873688 -0.29895646409505849 0 -0.38467000758835601 -0.29297497791584359 0 -0.39448508010510541 -0.297525044214214 0 -0.38467000758835601 -0.29297497791584359 0 -0.39448508010510541 -0.297525044214214 0 -0.38467000758835601 -0.29297497791584359 0 -0.39217701296355612 -0.28987936211692023 0 -0.38467000758835601 -0.29297497791584359 0 -0.38607699004493318 -0.28757386461908069 0 -0.39217701296355612 -0.28987936211692023 0 -0.38607699004493318 -0.28757386461908069 0 -0.39049541959166939 -0.28414526237041138 0 -0.39217701296355612 -0.28987936211692023 0 -0.39049541959166939 -0.28414526237041138 0 -0.39420405367365152 -0.27853706101481662 0 -0.38483052758877101 -0.28123782127595193 0 -0.38607699004493318 -0.28757386461908069 0 -0.39049541959166939 -0.28414526237041138 0 -0.38483052758877101 -0.28123782127595193 0 -0.39597078832761667 -0.28551153658085893 0 -0.40174149504185092 -0.29681366012781812 0 -0.40123596036735593 -0.27818233727432817 0 -0.39049541959166939 -0.28414526237041138 0 -0.39597078832761667 -0.28551153658085893 0 -0.39420405367365152 -0.27853706101481662 0 -0.40174149504185092 -0.29681366012781812 0 -0.40123596036735593 -0.27818233727432817 0 -0.40174149504185092 -0.29681366012781812 0 -0.40322207619149192 -0.29288764445213411 0 -0.40123596036735593 -0.27818233727432817 0 -0.39049541959166939 -0.28414526237041138 0 -0.39597078832761667 -0.28551153658085893 0 -0.39217701296355612 -0.28987936211692023 0 -0.39597078832761667 -0.28551153658085893 0 -0.39217701296355612 -0.28987936211692023 0 -0.40174149504185092 -0.29681366012781812 0 -0.39448508010510541 -0.297525044214214 0 -0.39217701296355612 -0.28987936211692023 0 -0.40174149504185092 -0.29681366012781812 0 -0.40690107601488551 -0.28490397733270861 0 -0.40322207619149192 -0.29288764445213411 0 -0.40618483967714292 -0.29638963380315841 0 -0.40174149504185092 -0.29681366012781812 0 -0.40322207619149192 -0.29288764445213411 0 -0.40618483967714292 -0.29638963380315841 0 -0.40174149504185092 -0.29681366012781812 0 -0.40618483967714292 -0.29638963380315841 0 -0.40322207619149192 -0.29288764445213411 0 -0.40618483967714292 -0.29638963380315841 0 -0.40690107601488551 -0.28490397733270861 0 -0.40322207619149192 -0.29288764445213411 0 -0.40123596036735593 -0.27818233727432817 0 -0.39420405367365152 -0.27853706101481662 0 -0.37710287173325818 -0.2711091198417086 0 -0.40073042569286338 -0.25955101442083811 0 -0.40123596036735593 -0.27818233727432817 0 -0.39420405367365152 -0.27853706101481662 0 -0.40073042569286338 -0.25955101442083811 0 -0.40123596036735593 -0.27818233727432817 0 -0.40073042569286338 -0.25955101442083811 0 -0.40123596036735593 -0.27818233727432817 0 -0.40073042569286338 -0.25955101442083811 0 -0.41341650638623911 -0.27076301679274262 0 -0.39597078832761667 -0.28551153658085893 0 -0.40123596036735593 -0.27818233727432817 0 -0.39420405367365152 -0.27853706101481662 0 -0.39420405367365152 -0.27853706101481662 0 -0.37710287173325818 -0.2711091198417086 0 -0.3770412393053626 -0.27536550612006683 0 -0.39420405367365152 -0.27853706101481662 0 -0.3770412393053626 -0.27536550612006683 0 -0.39420405367365152 -0.27853706101481662 0 -0.38483052758877101 -0.28123782127595193 0 -0.3770412393053626 -0.27536550612006683 0 -0.37710287173325818 -0.2711091198417086 0 -0.3770412393053626 -0.27536550612006683 0 -0.37710287173325818 -0.2711091198417086 0 -0.38543722149146659 -0.25821727905458303 0 -0.40073042569286338 -0.25955101442083811 0 -0.37710287173325818 -0.2711091198417086 0 -0.37747963509906429 -0.24508953120583671 0 -0.37710287173325818 -0.2711091198417086 0 -0.40073042569286338 -0.25955101442083811 0 -0.37710287173325818 -0.2711091198417086 0 -0.38543722149146659 -0.25821727905458303 0 -0.37747963509906429 -0.24508953120583671 0 -0.38543722149146659 -0.25821727905458303 0 -0.3938256931015453 -0.25037754026629511 0 -0.37747963509906429 -0.24508953120583671 0 -0.38543722149146659 -0.25821727905458303 0 -0.3938256931015453 -0.25037754026629511 0 -0.40073042569286338 -0.25955101442083811 0 -0.40073042569286338 -0.25955101442083811 0 -0.40282532782868952 -0.25224285689579767 0 -0.40022281387448849 -0.24084313907701979 0 -0.40073042569286338 -0.25955101442083811 0 -0.40022281387448849 -0.24084313907701979 0 -0.3938256931015453 -0.25037754026629511 0 -0.40073042569286338 -0.25955101442083811 0 -0.40022281387448849 -0.24084313907701979 0 -0.40073042569286338 -0.25955101442083811 0 -0.40282532782868952 -0.25224285689579767 0 -0.41385673751816382 -0.25312989710486528 0 -0.40073042569286338 -0.25955101442083811 0 -0.41385673751816382 -0.25312989710486528 0 -0.40073042569286338 -0.25955101442083811 0 -0.41385673751816382 -0.25312989710486528 0 -0.41341650638623911 -0.27076301679274262 0 -0.41385673751816382 -0.25312989710486528 0 -0.41341650638623911 -0.27076301679274262 0 -0.42312684460972783 -0.26331748455384929 0 -0.41385673751816382 -0.25312989710486528 0 -0.41679144862722167 -0.25169429778568547 0 -0.43445882011373449 -0.25478651907497341 0 -0.40282532782868952 -0.25224285689579767 0 -0.41385673751816382 -0.25312989710486528 0 -0.4086566941719203 -0.24778871483445111 0 -0.40282532782868952 -0.25224285689579767 0 -0.41385673751816382 -0.25312989710486528 0 -0.41385673751816382 -0.25312989710486528 0 -0.41679144862722167 -0.25169429778568547 0 -0.41627810448972868 -0.24641300060905449 0 -0.41385673751816382 -0.25312989710486528 0 -0.41679144862722167 -0.25169429778568547 0 -0.41684225135067149 -0.28376244362903152 0 -0.41341650638623911 -0.27076301679274262 0 -0.43077531442077321 -0.27459050524281542 0 -0.40690107601488551 -0.28490397733270861 0 -0.40123596036735593 -0.27818233727432817 0 -0.41341650638623911 -0.27076301679274262 0 -0.41684225135067149 -0.28376244362903152 0 -0.40690107601488551 -0.28490397733270861 0 -0.41341650638623911 -0.27076301679274262 0 -0.41341650638623911 -0.27076301679274262 0 -0.43077531442077321 -0.27459050524281542 0 -0.42312684460972783 -0.26331748455384929 0 -0.43077531442077321 -0.27459050524281542 0 -0.42312684460972783 -0.26331748455384929 0 -0.43445882011373449 -0.25478651907497341 0 -0.41385673751816382 -0.25312989710486528 0 -0.43445882011373449 -0.25478651907497341 0 -0.43077531442077321 -0.27459050524281542 0 -0.43445882011373449 -0.25478651907497341 0 -0.41385673751816382 -0.25312989710486528 0 -0.42312684460972783 -0.26331748455384929 0 -0.43445882011373449 -0.25478651907497341 0 -0.41679144862722167 -0.25169429778568547 0 -0.43445882011373449 -0.25478651907497341 0 -0.42335340856967768 -0.24893549408922019 0 -0.32580796388430833 -0.26195871891040218 0 -0.34139866608006603 -0.2687790352098644 0 -0.31202674084989918 -0.26335133138269068 0 -0.32580796388430833 -0.26195871891040218 0 -0.33345250408021371 -0.25331871279766999 0 -0.32023222063025569 -0.2489608815952247 0 -0.32580796388430833 -0.26195871891040218 0 -0.31664960680882542 -0.25714232151458272 0 -0.32023222063025569 -0.2489608815952247 0 -0.31664960680882542 -0.25714232151458272 0 -0.30853150187083839 -0.25429835417001312 0 -0.32023222063025569 -0.2489608815952247 0 -0.32580796388430833 -0.26195871891040218 0 -0.31664960680882542 -0.25714232151458272 0 -0.31202674084989918 -0.26335133138269068 0 -0.33223611708196649 -0.27626932861073827 0 -0.31972670239926188 -0.28454160199560091 0 -0.31187737399160442 -0.27618124236115132 0 -0.34139866608006603 -0.2687790352098644 0 -0.31202674084989918 -0.26335133138269068 0 -0.33223611708196649 -0.27626932861073827 0 -0.31202674084989918 -0.26335133138269068 0 -0.3062135479255173 -0.26372173898871692 0 -0.33223611708196649 -0.27626932861073827 0 -0.31187737399160442 -0.27618124236115132 0 -0.3062135479255173 -0.26372173898871692 0 -0.33260241140844943 -0.2743168067351805 0 -0.33223611708196649 -0.27626932861073827 0 -0.31202674084989918 -0.26335133138269068 0 -0.33223611708196649 -0.27626932861073827 0 -0.3062135479255173 -0.26372173898871692 0 -0.33260241140844943 -0.2743168067351805 0 -0.34139866608006603 -0.2687790352098644 0 -0.31202674084989918 -0.26335133138269068 0 -0.33223611708196649 -0.27626932861073827 0 -0.34139866608006603 -0.2687790352098644 0 -0.34951875912658742 -0.28460269103381453 0 -0.33223611708196649 -0.27626932861073827 0 -0.34951875912658742 -0.28460269103381453 0 -0.33260241140844943 -0.2743168067351805 0 -0.33223611708196649 -0.27626932861073827 0 -0.34139866608006603 -0.2687790352098644 0 -0.33260241140844943 -0.2743168067351805 0 -0.33223611708196649 -0.27626932861073827 0 -0.34139866608006603 -0.2687790352098644 0 -0.3363084638556994 -0.26041051377605268 0 -0.34457472137820933 -0.25758558818627408 0 -0.32580796388430833 -0.26195871891040218 0 -0.34139866608006603 -0.2687790352098644 0 -0.3363084638556994 -0.26041051377605268 0 -0.32580796388430833 -0.26195871891040218 0 -0.3363084638556994 -0.26041051377605268 0 -0.33345250408021371 -0.25331871279766999 0 -0.3363084638556994 -0.26041051377605268 0 -0.33345250408021371 -0.25331871279766999 0 -0.34457472137820933 -0.25758558818627408 0 -0.33345250408021371 -0.25331871279766999 0 -0.34457472137820933 -0.25758558818627408 0 -0.34395992200845399 -0.24382677409400949 0 -0.34139866608006603 -0.2687790352098644 0 -0.34457472137820933 -0.25758558818627408 0 -0.35733732661955131 -0.26288598862094092 0 -0.34457472137820933 -0.25758558818627408 0 -0.35872453044413888 -0.25078889886649508 0 -0.34395992200845399 -0.24382677409400949 0 -0.34457472137820933 -0.25758558818627408 0 -0.35733732661955131 -0.26288598862094092 0 -0.35872453044413888 -0.25078889886649508 0 -0.37710287173325818 -0.2711091198417086 0 -0.36828299104124951 -0.26081605551440462 0 -0.37747963509906429 -0.24508953120583671 0 -0.35872453044413888 -0.25078889886649508 0 -0.36828299104124951 -0.26081605551440462 0 -0.37747963509906429 -0.24508953120583671 0 -0.35733732661955131 -0.26288598862094092 0 -0.35872453044413888 -0.25078889886649508 0 -0.36828299104124951 -0.26081605551440462 0 -0.37077059131023282 -0.27420673903703829 0 -0.34951875912658742 -0.28460269103381453 0 -0.37710287173325818 -0.2711091198417086 0 -0.3770412393053626 -0.27536550612006683 0 -0.37077059131023282 -0.27420673903703829 0 -0.3770412393053626 -0.27536550612006683 0 -0.37077059131023282 -0.27420673903703829 0 -0.37710287173325818 -0.2711091198417086 0 -0.36828299104124951 -0.26081605551440462 0 -0.37077059131023282 -0.27420673903703829 0 -0.37710287173325818 -0.2711091198417086 0 -0.37077059131023282 -0.27420673903703829 0 -0.35733732661955131 -0.26288598862094092 0 -0.36828299104124951 -0.26081605551440462 0 -0.37077059131023282 -0.27420673903703829 0 -0.34139866608006603 -0.2687790352098644 0 -0.35733732661955131 -0.26288598862094092 0 -0.37077059131023282 -0.27420673903703829 0 -0.34139866608006603 -0.2687790352098644 0 -0.37077059131023282 -0.27420673903703829 0 -0.34951875912658742 -0.28460269103381453 0 -0.34139866608006603 -0.2687790352098644 0 -0.37077059131023282 -0.27420673903703829 0 -0.34951875912658742 -0.28460269103381453 0 -0.3581763596052473 -0.30097106086504849 0 -0.34010739644885768 -0.2892065328944351 0 -0.34951875912658742 -0.28460269103381453 0 -0.34010739644885768 -0.2892065328944351 0 -0.37671758341694961 -0.29771744858697219 0 -0.37077059131023282 -0.27420673903703829 0 -0.34951875912658742 -0.28460269103381453 0 -0.37671758341694961 -0.29771744858697219 0 -0.34951875912658742 -0.28460269103381453 0 -0.37671758341694961 -0.29771744858697219 0 -0.3770412393053626 -0.27536550612006683 0 -0.37077059131023282 -0.27420673903703829 0 -0.37671758341694961 -0.29771744858697219 0 -0.34951875912658742 -0.28460269103381453 0 -0.3581763596052473 -0.30097106086504849 0 -0.37669606201677502 -0.29920373422444158 0 -0.37671758341694961 -0.29771744858697219 0 -0.3581763596052473 -0.30097106086504849 0 -0.37641717267996733 -0.3184640617331177 0 -0.37669606201677502 -0.29920373422444158 0 -0.36799370156123501 -0.30592930732763762 0 -0.37641717267996733 -0.3184640617331177 0 -0.36799370156123501 -0.30592930732763762 0 -0.35803691493684492 -0.31060122461938489 0 -0.37669606201677502 -0.29920373422444158 0 -0.36799370156123501 -0.30592930732763762 0 -0.3581763596052473 -0.30097106086504849 0 -0.37669606201677502 -0.29920373422444158 0 -0.3581763596052473 -0.30097106086504849 0 -0.36799370156123501 -0.30592930732763762 0 -0.35803691493684492 -0.31060122461938489 0 -0.3581763596052473 -0.30097106086504849 0 -0.35803691493684492 -0.31060122461938489 0 -0.33965665719371979 -0.30273838750565862 0 -0.35803691493684492 -0.31060122461938489 0 -0.33965665719371979 -0.30273838750565862 0 -0.34514704515453298 -0.31300544250539297 0 -0.3581763596052473 -0.30097106086504849 0 -0.33965665719371979 -0.30273838750565862 0 -0.34010739644885768 -0.2892065328944351 0 -0.35803691493684492 -0.31060122461938489 0 -0.3581763596052473 -0.30097106086504849 0 -0.33965665719371979 -0.30273838750565862 0 -0.3581763596052473 -0.30097106086504849 0 -0.33965665719371979 -0.30273838750565862 0 -0.33676996251121621 -0.31158184422573892 0 -0.33965665719371979 -0.30273838750565862 0 -0.34514704515453298 -0.31300544250539297 0 -0.33676996251121621 -0.31158184422573892 0 -0.33965665719371979 -0.30273838750565862 0 -0.32704471803945162 -0.30394193902942662 0 -0.33676996251121621 -0.31158184422573892 0 -0.32594772137393307 -0.30978944971135602 0 -0.32704471803945162 -0.30394193902942662 0 -0.33965665719371979 -0.30273838750565862 0 -0.32704471803945162 -0.30394193902942662 0 -0.32819068517220462 -0.29783339261299951 0 -0.33965665719371979 -0.30273838750565862 0 -0.32704471803945162 -0.30394193902942662 0 -0.32819068517220462 -0.29783339261299951 0 -0.33965665719371979 -0.30273838750565862 0 -0.33223611708196649 -0.27626932861073827 0 -0.32819068517220462 -0.29783339261299951 0 -0.33223611708196649 -0.27626932861073827 0 -0.32819068517220462 -0.29783339261299951 0 -0.34010739644885768 -0.2892065328944351 0 -0.33223611708196649 -0.27626932861073827 0 -0.34951875912658742 -0.28460269103381453 0 -0.34010739644885768 -0.2892065328944351 0 -0.32819068517220462 -0.29783339261299951 0 -0.33965665719371979 -0.30273838750565862 0 -0.34010739644885768 -0.2892065328944351 0 -0.32819068517220462 -0.29783339261299951 0 -0.31972670239926188 -0.28454160199560091 0 -0.31332574866090718 -0.291474364566292 0 -0.32819068517220462 -0.29783339261299951 0 -0.31332574866090718 -0.291474364566292 0 -0.33223611708196649 -0.27626932861073827 0 -0.32819068517220462 -0.29783339261299951 0 -0.31972670239926188 -0.28454160199560091 0 -0.31972670239926188 -0.28454160199560091 0 -0.31332574866090718 -0.291474364566292 0 -0.30937392239009109 -0.28339120160471948 0 -0.31972670239926188 -0.28454160199560091 0 -0.30937392239009109 -0.28339120160471948 0 -0.31187737399160442 -0.27618124236115132 0 -0.31992409361072222 -0.30462145692723192 0 -0.32594772137393307 -0.30978944971135602 0 -0.31307430431717392 -0.31869978567557272 0 -0.31992409361072222 -0.30462145692723192 0 -0.32594772137393307 -0.30978944971135602 0 -0.32594772137393307 -0.30978944971135602 0 -0.32704471803945162 -0.30394193902942662 0 -0.31992409361072222 -0.30462145692723192 0 -0.32594772137393307 -0.30978944971135602 0 -0.32704471803945162 -0.30394193902942662 0 -0.32819068517220462 -0.29783339261299951 0 -0.31332574866090718 -0.291474364566292 0 -0.31992409361072222 -0.30462145692723192 0 -0.32819068517220462 -0.29783339261299951 0 -0.32704471803945162 -0.30394193902942662 0 -0.32819068517220462 -0.29783339261299951 0 -0.31992409361072222 -0.30462145692723192 0 -0.32704471803945162 -0.30394193902942662 0 -0.31992409361072222 -0.30462145692723192 0 -0.32704471803945162 -0.30394193902942662 0 -0.32594772137393307 -0.30978944971135602 0 -0.31307430431717392 -0.31869978567557272 0 -0.32184288384298337 -0.33167017375041419 0 -0.32594772137393307 -0.30978944971135602 0 -0.32184288384298337 -0.33167017375041419 0 -0.32184288384298337 -0.33167017375041419 0 -0.31773804631203251 -0.35355089778947202 0 -0.32184288384298337 -0.33167017375041419 0 -0.34475024534571441 -0.34586667392980902 0 -0.31773804631203251 -0.35355089778947202 0 -0.32184288384298337 -0.33167017375041419 0 -0.34612464597635118 -0.32710031367078812 0 -0.34475024534571441 -0.34586667392980902 0 -0.33676996251121621 -0.31158184422573892 0 -0.32594772137393307 -0.30978944971135602 0 -0.34612464597635118 -0.32710031367078812 0 -0.32594772137393307 -0.30978944971135602 0 -0.34612464597635118 -0.32710031367078812 0 -0.32594772137393307 -0.30978944971135602 0 -0.32184288384298337 -0.33167017375041419 0 -0.34612464597635118 -0.32710031367078812 0 -0.33676996251121621 -0.31158184422573892 0 -0.34514704515453298 -0.31300544250539297 0 -0.34612464597635118 -0.32710031367078812 0 -0.35803691493684492 -0.31060122461938489 0 -0.34514704515453298 -0.31300544250539297 0 -0.34612464597635118 -0.32710031367078812 0 -0.35803691493684492 -0.31060122461938489 0 -0.34612464597635118 -0.32710031367078812 0 -0.35600230731325749 -0.33324145173106873 0 -0.37641717267996733 -0.3184640617331177 0 -0.35803691493684492 -0.31060122461938489 0 -0.37641717267996733 -0.3184640617331177 0 -0.35803691493684492 -0.31060122461938489 0 -0.36719759625642318 -0.33008752154143739 0 -0.35803691493684492 -0.31060122461938489 0 -0.36719759625642318 -0.33008752154143739 0 -0.35600230731325749 -0.33324145173106873 0 -0.37607676276689278 -0.3419730509543204 0 -0.37641717267996733 -0.3184640617331177 0 -0.36719759625642318 -0.33008752154143739 0 -0.37607676276689278 -0.3419730509543204 0 -0.3688763256213185 -0.34309961767568647 0 -0.36719759625642318 -0.33008752154143739 0 -0.36719759625642318 -0.33008752154143739 0 -0.36118874601324108 -0.3436521492952741 0 -0.35600230731325749 -0.33324145173106873 0 -0.3688763256213185 -0.34309961767568647 0 -0.36719759625642318 -0.33008752154143739 0 -0.36118874601324108 -0.3436521492952741 0 -0.34612464597635118 -0.32710031367078812 0 -0.35600230731325749 -0.33324145173106873 0 -0.34475024534571441 -0.34586667392980902 0 -0.36118874601324108 -0.3436521492952741 0 -0.35600230731325749 -0.33324145173106873 0 -0.34475024534571441 -0.34586667392980902 0 -0.36118874601324108 -0.3436521492952741 0 -0.34475024534571441 -0.34586667392980902 0 -0.35925477447714671 -0.35134479444962452 0 -0.34475024534571441 -0.34586667392980902 0 -0.35480891830463612 -0.3592101017575729 0 -0.33937201587241012 -0.36587749477948078 0 -0.34475024534571441 -0.34586667392980902 0 -0.35480891830463612 -0.3592101017575729 0 -0.35925477447714671 -0.35134479444962452 0 -0.36118874601324108 -0.3436521492952741 0 -0.37225797237559449 -0.35115364910559932 0 -0.36118874601324108 -0.3436521492952741 0 -0.35925477447714671 -0.35134479444962452 0 -0.36985982957495511 -0.35171195823109852 0 -0.37568304780698558 -0.36916333065311507 0 -0.37593298752455201 -0.35190228771479481 0 -0.37225797237559449 -0.35115364910559932 0 -0.35480891830463612 -0.3592101017575729 0 -0.35925477447714671 -0.35134479444962452 0 -0.36985982957495511 -0.35171195823109852 0 -0.37607676276689278 -0.3419730509543204 0 -0.3688763256213185 -0.34309961767568647 0 -0.37225797237559449 -0.35115364910559932 0 -0.37607676276689278 -0.3419730509543204 0 -0.37225797237559449 -0.35115364910559932 0 -0.37607676276689278 -0.3419730509543204 0 -0.37390838074359528 -0.35076941925389299 0 -0.37225797237559449 -0.35115364910559932 0 -0.37593298752455201 -0.35190228771479481 0 -0.37390838074359528 -0.35076941925389299 0 -0.37225797237559449 -0.35115364910559932 0 -0.3688763256213185 -0.34309961767568647 0 -0.36118874601324108 -0.3436521492952741 0 -0.37225797237559449 -0.35115364910559932 0 -0.37593298752455201 -0.35190228771479481 0 -0.37390838074359528 -0.35076941925389299 0 -0.36118874601324108 -0.3436521492952741 0 -0.36985982957495511 -0.35171195823109852 0 -0.37225797237559449 -0.35115364910559932 0 -0.37595629511297179 -0.35029264644438168 0 -0.37390838074359528 -0.35076941925389299 0 -0.37390838074359528 -0.35076941925389299 0 -0.37225797237559449 -0.35115364910559932 0 -0.36985982957495511 -0.35171195823109852 0 -0.37225797237559449 -0.35115364910559932 0 -0.37568304780698558 -0.36916333065311507 0 -0.37225797237559449 -0.35115364910559932 0 -0.36100598543278789 -0.37820409176948921 0 -0.35480891830463612 -0.3592101017575729 0 -0.36985982957495511 -0.35171195823109852 0 -0.36100598543278789 -0.37820409176948921 0 -0.36985982957495511 -0.35171195823109852 0 -0.37225797237559449 -0.35115364910559932 0 -0.36100598543278789 -0.37820409176948921 0 -0.37225797237559449 -0.35115364910559932 0 -0.36100598543278789 -0.37820409176948921 0 -0.33937201587241012 -0.36587749477948078 0 -0.36100598543278789 -0.37820409176948921 0 -0.35480891830463612 -0.3592101017575729 0 -0.33937201587241012 -0.36587749477948078 0 -0.36100598543278789 -0.37820409176948921 0 -0.33937201587241012 -0.36587749477948078 0 -0.31773804631203251 -0.35355089778947202 0 -0.33937201587241012 -0.36587749477948078 0 -0.31773804631203251 -0.35355089778947202 0 -0.32803705280137402 -0.37447550275240871 0 -0.34475024534571441 -0.34586667392980902 0 -0.33937201587241012 -0.36587749477948078 0 -0.31773804631203251 -0.35355089778947202 0 -0.31773804631203251 -0.35355089778947202 0 -0.31381007312398762 -0.37448885129246268 0 -0.31773804631203251 -0.35355089778947202 0 -0.31381007312398762 -0.37448885129246268 0 -0.32803705280137402 -0.37447550275240871 0 -0.31381007312398762 -0.37448885129246268 0 -0.29871455833571747 -0.36148408621311728 0 -0.29196992941862432 -0.3825632544476108 0 -0.31773804631203251 -0.35355089778947202 0 -0.31381007312398762 -0.37448885129246268 0 -0.29871455833571747 -0.36148408621311728 0 -0.31773804631203251 -0.35355089778947202 0 -0.29871455833571747 -0.36148408621311728 0 -0.29282778547957722 -0.33935753649529382 0 -0.31773804631203251 -0.35355089778947202 0 -0.29282778547957722 -0.33935753649529382 0 -0.29871455833571747 -0.36148408621311728 0 -0.27675503022224163 -0.36681377825091099 0 -0.29282778547957722 -0.33935753649529382 0 -0.29871455833571747 -0.36148408621311728 0 -0.27675503022224163 -0.36681377825091099 0 -0.29196992941862432 -0.3825632544476108 0 -0.27675503022224163 -0.36681377825091099 0 -0.25757508569408222 -0.36424633604315798 0 -0.26546808025963542 -0.34847395767735678 0 -0.27675503022224163 -0.36681377825091099 0 -0.25757508569408222 -0.36424633604315798 0 -0.25812358553267323 -0.37605355791306738 0 -0.25757508569408222 -0.36424633604315798 0 -0.24839247009954951 -0.37292447016044328 0 -0.24532753696728959 -0.36501789644951049 0 -0.25757508569408222 -0.36424633604315798 0 -0.25812358553267323 -0.37605355791306738 0 -0.24839247009954951 -0.37292447016044328 0 -0.25757508569408222 -0.36424633604315798 0 -0.26546808025963542 -0.34847395767735678 0 -0.24650166737573331 -0.3569693529562265 0 -0.26546808025963542 -0.34847395767735678 0 -0.24650166737573331 -0.3569693529562265 0 -0.24881121389389799 -0.33838995723746451 0 -0.27675503022224163 -0.36681377825091099 0 -0.26546808025963542 -0.34847395767735678 0 -0.29282778547957722 -0.33935753649529382 0 -0.26791752464712137 -0.32516417520111718 0 -0.27544300416693679 -0.31995488319631832 0 -0.29282778547957722 -0.33935753649529382 0 -0.26546808025963542 -0.34847395767735678 0 -0.26791752464712137 -0.32516417520111718 0 -0.29282778547957722 -0.33935753649529382 0 -0.26791752464712137 -0.32516417520111718 0 -0.29282778547957722 -0.33935753649529382 0 -0.26791752464712137 -0.32516417520111718 0 -0.24881121389389799 -0.33838995723746451 0 -0.26546808025963542 -0.34847395767735678 0 -0.26791752464712137 -0.32516417520111718 0 -0.24881121389389799 -0.33838995723746451 0 -0.26791752464712137 -0.32516417520111718 0 -0.24881121389389799 -0.33838995723746451 0 -0.2441082332202735 -0.32380704628422963 0 -0.26791752464712137 -0.32516417520111718 0 -0.2444966906846206 -0.31181945912301329 0 -0.26791752464712137 -0.32516417520111718 0 -0.26963915832665503 -0.30942012505775762 0 -0.2444966906846206 -0.31181945912301329 0 -0.26791752464712137 -0.32516417520111718 0 -0.2441082332202735 -0.32380704628422963 0 -0.2444966906846206 -0.31181945912301329 0 -0.26791752464712137 -0.32516417520111718 0 -0.27544300416693679 -0.31995488319631832 0 -0.26963915832665503 -0.30942012505775762 0 -0.26791752464712137 -0.32516417520111718 0 -0.27544300416693679 -0.31995488319631832 0 -0.27544300416693679 -0.31995488319631832 0 -0.29403167998309421 -0.32125824908992018 0 -0.29478162596868879 -0.30702079099249591 0 -0.27544300416693679 -0.31995488319631832 0 -0.29403167998309421 -0.32125824908992018 0 -0.29282778547957722 -0.33935753649529382 0 -0.31307430431717392 -0.31869978567557272 0 -0.32184288384298337 -0.33167017375041419 0 -0.29282778547957722 -0.33935753649529382 0 -0.32184288384298337 -0.33167017375041419 0 -0.31773804631203251 -0.35355089778947202 0 -0.29282778547957722 -0.33935753649529382 0 -0.31307430431717392 -0.31869978567557272 0 -0.29403167998309421 -0.32125824908992018 0 -0.29282778547957722 -0.33935753649529382 0 -0.31307430431717392 -0.31869978567557272 0 -0.29403167998309421 -0.32125824908992018 0 -0.29478162596868879 -0.30702079099249591 0 -0.31992409361072222 -0.30462145692723192 0 -0.29478162596868879 -0.30702079099249591 0 -0.31992409361072222 -0.30462145692723192 0 -0.31307430431717392 -0.31869978567557272 0 -0.29478162596868879 -0.30702079099249591 0 -0.31992409361072222 -0.30462145692723192 0 -0.30687808727867438 -0.29770175581860719 0 -0.29478162596868879 -0.30702079099249591 0 -0.30687808727867438 -0.29770175581860719 0 -0.29813438661480679 -0.29530641477552327 0 -0.29478162596868879 -0.30702079099249591 0 -0.31992409361072222 -0.30462145692723192 0 -0.2984608121496099 -0.28511533651958437 0 -0.31992409361072222 -0.30462145692723192 0 -0.30687808727867438 -0.29770175581860719 0 -0.2984608121496099 -0.28511533651958437 0 -0.31332574866090718 -0.291474364566292 0 -0.31992409361072222 -0.30462145692723192 0 -0.2984608121496099 -0.28511533651958437 0 -0.31332574866090718 -0.291474364566292 0 -0.30937392239009109 -0.28339120160471948 0 -0.2984608121496099 -0.28511533651958437 0 -0.31332574866090718 -0.291474364566292 0 -0.2984608121496099 -0.28511533651958437 0 -0.30937392239009109 -0.28339120160471948 0 -0.2984608121496099 -0.28511533651958437 0 -0.30347897474907187 -0.279643462580969 0 -0.30687808727867438 -0.29770175581860719 0 -0.29951482580247829 -0.29240083595456018 0 -0.29813438661480679 -0.29530641477552327 0 -0.30687808727867438 -0.29770175581860719 0 -0.2984608121496099 -0.28511533651958437 0 -0.29951482580247829 -0.29240083595456018 0 -0.29951482580247829 -0.29240083595456018 0 -0.29813438661480679 -0.29530641477552327 0 -0.29499124589990039 -0.29073588210889412 0 -0.2984608121496099 -0.28511533651958437 0 -0.29951482580247829 -0.29240083595456018 0 -0.29499124589990039 -0.29073588210889412 0 -0.29499124589990039 -0.29073588210889412 0 -0.29148170063899659 -0.29460773718781319 0 -0.28586576089235322 -0.28577101837165192 0 -0.29813438661480679 -0.29530641477552327 0 -0.29499124589990039 -0.29073588210889412 0 -0.29148170063899659 -0.29460773718781319 0 -0.2984608121496099 -0.28511533651958437 0 -0.29499124589990039 -0.29073588210889412 0 -0.28586576089235322 -0.28577101837165192 0 -0.29148170063899659 -0.29460773718781319 0 -0.28586576089235322 -0.28577101837165192 0 -0.2798353156189245 -0.29508903771003908 0 -0.29148170063899659 -0.29460773718781319 0 -0.29478162596868879 -0.30702079099249591 0 -0.2798353156189245 -0.29508903771003908 0 -0.29478162596868879 -0.30702079099249591 0 -0.26963915832665503 -0.30942012505775762 0 -0.2798353156189245 -0.29508903771003908 0 -0.29478162596868879 -0.30702079099249591 0 -0.26963915832665503 -0.30942012505775762 0 -0.29813438661480679 -0.29530641477552327 0 -0.29148170063899659 -0.29460773718781319 0 -0.29478162596868879 -0.30702079099249591 0 -0.27544300416693679 -0.31995488319631832 0 -0.29478162596868879 -0.30702079099249591 0 -0.26963915832665503 -0.30942012505775762 0 -0.26963915832665503 -0.30942012505775762 0 -0.26057201890547982 -0.29344093798311832 0 -0.2798353156189245 -0.29508903771003908 0 -0.26963915832665503 -0.30942012505775762 0 -0.2444966906846206 -0.31181945912301329 0 -0.26963915832665503 -0.30942012505775762 0 -0.26057201890547982 -0.29344093798311832 0 -0.2444966906846206 -0.31181945912301329 0 -0.26057201890547982 -0.29344093798311832 0 -0.27108878797196961 -0.28331686931735522 0 -0.25298377122075039 -0.27518622721876451 0 -0.26057201890547982 -0.29344093798311832 0 -0.25298377122075039 -0.27518622721876451 0 -0.2435111179254994 -0.29490773243705071 0 -0.26057201890547982 -0.29344093798311832 0 -0.27108878797196961 -0.28331686931735522 0 -0.2798353156189245 -0.29508903771003908 0 -0.28586576089235322 -0.28577101837165192 0 -0.27108878797196961 -0.28331686931735522 0 -0.2798353156189245 -0.29508903771003908 0 -0.27108878797196961 -0.28331686931735522 0 -0.27618707322233982 -0.26709712530320262 0 -0.25298377122075039 -0.27518622721876451 0 -0.28586576089235322 -0.28577101837165192 0 -0.27108878797196961 -0.28331686931735522 0 -0.27618707322233982 -0.26709712530320262 0 -0.27618707322233982 -0.26709712530320262 0 -0.25431856302814809 -0.24833495949118861 0 -0.27618707322233982 -0.26709712530320262 0 -0.25298377122075039 -0.27518622721876451 0 -0.25431856302814809 -0.24833495949118861 0 -0.27618707322233982 -0.26709712530320262 0 -0.27309361240676189 -0.24179026653703889 0 -0.25431856302814809 -0.24833495949118861 0 -0.27618707322233982 -0.26709712530320262 0 -0.2907170577323625 -0.25177677077710309 0 -0.27309361240676189 -0.24179026653703889 0 -0.27618707322233982 -0.26709712530320262 0 -0.2907170577323625 -0.25177677077710309 0 -0.29477899871119112 -0.26293378760569941 0 -0.2984608121496099 -0.28511533651958437 0 -0.28586576089235322 -0.28577101837165192 0 -0.27618707322233982 -0.26709712530320262 0 -0.2984608121496099 -0.28511533651958437 0 -0.27618707322233982 -0.26709712530320262 0 -0.27618707322233982 -0.26709712530320262 0 -0.29477899871119112 -0.26293378760569941 0 -0.29948479845841441 -0.27338487519771032 0 -0.2984608121496099 -0.28511533651958437 0 -0.27618707322233982 -0.26709712530320262 0 -0.29948479845841441 -0.27338487519771032 0 -0.29477899871119112 -0.26293378760569941 0 -0.29948479845841441 -0.27338487519771032 0 -0.30156079933714469 -0.26765617134954151 0 -0.30156079933714469 -0.26765617134954151 0 -0.30403476516136241 -0.27459464834518948 0 -0.30588444940973558 -0.27063474712059482 0 -0.29948479845841441 -0.27338487519771032 0 -0.30156079933714469 -0.26765617134954151 0 -0.30403476516136241 -0.27459464834518948 0 -0.30156079933714469 -0.26765617134954151 0 -0.30588444940973558 -0.27063474712059482 0 -0.3062135479255173 -0.26372173898871692 0 -0.2984608121496099 -0.28511533651958437 0 -0.29948479845841441 -0.27338487519771032 0 -0.30347897474907187 -0.279643462580969 0 -0.29948479845841441 -0.27338487519771032 0 -0.30403476516136241 -0.27459464834518948 0 -0.30347897474907187 -0.279643462580969 0 -0.30937392239009109 -0.28339120160471948 0 -0.30347897474907187 -0.279643462580969 0 -0.31187737399160442 -0.27618124236115132 0 -0.30403476516136241 -0.27459464834518948 0 -0.30347897474907187 -0.279643462580969 0 -0.31187737399160442 -0.27618124236115132 0 -0.30403476516136241 -0.27459464834518948 0 -0.31187737399160442 -0.27618124236115132 0 -0.30588444940973558 -0.27063474712059482 0 -0.31187737399160442 -0.27618124236115132 0 -0.30588444940973558 -0.27063474712059482 0 -0.3062135479255173 -0.26372173898871692 0 -0.31664960680882542 -0.25714232151458272 0 -0.31202674084989918 -0.26335133138269068 0 -0.30853150187083839 -0.25429835417001312 0 -0.2907170577323625 -0.25177677077710309 0 -0.29477899871119112 -0.26293378760569941 0 -0.30853150187083839 -0.25429835417001312 0 -0.31202674084989918 -0.26335133138269068 0 -0.3062135479255173 -0.26372173898871692 0 -0.30853150187083839 -0.25429835417001312 0 -0.29477899871119112 -0.26293378760569941 0 -0.30156079933714469 -0.26765617134954151 0 -0.3062135479255173 -0.26372173898871692 0 -0.29477899871119112 -0.26293378760569941 0 -0.3062135479255173 -0.26372173898871692 0 -0.30853150187083839 -0.25429835417001312 0 -0.33709504481289931 -0.46474263175187808 0 -0.33075086723682939 -0.45093918684289991 0 -0.35302422329502631 -0.44785824460859458 0 -0.33709504481289931 -0.46474263175187808 0 -0.33075086723682939 -0.45093918684289991 0 -0.32054712240525829 -0.47546959342145068 0 -0.33075086723682939 -0.45093918684289991 0 -0.34095461206840061 -0.42640878026434909 0 -0.33075086723682939 -0.45093918684289991 0 -0.35302422329502631 -0.44785824460859458 0 -0.34095461206840061 -0.42640878026434909 0 -0.33075086723682939 -0.45093918684289991 0 -0.32054706720266329 -0.44859283512714471 0 -0.3206124180200437 -0.43193612962395289 0 -0.33075086723682939 -0.45093918684289991 0 -0.32054706720266329 -0.44859283512714471 0 -0.31571728338184601 -0.45752087103574601 0 -0.32054706720266329 -0.44859283512714471 0 -0.31571728338184601 -0.45752087103574601 0 -0.30706080135445341 -0.45057148265483188 0 -0.33075086723682939 -0.45093918684289991 0 -0.32054712240525829 -0.47546959342145068 0 -0.33075086723682939 -0.45093918684289991 0 -0.31571728338184601 -0.45752087103574601 0 -0.32054712240525829 -0.47546959342145068 0 -0.32054712240525829 -0.47546959342145068 0 -0.32750579650535672 -0.48798687004089669 0 -0.32933965142182292 -0.47777380670114528 0 -0.32054712240525829 -0.47546959342145068 0 -0.31034337757368669 -0.50000000000000133 0 -0.32750579650535672 -0.48798687004089669 0 -0.33387795429423722 -0.5 0 -0.31034337757368669 -0.50000000000000133 0 -0.32054712240525829 -0.47546959342145068 0 -0.32750579650535672 -0.48798687004089669 0 -0.31034337757368669 -0.50000000000000133 0 -0.32750579650535672 -0.48798687004089669 0 -0.34342087683177741 -0.48669095008188618 0 -0.33387795429423722 -0.5 0 -0.33709504481289931 -0.46474263175187808 0 -0.32933965142182292 -0.47777380670114528 0 -0.35181335970555933 -0.47167232718529989 0 -0.34342087683177741 -0.48669095008188618 0 -0.32933965142182292 -0.47777380670114528 0 -0.35181335970555933 -0.47167232718529989 0 -0.32750579650535672 -0.48798687004089669 0 -0.34342087683177741 -0.48669095008188618 0 -0.32933965142182292 -0.47777380670114528 0 -0.33709504481289931 -0.46474263175187808 0 -0.32054712240525829 -0.47546959342145068 0 -0.32933965142182292 -0.47777380670114528 0 -0.32933965142182292 -0.47777380670114528 0 -0.35181335970555933 -0.47167232718529989 0 -0.34342087683177741 -0.48669095008188618 0 -0.35181335970555933 -0.47167232718529989 0 -0.35979455825166368 -0.48519290092039941 0 -0.34342087683177741 -0.48669095008188618 0 -0.35741253101478748 -0.5 0 -0.35979455825166368 -0.48519290092039941 0 -0.34342087683177741 -0.48669095008188618 0 -0.33387795429423722 -0.5 0 -0.35741253101478748 -0.5 0 -0.38094710773533791 -0.49999999999999839 0 -0.35741253101478748 -0.5 0 -0.37240076261097882 -0.48974555046165519 0 -0.35741253101478748 -0.5 0 -0.35979455825166368 -0.48519290092039941 0 -0.37240076261097882 -0.48974555046165519 0 -0.35181335970555933 -0.47167232718529989 0 -0.35979455825166368 -0.48519290092039941 0 -0.37411677223754131 -0.47733161267270968 0 -0.35181335970555933 -0.47167232718529989 0 -0.37411677223754131 -0.47733161267270968 0 -0.37428706798929601 -0.46557084766945539 0 -0.35979455825166368 -0.48519290092039941 0 -0.37240076261097882 -0.48974555046165519 0 -0.37411677223754131 -0.47733161267270968 0 -0.37411677223754131 -0.47733161267270968 0 -0.37428706798929601 -0.46557084766945539 0 -0.35181335970555933 -0.47167232718529989 0 -0.37428706798929601 -0.46557084766945539 0 -0.35302422329502631 -0.44785824460859458 0 -0.35181335970555933 -0.47167232718529989 0 -0.37428706798929601 -0.46557084766945539 0 -0.33709504481289931 -0.46474263175187808 0 -0.35181335970555933 -0.47167232718529989 0 -0.35302422329502631 -0.44785824460859458 0 -0.37428706798929601 -0.46557084766945539 0 -0.35302422329502631 -0.44785824460859458 0 -0.37472313619600889 -0.43545561783144832 0 -0.37428706798929601 -0.46557084766945539 0 -0.37472313619600889 -0.43545561783144832 0 -0.35302422329502631 -0.44785824460859458 0 -0.37472313619600889 -0.43545561783144832 0 -0.36076670325611282 -0.42019275678090617 0 -0.37515920440272033 -0.40534038799344108 0 -0.37472313619600889 -0.43545561783144832 0 -0.36076670325611282 -0.42019275678090617 0 -0.37515920440272033 -0.40534038799344108 0 -0.36076670325611282 -0.42019275678090617 0 -0.35115835689997099 -0.40187837368579798 0 -0.37515920440272033 -0.40534038799344108 0 -0.37472313619600889 -0.43545561783144832 0 -0.36076670325611282 -0.42019275678090617 0 -0.35115835689997099 -0.40187837368579798 0 -0.34095461206840061 -0.42640878026434909 0 -0.34815033243380111 -0.40144447968524521 0 -0.35115835689997099 -0.40187837368579798 0 -0.34095461206840061 -0.42640878026434909 0 -0.35115835689997099 -0.40187837368579798 0 -0.34095461206840061 -0.42640878026434909 0 -0.35302422329502631 -0.44785824460859458 0 -0.36076670325611282 -0.42019275678090617 0 -0.34095461206840061 -0.42640878026434909 0 -0.37543310808941849 -0.38642437359143528 0 -0.36100598543278789 -0.37820409176948921 0 -0.35115835689997099 -0.40187837368579798 0 -0.37543310808941849 -0.38642437359143528 0 -0.37568304780698558 -0.36916333065311507 0 -0.36100598543278789 -0.37820409176948921 0 -0.37543310808941849 -0.38642437359143528 0 -0.36100598543278789 -0.37820409176948921 0 -0.37515920440272033 -0.40534038799344108 0 -0.37543310808941849 -0.38642437359143528 0 -0.35115835689997099 -0.40187837368579798 0 -0.37515920440272033 -0.40534038799344108 0 -0.35115835689997099 -0.40187837368579798 0 -0.35115835689997099 -0.40187837368579798 0 -0.34646966066369161 -0.38533898881774881 0 -0.34316085436749 -0.39382471367395527 0 -0.34815033243380111 -0.40144447968524521 0 -0.35115835689997099 -0.40187837368579798 0 -0.34316085436749 -0.39382471367395527 0 -0.34815033243380111 -0.40144447968524521 0 -0.35115835689997099 -0.40187837368579798 0 -0.33937201587241012 -0.36587749477948078 0 -0.36100598543278789 -0.37820409176948921 0 -0.34646966066369161 -0.38533898881774881 0 -0.36100598543278789 -0.37820409176948921 0 -0.35115835689997099 -0.40187837368579798 0 -0.36100598543278789 -0.37820409176948921 0 -0.35115835689997099 -0.40187837368579798 0 -0.34646966066369161 -0.38533898881774881 0 -0.33937201587241012 -0.36587749477948078 0 -0.32803705280137402 -0.37447550275240871 0 -0.34646966066369161 -0.38533898881774881 0 -0.32803705280137402 -0.37447550275240871 0 -0.34646966066369161 -0.38533898881774881 0 -0.32931529664348408 -0.38869437358142001 0 -0.34646966066369161 -0.38533898881774881 0 -0.32931529664348408 -0.38869437358142001 0 -0.34316085436749 -0.39382471367395527 0 -0.34815033243380111 -0.40144447968524521 0 -0.33486919938690762 -0.39884665705885908 0 -0.32944617452305069 -0.41182817437998842 0 -0.32931529664348408 -0.38869437358142001 0 -0.34316085436749 -0.39382471367395527 0 -0.33486919938690762 -0.39884665705885908 0 -0.32931529664348408 -0.38869437358142001 0 -0.33486919938690762 -0.39884665705885908 0 -0.32365381597648563 -0.39942827076698811 0 -0.34815033243380111 -0.40144447968524521 0 -0.34316085436749 -0.39382471367395527 0 -0.33486919938690762 -0.39884665705885908 0 -0.33486919938690762 -0.39884665705885908 0 -0.32365381597648563 -0.39942827076698811 0 -0.32944617452305069 -0.41182817437998842 0 -0.32931529664348408 -0.38869437358142001 0 -0.32365381597648563 -0.39942827076698811 0 -0.30988209993594379 -0.39542680479545339 0 -0.32365381597648563 -0.39942827076698811 0 -0.30595412674790001 -0.41636475829844438 0 -0.30988209993594379 -0.39542680479545339 0 -0.31381007312398762 -0.37448885129246268 0 -0.32931529664348408 -0.38869437358142001 0 -0.30988209993594379 -0.39542680479545339 0 -0.31381007312398762 -0.37448885129246268 0 -0.32803705280137402 -0.37447550275240871 0 -0.32931529664348408 -0.38869437358142001 0 -0.34095461206840061 -0.42640878026434909 0 -0.32944617452305069 -0.41182817437998842 0 -0.3206124180200437 -0.43193612962395289 0 -0.33075086723682939 -0.45093918684289991 0 -0.34095461206840061 -0.42640878026434909 0 -0.3206124180200437 -0.43193612962395289 0 -0.34815033243380111 -0.40144447968524521 0 -0.34095461206840061 -0.42640878026434909 0 -0.32944617452305069 -0.41182817437998842 0 -0.32944617452305069 -0.41182817437998842 0 -0.3206124180200437 -0.43193612962395289 0 -0.30595412674790001 -0.41636475829844438 0 -0.32365381597648563 -0.39942827076698811 0 -0.32944617452305069 -0.41182817437998842 0 -0.30595412674790001 -0.41636475829844438 0 -0.3206124180200437 -0.43193612962395289 0 -0.30595412674790001 -0.41636475829844438 0 -0.29602166034141808 -0.43748304283089118 0 -0.30595412674790001 -0.41636475829844438 0 -0.28680587137917263 -0.41476105187328532 0 -0.29502227998321778 -0.40112933436643161 0 -0.30595412674790001 -0.41636475829844438 0 -0.28680587137917263 -0.41476105187328532 0 -0.29602166034141808 -0.43748304283089118 0 -0.28680587137917263 -0.41476105187328532 0 -0.29602166034141808 -0.43748304283089118 0 -0.27149625348017281 -0.42637325053463759 0 -0.29602166034141808 -0.43748304283089118 0 -0.27149625348017281 -0.42637325053463759 0 -0.29602166034141808 -0.43748304283089118 0 -0.27149625348017281 -0.42637325053463759 0 -0.27906578537949278 -0.44687665772048962 0 -0.31381007312398762 -0.37448885129246268 0 -0.30988209993594379 -0.39542680479545339 0 -0.31381007312398762 -0.37448885129246268 0 -0.30988209993594379 -0.39542680479545339 0 -0.29196992941862432 -0.3825632544476108 0 -0.30595412674790001 -0.41636475829844438 0 -0.30988209993594379 -0.39542680479545339 0 -0.30595412674790001 -0.41636475829844438 0 -0.30988209993594379 -0.39542680479545339 0 -0.29502227998321778 -0.40112933436643161 0 -0.30988209993594379 -0.39542680479545339 0 -0.29502227998321778 -0.40112933436643161 0 -0.29196992941862432 -0.3825632544476108 0 -0.28680587137917263 -0.41476105187328532 0 -0.29502227998321778 -0.40112933436643161 0 -0.2806661672136338 -0.39648987600255969 0 -0.29502227998321778 -0.40112933436643161 0 -0.29196992941862432 -0.3825632544476108 0 -0.2806661672136338 -0.39648987600255969 0 -0.27675503022224163 -0.36681377825091099 0 -0.29196992941862432 -0.3825632544476108 0 -0.26924588117792803 -0.38334910629271668 0 -0.29196992941862432 -0.3825632544476108 0 -0.26924588117792803 -0.38334910629271668 0 -0.2806661672136338 -0.39648987600255969 0 -0.27675503022224163 -0.36681377825091099 0 -0.26924588117792803 -0.38334910629271668 0 -0.25812358553267323 -0.37605355791306738 0 -0.28680587137917263 -0.41476105187328532 0 -0.2806661672136338 -0.39648987600255969 0 -0.26326431180229581 -0.40282557300305732 0 -0.26924588117792803 -0.38334910629271668 0 -0.2806661672136338 -0.39648987600255969 0 -0.26326431180229581 -0.40282557300305732 0 -0.26326431180229581 -0.40282557300305732 0 -0.2504897110532438 -0.38524934403489181 0 -0.24394706363899241 -0.39877073912243299 0 -0.26326431180229581 -0.40282557300305732 0 -0.24697084661892749 -0.41526345823838401 0 -0.24394706363899241 -0.39877073912243299 0 -0.26924588117792803 -0.38334910629271668 0 -0.26326431180229581 -0.40282557300305732 0 -0.2504897110532438 -0.38524934403489181 0 -0.26924588117792803 -0.38334910629271668 0 -0.2504897110532438 -0.38524934403489181 0 -0.25812358553267323 -0.37605355791306738 0 -0.2504897110532438 -0.38524934403489181 0 -0.25812358553267323 -0.37605355791306738 0 -0.24839247009954951 -0.37292447016044328 0 -0.28680587137917263 -0.41476105187328532 0 -0.26326431180229581 -0.40282557300305732 0 -0.27149625348017281 -0.42637325053463759 0 -0.27149625348017281 -0.42637325053463759 0 -0.24697084661892749 -0.41526345823838401 0 -0.26326431180229581 -0.40282557300305732 0 -0.27149625348017281 -0.42637325053463759 0 -0.24697084661892749 -0.41526345823838401 0 -0.27149625348017281 -0.42637325053463759 0 -0.25687425522332558 -0.44642006451091643 0 -0.24697084661892749 -0.41526345823838401 0 -0.25687425522332558 -0.44642006451091643 0 -0.27607931301277078 -0.46657199895299017 0 -0.25409384940020791 -0.47271975939701871 0 -0.25687425522332558 -0.44642006451091643 0 -0.27607931301277078 -0.46657199895299017 0 -0.27906578537949278 -0.44687665772048962 0 -0.27149625348017281 -0.42637325053463759 0 -0.25687425522332558 -0.44642006451091643 0 -0.27906578537949278 -0.44687665772048962 0 -0.29602166034141808 -0.43748304283089118 0 -0.27906578537949278 -0.44687665772048962 0 -0.29968055871002541 -0.46203125713240301 0 -0.27607931301277078 -0.46657199895299017 0 -0.27906578537949278 -0.44687665772048962 0 -0.29968055871002541 -0.46203125713240301 0 -0.31571728338184601 -0.45752087103574601 0 -0.29968055871002541 -0.46203125713240301 0 -0.30706080135445341 -0.45057148265483188 0 -0.31571728338184601 -0.45752087103574601 0 -0.32054712240525829 -0.47546959342145068 0 -0.29968055871002541 -0.46203125713240301 0 -0.32054706720266329 -0.44859283512714471 0 -0.29602166034141808 -0.43748304283089118 0 -0.32054706720266329 -0.44859283512714471 0 -0.3206124180200437 -0.43193612962395289 0 -0.29602166034141808 -0.43748304283089118 0 -0.32054706720266329 -0.44859283512714471 0 -0.29602166034141808 -0.43748304283089118 0 -0.30706080135445341 -0.45057148265483188 0 -0.29602166034141808 -0.43748304283089118 0 -0.29968055871002541 -0.46203125713240301 0 -0.30706080135445341 -0.45057148265483188 0 -0.32054712240525829 -0.47546959342145068 0 -0.31034337757368669 -0.50000000000000133 0 -0.2941570887960146 -0.48201569375099518 0 -0.32054712240525829 -0.47546959342145068 0 -0.29968055871002541 -0.46203125713240301 0 -0.2941570887960146 -0.48201569375099518 0 -0.27607931301277078 -0.46657199895299017 0 -0.29968055871002541 -0.46203125713240301 0 -0.2941570887960146 -0.48201569375099518 0 -0.2941570887960146 -0.48201569375099518 0 -0.28248249767631262 -0.5 0 -0.27039562620846602 -0.48462576079096858 0 -0.31034337757368669 -0.50000000000000133 0 -0.2941570887960146 -0.48201569375099518 0 -0.28248249767631262 -0.5 0 -0.28248249767631262 -0.5 0 -0.27039562620846602 -0.48462576079096858 0 -0.25462161777893849 -0.5 0 -0.27607931301277078 -0.46657199895299017 0 -0.2941570887960146 -0.48201569375099518 0 -0.27039562620846602 -0.48462576079096858 0 -0.27607931301277078 -0.46657199895299017 0 -0.27039562620846602 -0.48462576079096858 0 -0.25409384940020791 -0.47271975939701871 0 -0.27039562620846602 -0.48462576079096858 0 -0.25409384940020791 -0.47271975939701871 0 -0.25462161777893849 -0.5 0 -0.25462161777893849 -0.5 0 -0.23155232774708009 -0.47932355884050398 0 -0.22676073788156451 -0.5 0 -0.25409384940020791 -0.47271975939701871 0 -0.25462161777893849 -0.5 0 -0.23155232774708009 -0.47932355884050398 0 -0.25409384940020791 -0.47271975939701871 0 -0.23155232774708009 -0.47932355884050398 0 -0.2350399564306665 -0.45937717328673289 0 -0.23155232774708009 -0.47932355884050398 0 -0.2350399564306665 -0.45937717328673289 0 -0.2080224731694312 -0.47403962225972662 0 -0.23155232774708009 -0.47932355884050398 0 -0.22676073788156451 -0.5 0 -0.2080224731694312 -0.47403962225972662 0 -0.25687425522332558 -0.44642006451091643 0 -0.2350399564306665 -0.45937717328673289 0 -0.23180750449586429 -0.4343742486430574 0 -0.25687425522332558 -0.44642006451091643 0 -0.25409384940020791 -0.47271975939701871 0 -0.2350399564306665 -0.45937717328673289 0 -0.2350399564306665 -0.45937717328673289 0 -0.21590660946663959 -0.44883644739355771 0 -0.2080224731694312 -0.47403962225972662 0 -0.2350399564306665 -0.45937717328673289 0 -0.21590660946663959 -0.44883644739355771 0 -0.23180750449586429 -0.4343742486430574 0 -0.21590660946663959 -0.44883644739355771 0 -0.1943898331460783 -0.4473597119794826 0 -0.20910912931781811 -0.42543372189632289 0 -0.21590660946663959 -0.44883644739355771 0 -0.1943898331460783 -0.4473597119794826 0 -0.2080224731694312 -0.47403962225972662 0 -0.1943898331460783 -0.4473597119794826 0 -0.2080224731694312 -0.47403962225972662 0 -0.17967053697433849 -0.46928570206264231 0 -0.22676073788156451 -0.5 0 -0.2080224731694312 -0.47403962225972662 0 -0.19889985798419041 -0.5 0 -0.2080224731694312 -0.47403962225972662 0 -0.1821948971586228 -0.48648437486529872 0 -0.17967053697433849 -0.46928570206264231 0 -0.2080224731694312 -0.47403962225972662 0 -0.19889985798419041 -0.5 0 -0.1821948971586228 -0.48648437486529872 0 -0.19889985798419041 -0.5 0 -0.1821948971586228 -0.48648437486529872 0 -0.17103897808681609 -0.49999999999999778 0 -0.1821948971586228 -0.48648437486529872 0 -0.17103897808681609 -0.49999999999999778 0 -0.16495124080259491 -0.49121169214579941 0 -0.17103897808681609 -0.49999999999999778 0 -0.16495124080259491 -0.49121169214579941 0 -0.17103897808681609 -0.49999999999999778 0 -0.16495124080259491 -0.49121169214579941 0 -0.15905149781887321 -0.49999999999999961 0 -0.16495124080259491 -0.49121169214579941 0 -0.15905149781887321 -0.49999999999999961 0 -0.1545750311736096 -0.49062041690426861 0 -0.16495124080259491 -0.49121169214579941 0 -0.15905149781887321 -0.49999999999999961 0 -0.16495124080259491 -0.49121169214579941 0 -0.16530166315622061 -0.47155300009798301 0 -0.17967053697433849 -0.46928570206264231 0 -0.16495124080259491 -0.49121169214579941 0 -0.16530166315622061 -0.47155300009798301 0 -0.15083103946930049 -0.47082765280793248 0 -0.16495124080259491 -0.49121169214579941 0 -0.1545750311736096 -0.49062041690426861 0 -0.15083103946930049 -0.47082765280793248 0 -0.16495124080259491 -0.49121169214579941 0 -0.15083103946930049 -0.47082765280793248 0 -0.16495124080259491 -0.49121169214579941 0 -0.17967053697433849 -0.46928570206264231 0 -0.1821948971586228 -0.48648437486529872 0 -0.16495124080259491 -0.49121169214579941 0 -0.17967053697433849 -0.46928570206264231 0 -0.1943898331460783 -0.4473597119794826 0 -0.17967053697433849 -0.46928570206264231 0 -0.1943898331460783 -0.4473597119794826 0 -0.17967053697433849 -0.46928570206264231 0 -0.1657538353786501 -0.45488695337555668 0 -0.1943898331460783 -0.4473597119794826 0 -0.1657538353786501 -0.45488695337555668 0 -0.1755027511393909 -0.43471579892562301 0 -0.1657538353786501 -0.45488695337555668 0 -0.15761868306950341 -0.43586407366366631 0 -0.1755027511393909 -0.43471579892562301 0 -0.16530166315622061 -0.47155300009798301 0 -0.1657538353786501 -0.45488695337555668 0 -0.15083103946930049 -0.47082765280793248 0 -0.16530166315622061 -0.47155300009798301 0 -0.17967053697433849 -0.46928570206264231 0 -0.1657538353786501 -0.45488695337555668 0 -0.13671083813600751 -0.45044361347006462 0 -0.15083103946930049 -0.47082765280793248 0 -0.13671083813600751 -0.45044361347006462 0 -0.13441782301728619 -0.47175980973682791 0 -0.15083103946930049 -0.47082765280793248 0 -0.1657538353786501 -0.45488695337555668 0 -0.13671083813600751 -0.45044361347006462 0 -0.15083103946930049 -0.47082765280793248 0 -0.13671083813600751 -0.45044361347006462 0 -0.13816776916695811 -0.432543871779144 0 -0.15761868306950341 -0.43586407366366631 0 -0.1657538353786501 -0.45488695337555668 0 -0.13671083813600751 -0.45044361347006462 0 -0.15761868306950341 -0.43586407366366631 0 -0.13671083813600751 -0.45044361347006462 0 -0.13816776916695811 -0.432543871779144 0 -0.1225906368027144 -0.43005957413219659 0 -0.13671083813600751 -0.45044361347006462 0 -0.1225906368027144 -0.43005957413219659 0 -0.13671083813600751 -0.45044361347006462 0 -0.13441782301728619 -0.47175980973682791 0 -0.1201929706126502 -0.46127799294672761 0 -0.13441782301728619 -0.47175980973682791 0 -0.12605423818426559 -0.48707922202292669 0 -0.14429533434837091 -0.48908967660720287 0 -0.13441782301728619 -0.47175980973682791 0 -0.12605423818426559 -0.48707922202292669 0 -0.1201929706126502 -0.46127799294672761 0 -0.1295391708778694 -0.5 0 -0.12605423818426559 -0.48707922202292669 0 -0.14429533434837091 -0.48908967660720287 0 -0.15905149781887321 -0.49999999999999961 0 -0.1295391708778694 -0.5 0 -0.14429533434837091 -0.48908967660720287 0 -0.15905149781887321 -0.49999999999999961 0 -0.14429533434837091 -0.48908967660720287 0 -0.1545750311736096 -0.49062041690426861 0 -0.14429533434837091 -0.48908967660720287 0 -0.1545750311736096 -0.49062041690426861 0 -0.15083103946930049 -0.47082765280793248 0 -0.13441782301728619 -0.47175980973682791 0 -0.14429533434837091 -0.48908967660720287 0 -0.15083103946930049 -0.47082765280793248 0 -0.15345949684661231 -0.4053237642064671 0 -0.15136585988972451 -0.39002590355483568 0 -0.13982663417143551 -0.39933000433158738 0 -0.15136585988972451 -0.39002590355483568 0 -0.1368738238800834 -0.3880397179408614 0 -0.13982663417143551 -0.39933000433158738 0 -0.15345949684661231 -0.4053237642064671 0 -0.13982663417143551 -0.39933000433158738 0 -0.1398029654186671 -0.41064466143528439 0 -0.15136585988972451 -0.39002590355483568 0 -0.1368738238800834 -0.3880397179408614 0 -0.13959568407155781 -0.37291875636350952 0 -0.15136585988972451 -0.39002590355483568 0 -0.15951650330528561 -0.37856285477961621 0 -0.13959568407155781 -0.37291875636350952 0 -0.1368738238800834 -0.3880397179408614 0 -0.12625141541498519 -0.38197991289387551 0 -0.13959568407155781 -0.37291875636350952 0 -0.1368738238800834 -0.3880397179408614 0 -0.12625141541498519 -0.38197991289387551 0 -0.1273295258527142 -0.39594401256049883 0 -0.1368738238800834 -0.3880397179408614 0 -0.1273295258527142 -0.39594401256049883 0 -0.13982663417143551 -0.39933000433158738 0 -0.13982663417143551 -0.39933000433158738 0 -0.1295768038857959 -0.40463739140698729 0 -0.1398029654186671 -0.41064466143528439 0 -0.1273295258527142 -0.39594401256049883 0 -0.13982663417143551 -0.39933000433158738 0 -0.1295768038857959 -0.40463739140698729 0 -0.1273295258527142 -0.39594401256049883 0 -0.1295768038857959 -0.40463739140698729 0 -0.1219584454402414 -0.40406961642135292 0 -0.1295768038857959 -0.40463739140698729 0 -0.1296119374269841 -0.41417592727859581 0 -0.1225700411049412 -0.40994677461386392 0 -0.1296119374269841 -0.41417592727859581 0 -0.12315425937001 -0.41747458531602638 0 -0.1225700411049412 -0.40994677461386392 0 -0.1296119374269841 -0.41417592727859581 0 -0.13713184062407599 -0.42036644340313623 0 -0.12908399078123631 -0.42243277819987513 0 -0.1296119374269841 -0.41417592727859581 0 -0.12908399078123631 -0.42243277819987513 0 -0.12315425937001 -0.41747458531602638 0 -0.1296119374269841 -0.41417592727859581 0 -0.13713184062407599 -0.42036644340313623 0 -0.1398029654186671 -0.41064466143528439 0 -0.1295768038857959 -0.40463739140698729 0 -0.1296119374269841 -0.41417592727859581 0 -0.1398029654186671 -0.41064466143528439 0 -0.12908399078123631 -0.42243277819987513 0 -0.13816776916695811 -0.432543871779144 0 -0.1225906368027144 -0.43005957413219659 0 -0.13713184062407599 -0.42036644340313623 0 -0.12908399078123631 -0.42243277819987513 0 -0.13816776916695811 -0.432543871779144 0 -0.13816776916695811 -0.432543871779144 0 -0.14921107955709881 -0.42003443798493328 0 -0.15761868306950341 -0.43586407366366631 0 -0.13713184062407599 -0.42036644340313623 0 -0.13816776916695811 -0.432543871779144 0 -0.14921107955709881 -0.42003443798493328 0 -0.15345949684661231 -0.4053237642064671 0 -0.1398029654186671 -0.41064466143528439 0 -0.14921107955709881 -0.42003443798493328 0 -0.13713184062407599 -0.42036644340313623 0 -0.1398029654186671 -0.41064466143528439 0 -0.14921107955709881 -0.42003443798493328 0 -0.15345949684661231 -0.4053237642064671 0 -0.14921107955709881 -0.42003443798493328 0 -0.17009787391258249 -0.41611158199907422 0 -0.14921107955709881 -0.42003443798493328 0 -0.17009787391258249 -0.41611158199907422 0 -0.15761868306950341 -0.43586407366366631 0 -0.17009787391258249 -0.41611158199907422 0 -0.15761868306950341 -0.43586407366366631 0 -0.1755027511393909 -0.43471579892562301 0 -0.1943898331460783 -0.4473597119794826 0 -0.1755027511393909 -0.43471579892562301 0 -0.18951413900105801 -0.42212105940109063 0 -0.17009787391258249 -0.41611158199907422 0 -0.1755027511393909 -0.43471579892562301 0 -0.18951413900105801 -0.42212105940109063 0 -0.17009787391258249 -0.41611158199907422 0 -0.18562609472684241 -0.40161550393767448 0 -0.18951413900105801 -0.42212105940109063 0 -0.18562609472684241 -0.40161550393767448 0 -0.16863204450281991 -0.39380366607865908 0 -0.18254917963999329 -0.38971973427100182 0 -0.17009787391258249 -0.41611158199907422 0 -0.18562609472684241 -0.40161550393767448 0 -0.16863204450281991 -0.39380366607865908 0 -0.18562609472684241 -0.40161550393767448 0 -0.18254917963999329 -0.38971973427100182 0 -0.19364364155811911 -0.391297223908462 0 -0.15345949684661231 -0.4053237642064671 0 -0.17009787391258249 -0.41611158199907422 0 -0.16863204450281991 -0.39380366607865908 0 -0.15345949684661231 -0.4053237642064671 0 -0.15136585988972451 -0.39002590355483568 0 -0.16863204450281991 -0.39380366607865908 0 -0.15951650330528561 -0.37856285477961621 0 -0.17625218554490921 -0.38180729220612769 0 -0.1663610822414904 -0.3702523776444529 0 -0.16863204450281991 -0.39380366607865908 0 -0.15951650330528561 -0.37856285477961621 0 -0.17625218554490921 -0.38180729220612769 0 -0.15136585988972451 -0.39002590355483568 0 -0.16863204450281991 -0.39380366607865908 0 -0.15951650330528561 -0.37856285477961621 0 -0.17625218554490921 -0.38180729220612769 0 -0.1663610822414904 -0.3702523776444529 0 -0.18579747934449059 -0.37379744869579251 0 -0.16863204450281991 -0.39380366607865908 0 -0.17625218554490921 -0.38180729220612769 0 -0.18254917963999329 -0.38971973427100182 0 -0.17625218554490921 -0.38180729220612769 0 -0.18254917963999329 -0.38971973427100182 0 -0.18859193186727599 -0.38007498522408562 0 -0.17625218554490921 -0.38180729220612769 0 -0.18859193186727599 -0.38007498522408562 0 -0.18579747934449059 -0.37379744869579251 0 -0.18859193186727599 -0.38007498522408562 0 -0.2014200033848125 -0.37119512976538899 0 -0.18859193186727599 -0.38007498522408562 0 -0.2014200033848125 -0.37119512976538899 0 -0.18579747934449059 -0.37379744869579251 0 -0.18859193186727599 -0.38007498522408562 0 -0.1989719328316337 -0.38216032023399737 0 -0.2014200033848125 -0.37119512976538899 0 -0.1989719328316337 -0.38216032023399737 0 -0.20694960464083431 -0.38128159833907621 0 -0.2014200033848125 -0.37119512976538899 0 -0.1989719328316337 -0.38216032023399737 0 -0.19364364155811911 -0.391297223908462 0 -0.20620014074293039 -0.39180645285032889 0 -0.18859193186727599 -0.38007498522408562 0 -0.1989719328316337 -0.38216032023399737 0 -0.19364364155811911 -0.391297223908462 0 -0.18254917963999329 -0.38971973427100182 0 -0.18859193186727599 -0.38007498522408562 0 -0.19364364155811911 -0.391297223908462 0 -0.18562609472684241 -0.40161550393767448 0 -0.19364364155811911 -0.391297223908462 0 -0.20208872018367391 -0.4070926974887904 0 -0.19364364155811911 -0.391297223908462 0 -0.20620014074293039 -0.39180645285032889 0 -0.20208872018367391 -0.4070926974887904 0 -0.20620014074293039 -0.39180645285032889 0 -0.21479853281951461 -0.38638530273916921 0 -0.22382842548955789 -0.4035077318131633 0 -0.20620014074293039 -0.39180645285032889 0 -0.20208872018367391 -0.4070926974887904 0 -0.22382842548955789 -0.4035077318131633 0 -0.21479853281951461 -0.38638530273916921 0 -0.20694960464083431 -0.38128159833907621 0 -0.21335741342528061 -0.3748607861064962 0 -0.21479853281951461 -0.38638530273916921 0 -0.22412886374227589 -0.38235217247817599 0 -0.21335741342528061 -0.3748607861064962 0 -0.20694960464083431 -0.38128159833907621 0 -0.2014200033848125 -0.37119512976538899 0 -0.21335741342528061 -0.3748607861064962 0 -0.20620014074293039 -0.39180645285032889 0 -0.21479853281951461 -0.38638530273916921 0 -0.20694960464083431 -0.38128159833907621 0 -0.1989719328316337 -0.38216032023399737 0 -0.20620014074293039 -0.39180645285032889 0 -0.20694960464083431 -0.38128159833907621 0 -0.1943898331460783 -0.4473597119794826 0 -0.20910912931781811 -0.42543372189632289 0 -0.1943898331460783 -0.4473597119794826 0 -0.18951413900105801 -0.42212105940109063 0 -0.20910912931781811 -0.42543372189632289 0 -0.18951413900105801 -0.42212105940109063 0 -0.20208872018367391 -0.4070926974887904 0 -0.20910912931781811 -0.42543372189632289 0 -0.18562609472684241 -0.40161550393767448 0 -0.18951413900105801 -0.42212105940109063 0 -0.20208872018367391 -0.4070926974887904 0 -0.20208872018367391 -0.4070926974887904 0 -0.20910912931781811 -0.42543372189632289 0 -0.22382842548955789 -0.4035077318131633 0 -0.20910912931781811 -0.42543372189632289 0 -0.22382842548955789 -0.4035077318131633 0 -0.21590660946663959 -0.44883644739355771 0 -0.20910912931781811 -0.42543372189632289 0 -0.23180750449586429 -0.4343742486430574 0 -0.20910912931781811 -0.42543372189632289 0 -0.23180750449586429 -0.4343742486430574 0 -0.22382842548955789 -0.4035077318131633 0 -0.23180750449586429 -0.4343742486430574 0 -0.24697084661892749 -0.41526345823838401 0 -0.22382842548955789 -0.4035077318131633 0 -0.25687425522332558 -0.44642006451091643 0 -0.23180750449586429 -0.4343742486430574 0 -0.24697084661892749 -0.41526345823838401 0 -0.22412886374227589 -0.38235217247817599 0 -0.2351820232309369 -0.38700758852266848 0 -0.22952037500089251 -0.37311519752493849 0 -0.22412886374227589 -0.38235217247817599 0 -0.22186900287429051 -0.37074082218821958 0 -0.21335741342528061 -0.3748607861064962 0 -0.22412886374227589 -0.38235217247817599 0 -0.22952037500089251 -0.37311519752493849 0 -0.22186900287429051 -0.37074082218821958 0 -0.22382842548955789 -0.4035077318131633 0 -0.24394706363899241 -0.39877073912243299 0 -0.2351820232309369 -0.38700758852266848 0 -0.21479853281951461 -0.38638530273916921 0 -0.22412886374227589 -0.38235217247817599 0 -0.22382842548955789 -0.4035077318131633 0 -0.22412886374227589 -0.38235217247817599 0 -0.22382842548955789 -0.4035077318131633 0 -0.2351820232309369 -0.38700758852266848 0 -0.24697084661892749 -0.41526345823838401 0 -0.22382842548955789 -0.4035077318131633 0 -0.24394706363899241 -0.39877073912243299 0 -0.2504897110532438 -0.38524934403489181 0 -0.24394706363899241 -0.39877073912243299 0 -0.2351820232309369 -0.38700758852266848 0 -0.2504897110532438 -0.38524934403489181 0 -0.2351820232309369 -0.38700758852266848 0 -0.24036284435674521 -0.37772398595485779 0 -0.2351820232309369 -0.38700758852266848 0 -0.24036284435674521 -0.37772398595485779 0 -0.22952037500089251 -0.37311519752493849 0 -0.2504897110532438 -0.38524934403489181 0 -0.24036284435674521 -0.37772398595485779 0 -0.24839247009954951 -0.37292447016044328 0 -0.24839247009954951 -0.37292447016044328 0 -0.24532753696728959 -0.36501789644951049 0 -0.23861636880082099 -0.36955921174380651 0 -0.24036284435674521 -0.37772398595485779 0 -0.24839247009954951 -0.37292447016044328 0 -0.23861636880082099 -0.36955921174380651 0 -0.25757508569408222 -0.36424633604315798 0 -0.24532753696728959 -0.36501789644951049 0 -0.24650166737573331 -0.3569693529562265 0 -0.24532753696728959 -0.36501789644951049 0 -0.24234943749700691 -0.36154613291017651 0 -0.24650166737573331 -0.3569693529562265 0 -0.24532753696728959 -0.36501789644951049 0 -0.24234943749700691 -0.36154613291017651 0 -0.23928568589256061 -0.36455139619594779 0 -0.24234943749700691 -0.36154613291017651 0 -0.23928568589256061 -0.36455139619594779 0 -0.23696933381926599 -0.3585493042599866 0 -0.24532753696728959 -0.36501789644951049 0 -0.23928568589256061 -0.36455139619594779 0 -0.23861636880082099 -0.36955921174380651 0 -0.23928568589256061 -0.36455139619594779 0 -0.23861636880082099 -0.36955921174380651 0 -0.23345080570298909 -0.36409891217005902 0 -0.23928568589256061 -0.36455139619594779 0 -0.23345080570298909 -0.36409891217005902 0 -0.23696933381926599 -0.3585493042599866 0 -0.24036284435674521 -0.37772398595485779 0 -0.23861636880082099 -0.36955921174380651 0 -0.22952037500089251 -0.37311519752493849 0 -0.23345080570298909 -0.36409891217005902 0 -0.22186900287429051 -0.37074082218821958 0 -0.21424807490234879 -0.36231527430669241 0 -0.22952037500089251 -0.37311519752493849 0 -0.23345080570298909 -0.36409891217005902 0 -0.22186900287429051 -0.37074082218821958 0 -0.23696933381926599 -0.3585493042599866 0 -0.21424807490234879 -0.36231527430669241 0 -0.23861636880082099 -0.36955921174380651 0 -0.22952037500089251 -0.37311519752493849 0 -0.23345080570298909 -0.36409891217005902 0 -0.23345080570298909 -0.36409891217005902 0 -0.23696933381926599 -0.3585493042599866 0 -0.21424807490234879 -0.36231527430669241 0 -0.22913587473404851 -0.35200963246311751 0 -0.2097464541822805 -0.33582260124732738 0 -0.22913587473404851 -0.35200963246311751 0 -0.23696933381926599 -0.3585493042599866 0 -0.21424807490234879 -0.36231527430669241 0 -0.22913587473404851 -0.35200963246311751 0 -0.21998707993494029 -0.33959044394559312 0 -0.22913587473404851 -0.35200963246311751 0 -0.21424807490234879 -0.36231527430669241 0 -0.22913587473404851 -0.35200963246311751 0 -0.23696933381926599 -0.3585493042599866 0 -0.22913587473404851 -0.35200963246311751 0 -0.24881121389389799 -0.33838995723746451 0 -0.22913587473404851 -0.35200963246311751 0 -0.23696933381926599 -0.3585493042599866 0 -0.24650166737573331 -0.3569693529562265 0 -0.22913587473404851 -0.35200963246311751 0 -0.24650166737573331 -0.3569693529562265 0 -0.24881121389389799 -0.33838995723746451 0 -0.23696933381926599 -0.3585493042599866 0 -0.24650166737573331 -0.3569693529562265 0 -0.24234943749700691 -0.36154613291017651 0 -0.23696933381926599 -0.3585493042599866 0 -0.24650166737573331 -0.3569693529562265 0 -0.22913587473404851 -0.35200963246311751 0 -0.24881121389389799 -0.33838995723746451 0 -0.2325545649384867 -0.33453283978227571 0 -0.24881121389389799 -0.33838995723746451 0 -0.2441082332202735 -0.32380704628422963 0 -0.2325545649384867 -0.33453283978227571 0 -0.23613058105125781 -0.31890710479075163 0 -0.2279063026952847 -0.3135077128279592 0 -0.2444966906846206 -0.31181945912301329 0 -0.2441082332202735 -0.32380704628422963 0 -0.23498207165859719 -0.32537142019391418 0 -0.23613058105125781 -0.31890710479075163 0 -0.2441082332202735 -0.32380704628422963 0 -0.23498207165859719 -0.32537142019391418 0 -0.2325545649384867 -0.33453283978227571 0 -0.2441082332202735 -0.32380704628422963 0 -0.23613058105125781 -0.31890710479075163 0 -0.2444966906846206 -0.31181945912301329 0 -0.2279063026952847 -0.3135077128279592 0 -0.2193464910840433 -0.31976030368968739 0 -0.21134622408423179 -0.310554889255794 0 -0.23613058105125781 -0.31890710479075163 0 -0.2279063026952847 -0.3135077128279592 0 -0.22829430606921119 -0.32293804105388452 0 -0.23498207165859719 -0.32537142019391418 0 -0.22829430606921119 -0.32293804105388452 0 -0.2325545649384867 -0.33453283978227571 0 -0.23498207165859719 -0.32537142019391418 0 -0.23613058105125781 -0.31890710479075163 0 -0.22829430606921119 -0.32293804105388452 0 -0.22829430606921119 -0.32293804105388452 0 -0.2193464910840433 -0.31976030368968739 0 -0.22209033975117781 -0.32887735541776358 0 -0.2279063026952847 -0.3135077128279592 0 -0.22829430606921119 -0.32293804105388452 0 -0.2193464910840433 -0.31976030368968739 0 -0.22913587473404851 -0.35200963246311751 0 -0.2325545649384867 -0.33453283978227571 0 -0.21998707993494029 -0.33959044394559312 0 -0.22913587473404851 -0.35200963246311751 0 -0.21998707993494029 -0.33959044394559312 0 -0.2097464541822805 -0.33582260124732738 0 -0.22829430606921119 -0.32293804105388452 0 -0.2325545649384867 -0.33453283978227571 0 -0.22209033975117781 -0.32887735541776358 0 -0.2325545649384867 -0.33453283978227571 0 -0.22209033975117781 -0.32887735541776358 0 -0.21998707993494029 -0.33959044394559312 0 -0.21998707993494029 -0.33959044394559312 0 -0.21026925672920721 -0.32756514861737779 0 -0.22209033975117781 -0.32887735541776358 0 -0.21998707993494029 -0.33959044394559312 0 -0.21026925672920721 -0.32756514861737779 0 -0.21998707993494029 -0.33959044394559312 0 -0.2097464541822805 -0.33582260124732738 0 -0.21026925672920721 -0.32756514861737779 0 -0.2097464541822805 -0.33582260124732738 0 -0.21026925672920721 -0.32756514861737779 0 -0.21026925672920721 -0.32756514861737779 0 -0.21134622408423179 -0.310554889255794 0 -0.19267178705524021 -0.30578920503631912 0 -0.21026925672920721 -0.32756514861737779 0 -0.21134622408423179 -0.310554889255794 0 -0.2097464541822805 -0.33582260124732738 0 -0.21026925672920721 -0.32756514861737779 0 -0.19254159852174429 -0.31996122112867409 0 -0.2193464910840433 -0.31976030368968739 0 -0.21026925672920721 -0.32756514861737779 0 -0.21134622408423179 -0.310554889255794 0 -0.2193464910840433 -0.31976030368968739 0 -0.22209033975117781 -0.32887735541776358 0 -0.21026925672920721 -0.32756514861737779 0 -0.2097464541822805 -0.33582260124732738 0 -0.1943588054861482 -0.32297640251143073 0 -0.19254159852174429 -0.31996122112867409 0 -0.21026925672920721 -0.32756514861737779 0 -0.19267178705524021 -0.30578920503631912 0 -0.21026925672920721 -0.32756514861737779 0 -0.19254159852174429 -0.31996122112867409 0 -0.19267178705524021 -0.30578920503631912 0 -0.2097464541822805 -0.33582260124732738 0 -0.19254159852174429 -0.31996122112867409 0 -0.1943588054861482 -0.32297640251143073 0 -0.18737083868624629 -0.33075534874643497 0 -0.18479650728396149 -0.32227615663527998 0 -0.1943588054861482 -0.32297640251143073 0 -0.19254159852174429 -0.31996122112867409 0 -0.1789711567900161 -0.3101302037755338 0 -0.2097464541822805 -0.33582260124732738 0 -0.19466829689393059 -0.33824472710720138 0 -0.19565175395430129 -0.3512554891803924 0 -0.2097464541822805 -0.33582260124732738 0 -0.1943588054861482 -0.32297640251143073 0 -0.19466829689393059 -0.33824472710720138 0 -0.2097464541822805 -0.33582260124732738 0 -0.1943588054861482 -0.32297640251143073 0 -0.1943588054861482 -0.32297640251143073 0 -0.19466829689393059 -0.33824472710720138 0 -0.18737083868624629 -0.33075534874643497 0 -0.19466829689393059 -0.33824472710720138 0 -0.18164424501215659 -0.34621916084723381 0 -0.18737083868624629 -0.33075534874643497 0 -0.19466829689393059 -0.33824472710720138 0 -0.19565175395430129 -0.3512554891803924 0 -0.18164424501215659 -0.34621916084723381 0 -0.20800359978069241 -0.36335027445133922 0 -0.18480326185087809 -0.36719565018674682 0 -0.19565175395430129 -0.3512554891803924 0 -0.20800359978069241 -0.36335027445133922 0 -0.18480326185087809 -0.36719565018674682 0 -0.2014200033848125 -0.37119512976538899 0 -0.18480326185087809 -0.36719565018674682 0 -0.18579747934449059 -0.37379744869579251 0 -0.2014200033848125 -0.37119512976538899 0 -0.20800359978069241 -0.36335027445133922 0 -0.18480326185087809 -0.36719565018674682 0 -0.2014200033848125 -0.37119512976538899 0 -0.20800359978069241 -0.36335027445133922 0 -0.20803809997708481 -0.36661394692190907 0 -0.20800359978069241 -0.36335027445133922 0 -0.20803809997708481 -0.36661394692190907 0 -0.21424807490234879 -0.36231527430669241 0 -0.20800359978069241 -0.36335027445133922 0 -0.20803809997708481 -0.36661394692190907 0 -0.2014200033848125 -0.37119512976538899 0 -0.20803809997708481 -0.36661394692190907 0 -0.21335741342528061 -0.3748607861064962 0 -0.2014200033848125 -0.37119512976538899 0 -0.20803809997708481 -0.36661394692190907 0 -0.20803809997708481 -0.36661394692190907 0 -0.21335741342528061 -0.3748607861064962 0 -0.21424807490234879 -0.36231527430669241 0 -0.22186900287429051 -0.37074082218821958 0 -0.21335741342528061 -0.3748607861064962 0 -0.21424807490234879 -0.36231527430669241 0 -0.20800359978069241 -0.36335027445133922 0 -0.21424807490234879 -0.36231527430669241 0 -0.20803809997708481 -0.36661394692190907 0 -0.21424807490234879 -0.36231527430669241 0 -0.2097464541822805 -0.33582260124732738 0 -0.19565175395430129 -0.3512554891803924 0 -0.20800359978069241 -0.36335027445133922 0 -0.2097464541822805 -0.33582260124732738 0 -0.20800359978069241 -0.36335027445133922 0 -0.2097464541822805 -0.33582260124732738 0 -0.20800359978069241 -0.36335027445133922 0 -0.21424807490234879 -0.36231527430669241 0 -0.22913587473404851 -0.35200963246311751 0 -0.2097464541822805 -0.33582260124732738 0 -0.21424807490234879 -0.36231527430669241 0 -0.2335542019388327 -0.26090262277066528 0 -0.21472073189145299 -0.25725591714607071 0 -0.22837296648480071 -0.23789375384220129 0 -0.2335542019388327 -0.26090262277066528 0 -0.21357196166535461 -0.27540027352014051 0 -0.21472073189145299 -0.25725591714607071 0 -0.25298377122075039 -0.27518622721876451 0 -0.2335542019388327 -0.26090262277066528 0 -0.25431856302814809 -0.24833495949118861 0 -0.25298377122075039 -0.27518622721876451 0 -0.2335542019388327 -0.26090262277066528 0 -0.23093648268818689 -0.28342115129973 0 -0.2335542019388327 -0.26090262277066528 0 -0.23093648268818689 -0.28342115129973 0 -0.21357196166535461 -0.27540027352014051 0 -0.23093648268818689 -0.28342115129973 0 -0.21242319143925911 -0.29354462989421048 0 -0.21357196166535461 -0.27540027352014051 0 -0.23093648268818689 -0.28342115129973 0 -0.2435111179254994 -0.29490773243705071 0 -0.2284599410619414 -0.30268204450860919 0 -0.23093648268818689 -0.28342115129973 0 -0.2284599410619414 -0.30268204450860919 0 -0.21242319143925911 -0.29354462989421048 0 -0.25298377122075039 -0.27518622721876451 0 -0.23093648268818689 -0.28342115129973 0 -0.2435111179254994 -0.29490773243705071 0 -0.2444966906846206 -0.31181945912301329 0 -0.2284599410619414 -0.30268204450860919 0 -0.2435111179254994 -0.29490773243705071 0 -0.2444966906846206 -0.31181945912301329 0 -0.2284599410619414 -0.30268204450860919 0 -0.26057201890547982 -0.29344093798311832 0 -0.2435111179254994 -0.29490773243705071 0 -0.2444966906846206 -0.31181945912301329 0 -0.2279063026952847 -0.3135077128279592 0 -0.2444966906846206 -0.31181945912301329 0 -0.2284599410619414 -0.30268204450860919 0 -0.2284599410619414 -0.30268204450860919 0 -0.21242319143925911 -0.29354462989421048 0 -0.2279063026952847 -0.3135077128279592 0 -0.2284599410619414 -0.30268204450860919 0 -0.21134622408423179 -0.310554889255794 0 -0.2284599410619414 -0.30268204450860919 0 -0.21134622408423179 -0.310554889255794 0 -0.21242319143925911 -0.29354462989421048 0 -0.21134622408423179 -0.310554889255794 0 -0.19267178705524021 -0.30578920503631912 0 -0.21242319143925911 -0.29354462989421048 0 -0.21134622408423179 -0.310554889255794 0 -0.21242319143925911 -0.29354462989421048 0 -0.19267178705524021 -0.30578920503631912 0 -0.19410774352861071 -0.2831088592208712 0 -0.21242319143925911 -0.29354462989421048 0 -0.19410774352861071 -0.2831088592208712 0 -0.21242319143925911 -0.29354462989421048 0 -0.21357196166535461 -0.27540027352014051 0 -0.19410774352861071 -0.2831088592208712 0 -0.21242319143925911 -0.29354462989421048 0 -0.21242319143925911 -0.29354462989421048 0 -0.21357196166535461 -0.27540027352014051 0 -0.21357196166535461 -0.27540027352014051 0 -0.21472073189145299 -0.25725591714607071 0 -0.19410774352861071 -0.2831088592208712 0 -0.21357196166535461 -0.27540027352014051 0 -0.1965391795889786 -0.26204425282134669 0 -0.19410774352861071 -0.2831088592208712 0 -0.1965391795889786 -0.26204425282134669 0 -0.17579229561796161 -0.27267308854753308 0 -0.1965391795889786 -0.26204425282134669 0 -0.20565562739327201 -0.24334207984173631 0 -0.18863044441395099 -0.24733650333174401 0 -0.1965391795889786 -0.26204425282134669 0 -0.18340152769721799 -0.25642831405215172 0 -0.18863044441395099 -0.24733650333174401 0 -0.1965391795889786 -0.26204425282134669 0 -0.21472073189145299 -0.25725591714607071 0 -0.20565562739327201 -0.24334207984173631 0 -0.21357196166535461 -0.27540027352014051 0 -0.1965391795889786 -0.26204425282134669 0 -0.21472073189145299 -0.25725591714607071 0 -0.15747684770731041 -0.26223731787419863 0 -0.16344648285301799 -0.25937253054906129 0 -0.17579229561796161 -0.27267308854753308 0 -0.1593809120407062 -0.25278805690175971 0 -0.16344648285301799 -0.25937253054906129 0 -0.1534429259631987 -0.25724555178864622 0 -0.1593809120407062 -0.25278805690175971 0 -0.16344648285301799 -0.25937253054906129 0 -0.16709258238786229 -0.25188408856254202 0 -0.1593809120407062 -0.25278805690175971 0 -0.16709258238786229 -0.25188408856254202 0 -0.1601832428566283 -0.24550858739866141 0 -0.15747684770731041 -0.26223731787419863 0 -0.16344648285301799 -0.25937253054906129 0 -0.1534429259631987 -0.25724555178864622 0 -0.16344648285301799 -0.25937253054906129 0 -0.1534429259631987 -0.25724555178864622 0 -0.16344648285301799 -0.25937253054906129 0 -0.17379217291466831 -0.25992581321180469 0 -0.17579229561796161 -0.27267308854753308 0 -0.16344648285301799 -0.25937253054906129 0 -0.16709258238786229 -0.25188408856254202 0 -0.17379217291466831 -0.25992581321180469 0 -0.16709258238786229 -0.25188408856254202 0 -0.17679077873490559 -0.25046109420941731 0 -0.17379217291466831 -0.25992581321180469 0 -0.1965391795889786 -0.26204425282134669 0 -0.18340152769721799 -0.25642831405215172 0 -0.17579229561796161 -0.27267308854753308 0 -0.17679077873490559 -0.25046109420941731 0 -0.18340152769721799 -0.25642831405215172 0 -0.17379217291466831 -0.25992581321180469 0 -0.18340152769721799 -0.25642831405215172 0 -0.17379217291466831 -0.25992581321180469 0 -0.17579229561796161 -0.27267308854753308 0 -0.17679077873490559 -0.25046109420941731 0 -0.18340152769721799 -0.25642831405215172 0 -0.18863044441395099 -0.24733650333174401 0 -0.19410774352861071 -0.2831088592208712 0 -0.17579229561796161 -0.27267308854753308 0 -0.17507431738127369 -0.28401326145526029 0 -0.19410774352861071 -0.2831088592208712 0 -0.17579229561796161 -0.27267308854753308 0 -0.15747684770731041 -0.26223731787419863 0 -0.17507431738127369 -0.28401326145526029 0 -0.15747684770731041 -0.26223731787419863 0 -0.17579229561796161 -0.27267308854753308 0 -0.15747684770731041 -0.26223731787419863 0 -0.17579229561796161 -0.27267308854753308 0 -0.17507431738127369 -0.28401326145526029 0 -0.15747684770731041 -0.26223731787419863 0 -0.1596399504195592 -0.27820623095404468 0 -0.17507431738127369 -0.28401326145526029 0 -0.1596399504195592 -0.27820623095404468 0 -0.1624028041075358 -0.29248408411088062 0 -0.1494793968803598 -0.28070198605355251 0 -0.1624028041075358 -0.29248408411088062 0 -0.15973767967650701 -0.30493196891575292 0 -0.15108397830665751 -0.29236825921418419 0 -0.1624028041075358 -0.29248408411088062 0 -0.17507431738127369 -0.28401326145526029 0 -0.17391538329452061 -0.29489800819007239 0 -0.1596399504195592 -0.27820623095404468 0 -0.1624028041075358 -0.29248408411088062 0 -0.17507431738127369 -0.28401326145526029 0 -0.19267178705524021 -0.30578920503631912 0 -0.19410774352861071 -0.2831088592208712 0 -0.17507431738127369 -0.28401326145526029 0 -0.19267178705524021 -0.30578920503631912 0 -0.17507431738127369 -0.28401326145526029 0 -0.17391538329452061 -0.29489800819007239 0 -0.19267178705524021 -0.30578920503631912 0 -0.17507431738127369 -0.28401326145526029 0 -0.17391538329452061 -0.29489800819007239 0 -0.17532621133471249 -0.30426618216820789 0 -0.19254159852174429 -0.31996122112867409 0 -0.19267178705524021 -0.30578920503631912 0 -0.17532621133471249 -0.30426618216820789 0 -0.19267178705524021 -0.30578920503631912 0 -0.17391538329452061 -0.29489800819007239 0 -0.17532621133471249 -0.30426618216820789 0 -0.19254159852174429 -0.31996122112867409 0 -0.17532621133471249 -0.30426618216820789 0 -0.1789711567900161 -0.3101302037755338 0 -0.19254159852174429 -0.31996122112867409 0 -0.17532621133471249 -0.30426618216820789 0 -0.17532621133471249 -0.30426618216820789 0 -0.15973767967650701 -0.30493196891575292 0 -0.16582550601247259 -0.31644195918285489 0 -0.1624028041075358 -0.29248408411088062 0 -0.17532621133471249 -0.30426618216820789 0 -0.15973767967650701 -0.30493196891575292 0 -0.1624028041075358 -0.29248408411088062 0 -0.17532621133471249 -0.30426618216820789 0 -0.1624028041075358 -0.29248408411088062 0 -0.17391538329452061 -0.29489800819007239 0 -0.17532621133471249 -0.30426618216820789 0 -0.144593184228827 -0.30237793828586917 0 -0.15261731536399281 -0.31699983390472031 0 -0.1327552185807534 -0.31482398186879779 0 -0.15973767967650701 -0.30493196891575292 0 -0.144593184228827 -0.30237793828586917 0 -0.15261731536399281 -0.31699983390472031 0 -0.15973767967650701 -0.30493196891575292 0 -0.144593184228827 -0.30237793828586917 0 -0.15108397830665751 -0.29236825921418419 0 -0.144593184228827 -0.30237793828586917 0 -0.1304175251842298 -0.30012492429455973 0 -0.1327552185807534 -0.31482398186879779 0 -0.1304175251842298 -0.30012492429455973 0 -0.1327552185807534 -0.31482398186879779 0 -0.11567190875339491 -0.3081878681979589 0 -0.1304175251842298 -0.30012492429455973 0 -0.13697378053928061 -0.28594316463020741 0 -0.11725087491461519 -0.29108504565108578 0 -0.144593184228827 -0.30237793828586917 0 -0.1304175251842298 -0.30012492429455973 0 -0.13697378053928061 -0.28594316463020741 0 -0.13697378053928061 -0.28594316463020741 0 -0.15108397830665751 -0.29236825921418419 0 -0.1494793968803598 -0.28070198605355251 0 -0.144593184228827 -0.30237793828586917 0 -0.13697378053928061 -0.28594316463020741 0 -0.15108397830665751 -0.29236825921418419 0 -0.1624028041075358 -0.29248408411088062 0 -0.15108397830665751 -0.29236825921418419 0 -0.1494793968803598 -0.28070198605355251 0 -0.1624028041075358 -0.29248408411088062 0 -0.1494793968803598 -0.28070198605355251 0 -0.15747684770731041 -0.26223731787419863 0 -0.1596399504195592 -0.27820623095404468 0 -0.1503927610565664 -0.27179087804580171 0 -0.1596399504195592 -0.27820623095404468 0 -0.1494793968803598 -0.28070198605355251 0 -0.1503927610565664 -0.27179087804580171 0 -0.15747684770731041 -0.26223731787419863 0 -0.1503927610565664 -0.27179087804580171 0 -0.1469785187108 -0.2635474229235048 0 -0.1503927610565664 -0.27179087804580171 0 -0.13966748117377659 -0.26847157538705668 0 -0.1469785187108 -0.2635474229235048 0 -0.1503927610565664 -0.27179087804580171 0 -0.14153524490660671 -0.2763029116229278 0 -0.13966748117377659 -0.26847157538705668 0 -0.1494793968803598 -0.28070198605355251 0 -0.1503927610565664 -0.27179087804580171 0 -0.14153524490660671 -0.2763029116229278 0 -0.13697378053928061 -0.28594316463020741 0 -0.1494793968803598 -0.28070198605355251 0 -0.14153524490660671 -0.2763029116229278 0 -0.13697378053928061 -0.28594316463020741 0 -0.14153524490660671 -0.2763029116229278 0 -0.13219795163187159 -0.27110871778552531 0 -0.13697378053928061 -0.28594316463020741 0 -0.1173011125765811 -0.2721428964285707 0 -0.13697378053928061 -0.28594316463020741 0 -0.13219795163187159 -0.27110871778552531 0 -0.1173011125765811 -0.2721428964285707 0 -0.13219795163187159 -0.27110871778552531 0 -0.1333337708168415 -0.26377523499205202 0 -0.12600056203783161 -0.26301541000095829 0 -0.13219795163187159 -0.27110871778552531 0 -0.12600056203783161 -0.26301541000095829 0 -0.1173011125765811 -0.2721428964285707 0 -0.13219795163187159 -0.27110871778552531 0 -0.13966748117377659 -0.26847157538705668 0 -0.1333337708168415 -0.26377523499205202 0 -0.14153524490660671 -0.2763029116229278 0 -0.13219795163187159 -0.27110871778552531 0 -0.13966748117377659 -0.26847157538705668 0 -0.13966748117377659 -0.26847157538705668 0 -0.13807993829988649 -0.25979154560904222 0 -0.1333337708168415 -0.26377523499205202 0 -0.13807993829988649 -0.25979154560904222 0 -0.1333337708168415 -0.26377523499205202 0 -0.13072292094084129 -0.25648892617767749 0 -0.12600056203783161 -0.26301541000095829 0 -0.13072292094084129 -0.25648892617767749 0 -0.1187556211832122 -0.25814451816493872 0 -0.1333337708168415 -0.26377523499205202 0 -0.12600056203783161 -0.26301541000095829 0 -0.13072292094084129 -0.25648892617767749 0 -0.13072292094084129 -0.25648892617767749 0 -0.13218950310710981 -0.25272660122947088 0 -0.1187556211832122 -0.25814451816493872 0 -0.13072292094084129 -0.25648892617767749 0 -0.13218950310710981 -0.25272660122947088 0 -0.13218950310710981 -0.25272660122947088 0 -0.1459019403517107 -0.25564217047089421 0 -0.13375162957080131 -0.24871916986845621 0 -0.13218950310710981 -0.25272660122947088 0 -0.1459019403517107 -0.25564217047089421 0 -0.13218950310710981 -0.25272660122947088 0 -0.13375162957080131 -0.24871916986845621 0 -0.1459019403517107 -0.25564217047089421 0 -0.13375162957080131 -0.24871916986845621 0 -0.13807993829988649 -0.25979154560904222 0 -0.13218950310710981 -0.25272660122947088 0 -0.1459019403517107 -0.25564217047089421 0 -0.13807993829988649 -0.25979154560904222 0 -0.13072292094084129 -0.25648892617767749 0 -0.13218950310710981 -0.25272660122947088 0 -0.1459019403517107 -0.25564217047089421 0 -0.1534429259631987 -0.25724555178864622 0 -0.1378886282313006 -0.2381062402767252 0 -0.13966748117377659 -0.26847157538705668 0 -0.13807993829988649 -0.25979154560904222 0 -0.1469785187108 -0.2635474229235048 0 -0.13807993829988649 -0.25979154560904222 0 -0.1459019403517107 -0.25564217047089421 0 -0.1469785187108 -0.2635474229235048 0 -0.15747684770731041 -0.26223731787419863 0 -0.1459019403517107 -0.25564217047089421 0 -0.1534429259631987 -0.25724555178864622 0 -0.15747684770731041 -0.26223731787419863 0 -0.1459019403517107 -0.25564217047089421 0 -0.1469785187108 -0.2635474229235048 0 -0.15747684770731041 -0.26223731787419863 0 -0.1459019403517107 -0.25564217047089421 0 -0.15747684770731041 -0.26223731787419863 0 -0.1534429259631987 -0.25724555178864622 0 -0.1593809120407062 -0.25278805690175971 0 -0.1534429259631987 -0.25724555178864622 0 -0.15289321433053751 -0.246830478479277 0 -0.1459019403517107 -0.25564217047089421 0 -0.1534429259631987 -0.25724555178864622 0 -0.17143624801538501 -0.35840063883308271 0 -0.1580141783998408 -0.34710035810185619 0 -0.15489216358121211 -0.36256913283011211 0 -0.17143624801538501 -0.35840063883308271 0 -0.1580141783998408 -0.34710035810185619 0 -0.18164424501215659 -0.34621916084723381 0 -0.17143624801538501 -0.35840063883308271 0 -0.1663610822414904 -0.3702523776444529 0 -0.15489216358121211 -0.36256913283011211 0 -0.15951650330528561 -0.37856285477961621 0 -0.1663610822414904 -0.3702523776444529 0 -0.15489216358121211 -0.36256913283011211 0 -0.17143624801538501 -0.35840063883308271 0 -0.1663610822414904 -0.3702523776444529 0 -0.18480326185087809 -0.36719565018674682 0 -0.1663610822414904 -0.3702523776444529 0 -0.18480326185087809 -0.36719565018674682 0 -0.1663610822414904 -0.3702523776444529 0 -0.18480326185087809 -0.36719565018674682 0 -0.18579747934449059 -0.37379744869579251 0 -0.18480326185087809 -0.36719565018674682 0 -0.18579747934449059 -0.37379744869579251 0 -0.18480326185087809 -0.36719565018674682 0 -0.18164424501215659 -0.34621916084723381 0 -0.19565175395430129 -0.3512554891803924 0 -0.18480326185087809 -0.36719565018674682 0 -0.18164424501215659 -0.34621916084723381 0 -0.17143624801538501 -0.35840063883308271 0 -0.18480326185087809 -0.36719565018674682 0 -0.18164424501215659 -0.34621916084723381 0 -0.18164424501215659 -0.34621916084723381 0 -0.17848522817343529 -0.32524267150772068 0 -0.1629610955137164 -0.33076913941787212 0 -0.18164424501215659 -0.34621916084723381 0 -0.17848522817343529 -0.32524267150772068 0 -0.18164424501215659 -0.34621916084723381 0 -0.18737083868624629 -0.33075534874643497 0 -0.17848522817343529 -0.32524267150772068 0 -0.17532621133471249 -0.30426618216820789 0 -0.17848522817343529 -0.32524267150772068 0 -0.17532621133471249 -0.30426618216820789 0 -0.1789711567900161 -0.3101302037755338 0 -0.17848522817343529 -0.32524267150772068 0 -0.17532621133471249 -0.30426618216820789 0 -0.17848522817343529 -0.32524267150772068 0 -0.16582550601247259 -0.31644195918285489 0 -0.1943588054861482 -0.32297640251143073 0 -0.1789711567900161 -0.3101302037755338 0 -0.18479650728396149 -0.32227615663527998 0 -0.1789711567900161 -0.3101302037755338 0 -0.18479650728396149 -0.32227615663527998 0 -0.17848522817343529 -0.32524267150772068 0 -0.1943588054861482 -0.32297640251143073 0 -0.1789711567900161 -0.3101302037755338 0 -0.18737083868624629 -0.33075534874643497 0 -0.18479650728396149 -0.32227615663527998 0 -0.17848522817343529 -0.32524267150772068 0 -0.17848522817343529 -0.32524267150772068 0 -0.16582550601247259 -0.31644195918285489 0 -0.1629610955137164 -0.33076913941787212 0 -0.16582550601247259 -0.31644195918285489 0 -0.1629610955137164 -0.33076913941787212 0 -0.15261731536399281 -0.31699983390472031 0 -0.15973767967650701 -0.30493196891575292 0 -0.16582550601247259 -0.31644195918285489 0 -0.15261731536399281 -0.31699983390472031 0 -0.1580141783998408 -0.34710035810185619 0 -0.18164424501215659 -0.34621916084723381 0 -0.1629610955137164 -0.33076913941787212 0 -0.1580141783998408 -0.34710035810185619 0 -0.1629610955137164 -0.33076913941787212 0 -0.14559484309128301 -0.3331209990743299 0 -0.14559484309128301 -0.3331209990743299 0 -0.15261731536399281 -0.31699983390472031 0 -0.1327552185807534 -0.31482398186879779 0 -0.1629610955137164 -0.33076913941787212 0 -0.14559484309128301 -0.3331209990743299 0 -0.15261731536399281 -0.31699983390472031 0 -0.14559484309128301 -0.3331209990743299 0 -0.1327552185807534 -0.31482398186879779 0 -0.12678352480283511 -0.3369129194106073 0 -0.14559484309128301 -0.3331209990743299 0 -0.12678352480283511 -0.3369129194106073 0 -0.14043772588655989 -0.35211976174212622 0 -0.12678352480283511 -0.3369129194106073 0 -0.14043772588655989 -0.35211976174212622 0 -0.1203130985899742 -0.35955571918490481 0 -0.1580141783998408 -0.34710035810185619 0 -0.14043772588655989 -0.35211976174212622 0 -0.15489216358121211 -0.36256913283011211 0 -0.1580141783998408 -0.34710035810185619 0 -0.14559484309128301 -0.3331209990743299 0 -0.14043772588655989 -0.35211976174212622 0 -0.14043772588655989 -0.35211976174212622 0 -0.15489216358121211 -0.36256913283011211 0 -0.13959568407155781 -0.37291875636350952 0 -0.15951650330528561 -0.37856285477961621 0 -0.15489216358121211 -0.36256913283011211 0 -0.13959568407155781 -0.37291875636350952 0 -0.12625141541498519 -0.38197991289387551 0 -0.13959568407155781 -0.37291875636350952 0 -0.1203130985899742 -0.35955571918490481 0 -0.14043772588655989 -0.35211976174212622 0 -0.13959568407155781 -0.37291875636350952 0 -0.1203130985899742 -0.35955571918490481 0 -0.1203130985899742 -0.35955571918490481 0 -0.11384267237711319 -0.38219851895920232 0 -0.1203130985899742 -0.35955571918490481 0 -0.10849363524981311 -0.36442991456039969 0 -0.11384267237711319 -0.38219851895920232 0 -0.12625141541498519 -0.38197991289387551 0 -0.1203130985899742 -0.35955571918490481 0 -0.11384267237711319 -0.38219851895920232 0 -0.10849363524981311 -0.36442991456039969 0 -0.096157591159299352 -0.35547454281719221 0 -0.10176491866177829 -0.38015793077534599 0 -0.096157591159299352 -0.35547454281719221 0 -0.10176491866177829 -0.38015793077534599 0 -0.096157591159299352 -0.35547454281719221 0 -0.10176491866177829 -0.38015793077534599 0 -0.085276019388031976 -0.37619188405436782 0 -0.096157591159299352 -0.35547454281719221 0 -0.10964553082547281 -0.34513317088572909 0 -0.090550263656820479 -0.33079115485903843 0 -0.10849363524981311 -0.36442991456039969 0 -0.096157591159299352 -0.35547454281719221 0 -0.10964553082547281 -0.34513317088572909 0 -0.1203130985899742 -0.35955571918490481 0 -0.10849363524981311 -0.36442991456039969 0 -0.10964553082547281 -0.34513317088572909 0 -0.12678352480283511 -0.3369129194106073 0 -0.1203130985899742 -0.35955571918490481 0 -0.10964553082547281 -0.34513317088572909 0 -0.12678352480283511 -0.3369129194106073 0 -0.1203130985899742 -0.35955571918490481 0 -0.12678352480283511 -0.3369129194106073 0 -0.10964553082547281 -0.34513317088572909 0 -0.1112875311940303 -0.32576775904759792 0 -0.1327552185807534 -0.31482398186879779 0 -0.12678352480283511 -0.3369129194106073 0 -0.1112875311940303 -0.32576775904759792 0 -0.1327552185807534 -0.31482398186879779 0 -0.1112875311940303 -0.32576775904759792 0 -0.11567190875339491 -0.3081878681979589 0 -0.1112875311940303 -0.32576775904759792 0 -0.1011365257202933 -0.31403431577096802 0 -0.11567190875339491 -0.3081878681979589 0 -0.1112875311940303 -0.32576775904759792 0 -0.1011365257202933 -0.31403431577096802 0 -0.090550263656820479 -0.33079115485903843 0 -0.10964553082547281 -0.34513317088572909 0 -0.1112875311940303 -0.32576775904759792 0 -0.090550263656820479 -0.33079115485903843 0 -0.096157591159299352 -0.35547454281719221 0 -0.090550263656820479 -0.33079115485903843 0 -0.096157591159299352 -0.35547454281719221 0 -0.090550263656820479 -0.33079115485903843 0 -0.073144777225565616 -0.33606175945158517 0 -0.090550263656820479 -0.33079115485903843 0 -0.084942936154341619 -0.30610776690088481 0 -0.090550263656820479 -0.33079115485903843 0 -0.073144777225565616 -0.33606175945158517 0 -0.084942936154341619 -0.30610776690088481 0 -0.1011365257202933 -0.31403431577096802 0 -0.090550263656820479 -0.33079115485903843 0 -0.084942936154341619 -0.30610776690088481 0 -0.073144777225565616 -0.33606175945158517 0 -0.084942936154341619 -0.30610776690088481 0 -0.060613113796085999 -0.32288269869712272 0 -0.073144777225565616 -0.33606175945158517 0 -0.076755031766953086 -0.35884624094615858 0 -0.063306301319701316 -0.35299520754669739 0 -0.076755031766953086 -0.35884624094615858 0 -0.063306301319701316 -0.35299520754669739 0 -0.065890469742167113 -0.37350781086095058 0 -0.076755031766953086 -0.35884624094615858 0 -0.065890469742167113 -0.37350781086095058 0 -0.085276019388031976 -0.37619188405436782 0 -0.096157591159299352 -0.35547454281719221 0 -0.076755031766953086 -0.35884624094615858 0 -0.085276019388031976 -0.37619188405436782 0 -0.096157591159299352 -0.35547454281719221 0 -0.073144777225565616 -0.33606175945158517 0 -0.076755031766953086 -0.35884624094615858 0 -0.097628444613881649 -0.25834262822693399 0 -0.1173011125765811 -0.2721428964285707 0 -0.097628444613881649 -0.25834262822693399 0 -0.1187556211832122 -0.25814451816493872 0 -0.1098930818979398 -0.24798588601512411 0 -0.13218950310710981 -0.25272660122947088 0 -0.1187556211832122 -0.25814451816493872 0 -0.1098930818979398 -0.24798588601512411 0 -0.097628444613881649 -0.25834262822693399 0 -0.1187556211832122 -0.25814451816493872 0 -0.1173011125765811 -0.2721428964285707 0 -0.13218950310710981 -0.25272660122947088 0 -0.1098930818979398 -0.24798588601512411 0 -0.12600056203783161 -0.26301541000095829 0 -0.1187556211832122 -0.25814451816493872 0 -0.1173011125765811 -0.2721428964285707 0 -0.097628444613881649 -0.25834262822693399 0 -0.1173011125765811 -0.2721428964285707 0 -0.090762408808148426 -0.27102181932101072 0 -0.1173011125765811 -0.2721428964285707 0 -0.096655829275762523 -0.28444542957314378 0 -0.090762408808148426 -0.27102181932101072 0 -0.096655829275762523 -0.28444542957314378 0 -0.10322998884287909 -0.29931702984935987 0 -0.084942936154341619 -0.30610776690088481 0 -0.096655829275762523 -0.28444542957314378 0 -0.11725087491461519 -0.29108504565108578 0 -0.10322998884287909 -0.29931702984935987 0 -0.13697378053928061 -0.28594316463020741 0 -0.1173011125765811 -0.2721428964285707 0 -0.11725087491461519 -0.29108504565108578 0 -0.1173011125765811 -0.2721428964285707 0 -0.096655829275762523 -0.28444542957314378 0 -0.11725087491461519 -0.29108504565108578 0 -0.11725087491461519 -0.29108504565108578 0 -0.11567190875339491 -0.3081878681979589 0 -0.10322998884287909 -0.29931702984935987 0 -0.1304175251842298 -0.30012492429455973 0 -0.11725087491461519 -0.29108504565108578 0 -0.11567190875339491 -0.3081878681979589 0 -0.1011365257202933 -0.31403431577096802 0 -0.10322998884287909 -0.29931702984935987 0 -0.084942936154341619 -0.30610776690088481 0 -0.1011365257202933 -0.31403431577096802 0 -0.11567190875339491 -0.3081878681979589 0 -0.10322998884287909 -0.29931702984935987 0 -0.084942936154341619 -0.30610776690088481 0 -0.066237696895848033 -0.30175990202967712 0 -0.078368201618682937 -0.28822753231137022 0 -0.084942936154341619 -0.30610776690088481 0 -0.066237696895848033 -0.30175990202967712 0 -0.060613113796085999 -0.32288269869712272 0 -0.066237696895848033 -0.30175990202967712 0 -0.078368201618682937 -0.28822753231137022 0 -0.057136779716869042 -0.28712205926022771 0 -0.078368201618682937 -0.28822753231137022 0 -0.072744725061100565 -0.27289296274949931 0 -0.057136779716869042 -0.28712205926022771 0 -0.096655829275762523 -0.28444542957314378 0 -0.084942936154341619 -0.30610776690088481 0 -0.078368201618682937 -0.28822753231137022 0 -0.096655829275762523 -0.28444542957314378 0 -0.078368201618682937 -0.28822753231137022 0 -0.090762408808148426 -0.27102181932101072 0 -0.078368201618682937 -0.28822753231137022 0 -0.090762408808148426 -0.27102181932101072 0 -0.072744725061100565 -0.27289296274949931 0 -0.090762408808148426 -0.27102181932101072 0 -0.072744725061100565 -0.27289296274949931 0 -0.081281336266817772 -0.26097832242812891 0 -0.072744725061100565 -0.27289296274949931 0 -0.067161912638977472 -0.25903173736147111 0 -0.055745381016590281 -0.2682223094504298 0 -0.072744725061100565 -0.27289296274949931 0 -0.067161912638977472 -0.25903173736147111 0 -0.081281336266817772 -0.26097832242812891 0 -0.067161912638977472 -0.25903173736147111 0 -0.081281336266817772 -0.26097832242812891 0 -0.077955776651182085 -0.24454236002529731 0 -0.067161912638977472 -0.25903173736147111 0 -0.056939497423126581 -0.24878681181634871 0 -0.077955776651182085 -0.24454236002529731 0 -0.097628444613881649 -0.25834262822693399 0 -0.081281336266817772 -0.26097832242812891 0 -0.077955776651182085 -0.24454236002529731 0 -0.097628444613881649 -0.25834262822693399 0 -0.090762408808148426 -0.27102181932101072 0 -0.081281336266817772 -0.26097832242812891 0 -0.097628444613881649 -0.25834262822693399 0 -0.077955776651182085 -0.24454236002529731 0 -0.025857267464119819 -0.25506418495113531 0 -0.050191684441297867 -0.2485850187836515 0 -0.034199021844566052 -0.25740496373097072 0 -0.056939497423126581 -0.24878681181634871 0 -0.034199021844566052 -0.25740496373097072 0 -0.041398382443623198 -0.25192549838374201 0 -0.056939497423126581 -0.24878681181634871 0 -0.041398382443623198 -0.25192549838374201 0 -0.025857267464119819 -0.25506418495113531 0 -0.050191684441297867 -0.2485850187836515 0 -0.034199021844566052 -0.25740496373097072 0 -0.048255079716108998 -0.25800015923011232 0 -0.056939497423126581 -0.24878681181634871 0 -0.034199021844566052 -0.25740496373097072 0 -0.041398382443623198 -0.25192549838374201 0 -0.025857267464119819 -0.25506418495113531 0 -0.041398382443623198 -0.25192549838374201 0 -0.025857267464119819 -0.25506418495113531 0 -0.034199021844566052 -0.25740496373097072 0 -0.037307574571523318 -0.26201401924185519 0 -0.024854767991187229 -0.26705994663832661 0 -0.037307574571523318 -0.26201401924185519 0 -0.048255079716108998 -0.25800015923011232 0 -0.046606779304586107 -0.26584835010199509 0 -0.034199021844566052 -0.25740496373097072 0 -0.037307574571523318 -0.26201401924185519 0 -0.048255079716108998 -0.25800015923011232 0 -0.05702546769870083 -0.25851025446459042 0 -0.048255079716108998 -0.25800015923011232 0 -0.056939497423126581 -0.24878681181634871 0 -0.041398382443623198 -0.25192549838374201 0 -0.056939497423126581 -0.24878681181634871 0 -0.067161912638977472 -0.25903173736147111 0 -0.05702546769870083 -0.25851025446459042 0 -0.056939497423126581 -0.24878681181634871 0 -0.067161912638977472 -0.25903173736147111 0 -0.05702546769870083 -0.25851025446459042 0 -0.055745381016590281 -0.2682223094504298 0 -0.05702546769870083 -0.25851025446459042 0 -0.048255079716108998 -0.25800015923011232 0 -0.055745381016590281 -0.2682223094504298 0 -0.048255079716108998 -0.25800015923011232 0 -0.055745381016590281 -0.2682223094504298 0 -0.046606779304586107 -0.26584835010199509 0 -0.055745381016590281 -0.2682223094504298 0 -0.045119081914121867 -0.27515691248558288 0 -0.046606779304586107 -0.26584835010199509 0 -0.055745381016590281 -0.2682223094504298 0 -0.045119081914121867 -0.27515691248558288 0 -0.057136779716869042 -0.28712205926022771 0 -0.072744725061100565 -0.27289296274949931 0 -0.055745381016590281 -0.2682223094504298 0 -0.057136779716869042 -0.28712205926022771 0 -0.037307574571523318 -0.26201401924185519 0 -0.034478529498429812 -0.28951379058442123 0 -0.037307574571523318 -0.26201401924185519 0 -0.034478529498429812 -0.28951379058442123 0 -0.024854767991187229 -0.26705994663832661 0 -0.037307574571523318 -0.26201401924185519 0 -0.045119081914121867 -0.27515691248558288 0 -0.034478529498429812 -0.28951379058442123 0 -0.037307574571523318 -0.26201401924185519 0 -0.045119081914121867 -0.27515691248558288 0 -0.046606779304586107 -0.26584835010199509 0 -0.045119081914121867 -0.27515691248558288 0 -0.034478529498429812 -0.28951379058442123 0 -0.057136779716869042 -0.28712205926022771 0 -0.034478529498429812 -0.28951379058442123 0 -0.057136779716869042 -0.28712205926022771 0 -0.05012745319326059 -0.30445945297878008 0 -0.066237696895848033 -0.30175990202967712 0 -0.05012745319326059 -0.30445945297878008 0 -0.060613113796085999 -0.32288269869712272 0 -0.066237696895848033 -0.30175990202967712 0 -0.057136779716869042 -0.28712205926022771 0 -0.05012745319326059 -0.30445945297878008 0 -0.034478529498429812 -0.28951379058442123 0 -0.05012745319326059 -0.30445945297878008 0 -0.031649484425336299 -0.31701356192698721 0 -0.034478529498429812 -0.28951379058442123 0 -0.031649484425336299 -0.31701356192698721 0 -0.034478529498429812 -0.28951379058442123 0 -0.020284114256294641 -0.29759304008048471 0 -0.031649484425336299 -0.31701356192698721 0 -0.020284114256294641 -0.29759304008048471 0 -0.01007927323019326 -0.3103345258507364 0 -0.031649484425336299 -0.31701356192698721 0 -0.020284114256294641 -0.29759304008048471 0 -0.01007927323019326 -0.3103345258507364 0 -0.0080748459131490501 -0.2914060437848453 0 -0.01007927323019326 -0.3103345258507364 0 -0.0080748459131490501 -0.2914060437848453 0 0.0017563221397047381 -0.2997067901486577 0 -0.020284114256294641 -0.29759304008048471 0 -0.0080748459131490501 -0.2914060437848453 0 -0.017138438214364771 -0.27969727825543328 0 -0.0080748459131490501 -0.2914060437848453 0 -0.002848760243290064 -0.27761611820401882 0 0.0066437179820165657 -0.2861171845936395 0 -0.0080748459131490501 -0.2914060437848453 0 -0.017138438214364771 -0.27969727825543328 0 -0.002848760243290064 -0.27761611820401882 0 -0.034478529498429812 -0.28951379058442123 0 -0.020284114256294641 -0.29759304008048471 0 -0.017138438214364771 -0.27969727825543328 0 -0.034478529498429812 -0.28951379058442123 0 -0.024854767991187229 -0.26705994663832661 0 -0.017138438214364771 -0.27969727825543328 0 -0.024854767991187229 -0.26705994663832661 0 -0.01588915841142927 -0.27169793716392882 0 -0.01145854626600548 -0.26602311564559261 0 -0.024854767991187229 -0.26705994663832661 0 -0.01588915841142927 -0.27169793716392882 0 -0.017138438214364771 -0.27969727825543328 0 -0.017138438214364771 -0.27969727825543328 0 -0.011833725783772399 -0.27375861231724341 0 -0.002848760243290064 -0.27761611820401882 0 -0.01145854626600548 -0.26602311564559261 0 0.01128192931255503 -0.27464126756021451 0 -0.002848760243290064 -0.27761611820401882 0 -0.01145854626600548 -0.26602311564559261 0 0.01128192931255503 -0.27464126756021451 0 -0.01588915841142927 -0.27169793716392882 0 -0.017138438214364771 -0.27969727825543328 0 -0.011833725783772399 -0.27375861231724341 0 -0.011833725783772399 -0.27375861231724341 0 -0.002848760243290064 -0.27761611820401882 0 -0.01145854626600548 -0.26602311564559261 0 -0.01588915841142927 -0.27169793716392882 0 -0.011833725783772399 -0.27375861231724341 0 -0.01145854626600548 -0.26602311564559261 0 -0.01269776775011346 -0.25850600500130039 0 -0.0051360078472848583 -0.25701396995817721 0 0.0057158633005241696 -0.26337829885565528 0 -0.01145854626600548 -0.26602311564559261 0 -0.01269776775011346 -0.25850600500130039 0 0.0057158633005241696 -0.26337829885565528 0 -0.01269776775011346 -0.25850600500130039 0 0.0057158633005241696 -0.26337829885565528 0 -0.0009620894167222515 -0.25496392916579452 0 -0.0051360078472848583 -0.25701396995817721 0 0.0057158633005241696 -0.26337829885565528 0 -0.0071971320314794382 -0.2528457057960789 0 -0.01082738352359053 -0.24876902592697839 0 -0.0029313858115674811 -0.24854412401401971 0 -0.0009620894167222515 -0.25496392916579452 0 -0.0071971320314794382 -0.2528457057960789 0 -0.0029313858115674811 -0.24854412401401971 0 -0.0009620894167222515 -0.25496392916579452 0 -0.0051360078472848583 -0.25701396995817721 0 -0.0071971320314794382 -0.2528457057960789 0 -0.0051360078472848583 -0.25701396995817721 0 -0.0071971320314794382 -0.2528457057960789 0 -0.0094143843739788544 -0.25459574361389747 0 -0.0071971320314794382 -0.2528457057960789 0 -0.0094143843739788544 -0.25459574361389747 0 -0.01082738352359053 -0.24876902592697839 0 -0.01269776775011346 -0.25850600500130039 0 -0.0094143843739788544 -0.25459574361389747 0 -0.01082738352359053 -0.24876902592697839 0 -0.01269776775011346 -0.25850600500130039 0 -0.0051360078472848583 -0.25701396995817721 0 -0.0094143843739788544 -0.25459574361389747 0 -0.01269776775011346 -0.25850600500130039 0 -0.025857267464119819 -0.25506418495113531 0 -0.034199021844566052 -0.25740496373097072 0 -0.01145854626600548 -0.26602311564559261 0 -0.025857267464119819 -0.25506418495113531 0 -0.01269776775011346 -0.25850600500130039 0 -0.025857267464119819 -0.25506418495113531 0 -0.02368513365757598 -0.23851275990414511 0 -0.034199021844566052 -0.25740496373097072 0 -0.024854767991187229 -0.26705994663832661 0 -0.01145854626600548 -0.26602311564559261 0 -0.034199021844566052 -0.25740496373097072 0 -0.01145854626600548 -0.26602311564559261 0 -0.01145854626600548 -0.26602311564559261 0 -0.01269776775011346 -0.25850600500130039 0 -0.025857267464119819 -0.25506418495113531 0 -0.046940286889098168 -0.35955036210978841 0 -0.050269733973634309 -0.3392354021108881 0 -0.02882043935224279 -0.34451333326955308 0 -0.046940286889098168 -0.35955036210978841 0 -0.02882043935224279 -0.34451333326955308 0 -0.026419717968229769 -0.36867473508972981 0 -0.046940286889098168 -0.35955036210978841 0 -0.026419717968229769 -0.36867473508972981 0 -0.046935058978613817 -0.3783756837809118 0 -0.065890469742167113 -0.37350781086095058 0 -0.046940286889098168 -0.35955036210978841 0 -0.046935058978613817 -0.3783756837809118 0 -0.063306301319701316 -0.35299520754669739 0 -0.065890469742167113 -0.37350781086095058 0 -0.046940286889098168 -0.35955036210978841 0 -0.063306301319701316 -0.35299520754669739 0 -0.046940286889098168 -0.35955036210978841 0 -0.050269733973634309 -0.3392354021108881 0 -0.073144777225565616 -0.33606175945158517 0 -0.063306301319701316 -0.35299520754669739 0 -0.050269733973634309 -0.3392354021108881 0 -0.073144777225565616 -0.33606175945158517 0 -0.050269733973634309 -0.3392354021108881 0 -0.060613113796085999 -0.32288269869712272 0 -0.050269733973634309 -0.3392354021108881 0 -0.060613113796085999 -0.32288269869712272 0 -0.031649484425336299 -0.31701356192698721 0 -0.05012745319326059 -0.30445945297878008 0 -0.060613113796085999 -0.32288269869712272 0 -0.031649484425336299 -0.31701356192698721 0 -0.050269733973634309 -0.3392354021108881 0 -0.031649484425336299 -0.31701356192698721 0 -0.02882043935224279 -0.34451333326955308 0 -0.031649484425336299 -0.31701356192698721 0 -0.02882043935224279 -0.34451333326955308 0 -0.031649484425336299 -0.31701356192698721 0 -0.0038616663111063101 -0.33241552487502413 0 -0.02882043935224279 -0.34451333326955308 0 -0.01007927323019326 -0.3103345258507364 0 -0.031649484425336299 -0.31701356192698721 0 -0.0038616663111063101 -0.33241552487502413 0 -0.01007927323019326 -0.3103345258507364 0 -0.0038616663111063101 -0.33241552487502413 0 0.0094652366165251054 -0.31053241408104548 0 -0.0038616663111063101 -0.33241552487502413 0 -0.0043130761299947744 -0.35643483176966217 0 -0.02882043935224279 -0.34451333326955308 0 -0.0043130761299947744 -0.35643483176966217 0 -0.02882043935224279 -0.34451333326955308 0 -0.026419717968229769 -0.36867473508972981 0 -0.0043130761299947744 -0.35643483176966217 0 -0.026419717968229769 -0.36867473508972981 0 -0.0064694903547723136 -0.38059021958606692 0 -0.0064694903547723136 -0.38059021958606692 0 -0.0080625817845775948 -0.40608726553411861 0 -0.026496984295852101 -0.39226102623928111 0 -0.0064694903547723136 -0.38059021958606692 0 -0.0080625817845775948 -0.40608726553411861 0 0.009690974369139977 -0.39295199195252922 0 -0.0080625817845775948 -0.40608726553411861 0 -0.026496984295852101 -0.39226102623928111 0 -0.029852467816379728 -0.41236872525256307 0 -0.026419717968229769 -0.36867473508972981 0 -0.0064694903547723136 -0.38059021958606692 0 -0.026496984295852101 -0.39226102623928111 0 -0.026496984295852101 -0.39226102623928111 0 -0.048213792324517578 -0.39768762776665978 0 -0.046935058978613817 -0.3783756837809118 0 -0.026419717968229769 -0.36867473508972981 0 -0.026496984295852101 -0.39226102623928111 0 -0.046935058978613817 -0.3783756837809118 0 -0.026496984295852101 -0.39226102623928111 0 -0.048213792324517578 -0.39768762776665978 0 -0.029852467816379728 -0.41236872525256307 0 -0.048213792324517578 -0.39768762776665978 0 -0.065379196062645584 -0.39052657147488062 0 -0.06528413140028641 -0.40548789039177052 0 -0.048213792324517578 -0.39768762776665978 0 -0.046935058978613817 -0.3783756837809118 0 -0.065379196062645584 -0.39052657147488062 0 -0.065890469742167113 -0.37350781086095058 0 -0.046935058978613817 -0.3783756837809118 0 -0.065379196062645584 -0.39052657147488062 0 -0.052630130657334448 -0.42871109396582502 0 -0.036803499053157718 -0.43392585985635063 0 -0.055908543568221357 -0.44353945242809251 0 -0.052630130657334448 -0.42871109396582502 0 -0.048282499091199083 -0.41684649723306111 0 -0.065713266975248902 -0.42040157794015642 0 -0.052630130657334448 -0.42871109396582502 0 -0.055908543568221357 -0.44353945242809251 0 -0.077753046024815156 -0.43509142098737241 0 -0.048282499091199083 -0.41684649723306111 0 -0.06528413140028641 -0.40548789039177052 0 -0.065713266975248902 -0.42040157794015642 0 -0.048213792324517578 -0.39768762776665978 0 -0.048282499091199083 -0.41684649723306111 0 -0.06528413140028641 -0.40548789039177052 0 -0.048213792324517578 -0.39768762776665978 0 -0.048282499091199083 -0.41684649723306111 0 -0.029852467816379728 -0.41236872525256307 0 -0.048282499091199083 -0.41684649723306111 0 -0.036803499053157718 -0.43392585985635063 0 -0.029852467816379728 -0.41236872525256307 0 -0.052630130657334448 -0.42871109396582502 0 -0.048282499091199083 -0.41684649723306111 0 -0.036803499053157718 -0.43392585985635063 0 -0.036803499053157718 -0.43392585985635063 0 -0.01686747062211669 -0.42668809062348251 0 -0.022482277956740859 -0.44034230556013138 0 -0.036803499053157718 -0.43392585985635063 0 -0.01686747062211669 -0.42668809062348251 0 -0.029852467816379728 -0.41236872525256307 0 -0.0080625817845775948 -0.40608726553411861 0 -0.01686747062211669 -0.42668809062348251 0 -0.029852467816379728 -0.41236872525256307 0 -0.0080625817845775948 -0.40608726553411861 0 -0.01686747062211669 -0.42668809062348251 0 0.01224976062295041 -0.42183763890738629 0 -0.01686747062211669 -0.42668809062348251 0 -0.008216644178786571 -0.4466179140804285 0 0.01224976062295041 -0.42183763890738629 0 -0.008216644178786571 -0.4466179140804285 0 -0.0021957942935651631 -0.46571035637089769 0 -0.016151777162071251 -0.46269316979172348 0 -0.0021957942935651631 -0.46571035637089769 0 -0.016151777162071251 -0.46269316979172348 0 -0.01292321871024151 -0.47600360382280887 0 -0.008216644178786571 -0.4466179140804285 0 -0.016151777162071251 -0.46269316979172348 0 -0.028753682251359231 -0.45370767630375852 0 -0.016151777162071251 -0.46269316979172348 0 -0.030722049445265721 -0.46513815794063051 0 -0.025757536927686689 -0.47561542944709773 0 -0.016151777162071251 -0.46269316979172348 0 -0.030722049445265721 -0.46513815794063051 0 -0.028753682251359231 -0.45370767630375852 0 -0.036803499053157718 -0.43392585985635063 0 -0.028753682251359231 -0.45370767630375852 0 -0.022482277956740859 -0.44034230556013138 0 -0.01686747062211669 -0.42668809062348251 0 -0.008216644178786571 -0.4466179140804285 0 -0.022482277956740859 -0.44034230556013138 0 -0.008216644178786571 -0.4466179140804285 0 -0.028753682251359231 -0.45370767630375852 0 -0.022482277956740859 -0.44034230556013138 0 -0.011489863113854141 -0.5 0 -0.010144146689038991 -0.48941639725935437 0 0.012735562036971701 -0.48508522326900949 0 -0.010144146689038991 -0.48941639725935437 0 -0.00065605929082254884 -0.47874224407546379 0 -0.01292321871024151 -0.47600360382280887 0 -0.010144146689038991 -0.48941639725935437 0 -0.01292321871024151 -0.47600360382280887 0 -0.022633997898264431 -0.48384402599231691 0 -0.0021957942935651631 -0.46571035637089769 0 -0.00065605929082254884 -0.47874224407546379 0 -0.01292321871024151 -0.47600360382280887 0 -0.016151777162071251 -0.46269316979172348 0 -0.01292321871024151 -0.47600360382280887 0 -0.025757536927686689 -0.47561542944709773 0 -0.025757536927686689 -0.47561542944709773 0 -0.022633997898264431 -0.48384402599231691 0 -0.032724513000240443 -0.48384135401243772 0 -0.01292321871024151 -0.47600360382280887 0 -0.025757536927686689 -0.47561542944709773 0 -0.022633997898264431 -0.48384402599231691 0 -0.011489863113854141 -0.5 0 -0.010144146689038991 -0.48941639725935437 0 -0.033023855415049652 -0.49374757124969931 0 -0.010144146689038991 -0.48941639725935437 0 -0.022633997898264431 -0.48384402599231691 0 -0.033023855415049652 -0.49374757124969931 0 -0.011489863113854141 -0.5 0 -0.041002190054857779 -0.5 0 -0.033023855415049652 -0.49374757124969931 0 -0.010144146689038991 -0.48941639725935437 0 -0.033023855415049652 -0.49374757124969931 0 -0.022633997898264431 -0.48384402599231691 0 -0.033023855415049652 -0.49374757124969931 0 -0.032724513000240443 -0.48384135401243772 0 -0.041002190054857779 -0.5 0 -0.040644419244316249 -0.48874723383863622 0 -0.055758353525359711 -0.48944453406372251 0 -0.041002190054857779 -0.5 0 -0.033023855415049652 -0.49374757124969931 0 -0.040644419244316249 -0.48874723383863622 0 -0.033023855415049652 -0.49374757124969931 0 -0.040644419244316249 -0.48874723383863622 0 -0.032724513000240443 -0.48384135401243772 0 -0.040644419244316249 -0.48874723383863622 0 -0.040713184226073652 -0.47670270986732172 0 -0.055758353525359711 -0.48944453406372251 0 -0.040644419244316249 -0.48874723383863622 0 -0.040713184226073652 -0.47670270986732172 0 -0.032724513000240443 -0.48384135401243772 0 -0.025757536927686689 -0.47561542944709773 0 -0.040713184226073652 -0.47670270986732172 0 -0.032724513000240443 -0.48384135401243772 0 -0.030722049445265721 -0.46513815794063051 0 -0.025757536927686689 -0.47561542944709773 0 -0.040713184226073652 -0.47670270986732172 0 -0.040713184226073652 -0.47670270986732172 0 -0.05604151524233808 -0.47085547185542692 0 -0.042137987481662489 -0.46199998676314519 0 -0.040713184226073652 -0.47670270986732172 0 -0.05604151524233808 -0.47085547185542692 0 -0.055758353525359711 -0.48944453406372251 0 -0.05604151524233808 -0.47085547185542692 0 -0.055758353525359711 -0.48944453406372251 0 -0.068357021366280857 -0.47830767763467641 0 -0.041002190054857779 -0.5 0 -0.055758353525359711 -0.48944453406372251 0 -0.070514516995861642 -0.5 0 -0.036803499053157718 -0.43392585985635063 0 -0.028753682251359231 -0.45370767630375852 0 -0.042591220718736618 -0.44931976272637059 0 -0.036803499053157718 -0.43392585985635063 0 -0.042591220718736618 -0.44931976272637059 0 -0.055908543568221357 -0.44353945242809251 0 -0.028753682251359231 -0.45370767630375852 0 -0.042591220718736618 -0.44931976272637059 0 -0.042137987481662489 -0.46199998676314519 0 -0.030722049445265721 -0.46513815794063051 0 -0.028753682251359231 -0.45370767630375852 0 -0.042137987481662489 -0.46199998676314519 0 -0.030722049445265721 -0.46513815794063051 0 -0.040713184226073652 -0.47670270986732172 0 -0.042137987481662489 -0.46199998676314519 0 -0.042591220718736618 -0.44931976272637059 0 -0.042137987481662489 -0.46199998676314519 0 -0.054601469153056192 -0.45704509188174619 0 -0.05604151524233808 -0.47085547185542692 0 -0.054601469153056192 -0.45704509188174619 0 -0.071896784036839162 -0.45711427830285839 0 -0.05604151524233808 -0.47085547185542692 0 -0.042137987481662489 -0.46199998676314519 0 -0.054601469153056192 -0.45704509188174619 0 -0.054601469153056192 -0.45704509188174619 0 -0.055908543568221357 -0.44353945242809251 0 -0.071896784036839162 -0.45711427830285839 0 -0.042591220718736618 -0.44931976272637059 0 -0.054601469153056192 -0.45704509188174619 0 -0.055908543568221357 -0.44353945242809251 0 -0.055908543568221357 -0.44353945242809251 0 -0.071896784036839162 -0.45711427830285839 0 -0.077753046024815156 -0.43509142098737241 0 -0.071896784036839162 -0.45711427830285839 0 -0.087573937031005744 -0.47412410395137422 0 -0.093954286744555499 -0.45179652052777369 0 -0.087573937031005744 -0.47412410395137422 0 -0.093954286744555499 -0.45179652052777369 0 -0.071896784036839162 -0.45711427830285839 0 -0.093954286744555499 -0.45179652052777369 0 -0.077753046024815156 -0.43509142098737241 0 -0.093954286744555499 -0.45179652052777369 0 -0.10033463645810529 -0.42946893710417328 0 -0.077753046024815156 -0.43509142098737241 0 -0.055758353525359711 -0.48944453406372251 0 -0.070514516995861642 -0.5 0 -0.068357021366280857 -0.47830767763467641 0 -0.05604151524233808 -0.47085547185542692 0 -0.071896784036839162 -0.45711427830285839 0 -0.068357021366280857 -0.47830767763467641 0 -0.071896784036839162 -0.45711427830285839 0 -0.068357021366280857 -0.47830767763467641 0 -0.087573937031005744 -0.47412410395137422 0 -0.070514516995861642 -0.5 0 -0.068357021366280857 -0.47830767763467641 0 -0.087573937031005744 -0.47412410395137422 0 -0.070514516995861642 -0.5 0 -0.087573937031005744 -0.47412410395137422 0 -0.10002684393686551 -0.5 0 -0.087573937031005744 -0.47412410395137422 0 -0.10002684393686551 -0.5 0 -0.10780494223314389 -0.47765854937150709 0 -0.087573937031005744 -0.47412410395137422 0 -0.10780494223314389 -0.47765854937150709 0 -0.1029954147344513 -0.46359439800738522 0 -0.12605423818426559 -0.48707922202292669 0 -0.10780494223314389 -0.47765854937150709 0 -0.1201929706126502 -0.46127799294672761 0 -0.12605423818426559 -0.48707922202292669 0 -0.1201929706126502 -0.46127799294672761 0 -0.12605423818426559 -0.48707922202292669 0 -0.10002684393686551 -0.5 0 -0.10780494223314389 -0.47765854937150709 0 -0.1295391708778694 -0.5 0 -0.12605423818426559 -0.48707922202292669 0 -0.10002684393686551 -0.5 0 -0.093954286744555499 -0.45179652052777369 0 -0.10033463645810529 -0.42946893710417328 0 -0.10636180231815941 -0.44832292249131772 0 -0.11433170304103479 -0.43547676387052858 0 -0.10033463645810529 -0.42946893710417328 0 -0.10636180231815941 -0.44832292249131772 0 -0.093954286744555499 -0.45179652052777369 0 -0.10033463645810529 -0.42946893710417328 0 -0.087573937031005744 -0.47412410395137422 0 -0.093954286744555499 -0.45179652052777369 0 -0.1029954147344513 -0.46359439800738522 0 -0.10636180231815941 -0.44832292249131772 0 -0.093954286744555499 -0.45179652052777369 0 -0.1029954147344513 -0.46359439800738522 0 -0.10780494223314389 -0.47765854937150709 0 -0.1029954147344513 -0.46359439800738522 0 -0.1201929706126502 -0.46127799294672761 0 -0.10636180231815941 -0.44832292249131772 0 -0.1029954147344513 -0.46359439800738522 0 -0.1201929706126502 -0.46127799294672761 0 -0.13671083813600751 -0.45044361347006462 0 -0.1201929706126502 -0.46127799294672761 0 -0.11433170304103479 -0.43547676387052858 0 -0.10636180231815941 -0.44832292249131772 0 -0.1201929706126502 -0.46127799294672761 0 -0.11433170304103479 -0.43547676387052858 0 -0.13671083813600751 -0.45044361347006462 0 -0.1225906368027144 -0.43005957413219659 0 -0.11433170304103479 -0.43547676387052858 0 -0.1201929706126502 -0.46127799294672761 0 -0.11433170304103479 -0.43547676387052858 0 -0.1225906368027144 -0.43005957413219659 0 -0.11433170304103479 -0.43547676387052858 0 -0.10847043546942051 -0.40967553479432928 0 -0.11433170304103479 -0.43547676387052858 0 -0.10847043546942051 -0.40967553479432928 0 -0.12908399078123631 -0.42243277819987513 0 -0.1225906368027144 -0.43005957413219659 0 -0.12315425937001 -0.41747458531602638 0 -0.11433170304103479 -0.43547676387052858 0 -0.10033463645810529 -0.42946893710417328 0 -0.10847043546942051 -0.40967553479432928 0 -0.10033463645810529 -0.42946893710417328 0 -0.094107383989168333 -0.41562629379671062 0 -0.1067149861716557 -0.40714135368057303 0 -0.10033463645810529 -0.42946893710417328 0 -0.1067149861716557 -0.40714135368057303 0 -0.10847043546942051 -0.40967553479432928 0 -0.10033463645810529 -0.42946893710417328 0 -0.1067149861716557 -0.40714135368057303 0 -0.094107383989168333 -0.41562629379671062 0 -0.1067149861716557 -0.40714135368057303 0 -0.093615658715422545 -0.40476526464288082 0 -0.10847043546942051 -0.40967553479432928 0 -0.1105756132387118 -0.40676785322215941 0 -0.1073722461642546 -0.40484131873350049 0 -0.10847043546942051 -0.40967553479432928 0 -0.1073722461642546 -0.40484131873350049 0 -0.1067149861716557 -0.40714135368057303 0 -0.10847043546942051 -0.40967553479432928 0 -0.1073722461642546 -0.40484131873350049 0 -0.1067149861716557 -0.40714135368057303 0 -0.10847043546942051 -0.40967553479432928 0 -0.1225906368027144 -0.43005957413219659 0 -0.1163272184937543 -0.41351727508190028 0 -0.12315425937001 -0.41747458531602638 0 -0.10847043546942051 -0.40967553479432928 0 -0.1125412123036873 -0.40894162881917728 0 -0.1163272184937543 -0.41351727508190028 0 -0.1125412123036873 -0.40894162881917728 0 -0.1105756132387118 -0.40676785322215941 0 -0.1147915820128618 -0.40580585217832088 0 -0.1225906368027144 -0.43005957413219659 0 -0.10847043546942051 -0.40967553479432928 0 -0.1163272184937543 -0.41351727508190028 0 -0.10847043546942051 -0.40967553479432928 0 -0.1125412123036873 -0.40894162881917728 0 -0.1105756132387118 -0.40676785322215941 0 -0.1225906368027144 -0.43005957413219659 0 -0.10847043546942051 -0.40967553479432928 0 -0.1125412123036873 -0.40894162881917728 0 -0.1163272184937543 -0.41351727508190028 0 -0.1147915820128618 -0.40580585217832088 0 -0.1225700411049412 -0.40994677461386392 0 -0.1219584454402414 -0.40406961642135292 0 -0.1147915820128618 -0.40580585217832088 0 -0.1163272184937543 -0.41351727508190028 0 -0.1225700411049412 -0.40994677461386392 0 -0.1147915820128618 -0.40580585217832088 0 -0.1163272184937543 -0.41351727508190028 0 -0.12315425937001 -0.41747458531602638 0 -0.1225700411049412 -0.40994677461386392 0 -0.1273295258527142 -0.39594401256049883 0 -0.1219584454402414 -0.40406961642135292 0 -0.1190781430676657 -0.39944145851713192 0 -0.11305295545189779 -0.39895005080087959 0 -0.11384267237711319 -0.38219851895920232 0 -0.1073722461642546 -0.40484131873350049 0 -0.1295768038857959 -0.40463739140698729 0 -0.1225700411049412 -0.40994677461386392 0 -0.1219584454402414 -0.40406961642135292 0 -0.1182582065806136 -0.392437760624607 0 -0.11305295545189779 -0.39895005080087959 0 -0.11384267237711319 -0.38219851895920232 0 -0.11384267237711319 -0.38219851895920232 0 -0.1073722461642546 -0.40484131873350049 0 -0.1219584454402414 -0.40406961642135292 0 -0.1190781430676657 -0.39944145851713192 0 -0.1147915820128618 -0.40580585217832088 0 -0.1273295258527142 -0.39594401256049883 0 -0.1190781430676657 -0.39944145851713192 0 -0.1182582065806136 -0.392437760624607 0 -0.1190781430676657 -0.39944145851713192 0 -0.1182582065806136 -0.392437760624607 0 -0.11305295545189779 -0.39895005080087959 0 -0.1105756132387118 -0.40676785322215941 0 -0.1114480992169309 -0.40409126873371493 0 -0.1073722461642546 -0.40484131873350049 0 -0.1105756132387118 -0.40676785322215941 0 -0.1114480992169309 -0.40409126873371493 0 -0.1147915820128618 -0.40580585217832088 0 -0.11305295545189779 -0.39895005080087959 0 -0.1114480992169309 -0.40409126873371493 0 -0.1147915820128618 -0.40580585217832088 0 -0.11305295545189779 -0.39895005080087959 0 -0.1114480992169309 -0.40409126873371493 0 -0.1073722461642546 -0.40484131873350049 0 -0.1190781430676657 -0.39944145851713192 0 -0.11305295545189779 -0.39895005080087959 0 -0.1147915820128618 -0.40580585217832088 0 -0.12625141541498519 -0.38197991289387551 0 -0.1182582065806136 -0.392437760624607 0 -0.11384267237711319 -0.38219851895920232 0 -0.12625141541498519 -0.38197991289387551 0 -0.1273295258527142 -0.39594401256049883 0 -0.1182582065806136 -0.392437760624607 0 -0.11384267237711319 -0.38219851895920232 0 -0.10176491866177829 -0.38015793077534599 0 -0.1073722461642546 -0.40484131873350049 0 -0.10176491866177829 -0.38015793077534599 0 -0.095995502779844255 -0.39166661886747001 0 -0.085276019388031976 -0.37619188405436782 0 -0.10849363524981311 -0.36442991456039969 0 -0.11384267237711319 -0.38219851895920232 0 -0.10176491866177829 -0.38015793077534599 0 -0.10176491866177829 -0.38015793077534599 0 -0.1073722461642546 -0.40484131873350049 0 -0.095995502779844255 -0.39166661886747001 0 -0.10176491866177829 -0.38015793077534599 0 -0.1073722461642546 -0.40484131873350049 0 -0.1067149861716557 -0.40714135368057303 0 -0.1073722461642546 -0.40484131873350049 0 -0.095995502779844255 -0.39166661886747001 0 -0.1067149861716557 -0.40714135368057303 0 -0.1073722461642546 -0.40484131873350049 0 -0.1067149861716557 -0.40714135368057303 0 -0.095995502779844255 -0.39166661886747001 0 -0.1067149861716557 -0.40714135368057303 0 -0.095995502779844255 -0.39166661886747001 0 -0.093615658715422545 -0.40476526464288082 0 -0.093615658715422545 -0.40476526464288082 0 -0.081664681120336771 -0.39582842074610342 0 -0.082451352827770552 -0.41163664718976212 0 -0.095995502779844255 -0.39166661886747001 0 -0.093615658715422545 -0.40476526464288082 0 -0.081664681120336771 -0.39582842074610342 0 -0.095995502779844255 -0.39166661886747001 0 -0.081664681120336771 -0.39582842074610342 0 -0.085276019388031976 -0.37619188405436782 0 -0.081664681120336771 -0.39582842074610342 0 -0.085276019388031976 -0.37619188405436782 0 -0.074552591578295357 -0.38401367178407558 0 -0.095995502779844255 -0.39166661886747001 0 -0.085276019388031976 -0.37619188405436782 0 -0.081664681120336771 -0.39582842074610342 0 -0.065379196062645584 -0.39052657147488062 0 -0.074552591578295357 -0.38401367178407558 0 -0.065890469742167113 -0.37350781086095058 0 -0.085276019388031976 -0.37619188405436782 0 -0.074552591578295357 -0.38401367178407558 0 -0.065890469742167113 -0.37350781086095058 0 -0.065379196062645584 -0.39052657147488062 0 -0.074552591578295357 -0.38401367178407558 0 -0.081664681120336771 -0.39582842074610342 0 -0.06528413140028641 -0.40548789039177052 0 -0.082451352827770552 -0.41163664718976212 0 -0.081664681120336771 -0.39582842074610342 0 -0.065379196062645584 -0.39052657147488062 0 -0.06528413140028641 -0.40548789039177052 0 -0.065713266975248902 -0.42040157794015642 0 -0.085028608260126398 -0.42320905853578622 0 -0.082451352827770552 -0.41163664718976212 0 -0.06528413140028641 -0.40548789039177052 0 -0.065713266975248902 -0.42040157794015642 0 -0.082451352827770552 -0.41163664718976212 0 -0.065713266975248902 -0.42040157794015642 0 -0.077753046024815156 -0.43509142098737241 0 -0.085028608260126398 -0.42320905853578622 0 -0.052630130657334448 -0.42871109396582502 0 -0.065713266975248902 -0.42040157794015642 0 -0.077753046024815156 -0.43509142098737241 0 -0.10033463645810529 -0.42946893710417328 0 -0.077753046024815156 -0.43509142098737241 0 -0.085028608260126398 -0.42320905853578622 0 -0.10033463645810529 -0.42946893710417328 0 -0.094107383989168333 -0.41562629379671062 0 -0.085028608260126398 -0.42320905853578622 0 -0.094107383989168333 -0.41562629379671062 0 -0.085028608260126398 -0.42320905853578622 0 -0.082451352827770552 -0.41163664718976212 0 -0.094107383989168333 -0.41562629379671062 0 -0.093615658715422545 -0.40476526464288082 0 -0.082451352827770552 -0.41163664718976212 0 -0.080832567710134945 -0.085265223789800185 0 -0.09573268077664969 -0.090624673380050064 0 -0.094924188455715333 -0.074372309221374736 0 -0.080832567710134945 -0.085265223789800185 0 -0.0944050220014645 -0.1050702242089397 0 -0.09573268077664969 -0.090624673380050064 0 -0.094924188455715333 -0.074372309221374736 0 -0.077079431972146645 -0.050953682142663811 0 -0.080832567710134945 -0.085265223789800185 0 -0.077460787511610923 -0.070469280456870842 0 -0.094924188455715333 -0.074372309221374736 0 -0.077460787511610923 -0.070469280456870842 0 -0.094924188455715333 -0.074372309221374736 0 -0.078535685693175539 -0.061573663464548622 0 -0.080832567710134945 -0.085265223789800185 0 -0.072736864716213656 -0.076885636419884412 0 -0.077460787511610923 -0.070469280456870842 0 -0.072736864716213656 -0.076885636419884412 0 -0.077460787511610923 -0.070469280456870842 0 -0.067174029152377468 -0.071022972744677337 0 -0.077460787511610923 -0.070469280456870842 0 -0.067174029152377468 -0.071022972744677337 0 -0.070308423821052124 -0.061023041189074957 0 -0.077460787511610923 -0.070469280456870842 0 -0.078535685693175539 -0.061573663464548622 0 -0.070308423821052124 -0.061023041189074957 0 -0.067174029152377468 -0.071022972744677337 0 -0.070308423821052124 -0.061023041189074957 0 -0.060830035872249492 -0.064558057335980773 0 -0.072736864716213656 -0.076885636419884412 0 -0.067174029152377468 -0.071022972744677337 0 -0.063732237529271596 -0.080733089011810297 0 -0.067174029152377468 -0.071022972744677337 0 -0.063732237529271596 -0.080733089011810297 0 -0.058000192015007383 -0.073011667883306972 0 -0.080832567710134945 -0.085265223789800185 0 -0.063732237529271596 -0.080733089011810297 0 -0.066023591375222151 -0.09957098179305135 0 -0.080832567710134945 -0.085265223789800185 0 -0.072736864716213656 -0.076885636419884412 0 -0.063732237529271596 -0.080733089011810297 0 -0.066023591375222151 -0.09957098179305135 0 -0.069466171350113709 -0.1135628440840601 0 -0.0944050220014645 -0.1050702242089397 0 -0.066023591375222151 -0.09957098179305135 0 -0.069466171350113709 -0.1135628440840601 0 -0.054384952187449757 -0.110609208962567 0 -0.077516787342341589 -0.1242022911324857 0 -0.069466171350113709 -0.1135628440840601 0 -0.059238207921678762 -0.13024384051707169 0 -0.077516787342341589 -0.1242022911324857 0 -0.093262550211769629 -0.1231040070079162 0 -0.0944050220014645 -0.1050702242089397 0 -0.077516787342341589 -0.1242022911324857 0 -0.069466171350113709 -0.1135628440840601 0 -0.0944050220014645 -0.1050702242089397 0 -0.066023591375222151 -0.09957098179305135 0 -0.0944050220014645 -0.1050702242089397 0 -0.080832567710134945 -0.085265223789800185 0 -0.066023591375222151 -0.09957098179305135 0 -0.0944050220014645 -0.1050702242089397 0 -0.0944050220014645 -0.1050702242089397 0 -0.1071147179002416 -0.1244919901550422 0 -0.11276894493928399 -0.097790936300085646 0 -0.0944050220014645 -0.1050702242089397 0 -0.11276894493928399 -0.097790936300085646 0 -0.09573268077664969 -0.090624673380050064 0 -0.093262550211769629 -0.1231040070079162 0 -0.0944050220014645 -0.1050702242089397 0 -0.1071147179002416 -0.1244919901550422 0 -0.1071147179002416 -0.1244919901550422 0 -0.11276894493928399 -0.097790936300085646 0 -0.1306137014228527 -0.1212095633787966 0 -0.11276894493928399 -0.097790936300085646 0 -0.1306137014228527 -0.1212095633787966 0 -0.112702195828283 -0.076339248342475546 0 -0.13438499311011279 -0.096174695905308166 0 -0.11276894493928399 -0.097790936300085646 0 -0.112702195828283 -0.076339248342475546 0 -0.13438499311011279 -0.096174695905308166 0 -0.11276894493928399 -0.097790936300085646 0 -0.094924188455715333 -0.074372309221374736 0 -0.112702195828283 -0.076339248342475546 0 -0.11276894493928399 -0.097790936300085646 0 -0.094924188455715333 -0.074372309221374736 0 -0.11276894493928399 -0.097790936300085646 0 -0.09573268077664969 -0.090624673380050064 0 -0.094924188455715333 -0.074372309221374736 0 -0.094924188455715333 -0.074372309221374736 0 -0.1026030192468113 -0.064894788769428779 0 -0.112702195828283 -0.076339248342475546 0 -0.094924188455715333 -0.074372309221374736 0 -0.1026030192468113 -0.064894788769428779 0 -0.090333769324138391 -0.059362086744932152 0 -0.1026030192468113 -0.064894788769428779 0 -0.112702195828283 -0.076339248342475546 0 -0.1158705629695205 -0.060236298698018297 0 -0.112702195828283 -0.076339248342475546 0 -0.1158705629695205 -0.060236298698018297 0 -0.13497135686491851 -0.078315161523928284 0 -0.1158705629695205 -0.060236298698018297 0 -0.1150956899200111 -0.045830426672337207 0 -0.1070798181065768 -0.041876824406217303 0 -0.1158705629695205 -0.060236298698018297 0 -0.1150956899200111 -0.045830426672337207 0 -0.12809376798702951 -0.047905065599393698 0 -0.1163329610324388 -0.034474533447810513 0 -0.12530131535501859 -0.034952786400489197 0 -0.12809376798702951 -0.047905065599393698 0 -0.11023593420079281 -0.033339602888773932 0 -0.1150956899200111 -0.045830426672337207 0 -0.12809376798702951 -0.047905065599393698 0 -0.11023593420079281 -0.033339602888773932 0 -0.1163329610324388 -0.034474533447810513 0 -0.12809376798702951 -0.047905065599393698 0 -0.11023593420079281 -0.033339602888773932 0 -0.12809376798702951 -0.047905065599393698 0 -0.1163329610324388 -0.034474533447810513 0 -0.1221370268088495 -0.025998648103035 0 -0.12530131535501859 -0.034952786400489197 0 -0.11023593420079281 -0.033339602888773932 0 -0.1150956899200111 -0.045830426672337207 0 -0.1070798181065768 -0.041876824406217303 0 -0.11023593420079281 -0.033339602888773932 0 -0.1163329610324388 -0.034474533447810513 0 -0.097427134368436918 -0.027820357899848831 0 -0.11023593420079281 -0.033339602888773932 0 -0.1070798181065768 -0.041876824406217303 0 -0.097427134368436918 -0.027820357899848831 0 -0.1070798181065768 -0.041876824406217303 0 -0.096769769074122519 -0.04215743587210824 0 -0.097427134368436918 -0.027820357899848831 0 -0.1158705629695205 -0.060236298698018297 0 -0.1070798181065768 -0.041876824406217303 0 -0.096769769074122519 -0.04215743587210824 0 -0.1026030192468113 -0.064894788769428779 0 -0.1158705629695205 -0.060236298698018297 0 -0.099264754381345577 -0.055060356505970513 0 -0.1158705629695205 -0.060236298698018297 0 -0.096769769074122519 -0.04215743587210824 0 -0.099264754381345577 -0.055060356505970513 0 -0.096769769074122519 -0.04215743587210824 0 -0.099264754381345577 -0.055060356505970513 0 -0.090746651292135133 -0.048651172445365112 0 -0.1158705629695205 -0.060236298698018297 0 -0.096769769074122519 -0.04215743587210824 0 -0.1026030192468113 -0.064894788769428779 0 -0.099264754381345577 -0.055060356505970513 0 -0.090333769324138391 -0.059362086744932152 0 -0.1029392013539359 -0.0085751277431150782 0 -0.12735709500343681 0.004015926865657337 0 -0.1236693299605585 -0.0137973575501921 0 -0.1110604598185659 -0.0207882196779367 0 -0.1029392013539359 -0.0085751277431150782 0 -0.1236693299605585 -0.0137973575501921 0 -0.1029392013539359 -0.0085751277431150782 0 -0.12735709500343681 0.004015926865657337 0 -0.1236693299605585 -0.0137973575501921 0 -0.1110604598185659 -0.0207882196779367 0 -0.1221370268088495 -0.025998648103035 0 -0.1163329610324388 -0.034474533447810513 0 -0.1221370268088495 -0.025998648103035 0 -0.11173939550707281 -0.027270439782157759 0 -0.1110604598185659 -0.0207882196779367 0 -0.1221370268088495 -0.025998648103035 0 -0.11173939550707281 -0.027270439782157759 0 -0.1163329610324388 -0.034474533447810513 0 -0.097427134368436918 -0.027820357899848831 0 -0.1110604598185659 -0.0207882196779367 0 -0.097427134368436918 -0.027820357899848831 0 -0.1029392013539359 -0.0085751277431150782 0 -0.1163329610324388 -0.034474533447810513 0 -0.11173939550707281 -0.027270439782157759 0 -0.097427134368436918 -0.027820357899848831 0 -0.1110604598185659 -0.0207882196779367 0 -0.11173939550707281 -0.027270439782157759 0 -0.097427134368436918 -0.027820357899848831 0 -0.1029392013539359 -0.0085751277431150782 0 -0.086097875964997059 -0.0058870606910941042 0 -0.078521307704434995 -0.021166182351887271 0 -0.1029392013539359 -0.0085751277431150782 0 -0.078521307704434995 -0.021166182351887271 0 -0.1029392013539359 -0.0085751277431150782 0 -0.086097875964997059 -0.0058870606910941042 0 -0.091682611010439896 0.0063963380850077774 0 -0.086097875964997059 -0.0058870606910941042 0 -0.073830544796709738 -0.0078542708917730738 0 -0.078933949510919491 0.00072378658541613432 0 -0.086097875964997059 -0.0058870606910941042 0 -0.078521307704434995 -0.021166182351887271 0 -0.073830544796709738 -0.0078542708917730738 0 -0.097427134368436918 -0.027820357899848831 0 -0.078521307704434995 -0.021166182351887271 0 -0.097427134368436918 -0.027820357899848831 0 -0.078521307704434995 -0.021166182351887271 0 -0.077668975178724509 -0.024078573046198169 0 -0.097427134368436918 -0.027820357899848831 0 -0.1029392013539359 -0.0085751277431150782 0 -0.078521307704434995 -0.021166182351887271 0 -0.078521307704434995 -0.021166182351887271 0 -0.055132092173872667 -0.033226800447327051 0 -0.05822397002114936 -0.01402224463886402 0 -0.078521307704434995 -0.021166182351887271 0 -0.055132092173872667 -0.033226800447327051 0 -0.077668975178724509 -0.024078573046198169 0 -0.075465350998538308 -0.032772608828030472 0 -0.055132092173872667 -0.033226800447327051 0 -0.078521307704434995 -0.021166182351887271 0 -0.077668975178724509 -0.024078573046198169 0 -0.055132092173872667 -0.033226800447327051 0 -0.078521307704434995 -0.021166182351887271 0 -0.05822397002114936 -0.01402224463886402 0 -0.078521307704434995 -0.021166182351887271 0 -0.073830544796709738 -0.0078542708917730738 0 -0.05822397002114936 -0.01402224463886402 0 -0.073830544796709738 -0.0078542708917730738 0 -0.05822397002114936 -0.01402224463886402 0 -0.068462160169621672 0.0025537029525893409 0 -0.073830544796709738 -0.0078542708917730738 0 -0.078933949510919491 0.00072378658541613432 0 -0.068462160169621672 0.0025537029525893409 0 -0.094924188455715333 -0.074372309221374736 0 -0.090333769324138391 -0.059362086744932152 0 -0.077079431972146645 -0.050953682142663811 0 -0.094924188455715333 -0.074372309221374736 0 -0.078535685693175539 -0.061573663464548622 0 -0.077079431972146645 -0.050953682142663811 0 -0.084868245962835154 -0.053326759561897898 0 -0.090333769324138391 -0.059362086744932152 0 -0.077079431972146645 -0.050953682142663811 0 -0.084868245962835154 -0.053326759561897898 0 -0.080876314157704687 -0.04955372347343575 0 -0.082849096915408454 -0.045583035938281863 0 -0.080876314157704687 -0.04955372347343575 0 -0.078708481780428496 -0.048351416250899462 0 -0.082849096915408454 -0.045583035938281863 0 -0.080876314157704687 -0.04955372347343575 0 -0.078708481780428496 -0.048351416250899462 0 -0.077079431972146645 -0.050953682142663811 0 -0.084868245962835154 -0.053326759561897898 0 -0.080876314157704687 -0.04955372347343575 0 -0.077079431972146645 -0.050953682142663811 0 -0.084868245962835154 -0.053326759561897898 0 -0.090746651292135133 -0.048651172445365112 0 -0.082849096915408454 -0.045583035938281863 0 -0.084868245962835154 -0.053326759561897898 0 -0.090333769324138391 -0.059362086744932152 0 -0.090746651292135133 -0.048651172445365112 0 -0.099264754381345577 -0.055060356505970513 0 -0.090333769324138391 -0.059362086744932152 0 -0.090746651292135133 -0.048651172445365112 0 -0.096769769074122519 -0.04215743587210824 0 -0.088481073739883592 -0.043344290748051233 0 -0.083558777677868248 -0.036985518736449702 0 -0.096769769074122519 -0.04215743587210824 0 -0.097427134368436918 -0.027820357899848831 0 -0.077668975178724509 -0.024078573046198169 0 -0.096769769074122519 -0.04215743587210824 0 -0.077668975178724509 -0.024078573046198169 0 -0.083558777677868248 -0.036985518736449702 0 -0.096769769074122519 -0.04215743587210824 0 -0.077668975178724509 -0.024078573046198169 0 -0.090746651292135133 -0.048651172445365112 0 -0.088481073739883592 -0.043344290748051233 0 -0.082849096915408454 -0.045583035938281863 0 -0.096769769074122519 -0.04215743587210824 0 -0.090746651292135133 -0.048651172445365112 0 -0.088481073739883592 -0.043344290748051233 0 -0.077668975178724509 -0.024078573046198169 0 -0.083558777677868248 -0.036985518736449702 0 -0.075465350998538308 -0.032772608828030472 0 -0.083558777677868248 -0.036985518736449702 0 -0.082849096915408454 -0.045583035938281863 0 -0.075062618692292638 -0.040325846155841297 0 -0.088481073739883592 -0.043344290748051233 0 -0.083558777677868248 -0.036985518736449702 0 -0.082849096915408454 -0.045583035938281863 0 -0.082849096915408454 -0.045583035938281863 0 -0.078067002861142085 -0.04575568247049161 0 -0.075062618692292638 -0.040325846155841297 0 -0.078708481780428496 -0.048351416250899462 0 -0.082849096915408454 -0.045583035938281863 0 -0.078067002861142085 -0.04575568247049161 0 -0.075647814056438792 -0.048762431536943832 0 -0.055132092173872667 -0.033226800447327051 0 -0.078067002861142085 -0.04575568247049161 0 -0.075062618692292638 -0.040325846155841297 0 -0.075647814056438792 -0.048762431536943832 0 -0.075062618692292638 -0.040325846155841297 0 -0.075465350998538308 -0.032772608828030472 0 -0.055132092173872667 -0.033226800447327051 0 -0.075647814056438792 -0.048762431536943832 0 -0.061428605263776047 -0.046553119166432878 0 -0.055132092173872667 -0.033226800447327051 0 -0.075062618692292638 -0.040325846155841297 0 -0.075647814056438792 -0.048762431536943832 0 -0.055132092173872667 -0.033226800447327051 0 -0.083558777677868248 -0.036985518736449702 0 -0.075062618692292638 -0.040325846155841297 0 -0.075465350998538308 -0.032772608828030472 0 -0.065722760200719738 -0.052253177456942877 0 -0.075647814056438792 -0.048762431536943832 0 -0.061428605263776047 -0.046553119166432878 0 -0.065722760200719738 -0.052253177456942877 0 -0.07269306068786438 -0.052406879740114577 0 -0.069833853901725543 -0.055329661047837618 0 -0.065722760200719738 -0.052253177456942877 0 -0.07269306068786438 -0.052406879740114577 0 -0.075647814056438792 -0.048762431536943832 0 -0.07269306068786438 -0.052406879740114577 0 -0.073703714626092445 -0.056102563442451223 0 -0.069833853901725543 -0.055329661047837618 0 -0.07269306068786438 -0.052406879740114577 0 -0.077079431972146645 -0.050953682142663811 0 -0.073703714626092445 -0.056102563442451223 0 -0.078708481780428496 -0.048351416250899462 0 -0.077079431972146645 -0.050953682142663811 0 -0.075647814056438792 -0.048762431536943832 0 -0.07269306068786438 -0.052406879740114577 0 -0.077079431972146645 -0.050953682142663811 0 -0.075647814056438792 -0.048762431536943832 0 -0.078708481780428496 -0.048351416250899462 0 -0.078067002861142085 -0.04575568247049161 0 -0.075647814056438792 -0.048762431536943832 0 -0.078535685693175539 -0.061573663464548622 0 -0.073703714626092445 -0.056102563442451223 0 -0.070308423821052124 -0.061023041189074957 0 -0.078535685693175539 -0.061573663464548622 0 -0.077079431972146645 -0.050953682142663811 0 -0.073703714626092445 -0.056102563442451223 0 -0.073703714626092445 -0.056102563442451223 0 -0.070308423821052124 -0.061023041189074957 0 -0.069833853901725543 -0.055329661047837618 0 -0.070308423821052124 -0.061023041189074957 0 -0.064391701294429504 -0.057679717025484439 0 -0.060830035872249492 -0.064558057335980773 0 -0.070308423821052124 -0.061023041189074957 0 -0.069833853901725543 -0.055329661047837618 0 -0.064391701294429504 -0.057679717025484439 0 -0.065722760200719738 -0.052253177456942877 0 -0.069833853901725543 -0.055329661047837618 0 -0.064391701294429504 -0.057679717025484439 0 -0.064391701294429504 -0.057679717025484439 0 -0.055978059279945473 -0.056388284161067823 0 -0.060830035872249492 -0.064558057335980773 0 -0.065722760200719738 -0.052253177456942877 0 -0.064391701294429504 -0.057679717025484439 0 -0.055978059279945473 -0.056388284161067823 0 -0.055978059279945473 -0.056388284161067823 0 -0.041230103293456458 -0.058058117591144771 0 -0.049479852383656611 -0.067543566470139038 0 -0.055978059279945473 -0.056388284161067823 0 -0.049741921456861897 -0.048697412542500033 0 -0.041230103293456458 -0.058058117591144771 0 -0.055978059279945473 -0.056388284161067823 0 -0.049741921456861897 -0.048697412542500033 0 -0.061428605263776047 -0.046553119166432878 0 -0.065722760200719738 -0.052253177456942877 0 -0.055978059279945473 -0.056388284161067823 0 -0.061428605263776047 -0.046553119166432878 0 -0.049741921456861897 -0.048697412542500033 0 -0.061428605263776047 -0.046553119166432878 0 -0.055132092173872667 -0.033226800447327051 0 -0.049741921456861897 -0.048697412542500033 0 -0.055132092173872667 -0.033226800447327051 0 -0.032367863380537598 -0.044965144957206583 0 -0.055132092173872667 -0.033226800447327051 0 -0.032367863380537598 -0.044965144957206583 0 -0.055132092173872667 -0.033226800447327051 0 -0.032367863380537598 -0.044965144957206583 0 -0.031233838643279398 -0.031193199633022049 0 -0.049741921456861897 -0.048697412542500033 0 -0.032367863380537598 -0.044965144957206583 0 -0.041230103293456458 -0.058058117591144771 0 -0.032367863380537598 -0.044965144957206583 0 -0.041230103293456458 -0.058058117591144771 0 -0.026902341230915561 -0.060374551747501753 0 -0.05822397002114936 -0.01402224463886402 0 -0.057836245250817257 0.0062936453779614283 0 -0.044352522143416888 0.0050416822031405977 0 -0.05822397002114936 -0.01402224463886402 0 -0.037926632337863607 -0.0068783069258408786 0 -0.05822397002114936 -0.01402224463886402 0 -0.068462160169621672 0.0025537029525893409 0 -0.057836245250817257 0.0062936453779614283 0 -0.055132092173872667 -0.033226800447327051 0 -0.05822397002114936 -0.01402224463886402 0 -0.036243114184870161 -0.018923029155399909 0 -0.055132092173872667 -0.033226800447327051 0 -0.036243114184870161 -0.018923029155399909 0 -0.031233838643279398 -0.031193199633022049 0 -0.055132092173872667 -0.033226800447327051 0 -0.036243114184870161 -0.018923029155399909 0 -0.05822397002114936 -0.01402224463886402 0 -0.036243114184870161 -0.018923029155399909 0 -0.037926632337863607 -0.0068783069258408786 0 -0.05822397002114936 -0.01402224463886402 0 -0.037926632337863607 -0.0068783069258408786 0 -0.044352522143416888 0.0050416822031405977 0 -0.036243114184870161 -0.018923029155399909 0 -0.037926632337863607 -0.0068783069258408786 0 -0.029121832422534862 -0.0067169982391169078 0 -0.037926632337863607 -0.0068783069258408786 0 -0.029539197120254941 -0.00051038393964639519 0 -0.029121832422534862 -0.0067169982391169078 0 -0.037926632337863607 -0.0068783069258408786 0 -0.029539197120254941 -0.00051038393964639519 0 -0.03614709390981162 0.0015378833132510439 0 -0.037926632337863607 -0.0068783069258408786 0 -0.03614709390981162 0.0015378833132510439 0 -0.044352522143416888 0.0050416822031405977 0 -0.036243114184870161 -0.018923029155399909 0 -0.017354136195868258 -0.0046192578634720229 0 -0.01819617019275287 -0.0061732580868559192 0 -0.036243114184870161 -0.018923029155399909 0 -0.017354136195868258 -0.0046192578634720229 0 -0.029121832422534862 -0.0067169982391169078 0 -0.036243114184870161 -0.018923029155399909 0 -0.01819617019275287 -0.0061732580868559192 0 -0.019637671972121611 -0.02148729346067638 0 -0.036243114184870161 -0.018923029155399909 0 -0.017354136195868258 -0.0046192578634720229 0 -0.017354136195868258 -0.0046192578634720229 0 -0.01819617019275287 -0.0061732580868559192 0 -0.013500839782477779 -0.0058155532537883976 0 -0.017354136195868258 -0.0046192578634720229 0 -0.01819617019275287 -0.0061732580868559192 0 -0.017354136195868258 -0.0046192578634720229 0 -0.024546082273817361 -0.00265401331122534 0 -0.02112675760807068 0.0030512678310729521 0 -0.024546082273817361 -0.00265401331122534 0 -0.029539197120254941 -0.00051038393964639519 0 -0.02112675760807068 0.0030512678310729521 0 -0.017354136195868258 -0.0046192578634720229 0 -0.024546082273817361 -0.00265401331122534 0 -0.029121832422534862 -0.0067169982391169078 0 -0.024546082273817361 -0.00265401331122534 0 -0.029539197120254941 -0.00051038393964639519 0 -0.029121832422534862 -0.0067169982391169078 0 -0.01819617019275287 -0.0061732580868559192 0 -0.019637671972121611 -0.02148729346067638 0 -0.011008321991883009 -0.01057962122923565 0 -0.036243114184870161 -0.018923029155399909 0 -0.019637671972121611 -0.02148729346067638 0 -0.031233838643279398 -0.031193199633022049 0 -0.019637671972121611 -0.02148729346067638 0 -0.031233838643279398 -0.031193199633022049 0 -0.016064986363794779 -0.036441041599790329 0 -0.0077215053668332834 -0.022860670268973711 0 -0.00118246574067416 -0.01324232368796026 0 0.0015263381015913891 -0.033415212413580753 0 -0.0077215053668332834 -0.022860670268973711 0 -0.016064986363794779 -0.036441041599790329 0 0.0015263381015913891 -0.033415212413580753 0 -0.019637671972121611 -0.02148729346067638 0 -0.0077215053668332834 -0.022860670268973711 0 -0.016064986363794779 -0.036441041599790329 0 -0.019637671972121611 -0.02148729346067638 0 -0.0077215053668332834 -0.022860670268973711 0 -0.011008321991883009 -0.01057962122923565 0 -0.011008321991883009 -0.01057962122923565 0 -0.00118246574067416 -0.01324232368796026 0 -0.0072764121498596901 -0.0036325873431357339 0 -0.0077215053668332834 -0.022860670268973711 0 -0.011008321991883009 -0.01057962122923565 0 -0.00118246574067416 -0.01324232368796026 0 -0.00118246574067416 -0.01324232368796026 0 -0.0072764121498596901 -0.0036325873431357339 0 0.0012074066645448821 -0.00065723147797176382 0 -0.0072764121498596901 -0.0036325873431357339 0 -0.013500839782477779 -0.0058155532537883976 0 -0.013607688627124061 -0.00178224205395049 0 -0.011008321991883009 -0.01057962122923565 0 -0.0072764121498596901 -0.0036325873431357339 0 -0.013500839782477779 -0.0058155532537883976 0 -0.01819617019275287 -0.0061732580868559192 0 -0.011008321991883009 -0.01057962122923565 0 -0.013500839782477779 -0.0058155532537883976 0 -0.017354136195868258 -0.0046192578634720229 0 -0.013500839782477779 -0.0058155532537883976 0 -0.013607688627124061 -0.00178224205395049 0 -0.017354136195868258 -0.0046192578634720229 0 -0.013607688627124061 -0.00178224205395049 0 -0.032367863380537598 -0.044965144957206583 0 -0.0096036345872028556 -0.056703489467087059 0 -0.032367863380537598 -0.044965144957206583 0 -0.026902341230915561 -0.060374551747501753 0 -0.0096036345872028556 -0.056703489467087059 0 -0.032367863380537598 -0.044965144957206583 0 -0.031233838643279398 -0.031193199633022049 0 -0.016064986363794779 -0.036441041599790329 0 -0.032367863380537598 -0.044965144957206583 0 -0.016064986363794779 -0.036441041599790329 0 -0.0096036345872028556 -0.056703489467087059 0 -0.0096036345872028556 -0.056703489467087059 0 0.0015263381015913891 -0.033415212413580753 0 -0.016064986363794779 -0.036441041599790329 0 -0.0096036345872028556 -0.056703489467087059 0 0.0015263381015913891 -0.033415212413580753 0 -0.0096036345872028556 -0.056703489467087059 0 0.0015263381015913891 -0.033415212413580753 0 0.007298405735321048 -0.051477207310420908 0 -0.0096036345872028556 -0.056703489467087059 0 0.0052181775422467033 -0.064346337314722044 0 -0.0096036345872028556 -0.056703489467087059 0 -0.0043762627118289626 -0.071729097412358583 0 0.0052181775422467033 -0.064346337314722044 0 -0.0043762627118289626 -0.071729097412358583 0 -0.0092607301227374331 -0.088572496961274561 0 -0.01646375475339092 -0.071057556949349329 0 -0.0096036345872028556 -0.056703489467087059 0 -0.01646375475339092 -0.071057556949349329 0 -0.0096036345872028556 -0.056703489467087059 0 -0.0043762627118289626 -0.071729097412358583 0 -0.01646375475339092 -0.071057556949349329 0 -0.0092607301227374331 -0.088572496961274561 0 -0.00044729776891663488 -0.1011528385718463 0 0.0042106568376920582 -0.081118225430045127 0 -0.0043762627118289626 -0.071729097412358583 0 -0.0092607301227374331 -0.088572496961274561 0 0.0042106568376920582 -0.081118225430045127 0 -0.0092607301227374331 -0.088572496961274561 0 -0.037642160748979789 -0.094071739377162955 0 -0.0092607301227374331 -0.088572496961274561 0 -0.023323874919582349 -0.085411624431610003 0 -0.01646375475339092 -0.071057556949349329 0 -0.0092607301227374331 -0.088572496961274561 0 -0.023323874919582349 -0.085411624431610003 0 -0.037642160748979789 -0.094071739377162955 0 -0.023323874919582349 -0.085411624431610003 0 -0.01646375475339092 -0.071057556949349329 0 -0.023323874919582349 -0.085411624431610003 0 -0.01646375475339092 -0.071057556949349329 0 -0.034846350139989962 -0.07108844977272101 0 -0.026902341230915561 -0.060374551747501753 0 -0.01646375475339092 -0.071057556949349329 0 -0.034846350139989962 -0.07108844977272101 0 -0.026902341230915561 -0.060374551747501753 0 -0.0096036345872028556 -0.056703489467087059 0 -0.01646375475339092 -0.071057556949349329 0 -0.041230103293456458 -0.058058117591144771 0 -0.026902341230915561 -0.060374551747501753 0 -0.034846350139989962 -0.07108844977272101 0 -0.041230103293456458 -0.058058117591144771 0 -0.034846350139989962 -0.07108844977272101 0 -0.049479852383656611 -0.067543566470139038 0 -0.034846350139989962 -0.07108844977272101 0 -0.048784805137481749 -0.081200653853927454 0 -0.049479852383656611 -0.067543566470139038 0 -0.023323874919582349 -0.085411624431610003 0 -0.034846350139989962 -0.07108844977272101 0 -0.036149297736508462 -0.082943116858855345 0 -0.023323874919582349 -0.085411624431610003 0 -0.036149297736508462 -0.082943116858855345 0 -0.037642160748979789 -0.094071739377162955 0 -0.036149297736508462 -0.082943116858855345 0 -0.048784805137481749 -0.081200653853927454 0 -0.037642160748979789 -0.094071739377162955 0 -0.034846350139989962 -0.07108844977272101 0 -0.036149297736508462 -0.082943116858855345 0 -0.048784805137481749 -0.081200653853927454 0 -0.063732237529271596 -0.080733089011810297 0 -0.066023591375222151 -0.09957098179305135 0 -0.048784805137481749 -0.081200653853927454 0 -0.066023591375222151 -0.09957098179305135 0 -0.048784805137481749 -0.081200653853927454 0 -0.037642160748979789 -0.094071739377162955 0 -0.063732237529271596 -0.080733089011810297 0 -0.048784805137481749 -0.081200653853927454 0 -0.058000192015007383 -0.073011667883306972 0 -0.055978059279945473 -0.056388284161067823 0 -0.060830035872249492 -0.064558057335980773 0 -0.049479852383656611 -0.067543566470139038 0 -0.058000192015007383 -0.073011667883306972 0 -0.060830035872249492 -0.064558057335980773 0 -0.049479852383656611 -0.067543566470139038 0 -0.067174029152377468 -0.071022972744677337 0 -0.058000192015007383 -0.073011667883306972 0 -0.060830035872249492 -0.064558057335980773 0 -0.048784805137481749 -0.081200653853927454 0 -0.058000192015007383 -0.073011667883306972 0 -0.049479852383656611 -0.067543566470139038 0 -0.069466171350113709 -0.1135628440840601 0 -0.054384952187449757 -0.110609208962567 0 -0.059238207921678762 -0.13024384051707169 0 -0.054384952187449757 -0.110609208962567 0 -0.059238207921678762 -0.13024384051707169 0 -0.032945469352336033 -0.1293562392835419 0 -0.066023591375222151 -0.09957098179305135 0 -0.054384952187449757 -0.110609208962567 0 -0.037642160748979789 -0.094071739377162955 0 -0.066023591375222151 -0.09957098179305135 0 -0.037642160748979789 -0.094071739377162955 0 -0.054384952187449757 -0.110609208962567 0 -0.037642160748979789 -0.094071739377162955 0 -0.035661083064217503 -0.11124856921529409 0 -0.054384952187449757 -0.110609208962567 0 -0.032945469352336033 -0.1293562392835419 0 -0.054384952187449757 -0.110609208962567 0 -0.035661083064217503 -0.11124856921529409 0 -0.032945469352336033 -0.1293562392835419 0 -0.01767174996810443 -0.1109570892379047 0 -0.012892303975098539 -0.12786221844410239 0 -0.032945469352336033 -0.1293562392835419 0 -0.035661083064217503 -0.11124856921529409 0 -0.01767174996810443 -0.1109570892379047 0 -0.032945469352336033 -0.1293562392835419 0 -0.0092607301227374331 -0.088572496961274561 0 -0.037642160748979789 -0.094071739377162955 0 -0.01767174996810443 -0.1109570892379047 0 -0.037642160748979789 -0.094071739377162955 0 -0.035661083064217503 -0.11124856921529409 0 -0.01767174996810443 -0.1109570892379047 0 -0.01767174996810443 -0.1109570892379047 0 -0.00044729776891663488 -0.1011528385718463 0 0.005085065621477718 -0.1151057880332567 0 -0.0092607301227374331 -0.088572496961274561 0 -0.01767174996810443 -0.1109570892379047 0 -0.00044729776891663488 -0.1011528385718463 0 -0.01767174996810443 -0.1109570892379047 0 -0.012892303975098539 -0.12786221844410239 0 0.005085065621477718 -0.1151057880332567 0 -0.012892303975098539 -0.12786221844410239 0 0.0027021066240326768 -0.1317064378292063 0 0.005085065621477718 -0.1151057880332567 0 -0.011505986517222349 -0.14810326960451681 0 -0.033736789854580403 -0.16402697950055581 0 -0.032945469352336033 -0.1293562392835419 0 -0.012892303975098539 -0.12786221844410239 0 -0.011505986517222349 -0.14810326960451681 0 0.0027021066240326768 -0.1317064378292063 0 -0.011505986517222349 -0.14810326960451681 0 -0.032945469352336033 -0.1293562392835419 0 -0.012892303975098539 -0.12786221844410239 0 -0.011505986517222349 -0.14810326960451681 0 -0.032945469352336033 -0.1293562392835419 0 -0.011505986517222349 -0.14810326960451681 0 0.009933496317892726 -0.16685029992549011 0 -0.011505986517222349 -0.14810326960451681 0 -0.0085976242789068957 -0.177408956520272 0 0.009933496317892726 -0.16685029992549011 0 -0.0085976242789068957 -0.177408956520272 0 -0.003739977245034012 -0.19168309442994089 0 -0.02712874487570623 -0.18796761311505439 0 -0.0085976242789068957 -0.177408956520272 0 -0.003739977245034012 -0.19168309442994089 0 0.0034571977838801569 -0.17702496179755631 0 -0.0085976242789068957 -0.177408956520272 0 -0.02712874487570623 -0.18796761311505439 0 -0.0085976242789068957 -0.177408956520272 0 -0.033736789854580403 -0.16402697950055581 0 -0.02712874487570623 -0.18796761311505439 0 -0.011505986517222349 -0.14810326960451681 0 -0.0085976242789068957 -0.177408956520272 0 -0.033736789854580403 -0.16402697950055581 0 -0.033736789854580403 -0.16402697950055581 0 -0.041678182321736049 -0.18065303021324261 0 -0.02712874487570623 -0.18796761311505439 0 -0.033736789854580403 -0.16402697950055581 0 -0.041678182321736049 -0.18065303021324261 0 -0.060187329084152079 -0.17209125852752319 0 -0.041678182321736049 -0.18065303021324261 0 -0.060187329084152079 -0.17209125852752319 0 -0.045659865472505487 -0.198526269709837 0 -0.060187329084152079 -0.17209125852752319 0 -0.045659865472505487 -0.198526269709837 0 -0.033736789854580403 -0.16402697950055581 0 -0.060187329084152079 -0.17209125852752319 0 -0.051699405537506939 -0.14899167338562519 0 -0.060187329084152079 -0.17209125852752319 0 -0.051699405537506939 -0.14899167338562519 0 -0.072389231474787458 -0.1492400490994332 0 -0.051699405537506939 -0.14899167338562519 0 -0.059238207921678762 -0.13024384051707169 0 -0.072389231474787458 -0.1492400490994332 0 -0.033736789854580403 -0.16402697950055581 0 -0.051699405537506939 -0.14899167338562519 0 -0.032945469352336033 -0.1293562392835419 0 -0.051699405537506939 -0.14899167338562519 0 -0.059238207921678762 -0.13024384051707169 0 -0.032945469352336033 -0.1293562392835419 0 -0.025857267464119819 -0.25506418495113531 0 -0.02368513365757598 -0.23851275990414511 0 -0.036167443228362108 -0.24337299090061551 0 -0.01269776775011346 -0.25850600500130039 0 -0.02368513365757598 -0.23851275990414511 0 -0.01269776775011346 -0.25850600500130039 0 -0.02368513365757598 -0.23851275990414511 0 -0.01082738352359053 -0.24876902592697839 0 -0.02368513365757598 -0.23851275990414511 0 -0.0067432183097289999 -0.239968376336817 0 -0.0090267388034834407 -0.23007068799598671 0 -0.02368513365757598 -0.23851275990414511 0 -0.01082738352359053 -0.24876902592697839 0 -0.0067432183097289999 -0.239968376336817 0 -0.01082738352359053 -0.24876902592697839 0 -0.0029313858115674811 -0.24854412401401971 0 -0.0067432183097289999 -0.239968376336817 0 -0.0029313858115674811 -0.24854412401401971 0 -0.0067432183097289999 -0.239968376336817 0 0.0026199421412959989 -0.2430643023623929 0 -0.0067432183097289999 -0.239968376336817 0 0.0026199421412959989 -0.2430643023623929 0 0.0017465435191736189 -0.23378549097037141 0 -0.0067432183097289999 -0.239968376336817 0 -0.0090267388034834407 -0.23007068799598671 0 0.0017465435191736189 -0.23378549097037141 0 -0.0090267388034834407 -0.23007068799598671 0 -0.00080535468136348092 -0.21995366459000901 0 -0.01839049427805331 -0.2195873775130934 0 -0.0090267388034834407 -0.23007068799598671 0 -0.00080535468136348092 -0.21995366459000901 0 0.0017465435191736189 -0.23378549097037141 0 -0.02368513365757598 -0.23851275990414511 0 -0.0090267388034834407 -0.23007068799598671 0 -0.01839049427805331 -0.2195873775130934 0 -0.02368513365757598 -0.23851275990414511 0 -0.01839049427805331 -0.2195873775130934 0 -0.034672499565036527 -0.2185195148069887 0 -0.02368513365757598 -0.23851275990414511 0 -0.034672499565036527 -0.2185195148069887 0 -0.01839049427805331 -0.2195873775130934 0 -0.027127261386640289 -0.20489204062456881 0 -0.034672499565036527 -0.2185195148069887 0 -0.01839049427805331 -0.2195873775130934 0 -0.027127261386640289 -0.20489204062456881 0 -0.01084996336714465 -0.20584666152463099 0 -0.00080535468136348092 -0.21995366459000901 0 -0.01839049427805331 -0.2195873775130934 0 -0.01084996336714465 -0.20584666152463099 0 -0.00080535468136348092 -0.21995366459000901 0 -0.01084996336714465 -0.20584666152463099 0 0.01016515501406726 -0.20926501301563591 0 -0.01084996336714465 -0.20584666152463099 0 -0.003739977245034012 -0.19168309442994089 0 0.01016515501406726 -0.20926501301563591 0 -0.01084996336714465 -0.20584666152463099 0 -0.003739977245034012 -0.19168309442994089 0 -0.02712874487570623 -0.18796761311505439 0 -0.027127261386640289 -0.20489204062456881 0 -0.01084996336714465 -0.20584666152463099 0 -0.02712874487570623 -0.18796761311505439 0 -0.041678182321736049 -0.18065303021324261 0 -0.02712874487570623 -0.18796761311505439 0 -0.045659865472505487 -0.198526269709837 0 -0.02712874487570623 -0.18796761311505439 0 -0.045659865472505487 -0.198526269709837 0 -0.027127261386640289 -0.20489204062456881 0 -0.02712874487570623 -0.18796761311505439 0 -0.045659865472505487 -0.198526269709837 0 -0.045659865472505487 -0.198526269709837 0 -0.067682806497079445 -0.21107449474949169 0 -0.062708331551170268 -0.19442045911658551 0 -0.060187329084152079 -0.17209125852752319 0 -0.045659865472505487 -0.198526269709837 0 -0.062708331551170268 -0.19442045911658551 0 -0.045659865472505487 -0.198526269709837 0 -0.067682806497079445 -0.21107449474949169 0 -0.045659865472505487 -0.198526269709837 0 -0.054546183461555722 -0.22015285450131489 0 -0.067682806497079445 -0.21107449474949169 0 -0.045659865472505487 -0.198526269709837 0 -0.034672499565036527 -0.2185195148069887 0 -0.054546183461555722 -0.22015285450131489 0 -0.045659865472505487 -0.198526269709837 0 -0.034672499565036527 -0.2185195148069887 0 -0.027127261386640289 -0.20489204062456881 0 -0.045659865472505487 -0.198526269709837 0 -0.034672499565036527 -0.2185195148069887 0 -0.034672499565036527 -0.2185195148069887 0 -0.044145410485190079 -0.23242073182379891 0 -0.054546183461555722 -0.22015285450131489 0 -0.02368513365757598 -0.23851275990414511 0 -0.034672499565036527 -0.2185195148069887 0 -0.044145410485190079 -0.23242073182379891 0 -0.044145410485190079 -0.23242073182379891 0 -0.054546183461555722 -0.22015285450131489 0 -0.061280333386656921 -0.23284462843810469 0 -0.061280333386656921 -0.23284462843810469 0 -0.050191684441297867 -0.2485850187836515 0 -0.071591358857016049 -0.2429226102204386 0 -0.050191684441297867 -0.2485850187836515 0 -0.071591358857016049 -0.2429226102204386 0 -0.056939497423126581 -0.24878681181634871 0 -0.050191684441297867 -0.2485850187836515 0 -0.071591358857016049 -0.2429226102204386 0 -0.044145410485190079 -0.23242073182379891 0 -0.061280333386656921 -0.23284462843810469 0 -0.050191684441297867 -0.2485850187836515 0 -0.041398382443623198 -0.25192549838374201 0 -0.056939497423126581 -0.24878681181634871 0 -0.050191684441297867 -0.2485850187836515 0 -0.044145410485190079 -0.23242073182379891 0 -0.050191684441297867 -0.2485850187836515 0 -0.036167443228362108 -0.24337299090061551 0 -0.02368513365757598 -0.23851275990414511 0 -0.044145410485190079 -0.23242073182379891 0 -0.036167443228362108 -0.24337299090061551 0 -0.025857267464119819 -0.25506418495113531 0 -0.050191684441297867 -0.2485850187836515 0 -0.036167443228362108 -0.24337299090061551 0 -0.097628444613881649 -0.25834262822693399 0 -0.087470553331264578 -0.24262075389877999 0 -0.077955776651182085 -0.24454236002529731 0 -0.087470553331264578 -0.24262075389877999 0 -0.087928467376508473 -0.23859976953689591 0 -0.1005617376665941 -0.23997685579502359 0 -0.087928467376508473 -0.23859976953689591 0 -0.07453604668454375 -0.2421434382925548 0 -0.07383618536286593 -0.22753148747966839 0 -0.087928467376508473 -0.23859976953689591 0 -0.07453604668454375 -0.2421434382925548 0 -0.087928467376508473 -0.23859976953689591 0 -0.077955776651182085 -0.24454236002529731 0 -0.07453604668454375 -0.2421434382925548 0 -0.087470553331264578 -0.24262075389877999 0 -0.087928467376508473 -0.23859976953689591 0 -0.077955776651182085 -0.24454236002529731 0 -0.087470553331264578 -0.24262075389877999 0 -0.077955776651182085 -0.24454236002529731 0 -0.056939497423126581 -0.24878681181634871 0 -0.077955776651182085 -0.24454236002529731 0 -0.071591358857016049 -0.2429226102204386 0 -0.056939497423126581 -0.24878681181634871 0 -0.077955776651182085 -0.24454236002529731 0 -0.077955776651182085 -0.24454236002529731 0 -0.071591358857016049 -0.2429226102204386 0 -0.07453604668454375 -0.2421434382925548 0 -0.077955776651182085 -0.24454236002529731 0 -0.07453604668454375 -0.2421434382925548 0 -0.071591358857016049 -0.2429226102204386 0 -0.07453604668454375 -0.2421434382925548 0 -0.056939497423126581 -0.24878681181634871 0 -0.071591358857016049 -0.2429226102204386 0 -0.061280333386656921 -0.23284462843810469 0 -0.071591358857016049 -0.2429226102204386 0 -0.07453604668454375 -0.2421434382925548 0 -0.061280333386656921 -0.23284462843810469 0 -0.07453604668454375 -0.2421434382925548 0 -0.07383618536286593 -0.22753148747966839 0 -0.089705747521653334 -0.22362271978914661 0 -0.067682806497079445 -0.21107449474949169 0 -0.054546183461555722 -0.22015285450131489 0 -0.061280333386656921 -0.23284462843810469 0 -0.07383618536286593 -0.22753148747966839 0 -0.054546183461555722 -0.22015285450131489 0 -0.07383618536286593 -0.22753148747966839 0 -0.067682806497079445 -0.21107449474949169 0 -0.061280333386656921 -0.23284462843810469 0 -0.07453604668454375 -0.2421434382925548 0 -0.07383618536286593 -0.22753148747966839 0 -0.087928467376508473 -0.23859976953689591 0 -0.07383618536286593 -0.22753148747966839 0 -0.089705747521653334 -0.22362271978914661 0 -0.087928467376508473 -0.23859976953689591 0 -0.089705747521653334 -0.22362271978914661 0 -0.1005617376665941 -0.23997685579502359 0 -0.089705747521653334 -0.22362271978914661 0 -0.067682806497079445 -0.21107449474949169 0 -0.089705747521653334 -0.22362271978914661 0 -0.084027466008495671 -0.20735524824550181 0 -0.09921486728828334 -0.20109800384388701 0 -0.089705747521653334 -0.22362271978914661 0 -0.084027466008495671 -0.20735524824550181 0 -0.067682806497079445 -0.21107449474949169 0 -0.084027466008495671 -0.20735524824550181 0 -0.067682806497079445 -0.21107449474949169 0 -0.079506442726966622 -0.19362577459948219 0 -0.067682806497079445 -0.21107449474949169 0 -0.062708331551170268 -0.19442045911658551 0 -0.079506442726966622 -0.19362577459948219 0 -0.079506442726966622 -0.19362577459948219 0 -0.09921486728828334 -0.20109800384388701 0 -0.089369030920126963 -0.1732707743578942 0 -0.084027466008495671 -0.20735524824550181 0 -0.079506442726966622 -0.19362577459948219 0 -0.09921486728828334 -0.20109800384388701 0 -0.09921486728828334 -0.20109800384388701 0 -0.1156293974943295 -0.1822747327150937 0 -0.1210853022939376 -0.205467400633562 0 -0.1156293974943295 -0.1822747327150937 0 -0.13505851963374399 -0.18906788910329131 0 -0.09921486728828334 -0.20109800384388701 0 -0.1210853022939376 -0.205467400633562 0 -0.1156293974943295 -0.1822747327150937 0 -0.1210853022939376 -0.205467400633562 0 -0.10755849924533691 -0.2178899443088799 0 -0.11989889803527461 -0.22145143588075511 0 -0.1210853022939376 -0.205467400633562 0 -0.11989889803527461 -0.22145143588075511 0 -0.13086176299679239 -0.21746526838305219 0 -0.089705747521653334 -0.22362271978914661 0 -0.09921486728828334 -0.20109800384388701 0 -0.10755849924533691 -0.2178899443088799 0 -0.09921486728828334 -0.20109800384388701 0 -0.1210853022939376 -0.205467400633562 0 -0.10755849924533691 -0.2178899443088799 0 -0.089705747521653334 -0.22362271978914661 0 -0.11172868854622731 -0.23617094482880149 0 -0.1005617376665941 -0.23997685579502359 0 -0.089705747521653334 -0.22362271978914661 0 -0.11172868854622731 -0.23617094482880149 0 -0.089705747521653334 -0.22362271978914661 0 -0.10755849924533691 -0.2178899443088799 0 -0.11172868854622731 -0.23617094482880149 0 -0.11989889803527461 -0.22145143588075511 0 -0.11172868854622731 -0.23617094482880149 0 -0.127825895831608 -0.22987551408160201 0 -0.10755849924533691 -0.2178899443088799 0 -0.11989889803527461 -0.22145143588075511 0 -0.11172868854622731 -0.23617094482880149 0 -0.13218950310710981 -0.25272660122947088 0 -0.1218823470606431 -0.24640061544388489 0 -0.1098930818979398 -0.24798588601512411 0 -0.11172868854622731 -0.23617094482880149 0 -0.13375162957080131 -0.24871916986845621 0 -0.11172868854622731 -0.23617094482880149 0 -0.1218823470606431 -0.24640061544388489 0 -0.13375162957080131 -0.24871916986845621 0 -0.11172868854622731 -0.23617094482880149 0 -0.13375162957080131 -0.24871916986845621 0 -0.127825895831608 -0.22987551408160201 0 -0.11172868854622731 -0.23617094482880149 0 -0.1218823470606431 -0.24640061544388489 0 -0.1098930818979398 -0.24798588601512411 0 -0.097628444613881649 -0.25834262822693399 0 -0.087470553331264578 -0.24262075389877999 0 -0.1098930818979398 -0.24798588601512411 0 -0.087470553331264578 -0.24262075389877999 0 -0.1098930818979398 -0.24798588601512411 0 -0.1005617376665941 -0.23997685579502359 0 -0.087470553331264578 -0.24262075389877999 0 -0.1098930818979398 -0.24798588601512411 0 -0.11172868854622731 -0.23617094482880149 0 -0.1098930818979398 -0.24798588601512411 0 -0.1005617376665941 -0.23997685579502359 0 -0.087470553331264578 -0.24262075389877999 0 -0.1005617376665941 -0.23997685579502359 0 -0.072389231474787458 -0.1492400490994332 0 -0.089369030920126963 -0.1732707743578942 0 -0.096011965921864201 -0.14265464397282879 0 -0.077516787342341589 -0.1242022911324857 0 -0.093262550211769629 -0.1231040070079162 0 -0.096011965921864201 -0.14265464397282879 0 -0.077516787342341589 -0.1242022911324857 0 -0.072389231474787458 -0.1492400490994332 0 -0.096011965921864201 -0.14265464397282879 0 -0.077516787342341589 -0.1242022911324857 0 -0.059238207921678762 -0.13024384051707169 0 -0.072389231474787458 -0.1492400490994332 0 -0.060187329084152079 -0.17209125852752319 0 -0.072389231474787458 -0.1492400490994332 0 -0.089369030920126963 -0.1732707743578942 0 -0.060187329084152079 -0.17209125852752319 0 -0.079506442726966622 -0.19362577459948219 0 -0.089369030920126963 -0.1732707743578942 0 -0.060187329084152079 -0.17209125852752319 0 -0.062708331551170268 -0.19442045911658551 0 -0.079506442726966622 -0.19362577459948219 0 -0.089369030920126963 -0.1732707743578942 0 -0.1107512355661594 -0.16096683979900789 0 -0.096011965921864201 -0.14265464397282879 0 -0.09921486728828334 -0.20109800384388701 0 -0.089369030920126963 -0.1732707743578942 0 -0.1156293974943295 -0.1822747327150937 0 -0.089369030920126963 -0.1732707743578942 0 -0.1156293974943295 -0.1822747327150937 0 -0.1107512355661594 -0.16096683979900789 0 -0.1156293974943295 -0.1822747327150937 0 -0.13204392770037571 -0.1634514615863005 0 -0.1156293974943295 -0.1822747327150937 0 -0.1107512355661594 -0.16096683979900789 0 -0.13204392770037571 -0.1634514615863005 0 -0.1107512355661594 -0.16096683979900789 0 -0.12070185579410091 -0.1431825863629223 0 -0.13204392770037571 -0.1634514615863005 0 -0.1107512355661594 -0.16096683979900789 0 -0.12070185579410091 -0.1431825863629223 0 -0.096011965921864201 -0.14265464397282879 0 -0.1071147179002416 -0.1244919901550422 0 -0.12070185579410091 -0.1431825863629223 0 -0.096011965921864201 -0.14265464397282879 0 -0.093262550211769629 -0.1231040070079162 0 -0.1071147179002416 -0.1244919901550422 0 -0.096011965921864201 -0.14265464397282879 0 -0.1071147179002416 -0.1244919901550422 0 -0.12070185579410091 -0.1431825863629223 0 -0.1306137014228527 -0.1212095633787966 0 -0.12070185579410091 -0.1431825863629223 0 -0.14845845790642179 -0.14462819045750719 0 -0.1306137014228527 -0.1212095633787966 0 -0.14845845790642179 -0.14462819045750719 0 -0.1306137014228527 -0.1212095633787966 0 -0.15036797716661271 -0.14243845987679379 0 -0.14845845790642179 -0.14462819045750719 0 -0.1306137014228527 -0.1212095633787966 0 -0.15406265534163929 -0.1294064941378926 0 -0.15036797716661271 -0.14243845987679379 0 -0.1306137014228527 -0.1212095633787966 0 -0.15406265534163929 -0.1294064941378926 0 -0.15036797716661271 -0.14243845987679379 0 -0.1564494690737798 -0.13971242061594299 0 -0.1543278084257422 -0.1453912472931165 0 -0.14845845790642179 -0.14462819045750719 0 -0.15894149653025619 -0.15184230729274609 0 -0.15519343748037609 -0.14309809199123349 0 -0.15036797716661271 -0.14243845987679379 0 -0.1564494690737798 -0.13971242061594299 0 -0.1543278084257422 -0.1453912472931165 0 -0.15519343748037609 -0.14309809199123349 0 -0.15036797716661271 -0.14243845987679379 0 -0.1543278084257422 -0.1453912472931165 0 -0.15036797716661271 -0.14243845987679379 0 -0.14845845790642179 -0.14462819045750719 0 -0.15036797716661271 -0.14243845987679379 0 -0.14845845790642179 -0.14462819045750719 0 -0.12070185579410091 -0.1431825863629223 0 -0.14845845790642179 -0.14462819045750719 0 -0.13204392770037571 -0.1634514615863005 0 -0.14845845790642179 -0.14462819045750719 0 -0.13204392770037571 -0.1634514615863005 0 -0.13204392770037571 -0.1634514615863005 0 -0.1475860696211248 -0.17640031700015249 0 -0.13505851963374399 -0.18906788910329131 0 -0.1156293974943295 -0.1822747327150937 0 -0.13204392770037571 -0.1634514615863005 0 -0.13505851963374399 -0.18906788910329131 0 -0.1475860696211248 -0.17640031700015249 0 -0.1655722477793394 -0.1670875310098065 0 -0.15496537504316019 -0.19429807729602311 0 -0.1475860696211248 -0.17640031700015249 0 -0.13505851963374399 -0.18906788910329131 0 -0.15496537504316019 -0.19429807729602311 0 -0.1475860696211248 -0.17640031700015249 0 -0.14862352044039201 -0.16347018067920821 0 -0.1655722477793394 -0.1670875310098065 0 -0.14845845790642179 -0.14462819045750719 0 -0.13204392770037571 -0.1634514615863005 0 -0.14862352044039201 -0.16347018067920821 0 -0.14845845790642179 -0.14462819045750719 0 -0.14862352044039201 -0.16347018067920821 0 -0.1655722477793394 -0.1670875310098065 0 -0.13204392770037571 -0.1634514615863005 0 -0.1475860696211248 -0.17640031700015249 0 -0.14862352044039201 -0.16347018067920821 0 -0.1655722477793394 -0.1670875310098065 0 -0.1716614177265566 -0.15146656102038991 0 -0.1655722477793394 -0.1670875310098065 0 -0.15894149653025619 -0.15184230729274609 0 -0.1716614177265566 -0.15146656102038991 0 -0.1655722477793394 -0.1670875310098065 0 -0.17557921295501691 -0.18022020591375351 0 -0.1689483943248192 -0.19264195369377959 0 -0.1655722477793394 -0.1670875310098065 0 -0.15496537504316019 -0.19429807729602311 0 -0.1689483943248192 -0.19264195369377959 0 -0.1655722477793394 -0.1670875310098065 0 -0.15496537504316019 -0.19429807729602311 0 -0.1655722477793394 -0.1670875310098065 0 -0.17557921295501691 -0.18022020591375351 0 -0.17557921295501691 -0.18022020591375351 0 -0.18239484980351819 -0.16464781923938721 0 -0.1907059301477185 -0.18468107337543721 0 -0.1655722477793394 -0.1670875310098065 0 -0.17557921295501691 -0.18022020591375351 0 -0.18239484980351819 -0.16464781923938721 0 -0.1655722477793394 -0.1670875310098065 0 -0.18239484980351819 -0.16464781923938721 0 -0.1716614177265566 -0.15146656102038991 0 -0.18239484980351819 -0.16464781923938721 0 -0.1716614177265566 -0.15146656102038991 0 -0.1894311146879058 -0.1465309504005988 0 -0.17775058767377289 -0.13584559103097291 0 -0.1716614177265566 -0.15146656102038991 0 -0.1894311146879058 -0.1465309504005988 0 -0.17775058767377289 -0.13584559103097291 0 -0.1716614177265566 -0.15146656102038991 0 -0.17775058767377289 -0.13584559103097291 0 -0.1894311146879058 -0.1465309504005988 0 -0.17775058767377289 -0.13584559103097291 0 -0.19823449762692411 -0.13229999761030051 0 -0.18534812722118199 -0.1163550958908785 0 -0.17775058767377289 -0.13584559103097291 0 -0.18534812722118199 -0.1163550958908785 0 -0.15406265534163929 -0.1294064941378926 0 -0.16394560233522651 -0.1386698702264933 0 -0.15606779039194271 -0.1160101434681408 0 -0.17775058767377289 -0.13584559103097291 0 -0.16394560233522651 -0.1386698702264933 0 -0.15606779039194271 -0.1160101434681408 0 -0.17775058767377289 -0.13584559103097291 0 -0.15606779039194271 -0.1160101434681408 0 -0.15406265534163929 -0.1294064941378926 0 -0.16394560233522651 -0.1386698702264933 0 -0.1564494690737798 -0.13971242061594299 0 -0.16394560233522651 -0.1386698702264933 0 -0.1564494690737798 -0.13971242061594299 0 -0.15962849525536979 -0.1448502401790808 0 -0.14845845790642179 -0.14462819045750719 0 -0.1655722477793394 -0.1670875310098065 0 -0.14845845790642179 -0.14462819045750719 0 -0.1655722477793394 -0.1670875310098065 0 -0.15894149653025619 -0.15184230729274609 0 -0.15519343748037609 -0.14309809199123349 0 -0.1564494690737798 -0.13971242061594299 0 -0.15962849525536979 -0.1448502401790808 0 -0.1543278084257422 -0.1453912472931165 0 -0.15519343748037609 -0.14309809199123349 0 -0.15962849525536979 -0.1448502401790808 0 -0.1543278084257422 -0.1453912472931165 0 -0.15962849525536979 -0.1448502401790808 0 -0.15894149653025619 -0.15184230729274609 0 -0.15962849525536979 -0.1448502401790808 0 -0.15894149653025619 -0.15184230729274609 0 -0.1716614177265566 -0.15146656102038991 0 -0.17775058767377289 -0.13584559103097291 0 -0.16394560233522651 -0.1386698702264933 0 -0.1716614177265566 -0.15146656102038991 0 -0.16394560233522651 -0.1386698702264933 0 -0.15962849525536979 -0.1448502401790808 0 -0.1716614177265566 -0.15146656102038991 0 -0.1534429259631987 -0.25724555178864622 0 -0.15289321433053751 -0.246830478479277 0 -0.1378886282313006 -0.2381062402767252 0 -0.1534429259631987 -0.25724555178864622 0 -0.1378886282313006 -0.2381062402767252 0 -0.15348527020851541 -0.23913552791147211 0 -0.1378886282313006 -0.2381062402767252 0 -0.15430752157141919 -0.22794821467022949 0 -0.15289321433053751 -0.246830478479277 0 -0.15348527020851541 -0.23913552791147211 0 -0.1601832428566283 -0.24550858739866141 0 -0.15289321433053751 -0.246830478479277 0 -0.15348527020851541 -0.23913552791147211 0 -0.1378886282313006 -0.2381062402767252 0 -0.1459019403517107 -0.25564217047089421 0 -0.13375162957080131 -0.24871916986845621 0 -0.1378886282313006 -0.2381062402767252 0 -0.13375162957080131 -0.24871916986845621 0 -0.1378886282313006 -0.2381062402767252 0 -0.127825895831608 -0.22987551408160201 0 -0.13375162957080131 -0.24871916986845621 0 -0.1378886282313006 -0.2381062402767252 0 -0.13218950310710981 -0.25272660122947088 0 -0.1218823470606431 -0.24640061544388489 0 -0.13375162957080131 -0.24871916986845621 0 -0.127825895831608 -0.22987551408160201 0 -0.14435850230698141 -0.22150862358223991 0 -0.13086176299679239 -0.21746526838305219 0 -0.1378886282313006 -0.2381062402767252 0 -0.127825895831608 -0.22987551408160201 0 -0.14435850230698141 -0.22150862358223991 0 -0.11989889803527461 -0.22145143588075511 0 -0.127825895831608 -0.22987551408160201 0 -0.13086176299679239 -0.21746526838305219 0 -0.1378886282313006 -0.2381062402767252 0 -0.14435850230698141 -0.22150862358223991 0 -0.14435850230698141 -0.22150862358223991 0 -0.15430752157141919 -0.22794821467022949 0 -0.16410544360365359 -0.21493654602220469 0 -0.1378886282313006 -0.2381062402767252 0 -0.14435850230698141 -0.22150862358223991 0 -0.15430752157141919 -0.22794821467022949 0 -0.14435850230698141 -0.22150862358223991 0 -0.15496537504316019 -0.19429807729602311 0 -0.14435850230698141 -0.22150862358223991 0 -0.1373527607074172 -0.20563907323320921 0 -0.15496537504316019 -0.19429807729602311 0 -0.14435850230698141 -0.22150862358223991 0 -0.15496537504316019 -0.19429807729602311 0 -0.16410544360365359 -0.21493654602220469 0 -0.14435850230698141 -0.22150862358223991 0 -0.1373527607074172 -0.20563907323320921 0 -0.13086176299679239 -0.21746526838305219 0 -0.1210853022939376 -0.205467400633562 0 -0.1373527607074172 -0.20563907323320921 0 -0.13086176299679239 -0.21746526838305219 0 -0.1210853022939376 -0.205467400633562 0 -0.1373527607074172 -0.20563907323320921 0 -0.13505851963374399 -0.18906788910329131 0 -0.1373527607074172 -0.20563907323320921 0 -0.13505851963374399 -0.18906788910329131 0 -0.15496537504316019 -0.19429807729602311 0 -0.1689483943248192 -0.19264195369377959 0 -0.17994482166635981 -0.2014366202218163 0 -0.16410544360365359 -0.21493654602220469 0 -0.15496537504316019 -0.19429807729602311 0 -0.1689483943248192 -0.19264195369377959 0 -0.16410544360365359 -0.21493654602220469 0 -0.17557921295501691 -0.18022020591375351 0 -0.1689483943248192 -0.19264195369377959 0 -0.17994482166635981 -0.2014366202218163 0 -0.17557921295501691 -0.18022020591375351 0 -0.17994482166635981 -0.2014366202218163 0 -0.1907059301477185 -0.18468107337543721 0 -0.17994482166635981 -0.2014366202218163 0 -0.1784102433228649 -0.21681777692650089 0 -0.16410544360365359 -0.21493654602220469 0 -0.17994482166635981 -0.2014366202218163 0 -0.18904495760185211 -0.20873870471059999 0 -0.19252771524915421 -0.19930647688205899 0 -0.17994482166635981 -0.2014366202218163 0 -0.1784102433228649 -0.21681777692650089 0 -0.18904495760185211 -0.20873870471059999 0 -0.1784102433228649 -0.21681777692650089 0 -0.19175951728552271 -0.21959172261586679 0 -0.18904495760185211 -0.20873870471059999 0 -0.15430752157141919 -0.22794821467022949 0 -0.16410544360365359 -0.21493654602220469 0 -0.16877954452522659 -0.2255120540677526 0 -0.15430752157141919 -0.22794821467022949 0 -0.16877954452522659 -0.2255120540677526 0 -0.16324537569009509 -0.2357306359809743 0 -0.15348527020851541 -0.23913552791147211 0 -0.15430752157141919 -0.22794821467022949 0 -0.16324537569009509 -0.2357306359809743 0 -0.16877954452522659 -0.2255120540677526 0 -0.17781387366555559 -0.23090770197000129 0 -0.16324537569009509 -0.2357306359809743 0 -0.1784102433228649 -0.21681777692650089 0 -0.16410544360365359 -0.21493654602220469 0 -0.16877954452522659 -0.2255120540677526 0 -0.1784102433228649 -0.21681777692650089 0 -0.16877954452522659 -0.2255120540677526 0 -0.17781387366555559 -0.23090770197000129 0 -0.1784102433228649 -0.21681777692650089 0 -0.17781387366555559 -0.23090770197000129 0 -0.19175951728552271 -0.21959172261586679 0 -0.17781387366555559 -0.23090770197000129 0 -0.1805311654956796 -0.2411950136452527 0 -0.19410287643929239 -0.23312434657521411 0 -0.17781387366555559 -0.23090770197000129 0 -0.1805311654956796 -0.2411950136452527 0 -0.16955513552828311 -0.24305067226283769 0 -0.17679077873490559 -0.25046109420941731 0 -0.1805311654956796 -0.2411950136452527 0 -0.18863044441395099 -0.24733650333174401 0 -0.17679077873490559 -0.25046109420941731 0 -0.1805311654956796 -0.2411950136452527 0 -0.16955513552828311 -0.24305067226283769 0 -0.16709258238786229 -0.25188408856254202 0 -0.17679077873490559 -0.25046109420941731 0 -0.16955513552828311 -0.24305067226283769 0 -0.16709258238786229 -0.25188408856254202 0 -0.16955513552828311 -0.24305067226283769 0 -0.1601832428566283 -0.24550858739866141 0 -0.17781387366555559 -0.23090770197000129 0 -0.16955513552828311 -0.24305067226283769 0 -0.16324537569009509 -0.2357306359809743 0 -0.16955513552828311 -0.24305067226283769 0 -0.16324537569009509 -0.2357306359809743 0 -0.1601832428566283 -0.24550858739866141 0 -0.15348527020851541 -0.23913552791147211 0 -0.16324537569009509 -0.2357306359809743 0 -0.1601832428566283 -0.24550858739866141 0 -0.1593809120407062 -0.25278805690175971 0 -0.15289321433053751 -0.246830478479277 0 -0.1601832428566283 -0.24550858739866141 0 -0.20565562739327201 -0.24334207984173631 0 -0.19410287643929239 -0.23312434657521411 0 -0.21201774175915139 -0.2290986139018284 0 -0.21472073189145299 -0.25725591714607071 0 -0.20565562739327201 -0.24334207984173631 0 -0.22837296648480071 -0.23789375384220129 0 -0.20565562739327201 -0.24334207984173631 0 -0.21201774175915139 -0.2290986139018284 0 -0.22837296648480071 -0.23789375384220129 0 -0.20565562739327201 -0.24334207984173631 0 -0.18863044441395099 -0.24733650333174401 0 -0.19410287643929239 -0.23312434657521411 0 -0.1805311654956796 -0.2411950136452527 0 -0.18863044441395099 -0.24733650333174401 0 -0.19410287643929239 -0.23312434657521411 0 -0.17781387366555559 -0.23090770197000129 0 -0.19410287643929239 -0.23312434657521411 0 -0.19175951728552271 -0.21959172261586679 0 -0.19410287643929239 -0.23312434657521411 0 -0.19175951728552271 -0.21959172261586679 0 -0.20443040571370949 -0.21985141578154491 0 -0.21201774175915139 -0.2290986139018284 0 -0.20443040571370949 -0.21985141578154491 0 -0.22630383013383959 -0.21240708539258099 0 -0.19410287643929239 -0.23312434657521411 0 -0.21201774175915139 -0.2290986139018284 0 -0.20443040571370949 -0.21985141578154491 0 -0.20157622681128409 -0.2075672839719423 0 -0.21557055542943429 -0.1904257004922347 0 -0.22630383013383959 -0.21240708539258099 0 -0.20157622681128409 -0.2075672839719423 0 -0.22630383013383959 -0.21240708539258099 0 -0.20443040571370949 -0.21985141578154491 0 -0.20157622681128409 -0.2075672839719423 0 -0.22630383013383959 -0.21240708539258099 0 -0.19175951728552271 -0.21959172261586679 0 -0.20443040571370949 -0.21985141578154491 0 -0.20157622681128409 -0.2075672839719423 0 -0.19175951728552271 -0.21959172261586679 0 -0.20157622681128409 -0.2075672839719423 0 -0.19175951728552271 -0.21959172261586679 0 -0.18904495760185211 -0.20873870471059999 0 -0.20157622681128409 -0.2075672839719423 0 -0.18904495760185211 -0.20873870471059999 0 -0.20157622681128409 -0.2075672839719423 0 -0.19252771524915421 -0.19930647688205899 0 -0.17994482166635981 -0.2014366202218163 0 -0.19252771524915421 -0.19930647688205899 0 -0.1907059301477185 -0.18468107337543721 0 -0.20157622681128409 -0.2075672839719423 0 -0.19252771524915421 -0.19930647688205899 0 -0.20187756758401409 -0.19506767240709361 0 -0.19252771524915421 -0.19930647688205899 0 -0.20187756758401409 -0.19506767240709361 0 -0.1907059301477185 -0.18468107337543721 0 -0.20157622681128409 -0.2075672839719423 0 -0.21557055542943429 -0.1904257004922347 0 -0.20187756758401409 -0.19506767240709361 0 -0.21557055542943429 -0.1904257004922347 0 -0.2038146335316797 -0.1820121315948606 0 -0.20157622681128409 -0.2075672839719423 0 -0.20187756758401409 -0.19506767240709361 0 -0.21557055542943429 -0.1904257004922347 0 -0.21557055542943429 -0.1904257004922347 0 -0.23533053747689989 -0.1962925907305976 0 -0.22630383013383959 -0.21240708539258099 0 -0.23533053747689989 -0.1962925907305976 0 -0.25103143345639523 -0.21724688681321891 0 -0.25418198431724581 -0.18809916394242601 0 -0.22630383013383959 -0.21240708539258099 0 -0.25103143345639523 -0.21724688681321891 0 -0.23533053747689989 -0.1962925907305976 0 -0.22630383013383959 -0.21240708539258099 0 -0.25103143345639523 -0.21724688681321891 0 -0.21201774175915139 -0.2290986139018284 0 -0.22630383013383959 -0.21240708539258099 0 -0.22837296648480071 -0.23789375384220129 0 -0.22630383013383959 -0.21240708539258099 0 -0.22837296648480071 -0.23789375384220129 0 -0.25103143345639523 -0.21724688681321891 0 -0.22837296648480071 -0.23789375384220129 0 -0.25431856302814809 -0.24833495949118861 0 -0.25103143345639523 -0.21724688681321891 0 -0.2335542019388327 -0.26090262277066528 0 -0.22837296648480071 -0.23789375384220129 0 -0.25431856302814809 -0.24833495949118861 0 -0.20708483324238849 -0.15128624944667929 0 -0.22647357207813959 -0.15205360930679629 0 -0.2195633859389316 -0.1340578990397249 0 -0.20708483324238849 -0.15128624944667929 0 -0.19823449762692411 -0.13229999761030051 0 -0.2195633859389316 -0.1340578990397249 0 -0.19823449762692411 -0.13229999761030051 0 -0.2195633859389316 -0.1340578990397249 0 -0.21022893699736381 -0.1097241998529486 0 -0.17775058767377289 -0.13584559103097291 0 -0.19823449762692411 -0.13229999761030051 0 -0.1894311146879058 -0.1465309504005988 0 -0.20708483324238849 -0.15128624944667929 0 -0.1894311146879058 -0.1465309504005988 0 -0.19351686899232889 -0.15854259719770419 0 -0.20708483324238849 -0.15128624944667929 0 -0.19823449762692411 -0.13229999761030051 0 -0.1894311146879058 -0.1465309504005988 0 -0.20708483324238849 -0.15128624944667929 0 -0.19351686899232889 -0.15854259719770419 0 -0.19880271024428661 -0.17007658736909009 0 -0.18239484980351819 -0.16464781923938721 0 -0.1894311146879058 -0.1465309504005988 0 -0.19351686899232889 -0.15854259719770419 0 -0.18239484980351819 -0.16464781923938721 0 -0.19351686899232889 -0.15854259719770419 0 -0.19880271024428661 -0.17007658736909009 0 -0.18239484980351819 -0.16464781923938721 0 -0.19880271024428661 -0.17007658736909009 0 -0.1907059301477185 -0.18468107337543721 0 -0.19880271024428661 -0.17007658736909009 0 -0.1907059301477185 -0.18468107337543721 0 -0.2038146335316797 -0.1820121315948606 0 -0.20187756758401409 -0.19506767240709361 0 -0.1907059301477185 -0.18468107337543721 0 -0.2038146335316797 -0.1820121315948606 0 -0.21557055542943429 -0.1904257004922347 0 -0.2038146335316797 -0.1820121315948606 0 -0.21355186476225221 -0.16985639920369799 0 -0.19880271024428661 -0.17007658736909009 0 -0.2038146335316797 -0.1820121315948606 0 -0.21355186476225221 -0.16985639920369799 0 -0.20708483324238849 -0.15128624944667929 0 -0.21355186476225221 -0.16985639920369799 0 -0.22647357207813959 -0.15205360930679629 0 -0.20708483324238849 -0.15128624944667929 0 -0.19880271024428661 -0.17007658736909009 0 -0.21355186476225221 -0.16985639920369799 0 -0.22956488404758479 -0.1732841170125273 0 -0.2435592126657353 -0.1561425335328199 0 -0.22647357207813959 -0.15205360930679629 0 -0.21355186476225221 -0.16985639920369799 0 -0.22956488404758479 -0.1732841170125273 0 -0.22647357207813959 -0.15205360930679629 0 -0.21557055542943429 -0.1904257004922347 0 -0.21355186476225221 -0.16985639920369799 0 -0.22956488404758479 -0.1732841170125273 0 -0.21557055542943429 -0.1904257004922347 0 -0.22956488404758479 -0.1732841170125273 0 -0.21557055542943429 -0.1904257004922347 0 -0.23533053747689989 -0.1962925907305976 0 -0.22956488404758479 -0.1732841170125273 0 -0.23533053747689989 -0.1962925907305976 0 -0.22956488404758479 -0.1732841170125273 0 -0.25418198431724581 -0.18809916394242601 0 -0.22956488404758479 -0.1732841170125273 0 -0.25418198431724581 -0.18809916394242601 0 -0.2565438833259911 -0.1687602707777138 0 -0.22956488404758479 -0.1732841170125273 0 -0.2435592126657353 -0.1561425335328199 0 -0.22956488404758479 -0.1732841170125273 0 -0.2435592126657353 -0.1561425335328199 0 -0.2565438833259911 -0.1687602707777138 0 -0.2435592126657353 -0.1561425335328199 0 -0.22647357207813959 -0.15205360930679629 0 -0.2432602079730701 -0.13485583854350039 0 -0.22647357207813959 -0.15205360930679629 0 -0.2195633859389316 -0.1340578990397249 0 -0.2432602079730701 -0.13485583854350039 0 -0.2195633859389316 -0.1340578990397249 0 -0.2432602079730701 -0.13485583854350039 0 -0.23065476516460279 -0.11957242830579699 0 -0.2432602079730701 -0.13485583854350039 0 -0.2499653418643101 -0.1102460646797562 0 -0.23065476516460279 -0.11957242830579699 0 -0.2499653418643101 -0.1102460646797562 0 -0.2308399038819596 -0.1034577205422559 0 -0.23065476516460279 -0.11957242830579699 0 -0.2308399038819596 -0.1034577205422559 0 -0.25308440776240432 -0.086371671251396109 0 -0.2499653418643101 -0.1102460646797562 0 -0.2308399038819596 -0.1034577205422559 0 -0.25308440776240432 -0.086371671251396109 0 -0.2308399038819596 -0.1034577205422559 0 -0.21022893699736381 -0.1097241998529486 0 -0.21520721362926831 -0.098298511723915558 0 -0.2308399038819596 -0.1034577205422559 0 -0.22013457808717909 -0.089221868029860679 0 -0.21520721362926831 -0.098298511723915558 0 -0.2308399038819596 -0.1034577205422559 0 -0.23065476516460279 -0.11957242830579699 0 -0.21022893699736381 -0.1097241998529486 0 -0.2195633859389316 -0.1340578990397249 0 -0.23065476516460279 -0.11957242830579699 0 -0.21022893699736381 -0.1097241998529486 0 -0.2335598957907816 -0.079883889973887123 0 -0.24475965461883589 -0.059498385283178377 0 -0.2582325144520296 -0.070050845257802419 0 -0.2335598957907816 -0.079883889973887123 0 -0.2582325144520296 -0.070050845257802419 0 -0.25308440776240432 -0.086371671251396109 0 -0.2308399038819596 -0.1034577205422559 0 -0.2335598957907816 -0.079883889973887123 0 -0.25308440776240432 -0.086371671251396109 0 -0.2308399038819596 -0.1034577205422559 0 -0.22013457808717909 -0.089221868029860679 0 -0.2335598957907816 -0.079883889973887123 0 -0.22013457808717909 -0.089221868029860679 0 -0.2335598957907816 -0.079883889973887123 0 -0.21963876375789801 -0.077814354495200549 0 -0.2335598957907816 -0.079883889973887123 0 -0.21595644614104051 -0.065738508165203102 0 -0.24475965461883589 -0.059498385283178377 0 -0.21595644614104051 -0.065738508165203102 0 -0.24475965461883589 -0.059498385283178377 0 -0.2335598957907816 -0.079883889973887123 0 -0.21963876375789801 -0.077814354495200549 0 -0.21595644614104051 -0.065738508165203102 0 -0.20438945881064449 -0.068244458930106389 0 -0.21100771399754009 -0.086966924160961745 0 -0.21595644614104051 -0.065738508165203102 0 -0.21100771399754009 -0.086966924160961745 0 -0.20438945881064449 -0.068244458930106389 0 -0.21595644614104051 -0.065738508165203102 0 -0.21100771399754009 -0.086966924160961745 0 -0.21963876375789801 -0.077814354495200549 0 -0.21595644614104051 -0.065738508165203102 0 -0.21100771399754009 -0.086966924160961745 0 -0.20438945881064449 -0.068244458930106389 0 -0.21595644614104051 -0.065738508165203102 0 -0.20438945881064449 -0.068244458930106389 0 -0.21595644614104051 -0.065738508165203102 0 -0.20711132549122371 -0.057203435059411119 0 -0.20438945881064449 -0.068244458930106389 0 -0.21100771399754009 -0.086966924160961745 0 -0.19851231957361129 -0.085310821531315487 0 -0.22013457808717909 -0.089221868029860679 0 -0.21963876375789801 -0.077814354495200549 0 -0.21100771399754009 -0.086966924160961745 0 -0.22013457808717909 -0.089221868029860679 0 -0.21100771399754009 -0.086966924160961745 0 -0.21520721362926831 -0.098298511723915558 0 -0.21100771399754009 -0.086966924160961745 0 -0.19851231957361129 -0.085310821531315487 0 -0.20550431009004061 -0.095676697317907802 0 -0.21100771399754009 -0.086966924160961745 0 -0.21520721362926831 -0.098298511723915558 0 -0.20550431009004061 -0.095676697317907802 0 -0.19851231957361129 -0.085310821531315487 0 -0.18118326058104209 -0.08825419183970401 0 -0.18409944718507371 -0.07264022497537044 0 -0.19851231957361129 -0.085310821531315487 0 -0.19294566676858971 -0.096864600750783431 0 -0.18118326058104209 -0.08825419183970401 0 -0.19851231957361129 -0.085310821531315487 0 -0.20550431009004061 -0.095676697317907802 0 -0.19294566676858971 -0.096864600750783431 0 -0.20438945881064449 -0.068244458930106389 0 -0.19851231957361129 -0.085310821531315487 0 -0.18409944718507371 -0.07264022497537044 0 -0.20438945881064449 -0.068244458930106389 0 -0.18409944718507371 -0.07264022497537044 0 -0.18769526278089041 -0.057829612445021099 0 -0.20438945881064449 -0.068244458930106389 0 -0.18409944718507371 -0.07264022497537044 0 -0.21022893699736381 -0.1097241998529486 0 -0.21520721362926831 -0.098298511723915558 0 -0.20550431009004061 -0.095676697317907802 0 -0.21022893699736381 -0.1097241998529486 0 -0.20550431009004061 -0.095676697317907802 0 -0.19294566676858971 -0.096864600750783431 0 -0.19294566676858971 -0.096864600750783431 0 -0.18534812722118199 -0.1163550958908785 0 -0.21022893699736381 -0.1097241998529486 0 -0.19294566676858971 -0.096864600750783431 0 -0.18534812722118199 -0.1163550958908785 0 -0.19823449762692411 -0.13229999761030051 0 -0.21022893699736381 -0.1097241998529486 0 -0.18534812722118199 -0.1163550958908785 0 -0.18534812722118199 -0.1163550958908785 0 -0.17423934197139679 -0.1017815859784342 0 -0.15606779039194271 -0.1160101434681408 0 -0.17775058767377289 -0.13584559103097291 0 -0.18534812722118199 -0.1163550958908785 0 -0.15606779039194271 -0.1160101434681408 0 -0.16057304666404501 -0.10079887419961479 0 -0.17423934197139679 -0.1017815859784342 0 -0.15606779039194271 -0.1160101434681408 0 -0.16057304666404501 -0.10079887419961479 0 -0.16746185343044401 -0.091445336260546128 0 -0.1570966781871318 -0.090327755750333361 0 -0.16057304666404501 -0.10079887419961479 0 -0.17423934197139679 -0.1017815859784342 0 -0.16746185343044401 -0.091445336260546128 0 -0.17423934197139679 -0.1017815859784342 0 -0.18118326058104209 -0.08825419183970401 0 -0.16746185343044401 -0.091445336260546128 0 -0.19294566676858971 -0.096864600750783431 0 -0.18534812722118199 -0.1163550958908785 0 -0.17423934197139679 -0.1017815859784342 0 -0.19294566676858971 -0.096864600750783431 0 -0.17423934197139679 -0.1017815859784342 0 -0.18118326058104209 -0.08825419183970401 0 -0.18118326058104209 -0.08825419183970401 0 -0.18409944718507371 -0.07264022497537044 0 -0.16915717098214109 -0.081397787743409861 0 -0.18118326058104209 -0.08825419183970401 0 -0.16746185343044401 -0.091445336260546128 0 -0.16915717098214109 -0.081397787743409861 0 -0.18409944718507371 -0.07264022497537044 0 -0.1702117591297739 -0.06777753321031553 0 -0.16380943555950259 -0.077035991020633382 0 -0.18409944718507371 -0.07264022497537044 0 -0.16380943555950259 -0.077035991020633382 0 -0.16915717098214109 -0.081397787743409861 0 -0.18409944718507371 -0.07264022497537044 0 -0.17187825396406881 -0.057945450019426657 0 -0.18769526278089041 -0.057829612445021099 0 -0.18409944718507371 -0.07264022497537044 0 -0.16380943555950259 -0.077035991020633382 0 -0.18409944718507371 -0.07264022497537044 0 -0.1702117591297739 -0.06777753321031553 0 -0.17187825396406881 -0.057945450019426657 0 -0.16380943555950259 -0.077035991020633382 0 -0.16105989981045041 -0.063488466825831633 0 -0.14595160177326619 -0.062470528310013429 0 -0.1702117591297739 -0.06777753321031553 0 -0.16105989981045041 -0.063488466825831633 0 -0.17187825396406881 -0.057945450019426657 0 -0.1702117591297739 -0.06777753321031553 0 -0.16380943555950259 -0.077035991020633382 0 -0.16105989981045041 -0.063488466825831633 0 -0.16380943555950259 -0.077035991020633382 0 -0.16109871639751261 -0.084134952385501949 0 -0.14796844382834351 -0.080467891152587012 0 -0.16746185343044401 -0.091445336260546128 0 -0.16915717098214109 -0.081397787743409861 0 -0.16109871639751261 -0.084134952385501949 0 -0.16380943555950259 -0.077035991020633382 0 -0.16915717098214109 -0.081397787743409861 0 -0.16109871639751261 -0.084134952385501949 0 -0.16380943555950259 -0.077035991020633382 0 -0.16915717098214109 -0.081397787743409861 0 -0.16746185343044401 -0.091445336260546128 0 -0.16109871639751261 -0.084134952385501949 0 -0.1570966781871318 -0.090327755750333361 0 -0.16380943555950259 -0.077035991020633382 0 -0.14796844382834351 -0.080467891152587012 0 -0.14796844382834351 -0.080467891152587012 0 -0.13497135686491851 -0.078315161523928284 0 -0.1484932433812913 -0.094043062253026791 0 -0.1570966781871318 -0.090327755750333361 0 -0.14796844382834351 -0.080467891152587012 0 -0.1484932433812913 -0.094043062253026791 0 -0.16109871639751261 -0.084134952385501949 0 -0.1570966781871318 -0.090327755750333361 0 -0.14796844382834351 -0.080467891152587012 0 -0.16380943555950259 -0.077035991020633382 0 -0.14796844382834351 -0.080467891152587012 0 -0.14595160177326619 -0.062470528310013429 0 -0.16380943555950259 -0.077035991020633382 0 -0.14595160177326619 -0.062470528310013429 0 -0.14796844382834351 -0.080467891152587012 0 -0.13497135686491851 -0.078315161523928284 0 -0.14595160177326619 -0.062470528310013429 0 -0.1158705629695205 -0.060236298698018297 0 -0.13497135686491851 -0.078315161523928284 0 -0.1158705629695205 -0.060236298698018297 0 -0.13497135686491851 -0.078315161523928284 0 -0.13122182239868371 -0.062231763532838429 0 -0.13497135686491851 -0.078315161523928284 0 -0.13122182239868371 -0.062231763532838429 0 -0.14595160177326619 -0.062470528310013429 0 -0.112702195828283 -0.076339248342475546 0 -0.13497135686491851 -0.078315161523928284 0 -0.13438499311011279 -0.096174695905308166 0 -0.13497135686491851 -0.078315161523928284 0 -0.13438499311011279 -0.096174695905308166 0 -0.1484932433812913 -0.094043062253026791 0 -0.11276894493928399 -0.097790936300085646 0 -0.13438499311011279 -0.096174695905308166 0 -0.1306137014228527 -0.1212095633787966 0 -0.13438499311011279 -0.096174695905308166 0 -0.1306137014228527 -0.1212095633787966 0 -0.15606779039194271 -0.1160101434681408 0 -0.15406265534163929 -0.1294064941378926 0 -0.1306137014228527 -0.1212095633787966 0 -0.15606779039194271 -0.1160101434681408 0 -0.13438499311011279 -0.096174695905308166 0 -0.15606779039194271 -0.1160101434681408 0 -0.1484932433812913 -0.094043062253026791 0 -0.16057304666404501 -0.10079887419961479 0 -0.15606779039194271 -0.1160101434681408 0 -0.1484932433812913 -0.094043062253026791 0 -0.13438499311011279 -0.096174695905308166 0 -0.15606779039194271 -0.1160101434681408 0 -0.16057304666404501 -0.10079887419961479 0 -0.1570966781871318 -0.090327755750333361 0 -0.1484932433812913 -0.094043062253026791 0 -0.14513665439653431 -0.02122229521611602 0 -0.15148395360685291 -0.031475856168514699 0 -0.16129500549156001 -0.024264335985147129 0 -0.14513665439653431 -0.02122229521611602 0 -0.1346415055917565 -0.031432898451717602 0 -0.15148395360685291 -0.031475856168514699 0 -0.14513665439653431 -0.02122229521611602 0 -0.15327979458335059 -0.01391829646419882 0 -0.16129500549156001 -0.024264335985147129 0 -0.1412848112475209 -0.008091449167619497 0 -0.15773416148281841 -0.0035868741371463562 0 -0.14801408494475049 0.0031182785745780331 0 -0.15327979458335059 -0.01391829646419882 0 -0.1412848112475209 -0.008091449167619497 0 -0.15773416148281841 -0.0035868741371463562 0 -0.14513665439653431 -0.02122229521611602 0 -0.15327979458335059 -0.01391829646419882 0 -0.1412848112475209 -0.008091449167619497 0 -0.1236693299605585 -0.0137973575501921 0 -0.1412848112475209 -0.008091449167619497 0 -0.12735709500343681 0.004015926865657337 0 -0.1412848112475209 -0.008091449167619497 0 -0.12735709500343681 0.004015926865657337 0 -0.14801408494475049 0.0031182785745780331 0 -0.1236693299605585 -0.0137973575501921 0 -0.1412848112475209 -0.008091449167619497 0 -0.13426109495296229 -0.02049569832685658 0 -0.1236693299605585 -0.0137973575501921 0 -0.1221370268088495 -0.025998648103035 0 -0.13426109495296229 -0.02049569832685658 0 -0.14513665439653431 -0.02122229521611602 0 -0.1412848112475209 -0.008091449167619497 0 -0.13426109495296229 -0.02049569832685658 0 -0.14513665439653431 -0.02122229521611602 0 -0.13426109495296229 -0.02049569832685658 0 -0.1346415055917565 -0.031432898451717602 0 -0.1221370268088495 -0.025998648103035 0 -0.12530131535501859 -0.034952786400489197 0 -0.1346415055917565 -0.031432898451717602 0 -0.1221370268088495 -0.025998648103035 0 -0.13426109495296229 -0.02049569832685658 0 -0.1346415055917565 -0.031432898451717602 0 -0.12530131535501859 -0.034952786400489197 0 -0.1346415055917565 -0.031432898451717602 0 -0.12809376798702951 -0.047905065599393698 0 -0.1346415055917565 -0.031432898451717602 0 -0.12809376798702951 -0.047905065599393698 0 -0.14629371500633531 -0.042796653234188263 0 -0.12809376798702951 -0.047905065599393698 0 -0.14595160177326619 -0.062470528310013429 0 -0.12809376798702951 -0.047905065599393698 0 -0.14595160177326619 -0.062470528310013429 0 -0.14629371500633531 -0.042796653234188263 0 -0.13122182239868371 -0.062231763532838429 0 -0.12809376798702951 -0.047905065599393698 0 -0.14595160177326619 -0.062470528310013429 0 -0.1158705629695205 -0.060236298698018297 0 -0.13122182239868371 -0.062231763532838429 0 -0.12809376798702951 -0.047905065599393698 0 -0.14595160177326619 -0.062470528310013429 0 -0.14629371500633531 -0.042796653234188263 0 -0.15696853651444401 -0.052603520026387289 0 -0.16105989981045041 -0.063488466825831633 0 -0.14595160177326619 -0.062470528310013429 0 -0.15696853651444401 -0.052603520026387289 0 -0.15148395360685291 -0.031475856168514699 0 -0.14629371500633531 -0.042796653234188263 0 -0.16402488563849801 -0.041062174760887443 0 -0.1346415055917565 -0.031432898451717602 0 -0.15148395360685291 -0.031475856168514699 0 -0.14629371500633531 -0.042796653234188263 0 -0.14629371500633531 -0.042796653234188263 0 -0.16402488563849801 -0.041062174760887443 0 -0.15696853651444401 -0.052603520026387289 0 -0.15148395360685291 -0.031475856168514699 0 -0.16402488563849801 -0.041062174760887443 0 -0.16129500549156001 -0.024264335985147129 0 -0.16402488563849801 -0.041062174760887443 0 -0.17409393016306191 -0.030370879776367592 0 -0.16129500549156001 -0.024264335985147129 0 -0.16402488563849801 -0.041062174760887443 0 -0.15696853651444401 -0.052603520026387289 0 -0.17187825396406881 -0.057945450019426657 0 -0.16105989981045041 -0.063488466825831633 0 -0.15696853651444401 -0.052603520026387289 0 -0.17187825396406881 -0.057945450019426657 0 -0.16402488563849801 -0.041062174760887443 0 -0.17187825396406881 -0.057945450019426657 0 -0.18133558272394029 -0.043618149437272283 0 -0.17187825396406881 -0.057945450019426657 0 -0.18133558272394029 -0.043618149437272283 0 -0.18769526278089041 -0.057829612445021099 0 -0.18133558272394029 -0.043618149437272283 0 -0.17409393016306191 -0.030370879776367592 0 -0.18915768363079971 -0.025155098795753519 0 -0.16402488563849801 -0.041062174760887443 0 -0.18133558272394029 -0.043618149437272283 0 -0.17409393016306191 -0.030370879776367592 0 -0.17409393016306191 -0.030370879776367592 0 -0.17549551533112251 -0.014893414490097231 0 -0.18915768363079971 -0.025155098795753519 0 -0.16129500549156001 -0.024264335985147129 0 -0.16350931143073591 -0.01273440345064396 0 -0.17549551533112251 -0.014893414490097231 0 -0.17409393016306191 -0.030370879776367592 0 -0.16129500549156001 -0.024264335985147129 0 -0.17549551533112251 -0.014893414490097231 0 -0.15327979458335059 -0.01391829646419882 0 -0.16129500549156001 -0.024264335985147129 0 -0.16350931143073591 -0.01273440345064396 0 -0.15773416148281841 -0.0035868741371463562 0 -0.16716832075785379 -0.0032078365625175 0 -0.1619193683370386 0.0066468078375689294 0 -0.15773416148281841 -0.0035868741371463562 0 -0.16350931143073591 -0.01273440345064396 0 -0.16716832075785379 -0.0032078365625175 0 -0.15327979458335059 -0.01391829646419882 0 -0.15773416148281841 -0.0035868741371463562 0 -0.16350931143073591 -0.01273440345064396 0 -0.16350931143073591 -0.01273440345064396 0 -0.16716832075785379 -0.0032078365625175 0 -0.17549551533112251 -0.014893414490097231 0 -0.17549551533112251 -0.014893414490097231 0 -0.18154179604087481 -0.0036104187285780349 0 -0.18915768363079971 -0.025155098795753519 0 -0.18154179604087481 -0.0036104187285780349 0 -0.18915768363079971 -0.025155098795753519 0 -0.17549551533112251 -0.014893414490097231 0 -0.17584419881677341 0.0071523107965592754 0 -0.17549551533112251 -0.014893414490097231 0 -0.18154179604087481 -0.0036104187285780349 0 -0.17584419881677341 0.0071523107965592754 0 -0.16716832075785379 -0.0032078365625175 0 -0.17549551533112251 -0.014893414490097231 0 -0.17584419881677341 0.0071523107965592754 0 -0.18154179604087481 -0.0036104187285780349 0 -0.19066530249761049 -0.0041303576494283751 0 -0.18915768363079971 -0.025155098795753519 0 -0.18154179604087481 -0.0036104187285780349 0 -0.19066530249761049 -0.0041303576494283751 0 -0.18717715497560061 0.0062623078557712403 0 -0.19066530249761049 -0.0041303576494283751 0 -0.1989264366345522 -0.0080023544535597537 0 -0.18915768363079971 -0.025155098795753519 0 -0.19066530249761049 -0.0041303576494283751 0 -0.1989264366345522 -0.0080023544535597537 0 -0.1965234412062255 0.0098537758749781944 0 -0.1989264366345522 -0.0080023544535597537 0 -0.2007918169376324 -0.0191738513677071 0 -0.20680177871376751 -0.0119671669755851 0 -0.18915768363079971 -0.025155098795753519 0 -0.2007918169376324 -0.0191738513677071 0 -0.21013076049929519 -0.028334228638799381 0 -0.1989264366345522 -0.0080023544535597537 0 -0.18915768363079971 -0.025155098795753519 0 -0.2007918169376324 -0.0191738513677071 0 -0.2007918169376324 -0.0191738513677071 0 -0.21013076049929519 -0.028334228638799381 0 -0.20680177871376751 -0.0119671669755851 0 -0.21013076049929519 -0.028334228638799381 0 -0.21702438745170211 -0.0043907958627755336 0 -0.21921501925093501 -0.017985606360015789 0 -0.21013076049929519 -0.028334228638799381 0 -0.21702438745170211 -0.0043907958627755336 0 -0.21013076049929519 -0.028334228638799381 0 -0.22271521407306469 -0.037269361340154371 0 -0.21921501925093501 -0.017985606360015789 0 -0.21013076049929519 -0.028334228638799381 0 -0.21702438745170211 -0.0043907958627755336 0 -0.20680177871376751 -0.0119671669755851 0 -0.1989264366345522 -0.0080023544535597537 0 -0.20680177871376751 -0.0119671669755851 0 -0.20713549204565579 6.5395444916274768e-05 0 -0.21702438745170211 -0.0043907958627755336 0 -0.20680177871376751 -0.0119671669755851 0 -0.20713549204565579 6.5395444916274768e-05 0 -0.20438945881064449 -0.068244458930106389 0 -0.1967735712207245 -0.046699778862929052 0 -0.20438945881064449 -0.068244458930106389 0 -0.18769526278089041 -0.057829612445021099 0 -0.1967735712207245 -0.046699778862929052 0 -0.20438945881064449 -0.068244458930106389 0 -0.1967735712207245 -0.046699778862929052 0 -0.20711132549122371 -0.057203435059411119 0 -0.18133558272394029 -0.043618149437272283 0 -0.18769526278089041 -0.057829612445021099 0 -0.1967735712207245 -0.046699778862929052 0 -0.18133558272394029 -0.043618149437272283 0 -0.18915768363079971 -0.025155098795753519 0 -0.1967735712207245 -0.046699778862929052 0 -0.18915768363079971 -0.025155098795753519 0 -0.1967735712207245 -0.046699778862929052 0 -0.18915768363079971 -0.025155098795753519 0 -0.21013076049929519 -0.028334228638799381 0 -0.1967735712207245 -0.046699778862929052 0 -0.21013076049929519 -0.028334228638799381 0 -0.21132582579248671 -0.048130994279405613 0 -0.22271521407306469 -0.037269361340154371 0 -0.21013076049929519 -0.028334228638799381 0 -0.1967735712207245 -0.046699778862929052 0 -0.21132582579248671 -0.048130994279405613 0 -0.21595644614104051 -0.065738508165203102 0 -0.21132582579248671 -0.048130994279405613 0 -0.22271521407306469 -0.037269361340154371 0 -0.21595644614104051 -0.065738508165203102 0 -0.21132582579248671 -0.048130994279405613 0 -0.20711132549122371 -0.057203435059411119 0 -0.1967735712207245 -0.046699778862929052 0 -0.21132582579248671 -0.048130994279405613 0 -0.20711132549122371 -0.057203435059411119 0 -0.21595644614104051 -0.065738508165203102 0 -0.2284172135094342 -0.053659916570315727 0 -0.24475965461883589 -0.059498385283178377 0 -0.21595644614104051 -0.065738508165203102 0 -0.2284172135094342 -0.053659916570315727 0 -0.22271521407306469 -0.037269361340154371 0 -0.21595644614104051 -0.065738508165203102 0 -0.22271521407306469 -0.037269361340154371 0 -0.2284172135094342 -0.053659916570315727 0 -0.22271521407306469 -0.037269361340154371 0 -0.23903543051913109 -0.043198085603962481 0 -0.22271521407306469 -0.037269361340154371 0 -0.23903543051913109 -0.043198085603962481 0 -0.24161885061771041 -0.026720350447010301 0 -0.23903543051913109 -0.043198085603962481 0 -0.24161885061771041 -0.026720350447010301 0 -0.25766621977661042 -0.038842414379153638 0 -0.23903543051913109 -0.043198085603962481 0 -0.24475965461883589 -0.059498385283178377 0 -0.25766621977661042 -0.038842414379153638 0 -0.2284172135094342 -0.053659916570315727 0 -0.23903543051913109 -0.043198085603962481 0 -0.24475965461883589 -0.059498385283178377 0 -0.22947398200509031 -0.0088002145151058891 0 -0.22867745033346079 0.0038692188645070222 0 -0.2401015516947359 0.00075261550232862703 0 -0.21702438745170211 -0.0043907958627755336 0 -0.22947398200509031 -0.0088002145151058891 0 -0.22867745033346079 0.0038692188645070222 0 -0.21702438745170211 -0.0043907958627755336 0 -0.22947398200509031 -0.0088002145151058891 0 -0.21921501925093501 -0.017985606360015789 0 -0.22271521407306469 -0.037269361340154371 0 -0.22947398200509031 -0.0088002145151058891 0 -0.21921501925093501 -0.017985606360015789 0 -0.22271521407306469 -0.037269361340154371 0 -0.22947398200509031 -0.0088002145151058891 0 -0.22271521407306469 -0.037269361340154371 0 -0.22947398200509031 -0.0088002145151058891 0 -0.24161885061771041 -0.026720350447010301 0 -0.22947398200509031 -0.0088002145151058891 0 -0.24161885061771041 -0.026720350447010301 0 -0.2437457614006571 -0.011962382738850049 0 -0.24161885061771041 -0.026720350447010301 0 -0.2437457614006571 -0.011962382738850049 0 -0.2598032925822476 -0.0188915667982569 0 -0.22947398200509031 -0.0088002145151058891 0 -0.2437457614006571 -0.011962382738850049 0 -0.2401015516947359 0.00075261550232862703 0 -0.2437457614006571 -0.011962382738850049 0 -0.25267499080189931 -0.0034516002120552492 0 -0.2401015516947359 0.00075261550232862703 0 -0.25267499080189931 -0.0034516002120552492 0 -0.2598032925822476 -0.0188915667982569 0 -0.26909988492935111 -0.0018655285383734981 0 -0.2437457614006571 -0.011962382738850049 0 -0.25267499080189931 -0.0034516002120552492 0 -0.2598032925822476 -0.0188915667982569 0 -0.2598032925822476 -0.0188915667982569 0 -0.27267419604841259 -0.026924212746328481 0 -0.25766621977661042 -0.038842414379153638 0 -0.24161885061771041 -0.026720350447010301 0 -0.2598032925822476 -0.0188915667982569 0 -0.25766621977661042 -0.038842414379153638 0 -0.2598032925822476 -0.0188915667982569 0 -0.27267419604841259 -0.026924212746328481 0 -0.27804425228895369 -0.016131696666228459 0 -0.27267419604841259 -0.026924212746328481 0 -0.27804425228895369 -0.016131696666228459 0 -0.28378415359151371 -0.031280105512012511 0 -0.27804425228895369 -0.016131696666228459 0 -0.26909988492935111 -0.0018655285383734981 0 -0.2917254884257266 -0.0017566381736345419 0 -0.2598032925822476 -0.0188915667982569 0 -0.27804425228895369 -0.016131696666228459 0 -0.26909988492935111 -0.0018655285383734981 0 -0.27804425228895369 -0.016131696666228459 0 -0.2917254884257266 -0.0017566381736345419 0 -0.2928870998243559 -0.020527937726781 0 -0.27804425228895369 -0.016131696666228459 0 -0.2928870998243559 -0.020527937726781 0 -0.28378415359151371 -0.031280105512012511 0 -0.2928870998243559 -0.020527937726781 0 -0.29943422057661201 -0.032203920876667472 0 -0.28378415359151371 -0.031280105512012511 0 -0.2928870998243559 -0.020527937726781 0 -0.31144738423897378 -0.02126732740536201 0 -0.29943422057661201 -0.032203920876667472 0 -0.31144738423897378 -0.02126732740536201 0 -0.31110423911055801 -0.035316851109560482 0 -0.29943422057661201 -0.032203920876667472 0 -0.2917254884257266 -0.0017566381736345419 0 -0.31144738423897378 -0.02126732740536201 0 -0.31177688145040278 0.0050359958776742568 0 -0.2917254884257266 -0.0017566381736345419 0 -0.2928870998243559 -0.020527937726781 0 -0.31144738423897378 -0.02126732740536201 0 -0.2917254884257266 -0.0017566381736345419 0 -0.31144738423897378 -0.02126732740536201 0 -0.30323190850646392 -0.052883144282766713 0 -0.3023660715744253 -0.047018139519123002 0 -0.29757341552329353 -0.05219957266967655 0 -0.29931176789370939 -0.061629941742321552 0 -0.30659897303184058 -0.057135789817405573 0 -0.30728911182784302 -0.064893595009923935 0 -0.30323190850646392 -0.052883144282766713 0 -0.29931176789370939 -0.061629941742321552 0 -0.30659897303184058 -0.057135789817405573 0 -0.30323190850646392 -0.052883144282766713 0 -0.29757341552329353 -0.05219957266967655 0 -0.29931176789370939 -0.061629941742321552 0 -0.30659897303184058 -0.057135789817405573 0 -0.30728911182784302 -0.064893595009923935 0 -0.31405483352543062 -0.056831087900065053 0 -0.30323190850646392 -0.052883144282766713 0 -0.3023660715744253 -0.047018139519123002 0 -0.31025625293594222 -0.050033124508212908 0 -0.30659897303184058 -0.057135789817405573 0 -0.31025625293594222 -0.050033124508212908 0 -0.31405483352543062 -0.056831087900065053 0 -0.30323190850646392 -0.052883144282766713 0 -0.30659897303184058 -0.057135789817405573 0 -0.31025625293594222 -0.050033124508212908 0 -0.3023660715744253 -0.047018139519123002 0 -0.31110423911055801 -0.035316851109560482 0 -0.29943422057661201 -0.032203920876667472 0 -0.3023660715744253 -0.047018139519123002 0 -0.29943422057661201 -0.032203920876667472 0 -0.29166722635019171 -0.038853801873014321 0 -0.29943422057661201 -0.032203920876667472 0 -0.29166722635019171 -0.038853801873014321 0 -0.28378415359151371 -0.031280105512012511 0 -0.3023660715744253 -0.047018139519123002 0 -0.29166722635019171 -0.038853801873014321 0 -0.28390051605192418 -0.042754285685484159 0 -0.29166722635019171 -0.038853801873014321 0 -0.28378415359151371 -0.031280105512012511 0 -0.28390051605192418 -0.042754285685484159 0 -0.3023660715744253 -0.047018139519123002 0 -0.28390051605192418 -0.042754285685484159 0 -0.27356286309663053 -0.053258262401150697 0 -0.3023660715744253 -0.047018139519123002 0 -0.27356286309663053 -0.053258262401150697 0 -0.29757341552329353 -0.05219957266967655 0 -0.27356286309663053 -0.053258262401150697 0 -0.27532891164284878 -0.069285621960536392 0 -0.29757341552329353 -0.05219957266967655 0 -0.27532891164284878 -0.069285621960536392 0 -0.3023660715744253 -0.047018139519123002 0 -0.29757341552329353 -0.05219957266967655 0 -0.27356286309663053 -0.053258262401150697 0 -0.29757341552329353 -0.05219957266967655 0 -0.29931176789370939 -0.061629941742321552 0 -0.27532891164284878 -0.069285621960536392 0 -0.27267419604841259 -0.026924212746328481 0 -0.27375437843427658 -0.039043607324579933 0 -0.25766621977661042 -0.038842414379153638 0 -0.27356286309663053 -0.053258262401150697 0 -0.27375437843427658 -0.039043607324579933 0 -0.25766621977661042 -0.038842414379153638 0 -0.28378415359151371 -0.031280105512012511 0 -0.28390051605192418 -0.042754285685484159 0 -0.27375437843427658 -0.039043607324579933 0 -0.27267419604841259 -0.026924212746328481 0 -0.28378415359151371 -0.031280105512012511 0 -0.27375437843427658 -0.039043607324579933 0 -0.28390051605192418 -0.042754285685484159 0 -0.27356286309663053 -0.053258262401150697 0 -0.27375437843427658 -0.039043607324579933 0 -0.24475965461883589 -0.059498385283178377 0 -0.27356286309663053 -0.053258262401150697 0 -0.2582325144520296 -0.070050845257802419 0 -0.24475965461883589 -0.059498385283178377 0 -0.27356286309663053 -0.053258262401150697 0 -0.24475965461883589 -0.059498385283178377 0 -0.27356286309663053 -0.053258262401150697 0 -0.25766621977661042 -0.038842414379153638 0 -0.2582325144520296 -0.070050845257802419 0 -0.25308440776240432 -0.086371671251396109 0 -0.27532891164284878 -0.069285621960536392 0 -0.25308440776240432 -0.086371671251396109 0 -0.27532891164284878 -0.069285621960536392 0 -0.25308440776240432 -0.086371671251396109 0 -0.27361062541114611 -0.085405998149086934 0 -0.26907394573302829 -0.10103393024372311 0 -0.27361062541114611 -0.085405998149086934 0 -0.26907394573302829 -0.10103393024372311 0 -0.28494676303449051 -0.09097811142482605 0 -0.25308440776240432 -0.086371671251396109 0 -0.27361062541114611 -0.085405998149086934 0 -0.27532891164284878 -0.069285621960536392 0 -0.27356286309663053 -0.053258262401150697 0 -0.2582325144520296 -0.070050845257802419 0 -0.27532891164284878 -0.069285621960536392 0 -0.27361062541114611 -0.085405998149086934 0 -0.27532891164284878 -0.069285621960536392 0 -0.28561909888295839 -0.079360655864953042 0 -0.2432602079730701 -0.13485583854350039 0 -0.2499653418643101 -0.1102460646797562 0 -0.26490928006600228 -0.12397715003998409 0 -0.2499653418643101 -0.1102460646797562 0 -0.26490928006600228 -0.12397715003998409 0 -0.26907394573302829 -0.10103393024372311 0 -0.2499653418643101 -0.1102460646797562 0 -0.25308440776240432 -0.086371671251396109 0 -0.26907394573302829 -0.10103393024372311 0 -0.26907394573302829 -0.10103393024372311 0 -0.28789548083438649 -0.11161882002010511 0 -0.28494676303449051 -0.09097811142482605 0 -0.26490928006600228 -0.12397715003998409 0 -0.28789548083438649 -0.11161882002010511 0 -0.28428672055728371 -0.13281235115180859 0 -0.26490928006600228 -0.12397715003998409 0 -0.26907394573302829 -0.10103393024372311 0 -0.28789548083438649 -0.11161882002010511 0 -0.28789548083438649 -0.11161882002010511 0 -0.28428672055728371 -0.13281235115180859 0 -0.30877835781368662 -0.12931532841693749 0 -0.28789548083438649 -0.11161882002010511 0 -0.29765529442092259 -0.094840601490837839 0 -0.28494676303449051 -0.09097811142482605 0 -0.30761934067920371 -0.1042503242997595 0 -0.29765529442092259 -0.094840601490837839 0 -0.30832877355579341 -0.086934752854072747 0 -0.30761934067920371 -0.1042503242997595 0 -0.30832877355579341 -0.086934752854072747 0 -0.31968159473222052 -0.091584555267719248 0 -0.28789548083438649 -0.11161882002010511 0 -0.30761934067920371 -0.1042503242997595 0 -0.29765529442092259 -0.094840601490837839 0 -0.28789548083438649 -0.11161882002010511 0 -0.30761934067920371 -0.1042503242997595 0 -0.30877835781368662 -0.12931532841693749 0 -0.29931176789370939 -0.061629941742321552 0 -0.27532891164284878 -0.069285621960536392 0 -0.29568251685582603 -0.071589435967753134 0 -0.27532891164284878 -0.069285621960536392 0 -0.29568251685582603 -0.071589435967753134 0 -0.28561909888295839 -0.079360655864953042 0 -0.29568251685582603 -0.071589435967753134 0 -0.28561909888295839 -0.079360655864953042 0 -0.29849490204505058 -0.081938345925378783 0 -0.27361062541114611 -0.085405998149086934 0 -0.28561909888295839 -0.079360655864953042 0 -0.28494676303449051 -0.09097811142482605 0 -0.29765529442092259 -0.094840601490837839 0 -0.28494676303449051 -0.09097811142482605 0 -0.29849490204505058 -0.081938345925378783 0 -0.28561909888295839 -0.079360655864953042 0 -0.28494676303449051 -0.09097811142482605 0 -0.29849490204505058 -0.081938345925378783 0 -0.29849490204505058 -0.081938345925378783 0 -0.30832877355579341 -0.086934752854072747 0 -0.3066986514807607 -0.074546990101646726 0 -0.29765529442092259 -0.094840601490837839 0 -0.29849490204505058 -0.081938345925378783 0 -0.30832877355579341 -0.086934752854072747 0 -0.30832877355579341 -0.086934752854072747 0 -0.3066986514807607 -0.074546990101646726 0 -0.31636087034116728 -0.076704125898778439 0 -0.3066986514807607 -0.074546990101646726 0 -0.31411021802290889 -0.069356746280106005 0 -0.31636087034116728 -0.076704125898778439 0 -0.29568251685582603 -0.071589435967753134 0 -0.29849490204505058 -0.081938345925378783 0 -0.3066986514807607 -0.074546990101646726 0 -0.29568251685582603 -0.071589435967753134 0 -0.3066986514807607 -0.074546990101646726 0 -0.30728911182784302 -0.064893595009923935 0 -0.29931176789370939 -0.061629941742321552 0 -0.29568251685582603 -0.071589435967753134 0 -0.30728911182784302 -0.064893595009923935 0 -0.3066986514807607 -0.074546990101646726 0 -0.30728911182784302 -0.064893595009923935 0 -0.31411021802290889 -0.069356746280106005 0 -0.30728911182784302 -0.064893595009923935 0 -0.31630436981946819 -0.062936971351065629 0 -0.31411021802290889 -0.069356746280106005 0 -0.31630436981946819 -0.062936971351065629 0 -0.31411021802290889 -0.069356746280106005 0 -0.32389808664530562 -0.067702049039115322 0 -0.31630436981946819 -0.062936971351065629 0 -0.32389808664530562 -0.067702049039115322 0 -0.32481687078849097 -0.058022226865728103 0 -0.32389808664530562 -0.067702049039115322 0 -0.3259684841043719 -0.075020057435826168 0 -0.31636087034116728 -0.076704125898778439 0 -0.31411021802290889 -0.069356746280106005 0 -0.32389808664530562 -0.067702049039115322 0 -0.31636087034116728 -0.076704125898778439 0 -0.30832877355579341 -0.086934752854072747 0 -0.32608803180755441 -0.084321365842938284 0 -0.30832877355579341 -0.086934752854072747 0 -0.31968159473222052 -0.091584555267719248 0 -0.32608803180755441 -0.084321365842938284 0 -0.30832877355579341 -0.086934752854072747 0 -0.31636087034116728 -0.076704125898778439 0 -0.32608803180755441 -0.084321365842938284 0 -0.31968159473222052 -0.091584555267719248 0 -0.32608803180755441 -0.084321365842938284 0 -0.3259684841043719 -0.075020057435826168 0 -0.31636087034116728 -0.076704125898778439 0 -0.32608803180755441 -0.084321365842938284 0 -0.31968159473222052 -0.091584555267719248 0 -0.32608803180755441 -0.084321365842938284 0 -0.34030971713070318 -0.087052614945596102 0 -0.32608803180755441 -0.084321365842938284 0 -0.34030971713070318 -0.087052614945596102 0 -0.34745734249292459 -0.081176736816750444 0 -0.32608803180755441 -0.084321365842938284 0 -0.33752694762346008 -0.07135268896247253 0 -0.34745734249292459 -0.081176736816750444 0 -0.32608803180755441 -0.084321365842938284 0 -0.34745734249292459 -0.081176736816750444 0 -0.33752694762346008 -0.07135268896247253 0 -0.3489658634393657 -0.058384012082006782 0 -0.33645864726091979 -0.05858208772264157 0 -0.33752694762346008 -0.07135268896247253 0 -0.3489658634393657 -0.058384012082006782 0 -0.32389808664530562 -0.067702049039115322 0 -0.33752694762346008 -0.07135268896247253 0 -0.33645864726091979 -0.05858208772264157 0 -0.3259684841043719 -0.075020057435826168 0 -0.32608803180755441 -0.084321365842938284 0 -0.33752694762346008 -0.07135268896247253 0 -0.32608803180755441 -0.084321365842938284 0 -0.33752694762346008 -0.07135268896247253 0 -0.32389808664530562 -0.067702049039115322 0 -0.3259684841043719 -0.075020057435826168 0 -0.33752694762346008 -0.07135268896247253 0 -0.32454403747219479 -0.1081839716812668 0 -0.30877835781368662 -0.12931532841693749 0 -0.30761934067920371 -0.1042503242997595 0 -0.32454403747219479 -0.1081839716812668 0 -0.30877835781368662 -0.12931532841693749 0 -0.32454403747219479 -0.1081839716812668 0 -0.33570809008837621 -0.11845594114356341 0 -0.30877835781368662 -0.12931532841693749 0 -0.30761934067920371 -0.1042503242997595 0 -0.31968159473222052 -0.091584555267719248 0 -0.32454403747219479 -0.1081839716812668 0 -0.34030971713070318 -0.087052614945596102 0 -0.32454403747219479 -0.1081839716812668 0 -0.34278855512837281 -0.1049294584887832 0 -0.31968159473222052 -0.091584555267719248 0 -0.34030971713070318 -0.087052614945596102 0 -0.32454403747219479 -0.1081839716812668 0 -0.34030971713070318 -0.087052614945596102 0 -0.32454403747219479 -0.1081839716812668 0 -0.32454403747219479 -0.1081839716812668 0 -0.34278855512837281 -0.1049294584887832 0 -0.33570809008837621 -0.11845594114356341 0 -0.33570809008837621 -0.11845594114356341 0 -0.35404294059136687 -0.1217835462641018 0 -0.33688620478323589 -0.13358080389391511 0 -0.34278855512837281 -0.1049294584887832 0 -0.35404294059136687 -0.1217835462641018 0 -0.35932798989652742 -0.1047455147758234 0 -0.34278855512837281 -0.1049294584887832 0 -0.33570809008837621 -0.11845594114356341 0 -0.35404294059136687 -0.1217835462641018 0 -0.34278855512837281 -0.1049294584887832 0 -0.35932798989652742 -0.1047455147758234 0 -0.35079718399447979 -0.093651592615473511 0 -0.34030971713070318 -0.087052614945596102 0 -0.34278855512837281 -0.1049294584887832 0 -0.35079718399447979 -0.093651592615473511 0 -0.35932798989652742 -0.1047455147758234 0 -0.35079718399447979 -0.093651592615473511 0 -0.36132419909701757 -0.091459041133748031 0 -0.35932798989652742 -0.1047455147758234 0 -0.37367929427193591 -0.1014825750548952 0 -0.37212838853434238 -0.11808059788504249 0 -0.35932798989652742 -0.1047455147758234 0 -0.37367929427193591 -0.1014825750548952 0 -0.36132419909701757 -0.091459041133748031 0 -0.35404294059136687 -0.1217835462641018 0 -0.37212838853434238 -0.11808059788504249 0 -0.37028068739271691 -0.13083580994494901 0 -0.35404294059136687 -0.1217835462641018 0 -0.35932798989652742 -0.1047455147758234 0 -0.37212838853434238 -0.11808059788504249 0 -0.35069420168351129 -0.07223638641294812 0 -0.34745734249292459 -0.081176736816750444 0 -0.36882665317829499 -0.078032107790563188 0 -0.36882665317829499 -0.078032107790563188 0 -0.3489658634393657 -0.058384012082006782 0 -0.35069420168351129 -0.07223638641294812 0 -0.36882665317829499 -0.078032107790563188 0 -0.3489658634393657 -0.058384012082006782 0 -0.33752694762346008 -0.07135268896247253 0 -0.35069420168351129 -0.07223638641294812 0 -0.3489658634393657 -0.058384012082006782 0 -0.33752694762346008 -0.07135268896247253 0 -0.35069420168351129 -0.07223638641294812 0 -0.34745734249292459 -0.081176736816750444 0 -0.34745734249292459 -0.081176736816750444 0 -0.36882665317829499 -0.078032107790563188 0 -0.34745734249292459 -0.081176736816750444 0 -0.36132419909701757 -0.091459041133748031 0 -0.36882665317829499 -0.078032107790563188 0 -0.34030971713070318 -0.087052614945596102 0 -0.34745734249292459 -0.081176736816750444 0 -0.35079718399447979 -0.093651592615473511 0 -0.34745734249292459 -0.081176736816750444 0 -0.35079718399447979 -0.093651592615473511 0 -0.36132419909701757 -0.091459041133748031 0 -0.37367929427193591 -0.1014825750548952 0 -0.36132419909701757 -0.091459041133748031 0 -0.36882665317829499 -0.078032107790563188 0 -0.36882665317829499 -0.078032107790563188 0 -0.36862349457690058 -0.057461967220355487 0 -0.3489658634393657 -0.058384012082006782 0 -0.36882665317829499 -0.078032107790563188 0 -0.36862349457690058 -0.057461967220355487 0 -0.37947166312044489 -0.067272628224985004 0 -0.36862349457690058 -0.057461967220355487 0 -0.3489658634393657 -0.058384012082006782 0 -0.36066681755822472 -0.045118253717945672 0 -0.36862349457690058 -0.057461967220355487 0 -0.37355784227175309 -0.045246792894939887 0 -0.3815482533063424 -0.052412606119804542 0 -0.36862349457690058 -0.057461967220355487 0 -0.36066681755822472 -0.045118253717945672 0 -0.37355784227175309 -0.045246792894939887 0 -0.3489658634393657 -0.058384012082006782 0 -0.36066681755822472 -0.045118253717945672 0 -0.3489658634393657 -0.058384012082006782 0 -0.34511111307690212 -0.046137334811030092 0 -0.36066681755822472 -0.045118253717945672 0 -0.35304062521722218 -0.036039659744318157 0 -0.3553139768507978 -0.023567241021099371 0 -0.33371347875736079 -0.040226824134751989 0 -0.34511111307690212 -0.046137334811030092 0 -0.35304062521722218 -0.036039659744318157 0 -0.33371347875736079 -0.040226824134751989 0 -0.34511111307690212 -0.046137334811030092 0 -0.35304062521722218 -0.036039659744318157 0 -0.36066681755822472 -0.045118253717945672 0 -0.36066681755822472 -0.045118253717945672 0 -0.37236777167708351 -0.031852495353884333 0 -0.35304062521722218 -0.036039659744318157 0 -0.37236777167708351 -0.031852495353884333 0 -0.35304062521722218 -0.036039659744318157 0 -0.36066681755822472 -0.045118253717945672 0 -0.37236777167708351 -0.031852495353884333 0 -0.36066681755822472 -0.045118253717945672 0 -0.37355784227175309 -0.045246792894939887 0 -0.37236777167708351 -0.031852495353884333 0 -0.37236777167708351 -0.031852495353884333 0 -0.3739022591900184 -0.02415390189740213 0 -0.36770044175442279 -0.02036669541201027 0 -0.37236777167708351 -0.031852495353884333 0 -0.36770044175442279 -0.02036669541201027 0 -0.3553139768507978 -0.023567241021099371 0 -0.36770044175442279 -0.02036669541201027 0 -0.35847393927256738 -0.010652033510738681 0 -0.38297625517291389 -0.017448943304264108 0 -0.35304062521722218 -0.036039659744318157 0 -0.37236777167708351 -0.031852495353884333 0 -0.3553139768507978 -0.023567241021099371 0 -0.3739022591900184 -0.02415390189740213 0 -0.36770044175442279 -0.02036669541201027 0 -0.38297625517291389 -0.017448943304264108 0 -0.36770044175442279 -0.02036669541201027 0 -0.35847393927256738 -0.010652033510738681 0 -0.3553139768507978 -0.023567241021099371 0 -0.35847393927256738 -0.010652033510738681 0 -0.38297625517291389 -0.017448943304264108 0 -0.37278444596104371 -0.0079457960458173115 0 -0.35847393927256738 -0.010652033510738681 0 -0.38297625517291389 -0.017448943304264108 0 -0.37474494217865062 -0.0022388935110706832 0 -0.37278444596104371 -0.0079457960458173115 0 -0.36307869926690151 -0.00068504054922277494 0 -0.37278444596104371 -0.0079457960458173115 0 -0.36307869926690151 -0.00068504054922277494 0 -0.35847393927256738 -0.010652033510738681 0 -0.36307869926690151 -0.00068504054922277494 0 -0.34718119132474479 -0.01384164818341615 0 -0.36064890389212972 0.0125435277679194 0 -0.36307869926690151 -0.00068504054922277494 0 -0.35847393927256738 -0.010652033510738681 0 -0.34718119132474479 -0.01384164818341615 0 -0.34718119132474479 -0.01384164818341615 0 -0.36064890389212972 0.0125435277679194 0 -0.34718119132474479 -0.01384164818341615 0 -0.3553139768507978 -0.023567241021099371 0 -0.33371347875736079 -0.040226824134751989 0 -0.35847393927256738 -0.010652033510738681 0 -0.34718119132474479 -0.01384164818341615 0 -0.3553139768507978 -0.023567241021099371 0 -0.34718119132474479 -0.01384164818341615 0 -0.33035884889608558 -0.02420969997450095 0 -0.33371347875736079 -0.040226824134751989 0 -0.34718119132474479 -0.01384164818341615 0 -0.33371347875736079 -0.040226824134751989 0 -0.34718119132474479 -0.01384164818341615 0 -0.32828291010712762 -0.0049346835118845543 0 -0.34055428987364128 0.0059527955302196532 0 -0.34718119132474479 -0.01384164818341615 0 -0.33035884889608558 -0.02420969997450095 0 -0.32828291010712762 -0.0049346835118845543 0 -0.31144738423897378 -0.02126732740536201 0 -0.32828291010712762 -0.0049346835118845543 0 -0.31177688145040278 0.0050359958776742568 0 -0.31144738423897378 -0.02126732740536201 0 -0.33116928005221918 -0.040778016637091109 0 -0.31144738423897378 -0.02126732740536201 0 -0.33035884889608558 -0.02420969997450095 0 -0.32828291010712762 -0.0049346835118845543 0 -0.31144738423897378 -0.02126732740536201 0 -0.33035884889608558 -0.02420969997450095 0 -0.33116928005221918 -0.040778016637091109 0 -0.3023660715744253 -0.047018139519123002 0 -0.31110423911055801 -0.035316851109560482 0 -0.33116928005221918 -0.040778016637091109 0 -0.3023660715744253 -0.047018139519123002 0 -0.31025625293594222 -0.050033124508212908 0 -0.33116928005221918 -0.040778016637091109 0 -0.3023660715744253 -0.047018139519123002 0 -0.33116928005221918 -0.040778016637091109 0 -0.31144738423897378 -0.02126732740536201 0 -0.31110423911055801 -0.035316851109560482 0 -0.33116928005221918 -0.040778016637091109 0 -0.31025625293594222 -0.050033124508212908 0 -0.31770057673851387 -0.05020147555903863 0 -0.33116928005221918 -0.040778016637091109 0 -0.31025625293594222 -0.050033124508212908 0 -0.31770057673851387 -0.05020147555903863 0 -0.31405483352543062 -0.056831087900065053 0 -0.31770057673851387 -0.05020147555903863 0 -0.31405483352543062 -0.056831087900065053 0 -0.31936567051967829 -0.054711673150449433 0 -0.31630436981946819 -0.062936971351065629 0 -0.31936567051967829 -0.054711673150449433 0 -0.32481687078849097 -0.058022226865728103 0 -0.30728911182784302 -0.064893595009923935 0 -0.31630436981946819 -0.062936971351065629 0 -0.31405483352543062 -0.056831087900065053 0 -0.31630436981946819 -0.062936971351065629 0 -0.31405483352543062 -0.056831087900065053 0 -0.31936567051967829 -0.054711673150449433 0 -0.31770057673851387 -0.05020147555903863 0 -0.32448711316898249 -0.050622394842538963 0 -0.33116928005221918 -0.040778016637091109 0 -0.31936567051967829 -0.054711673150449433 0 -0.32481687078849097 -0.058022226865728103 0 -0.32448711316898249 -0.050622394842538963 0 -0.31770057673851387 -0.05020147555903863 0 -0.31936567051967829 -0.054711673150449433 0 -0.32448711316898249 -0.050622394842538963 0 -0.32481687078849097 -0.058022226865728103 0 -0.32770904195502032 -0.053173566283506987 0 -0.32448711316898249 -0.050622394842538963 0 -0.32770904195502032 -0.053173566283506987 0 -0.32448711316898249 -0.050622394842538963 0 -0.32972533979495861 -0.048040159006195682 0 -0.3489658634393657 -0.058384012082006782 0 -0.34511111307690212 -0.046137334811030092 0 -0.3326728772282519 -0.042265511425067279 0 -0.32972533979495861 -0.048040159006195682 0 -0.33645864726091979 -0.05858208772264157 0 -0.3326728772282519 -0.042265511425067279 0 -0.3489658634393657 -0.058384012082006782 0 -0.3326728772282519 -0.042265511425067279 0 -0.32770904195502032 -0.053173566283506987 0 -0.32972533979495861 -0.048040159006195682 0 -0.33645864726091979 -0.05858208772264157 0 -0.3489658634393657 -0.058384012082006782 0 -0.33645864726091979 -0.05858208772264157 0 -0.3326728772282519 -0.042265511425067279 0 -0.32389808664530562 -0.067702049039115322 0 -0.32481687078849097 -0.058022226865728103 0 -0.33645864726091979 -0.05858208772264157 0 -0.32481687078849097 -0.058022226865728103 0 -0.32770904195502032 -0.053173566283506987 0 -0.33645864726091979 -0.05858208772264157 0 -0.34511111307690212 -0.046137334811030092 0 -0.33371347875736079 -0.040226824134751989 0 -0.3326728772282519 -0.042265511425067279 0 -0.33035884889608558 -0.02420969997450095 0 -0.33116928005221918 -0.040778016637091109 0 -0.33371347875736079 -0.040226824134751989 0 -0.35304062521722218 -0.036039659744318157 0 -0.33371347875736079 -0.040226824134751989 0 -0.32448711316898249 -0.050622394842538963 0 -0.32972533979495861 -0.048040159006195682 0 -0.33116928005221918 -0.040778016637091109 0 -0.33116928005221918 -0.040778016637091109 0 -0.3326728772282519 -0.042265511425067279 0 -0.32972533979495861 -0.048040159006195682 0 -0.3326728772282519 -0.042265511425067279 0 -0.32972533979495861 -0.048040159006195682 0 -0.33116928005221918 -0.040778016637091109 0 -0.3326728772282519 -0.042265511425067279 0 -0.33116928005221918 -0.040778016637091109 0 -0.33371347875736079 -0.040226824134751989 0 -0.33116928005221918 -0.040778016637091109 0 -0.33371347875736079 -0.040226824134751989 0 -0.3326728772282519 -0.042265511425067279 0 -0.33371347875736079 -0.040226824134751989 0 -0.3326728772282519 -0.042265511425067279 0 -0.2907170577323625 -0.25177677077710309 0 -0.30853150187083839 -0.25429835417001312 0 -0.30748271917561598 -0.2431056607245809 0 -0.30748271917561598 -0.2431056607245809 0 -0.3004866401015065 -0.2269264896544945 0 -0.32066485276457768 -0.2334308190911655 0 -0.2907170577323625 -0.25177677077710309 0 -0.30748271917561598 -0.2431056607245809 0 -0.3004866401015065 -0.2269264896544945 0 -0.30853150187083839 -0.25429835417001312 0 -0.30748271917561598 -0.2431056607245809 0 -0.32023222063025569 -0.2489608815952247 0 -0.3004866401015065 -0.2269264896544945 0 -0.27575903677895092 -0.22208668823385669 0 -0.3004866401015065 -0.2269264896544945 0 -0.27309361240676189 -0.24179026653703889 0 -0.27575903677895092 -0.22208668823385669 0 -0.3004866401015065 -0.2269264896544945 0 -0.27575903677895092 -0.22208668823385669 0 -0.29482007196541532 -0.2089319155152673 0 -0.2907170577323625 -0.25177677077710309 0 -0.3004866401015065 -0.2269264896544945 0 -0.27309361240676189 -0.24179026653703889 0 -0.27309361240676189 -0.24179026653703889 0 -0.25431856302814809 -0.24833495949118861 0 -0.25103143345639523 -0.21724688681321891 0 -0.27575903677895092 -0.22208668823385669 0 -0.25103143345639523 -0.21724688681321891 0 -0.27309361240676189 -0.24179026653703889 0 -0.27575903677895092 -0.22208668823385669 0 -0.25103143345639523 -0.21724688681321891 0 -0.27575903677895092 -0.22208668823385669 0 -0.25103143345639523 -0.21724688681321891 0 -0.27708552823660842 -0.19790031786117671 0 -0.25103143345639523 -0.21724688681321891 0 -0.25418198431724581 -0.18809916394242601 0 -0.27708552823660842 -0.19790031786117671 0 -0.27708552823660842 -0.19790031786117671 0 -0.29482007196541532 -0.2089319155152673 0 -0.30195969341908391 -0.19078830755985379 0 -0.29482007196541532 -0.2089319155152673 0 -0.30195969341908391 -0.19078830755985379 0 -0.32674672588845421 -0.2120308859258328 0 -0.3004866401015065 -0.2269264896544945 0 -0.29482007196541532 -0.2089319155152673 0 -0.32674672588845421 -0.2120308859258328 0 -0.27575903677895092 -0.22208668823385669 0 -0.27708552823660842 -0.19790031786117671 0 -0.29482007196541532 -0.2089319155152673 0 -0.30195969341908391 -0.19078830755985379 0 -0.30674796742087651 -0.1684647150882764 0 -0.32123008678095788 -0.18729232698745699 0 -0.30674796742087651 -0.1684647150882764 0 -0.2930126781551784 -0.15044668515260809 0 -0.3206808779707625 -0.15110047818677941 0 -0.27724699849667023 -0.17157804188827869 0 -0.2930126781551784 -0.15044668515260809 0 -0.30674796742087651 -0.1684647150882764 0 -0.27724699849667023 -0.17157804188827869 0 -0.2930126781551784 -0.15044668515260809 0 -0.27708552823660842 -0.19790031786117671 0 -0.30195969341908391 -0.19078830755985379 0 -0.27724699849667023 -0.17157804188827869 0 -0.30195969341908391 -0.19078830755985379 0 -0.30674796742087651 -0.1684647150882764 0 -0.27724699849667023 -0.17157804188827869 0 -0.25418198431724581 -0.18809916394242601 0 -0.27708552823660842 -0.19790031786117671 0 -0.27724699849667023 -0.17157804188827869 0 -0.25418198431724581 -0.18809916394242601 0 -0.2565438833259911 -0.1687602707777138 0 -0.27724699849667023 -0.17157804188827869 0 -0.2435592126657353 -0.1561425335328199 0 -0.2565438833259911 -0.1687602707777138 0 -0.26683780591716472 -0.14870377212940841 0 -0.27724699849667023 -0.17157804188827869 0 -0.26683780591716472 -0.14870377212940841 0 -0.2930126781551784 -0.15044668515260809 0 -0.2565438833259911 -0.1687602707777138 0 -0.27724699849667023 -0.17157804188827869 0 -0.26683780591716472 -0.14870377212940841 0 -0.2435592126657353 -0.1561425335328199 0 -0.2432602079730701 -0.13485583854350039 0 -0.26683780591716472 -0.14870377212940841 0 -0.2432602079730701 -0.13485583854350039 0 -0.26490928006600228 -0.12397715003998409 0 -0.26683780591716472 -0.14870377212940841 0 -0.26490928006600228 -0.12397715003998409 0 -0.26683780591716472 -0.14870377212940841 0 -0.28428672055728371 -0.13281235115180859 0 -0.28428672055728371 -0.13281235115180859 0 -0.2930126781551784 -0.15044668515260809 0 -0.30877835781368662 -0.12931532841693749 0 -0.26683780591716472 -0.14870377212940841 0 -0.28428672055728371 -0.13281235115180859 0 -0.2930126781551784 -0.15044668515260809 0 -0.2930126781551784 -0.15044668515260809 0 -0.30877835781368662 -0.12931532841693749 0 -0.3206808779707625 -0.15110047818677941 0 -0.2930126781551784 -0.15044668515260809 0 -0.30877835781368662 -0.12931532841693749 0 -0.33570809008837621 -0.11845594114356341 0 -0.30877835781368662 -0.12931532841693749 0 -0.33688620478323589 -0.13358080389391511 0 -0.30877835781368662 -0.12931532841693749 0 -0.3206808779707625 -0.15110047818677941 0 -0.33688620478323589 -0.13358080389391511 0 -0.3206808779707625 -0.15110047818677941 0 -0.33688620478323589 -0.13358080389391511 0 -0.34399943231138669 -0.15408109000358611 0 -0.33688620478323589 -0.13358080389391511 0 -0.35929992868189681 -0.1386942596847188 0 -0.35404294059136687 -0.1217835462641018 0 -0.33688620478323589 -0.13358080389391511 0 -0.35929992868189681 -0.1386942596847188 0 -0.35404294059136687 -0.1217835462641018 0 -0.35929992868189681 -0.1386942596847188 0 -0.37028068739271691 -0.13083580994494901 0 -0.35929992868189681 -0.1386942596847188 0 -0.37028068739271691 -0.13083580994494901 0 -0.3804539816512269 -0.14482329966991631 0 -0.35929992868189681 -0.1386942596847188 0 -0.3804539816512269 -0.14482329966991631 0 -0.35929992868189681 -0.1386942596847188 0 -0.3655172116091886 -0.15688196674787641 0 -0.3804539816512269 -0.14482329966991631 0 -0.3655172116091886 -0.15688196674787641 0 -0.3804539816512269 -0.14482329966991631 0 -0.3655172116091886 -0.15688196674787641 0 -0.37839901512320262 -0.15996290040625341 0 -0.3804539816512269 -0.14482329966991631 0 -0.33688620478323589 -0.13358080389391511 0 -0.35929992868189681 -0.1386942596847188 0 -0.34399943231138669 -0.15408109000358611 0 -0.35929992868189681 -0.1386942596847188 0 -0.34399943231138669 -0.15408109000358611 0 -0.3655172116091886 -0.15688196674787641 0 -0.34399943231138669 -0.15408109000358611 0 -0.35323542112630057 -0.1671812377988513 0 -0.3655172116091886 -0.15688196674787641 0 -0.3655172116091886 -0.15688196674787641 0 -0.37378547386561772 -0.17392500984250869 0 -0.37839901512320262 -0.15996290040625341 0 -0.35323542112630057 -0.1671812377988513 0 -0.3655172116091886 -0.15688196674787641 0 -0.37378547386561772 -0.17392500984250869 0 -0.37378547386561772 -0.17392500984250869 0 -0.35240556330307887 -0.18479875362473361 0 -0.36895563931783232 -0.19259611207654981 0 -0.35323542112630057 -0.1671812377988513 0 -0.37378547386561772 -0.17392500984250869 0 -0.35240556330307887 -0.18479875362473361 0 -0.35323542112630057 -0.1671812377988513 0 -0.35240556330307887 -0.18479875362473361 0 -0.33400288196205857 -0.17193246321376471 0 -0.35240556330307887 -0.18479875362473361 0 -0.33400288196205857 -0.17193246321376471 0 -0.33669316521431608 -0.19324526314955739 0 -0.33400288196205857 -0.17193246321376471 0 -0.32123008678095788 -0.18729232698745699 0 -0.33669316521431608 -0.19324526314955739 0 -0.3206808779707625 -0.15110047818677941 0 -0.34399943231138669 -0.15408109000358611 0 -0.33400288196205857 -0.17193246321376471 0 -0.34399943231138669 -0.15408109000358611 0 -0.35323542112630057 -0.1671812377988513 0 -0.33400288196205857 -0.17193246321376471 0 -0.30674796742087651 -0.1684647150882764 0 -0.3206808779707625 -0.15110047818677941 0 -0.33400288196205857 -0.17193246321376471 0 -0.30674796742087651 -0.1684647150882764 0 -0.33400288196205857 -0.17193246321376471 0 -0.32123008678095788 -0.18729232698745699 0 -0.30195969341908391 -0.19078830755985379 0 -0.32123008678095788 -0.18729232698745699 0 -0.32674672588845421 -0.2120308859258328 0 -0.32674672588845421 -0.2120308859258328 0 -0.35024140450074381 -0.20994798342056251 0 -0.32674672588845421 -0.2120308859258328 0 -0.33669316521431608 -0.19324526314955739 0 -0.35024140450074381 -0.20994798342056251 0 -0.32674672588845421 -0.2120308859258328 0 -0.35024140450074381 -0.20994798342056251 0 -0.3377174746324717 -0.2284461722996495 0 -0.32123008678095788 -0.18729232698745699 0 -0.32674672588845421 -0.2120308859258328 0 -0.33669316521431608 -0.19324526314955739 0 -0.35240556330307887 -0.18479875362473361 0 -0.36895563931783232 -0.19259611207654981 0 -0.35024140450074381 -0.20994798342056251 0 -0.35240556330307887 -0.18479875362473361 0 -0.33669316521431608 -0.19324526314955739 0 -0.35024140450074381 -0.20994798342056251 0 -0.36895563931783232 -0.19259611207654981 0 -0.37373608311303341 -0.20786508091529229 0 -0.35024140450074381 -0.20994798342056251 0 -0.37373608311303341 -0.20786508091529229 0 -0.35024140450074381 -0.20994798342056251 0 -0.37373608311303341 -0.20786508091529229 0 -0.35024140450074381 -0.20994798342056251 0 -0.36602803805366552 -0.21914337572849349 0 -0.37373608311303341 -0.20786508091529229 0 -0.36602803805366552 -0.21914337572849349 0 -0.37785639846487218 -0.21906994256996459 0 -0.35024140450074381 -0.20994798342056251 0 -0.357966965356528 -0.23170644806675769 0 -0.3377174746324717 -0.2284461722996495 0 -0.35024140450074381 -0.20994798342056251 0 -0.357966965356528 -0.23170644806675769 0 -0.36602803805366552 -0.21914337572849349 0 -0.357966965356528 -0.23170644806675769 0 -0.36602803805366552 -0.21914337572849349 0 -0.36983275924353248 -0.22875232439276311 0 -0.36602803805366552 -0.21914337572849349 0 -0.36983275924353248 -0.22875232439276311 0 -0.37785639846487218 -0.21906994256996459 0 -0.357966965356528 -0.23170644806675769 0 -0.36983275924353248 -0.22875232439276311 0 -0.37747963509906429 -0.24508953120583671 0 -0.35872453044413888 -0.25078889886649508 0 -0.357966965356528 -0.23170644806675769 0 -0.37747963509906429 -0.24508953120583671 0 -0.357966965356528 -0.23170644806675769 0 -0.34395992200845399 -0.24382677409400949 0 -0.3377174746324717 -0.2284461722996495 0 -0.35872453044413888 -0.25078889886649508 0 -0.357966965356528 -0.23170644806675769 0 -0.34395992200845399 -0.24382677409400949 0 -0.33345250408021371 -0.25331871279766999 0 -0.34395992200845399 -0.24382677409400949 0 -0.33132333615916232 -0.2411148243472106 0 -0.33345250408021371 -0.25331871279766999 0 -0.33132333615916232 -0.2411148243472106 0 -0.32023222063025569 -0.2489608815952247 0 -0.34395992200845399 -0.24382677409400949 0 -0.33132333615916232 -0.2411148243472106 0 -0.3377174746324717 -0.2284461722996495 0 -0.32674672588845421 -0.2120308859258328 0 -0.3377174746324717 -0.2284461722996495 0 -0.32066485276457768 -0.2334308190911655 0 -0.33132333615916232 -0.2411148243472106 0 -0.3377174746324717 -0.2284461722996495 0 -0.32066485276457768 -0.2334308190911655 0 -0.3004866401015065 -0.2269264896544945 0 -0.32674672588845421 -0.2120308859258328 0 -0.32066485276457768 -0.2334308190911655 0 -0.30748271917561598 -0.2431056607245809 0 -0.32066485276457768 -0.2334308190911655 0 -0.32023222063025569 -0.2489608815952247 0 -0.33132333615916232 -0.2411148243472106 0 -0.32066485276457768 -0.2334308190911655 0 -0.32023222063025569 -0.2489608815952247 0 -0.43445882011373449 -0.25478651907497341 0 -0.43806130733353449 -0.23541812032183559 0 -0.43445882011373449 -0.25478651907497341 0 -0.4258852610480256 -0.24284815888716721 0 -0.43806130733353449 -0.23541812032183559 0 -0.4258852610480256 -0.24284815888716721 0 -0.42538833238501789 -0.2333934851751748 0 -0.41698539980062188 -0.23875950084572559 0 -0.43445882011373449 -0.25478651907497341 0 -0.4258852610480256 -0.24284815888716721 0 -0.42335340856967768 -0.24893549408922019 0 -0.4258852610480256 -0.24284815888716721 0 -0.42538833238501789 -0.2333934851751748 0 -0.43806130733353449 -0.23541812032183559 0 -0.43091611572645672 -0.22699763907763329 0 -0.42538833238501789 -0.2333934851751748 0 -0.43806130733353449 -0.23541812032183559 0 -0.43091611572645672 -0.22699763907763329 0 -0.44166379455333399 -0.21604972156869759 0 -0.43806130733353449 -0.23541812032183559 0 -0.43091611572645672 -0.22699763907763329 0 -0.43133498143110582 -0.21921018883561361 0 -0.44166379455333399 -0.21604972156869759 0 -0.43133498143110582 -0.21921018883561361 0 -0.4232485836513401 -0.22477446532261011 0 -0.4232102070061276 -0.21869015764887889 0 -0.43091611572645672 -0.22699763907763329 0 -0.43133498143110582 -0.21921018883561361 0 -0.4232485836513401 -0.22477446532261011 0 -0.43091611572645672 -0.22699763907763329 0 -0.4232485836513401 -0.22477446532261011 0 -0.42538833238501789 -0.2333934851751748 0 -0.4232485836513401 -0.22477446532261011 0 -0.42538833238501789 -0.2333934851751748 0 -0.41731365953457839 -0.2310953018814938 0 -0.4232485836513401 -0.22477446532261011 0 -0.41731365953457839 -0.2310953018814938 0 -0.4121948509493269 -0.2247325638453028 0 -0.41731365953457839 -0.2310953018814938 0 -0.4080561583250083 -0.23272886934204159 0 -0.41698539980062188 -0.23875950084572559 0 -0.4232485836513401 -0.22477446532261011 0 -0.4121948509493269 -0.2247325638453028 0 -0.41685681033243982 -0.21746512418924929 0 -0.4232485836513401 -0.22477446532261011 0 -0.41685681033243982 -0.21746512418924929 0 -0.4232102070061276 -0.21869015764887889 0 -0.4121948509493269 -0.2247325638453028 0 -0.4080561583250083 -0.23272886934204159 0 -0.39971520205611372 -0.2221352637332015 0 -0.4121948509493269 -0.2247325638453028 0 -0.40807454407470489 -0.21592977391801271 0 -0.41685681033243982 -0.21746512418924929 0 -0.4121948509493269 -0.2247325638453028 0 -0.39971520205611372 -0.2221352637332015 0 -0.40807454407470489 -0.21592977391801271 0 -0.41731365953457839 -0.2310953018814938 0 -0.4121948509493269 -0.2247325638453028 0 -0.4080561583250083 -0.23272886934204159 0 -0.4080561583250083 -0.23272886934204159 0 -0.40983148527785651 -0.24118391776602099 0 -0.41698539980062188 -0.23875950084572559 0 -0.42538833238501789 -0.2333934851751748 0 -0.41731365953457839 -0.2310953018814938 0 -0.41698539980062188 -0.23875950084572559 0 -0.40983148527785651 -0.24118391776602099 0 -0.41698539980062188 -0.23875950084572559 0 -0.41627810448972868 -0.24641300060905449 0 -0.4258852610480256 -0.24284815888716721 0 -0.42335340856967768 -0.24893549408922019 0 -0.41627810448972868 -0.24641300060905449 0 -0.4258852610480256 -0.24284815888716721 0 -0.41698539980062188 -0.23875950084572559 0 -0.41627810448972868 -0.24641300060905449 0 -0.41679144862722167 -0.25169429778568547 0 -0.42335340856967768 -0.24893549408922019 0 -0.41627810448972868 -0.24641300060905449 0 -0.41385673751816382 -0.25312989710486528 0 -0.41627810448972868 -0.24641300060905449 0 -0.4086566941719203 -0.24778871483445111 0 -0.40983148527785651 -0.24118391776602099 0 -0.41627810448972868 -0.24641300060905449 0 -0.4086566941719203 -0.24778871483445111 0 -0.40282532782868952 -0.25224285689579767 0 -0.4086566941719203 -0.24778871483445111 0 -0.40022281387448849 -0.24084313907701979 0 -0.40983148527785651 -0.24118391776602099 0 -0.4086566941719203 -0.24778871483445111 0 -0.40022281387448849 -0.24084313907701979 0 -0.4080561583250083 -0.23272886934204159 0 -0.40983148527785651 -0.24118391776602099 0 -0.40022281387448849 -0.24084313907701979 0 -0.40022281387448849 -0.24084313907701979 0 -0.3903832871219331 -0.2411545733314838 0 -0.38772777019650018 -0.2315142496456449 0 -0.3938256931015453 -0.25037754026629511 0 -0.40022281387448849 -0.24084313907701979 0 -0.3903832871219331 -0.2411545733314838 0 -0.3938256931015453 -0.25037754026629511 0 -0.3903832871219331 -0.2411545733314838 0 -0.37747963509906429 -0.24508953120583671 0 -0.3903832871219331 -0.2411545733314838 0 -0.37747963509906429 -0.24508953120583671 0 -0.38772777019650018 -0.2315142496456449 0 -0.37747963509906429 -0.24508953120583671 0 -0.37785639846487218 -0.21906994256996459 0 -0.37747963509906429 -0.24508953120583671 0 -0.37785639846487218 -0.21906994256996459 0 -0.38772777019650018 -0.2315142496456449 0 -0.36983275924353248 -0.22875232439276311 0 -0.37747963509906429 -0.24508953120583671 0 -0.37785639846487218 -0.21906994256996459 0 -0.37785639846487218 -0.21906994256996459 0 -0.38772777019650018 -0.2315142496456449 0 -0.38790285805175961 -0.2167146319195192 0 -0.4080561583250083 -0.23272886934204159 0 -0.40022281387448849 -0.24084313907701979 0 -0.39971520205611372 -0.2221352637332015 0 -0.40022281387448849 -0.24084313907701979 0 -0.39971520205611372 -0.2221352637332015 0 -0.38772777019650018 -0.2315142496456449 0 -0.39971520205611372 -0.2221352637332015 0 -0.38790285805175961 -0.2167146319195192 0 -0.40022281387448849 -0.24084313907701979 0 -0.38772777019650018 -0.2315142496456449 0 -0.39971520205611372 -0.2221352637332015 0 -0.39971520205611372 -0.2221352637332015 0 -0.39723076172532301 -0.205782178410022 0 -0.40807454407470489 -0.21592977391801271 0 -0.39971520205611372 -0.2221352637332015 0 -0.39723076172532301 -0.205782178410022 0 -0.38790285805175961 -0.2167146319195192 0 -0.39723076172532301 -0.205782178410022 0 -0.41303892827123678 -0.21093405469715851 0 -0.40807454407470489 -0.21592977391801271 0 -0.37373608311303341 -0.20786508091529229 0 -0.39723076172532301 -0.205782178410022 0 -0.38370630256805799 -0.1971119561512929 0 -0.37373608311303341 -0.20786508091529229 0 -0.39723076172532301 -0.205782178410022 0 -0.38790285805175961 -0.2167146319195192 0 -0.37373608311303341 -0.20786508091529229 0 -0.39723076172532301 -0.205782178410022 0 -0.37373608311303341 -0.20786508091529229 0 -0.37785639846487218 -0.21906994256996459 0 -0.38790285805175961 -0.2167146319195192 0 -0.36895563931783232 -0.19259611207654981 0 -0.38370630256805799 -0.1971119561512929 0 -0.3831693110633177 -0.1873742460103984 0 -0.36895563931783232 -0.19259611207654981 0 -0.37373608311303341 -0.20786508091529229 0 -0.38370630256805799 -0.1971119561512929 0 -0.38370630256805799 -0.1971119561512929 0 -0.39543971762078378 -0.19194216334420211 0 -0.3831693110633177 -0.1873742460103984 0 -0.39723076172532301 -0.205782178410022 0 -0.38370630256805799 -0.1971119561512929 0 -0.39543971762078378 -0.19194216334420211 0 -0.39723076172532301 -0.205782178410022 0 -0.39543971762078378 -0.19194216334420211 0 -0.40534117689708921 -0.19634387975323889 0 -0.39543971762078378 -0.19194216334420211 0 -0.40534117689708921 -0.19634387975323889 0 -0.40730162077548249 -0.18407395049314179 0 -0.39723076172532301 -0.205782178410022 0 -0.40534117689708921 -0.19634387975323889 0 -0.42072544033761272 -0.20369927590475301 0 -0.42032122747045741 -0.1927313373696285 0 -0.42072544033761272 -0.20369927590475301 0 -0.40730162077548249 -0.18407395049314179 0 -0.42072544033761272 -0.20369927590475301 0 -0.40730162077548249 -0.18407395049314179 0 -0.40534117689708921 -0.19634387975323889 0 -0.42072544033761272 -0.20369927590475301 0 -0.40730162077548249 -0.18407395049314179 0 -0.39723076172532301 -0.205782178410022 0 -0.41303892827123678 -0.21093405469715851 0 -0.42072544033761272 -0.20369927590475301 0 -0.39723076172532301 -0.205782178410022 0 -0.42072544033761272 -0.20369927590475301 0 -0.41303892827123678 -0.21093405469715851 0 -0.40807454407470489 -0.21592977391801271 0 -0.41685681033243982 -0.21746512418924929 0 -0.41303892827123678 -0.21093405469715851 0 -0.41685681033243982 -0.21746512418924929 0 -0.42140045260962489 -0.21331085224804261 0 -0.41685681033243982 -0.21746512418924929 0 -0.42140045260962489 -0.21331085224804261 0 -0.4232102070061276 -0.21869015764887889 0 -0.41303892827123678 -0.21093405469715851 0 -0.42140045260962489 -0.21331085224804261 0 -0.42072544033761272 -0.20369927590475301 0 -0.42512182626149492 -0.2033095177213731 0 -0.43378961613155448 -0.20908682079381441 0 -0.44184138868315109 -0.20247798044170351 0 -0.42072544033761272 -0.20369927590475301 0 -0.42512182626149492 -0.2033095177213731 0 -0.43133498143110582 -0.21921018883561361 0 -0.42072544033761272 -0.20369927590475301 0 -0.42512182626149492 -0.2033095177213731 0 -0.43133498143110582 -0.21921018883561361 0 -0.42512182626149492 -0.2033095177213731 0 -0.43378961613155448 -0.20908682079381441 0 -0.43133498143110582 -0.21921018883561361 0 -0.42140045260962489 -0.21331085224804261 0 -0.4232102070061276 -0.21869015764887889 0 -0.43133498143110582 -0.21921018883561361 0 -0.42072544033761272 -0.20369927590475301 0 -0.43133498143110582 -0.21921018883561361 0 -0.42140045260962489 -0.21331085224804261 0 -0.42072544033761272 -0.20369927590475301 0 -0.43133498143110582 -0.21921018883561361 0 -0.43378961613155448 -0.20908682079381441 0 -0.44166379455333399 -0.21604972156869759 0 -0.42032122747045741 -0.1927313373696285 0 -0.44184138868315109 -0.20247798044170351 0 -0.42032122747045741 -0.1927313373696285 0 -0.43099962817645188 -0.18319011649723049 0 -0.43833565968517207 -0.19112957676178299 0 -0.42032122747045741 -0.1927313373696285 0 -0.42512182626149492 -0.2033095177213731 0 -0.44184138868315109 -0.20247798044170351 0 -0.42032122747045741 -0.1927313373696285 0 -0.43833565968517207 -0.19112957676178299 0 -0.44184138868315109 -0.20247798044170351 0 -0.42032122747045741 -0.1927313373696285 0 -0.42072544033761272 -0.20369927590475301 0 -0.42512182626149492 -0.2033095177213731 0 -0.42549584187692119 -0.17333418479170171 0 -0.43099962817645188 -0.18319011649723049 0 -0.41834400919125792 -0.18158621355319651 0 -0.42032122747045741 -0.1927313373696285 0 -0.43099962817645188 -0.18319011649723049 0 -0.41834400919125792 -0.18158621355319651 0 -0.43099962817645188 -0.18319011649723049 0 -0.43495901877196291 -0.17485617288990979 0 -0.44455133712372419 -0.18300714728765441 0 -0.42549584187692119 -0.17333418479170171 0 -0.43099962817645188 -0.18319011649723049 0 -0.43495901877196291 -0.17485617288990979 0 -0.42549584187692119 -0.17333418479170171 0 -0.43495901877196291 -0.17485617288990979 0 -0.43155613508544272 -0.1669321437644439 0 -0.43495901877196291 -0.17485617288990979 0 -0.43155613508544272 -0.1669321437644439 0 -0.44219215159727421 -0.16781727210851849 0 -0.43155613508544272 -0.1669321437644439 0 -0.43166640735559808 -0.1552039120346444 0 -0.44219215159727421 -0.16781727210851849 0 -0.43155613508544272 -0.1669321437644439 0 -0.4214232379976206 -0.16216052115063159 0 -0.43166640735559808 -0.1552039120346444 0 -0.42549584187692119 -0.17333418479170171 0 -0.43155613508544272 -0.1669321437644439 0 -0.4214232379976206 -0.16216052115063159 0 -0.42549584187692119 -0.17333418479170171 0 -0.4214232379976206 -0.16216052115063159 0 -0.41110577652129249 -0.1670682470007229 0 -0.4214232379976206 -0.16216052115063159 0 -0.41110577652129249 -0.1670682470007229 0 -0.40669002996807779 -0.1495058137550834 0 -0.41110577652129249 -0.1670682470007229 0 -0.41834400919125792 -0.18158621355319651 0 -0.40730162077548249 -0.18407395049314179 0 -0.42549584187692119 -0.17333418479170171 0 -0.41110577652129249 -0.1670682470007229 0 -0.41834400919125792 -0.18158621355319651 0 -0.42032122747045741 -0.1927313373696285 0 -0.41834400919125792 -0.18158621355319651 0 -0.40730162077548249 -0.18407395049314179 0 -0.39543971762078378 -0.19194216334420211 0 -0.40730162077548249 -0.18407395049314179 0 -0.39267839793348491 -0.17927693187167279 0 -0.40730162077548249 -0.18407395049314179 0 -0.39267839793348491 -0.17927693187167279 0 -0.39387780121335469 -0.16444862508152899 0 -0.40730162077548249 -0.18407395049314179 0 -0.39387780121335469 -0.16444862508152899 0 -0.37378547386561772 -0.17392500984250869 0 -0.36895563931783232 -0.19259611207654981 0 -0.3831693110633177 -0.1873742460103984 0 -0.37378547386561772 -0.17392500984250869 0 -0.39267839793348491 -0.17927693187167279 0 -0.3831693110633177 -0.1873742460103984 0 -0.37378547386561772 -0.17392500984250869 0 -0.39267839793348491 -0.17927693187167279 0 -0.39387780121335469 -0.16444862508152899 0 -0.39543971762078378 -0.19194216334420211 0 -0.39267839793348491 -0.17927693187167279 0 -0.3831693110633177 -0.1873742460103984 0 -0.37378547386561772 -0.17392500984250869 0 -0.37839901512320262 -0.15996290040625341 0 -0.39387780121335469 -0.16444862508152899 0 -0.37839901512320262 -0.15996290040625341 0 -0.39387780121335469 -0.16444862508152899 0 -0.3804539816512269 -0.14482329966991631 0 -0.41110577652129249 -0.1670682470007229 0 -0.39387780121335469 -0.16444862508152899 0 -0.40669002996807779 -0.1495058137550834 0 -0.41110577652129249 -0.1670682470007229 0 -0.40730162077548249 -0.18407395049314179 0 -0.39387780121335469 -0.16444862508152899 0 -0.39387780121335469 -0.16444862508152899 0 -0.3804539816512269 -0.14482329966991631 0 -0.40669002996807779 -0.1495058137550834 0 -0.3804539816512269 -0.14482329966991631 0 -0.39647179587780151 -0.13189450107720049 0 -0.40669002996807779 -0.1495058137550834 0 -0.3804539816512269 -0.14482329966991631 0 -0.40669002996807779 -0.1495058137550834 0 -0.39387780121335469 -0.16444862508152899 0 -0.3804539816512269 -0.14482329966991631 0 -0.3804539816512269 -0.14482329966991631 0 -0.38278168804071749 -0.12940228238898679 0 -0.39647179587780151 -0.13189450107720049 0 -0.3804539816512269 -0.14482329966991631 0 -0.39647179587780151 -0.13189450107720049 0 -0.37212838853434238 -0.11808059788504249 0 -0.37028068739271691 -0.13083580994494901 0 -0.38278168804071749 -0.12940228238898679 0 -0.37028068739271691 -0.13083580994494901 0 -0.3804539816512269 -0.14482329966991631 0 -0.38278168804071749 -0.12940228238898679 0 -0.38278168804071749 -0.12940228238898679 0 -0.39647179587780151 -0.13189450107720049 0 -0.39044023874876249 -0.11757149150947201 0 -0.39647179587780151 -0.13189450107720049 0 -0.40828286160401828 -0.1310364195873514 0 -0.40669002996807779 -0.1495058137550834 0 -0.39647179587780151 -0.13189450107720049 0 -0.40828286160401828 -0.1310364195873514 0 -0.41122993917504558 -0.1199812866788818 0 -0.39647179587780151 -0.13189450107720049 0 -0.41122993917504558 -0.1199812866788818 0 -0.40828286160401828 -0.1310364195873514 0 -0.41930562378398423 -0.12797048681614909 0 -0.41122993917504558 -0.1199812866788818 0 -0.41930562378398423 -0.12797048681614909 0 -0.41533589961201212 -0.13938201891822019 0 -0.4273858072007774 -0.14414008567558009 0 -0.40828286160401828 -0.1310364195873514 0 -0.41533589961201212 -0.13938201891822019 0 -0.40669002996807779 -0.1495058137550834 0 -0.40828286160401828 -0.1310364195873514 0 -0.41930562378398423 -0.12797048681614909 0 -0.41533589961201212 -0.13938201891822019 0 -0.40669002996807779 -0.1495058137550834 0 -0.43166640735559808 -0.1552039120346444 0 -0.4214232379976206 -0.16216052115063159 0 -0.40669002996807779 -0.1495058137550834 0 -0.43166640735559808 -0.1552039120346444 0 -0.41533589961201212 -0.13938201891822019 0 -0.40669002996807779 -0.1495058137550834 0 -0.4273858072007774 -0.14414008567558009 0 -0.40669002996807779 -0.1495058137550834 0 -0.4273858072007774 -0.14414008567558009 0 -0.43166640735559808 -0.1552039120346444 0 -0.43166640735559808 -0.1552039120346444 0 -0.43525592456887258 -0.14374997194848471 0 -0.44410307239699631 -0.15282998285397989 0 -0.4273858072007774 -0.14414008567558009 0 -0.43166640735559808 -0.1552039120346444 0 -0.43525592456887258 -0.14374997194848471 0 -0.41930562378398423 -0.12797048681614909 0 -0.43525592456887258 -0.14374997194848471 0 -0.41930562378398423 -0.12797048681614909 0 -0.4273858072007774 -0.14414008567558009 0 -0.43525592456887258 -0.14374997194848471 0 -0.41930562378398423 -0.12797048681614909 0 -0.4273858072007774 -0.14414008567558009 0 -0.41930562378398423 -0.12797048681614909 0 -0.43525592456887258 -0.14374997194848471 0 -0.43389101300267191 -0.13422730327376839 0 -0.41930562378398423 -0.12797048681614909 0 -0.43389101300267191 -0.13422730327376839 0 -0.4149348530849476 -0.1169905694289516 0 -0.43389101300267191 -0.13422730327376839 0 -0.4149348530849476 -0.1169905694289516 0 -0.43389101300267191 -0.13422730327376839 0 -0.43160182387889101 -0.1187955019330571 0 -0.44085253015216358 -0.1237950587173612 0 -0.43389101300267191 -0.13422730327376839 0 -0.44872577578551592 -0.13320174295465559 0 -0.452847172920396 -0.1514640371185853 0 -0.44872577578551592 -0.13320174295465559 0 -0.45896755277767909 -0.12575633132281341 0 -0.45000974795797011 -0.119430952696417 0 -0.44872577578551592 -0.13320174295465559 0 -0.45000974795797011 -0.119430952696417 0 -0.44085253015216358 -0.1237950587173612 0 -0.43389101300267191 -0.13422730327376839 0 -0.44872577578551592 -0.13320174295465559 0 -0.44085253015216358 -0.1237950587173612 0 -0.43525592456887258 -0.14374997194848471 0 -0.43389101300267191 -0.13422730327376839 0 -0.452847172920396 -0.1514640371185853 0 -0.43525592456887258 -0.14374997194848471 0 -0.44410307239699631 -0.15282998285397989 0 -0.452847172920396 -0.1514640371185853 0 -0.44872577578551592 -0.13320174295465559 0 -0.452847172920396 -0.1514640371185853 0 -0.456386085566235 -0.14096643446963419 0 -0.43389101300267191 -0.13422730327376839 0 -0.452847172920396 -0.1514640371185853 0 -0.44410307239699631 -0.15282998285397989 0 -0.452847172920396 -0.1514640371185853 0 -0.45664278474311831 -0.16090201031420531 0 -0.452847172920396 -0.1514640371185853 0 -0.456386085566235 -0.14096643446963419 0 -0.46738274896045578 -0.15003021006820461 0 -0.452847172920396 -0.1514640371185853 0 -0.46738274896045578 -0.15003021006820461 0 -0.45664278474311831 -0.16090201031420531 0 -0.456386085566235 -0.14096643446963419 0 -0.46738274896045578 -0.15003021006820461 0 -0.47200539146090159 -0.13839174763128981 0 -0.456386085566235 -0.14096643446963419 0 -0.47200539146090159 -0.13839174763128981 0 -0.47750202174635031 -0.1215216316744509 0 -0.456386085566235 -0.14096643446963419 0 -0.45896755277767909 -0.12575633132281341 0 -0.47750202174635031 -0.1215216316744509 0 -0.456386085566235 -0.14096643446963419 0 -0.47750202174635031 -0.1215216316744509 0 -0.44872577578551592 -0.13320174295465559 0 -0.456386085566235 -0.14096643446963419 0 -0.45896755277767909 -0.12575633132281341 0 -0.47200539146090159 -0.13839174763128981 0 -0.48675070957056549 -0.14104871431286931 0 -0.47750202174635031 -0.1215216316744509 0 -0.50000000000000011 -0.12648838757554831 0 -0.48675070957056549 -0.14104871431286931 0 -0.5 -0.15043640832747529 0 -0.50000000000000011 -0.12648838757554831 0 -0.48675070957056549 -0.14104871431286931 0 -0.47750202174635031 -0.1215216316744509 0 -0.48675070957056549 -0.14104871431286931 0 -0.5 -0.15043640832747529 0 -0.48062174440056549 -0.15969986187448909 0 -0.46738274896045578 -0.15003021006820461 0 -0.47200539146090159 -0.13839174763128981 0 -0.48675070957056549 -0.14104871431286931 0 -0.48675070957056549 -0.14104871431286931 0 -0.48062174440056549 -0.15969986187448909 0 -0.46738274896045578 -0.15003021006820461 0 -0.48675070957056549 -0.14104871431286931 0 -0.48062174440056549 -0.15969986187448909 0 -0.48062174440056549 -0.15969986187448909 0 -0.46548313673471758 -0.16971310035941381 0 -0.46753260370971428 -0.1600862956540782 0 -0.46738274896045578 -0.15003021006820461 0 -0.48062174440056549 -0.15969986187448909 0 -0.46753260370971428 -0.1600862956540782 0 -0.48062174440056549 -0.15969986187448909 0 -0.47449277923056221 -0.17835100943610771 0 -0.46548313673471758 -0.16971310035941381 0 -0.48062174440056549 -0.15969986187448909 0 -0.47449277923056221 -0.17835100943610771 0 -0.5 -0.15043640832747529 0 -0.48062174440056549 -0.15969986187448909 0 -0.49999999999999828 -0.17438442907940241 0 -0.48062174440056549 -0.15969986187448909 0 -0.49999999999999828 -0.17438442907940241 0 -0.47449277923056221 -0.17835100943610771 0 -0.49999999999999828 -0.17438442907940241 0 -0.47449277923056221 -0.17835100943610771 0 -0.49999999999999828 -0.17438442907940241 0 -0.47449277923056221 -0.17835100943610771 0 -0.48549376880548989 -0.19132810400505559 0 -0.47449277923056221 -0.17835100943610771 0 -0.46892716456320649 -0.19528781647494389 0 -0.47449277923056221 -0.17835100943610771 0 -0.45952205817714309 -0.18067907836188021 0 -0.46892716456320649 -0.19528781647494389 0 -0.45952205817714309 -0.18067907836188021 0 -0.46548313673471758 -0.16971310035941381 0 -0.45289664290439807 -0.17180374819378549 0 -0.47449277923056221 -0.17835100943610771 0 -0.45952205817714309 -0.18067907836188021 0 -0.47449277923056221 -0.17835100943610771 0 -0.45952205817714309 -0.18067907836188021 0 -0.46548313673471758 -0.16971310035941381 0 -0.46548313673471758 -0.16971310035941381 0 -0.46753260370971428 -0.1600862956540782 0 -0.45664278474311831 -0.16090201031420531 0 -0.46738274896045578 -0.15003021006820461 0 -0.46753260370971428 -0.1600862956540782 0 -0.45664278474311831 -0.16090201031420531 0 -0.46548313673471758 -0.16971310035941381 0 -0.45664278474311831 -0.16090201031420531 0 -0.45289664290439807 -0.17180374819378549 0 -0.45664278474311831 -0.16090201031420531 0 -0.45289664290439807 -0.17180374819378549 0 -0.44219215159727421 -0.16781727210851849 0 -0.43166640735559808 -0.1552039120346444 0 -0.45664278474311831 -0.16090201031420531 0 -0.44219215159727421 -0.16781727210851849 0 -0.43166640735559808 -0.1552039120346444 0 -0.45664278474311831 -0.16090201031420531 0 -0.43166640735559808 -0.1552039120346444 0 -0.44410307239699631 -0.15282998285397989 0 -0.45664278474311831 -0.16090201031420531 0 -0.43495901877196291 -0.17485617288990979 0 -0.44219215159727421 -0.16781727210851849 0 -0.44455133712372419 -0.18300714728765441 0 -0.43099962817645188 -0.18319011649723049 0 -0.44455133712372419 -0.18300714728765441 0 -0.43833565968517207 -0.19112957676178299 0 -0.45952205817714309 -0.18067907836188021 0 -0.44455133712372419 -0.18300714728765441 0 -0.45396471697207569 -0.194241302212698 0 -0.45952205817714309 -0.18067907836188021 0 -0.44455133712372419 -0.18300714728765441 0 -0.45952205817714309 -0.18067907836188021 0 -0.45289664290439807 -0.17180374819378549 0 -0.44455133712372419 -0.18300714728765441 0 -0.45289664290439807 -0.17180374819378549 0 -0.44219215159727421 -0.16781727210851849 0 -0.44455133712372419 -0.18300714728765441 0 -0.44455133712372419 -0.18300714728765441 0 -0.43833565968517207 -0.19112957676178299 0 -0.45396471697207569 -0.194241302212698 0 -0.43833565968517207 -0.19112957676178299 0 -0.44184138868315109 -0.20247798044170351 0 -0.45396471697207569 -0.194241302212698 0 -0.44184138868315109 -0.20247798044170351 0 -0.46336154989584488 -0.2122246235137781 0 -0.45396471697207569 -0.194241302212698 0 -0.44184138868315109 -0.20247798044170351 0 -0.46336154989584488 -0.2122246235137781 0 -0.45338394269579491 -0.2190794284651259 0 -0.43378961613155448 -0.20908682079381441 0 -0.44184138868315109 -0.20247798044170351 0 -0.44166379455333399 -0.21604972156869759 0 -0.44184138868315109 -0.20247798044170351 0 -0.44166379455333399 -0.21604972156869759 0 -0.45338394269579491 -0.2190794284651259 0 -0.44184138868315109 -0.20247798044170351 0 -0.46336154989584488 -0.2122246235137781 0 -0.46336154989584488 -0.2122246235137781 0 -0.46892716456320649 -0.19528781647494389 0 -0.46336154989584488 -0.2122246235137781 0 -0.45396471697207569 -0.194241302212698 0 -0.46892716456320649 -0.19528781647494389 0 -0.45952205817714309 -0.18067907836188021 0 -0.45396471697207569 -0.194241302212698 0 -0.46892716456320649 -0.19528781647494389 0 -0.47449277923056221 -0.17835100943610771 0 -0.46892716456320649 -0.19528781647494389 0 -0.48549376880548989 -0.19132810400505559 0 -0.46892716456320649 -0.19528781647494389 0 -0.48549376880548989 -0.19132810400505559 0 -0.47978640147694102 -0.20418872613165631 0 -0.5 -0.20182215567114031 0 -0.48549376880548989 -0.19132810400505559 0 -0.47978640147694102 -0.20418872613165631 0 -0.49999999999999828 -0.17438442907940241 0 -0.5 -0.20182215567114031 0 -0.48549376880548989 -0.19132810400505559 0 -0.5 -0.20182215567114031 0 -0.48114952412016337 -0.22028093099336349 0 -0.49893749834448198 -0.22833723847294871 0 -0.5 -0.20182215567114031 0 -0.47978640147694102 -0.20418872613165631 0 -0.48114952412016337 -0.22028093099336349 0 -0.46336154989584488 -0.2122246235137781 0 -0.48114952412016337 -0.22028093099336349 0 -0.46336154989584488 -0.2122246235137781 0 -0.47978640147694102 -0.20418872613165631 0 -0.48114952412016337 -0.22028093099336349 0 -0.46336154989584488 -0.2122246235137781 0 -0.46892716456320649 -0.19528781647494389 0 -0.47978640147694102 -0.20418872613165631 0 -0.46336154989584488 -0.2122246235137781 0 -0.48114952412016337 -0.22028093099336349 0 -0.46857810181099829 -0.22486784275082261 0 -0.48114952412016337 -0.22028093099336349 0 -0.48798868478634799 -0.231470988200419 0 -0.47142395938804471 -0.23802335247430181 0 -0.48114952412016337 -0.22028093099336349 0 -0.47142395938804471 -0.23802335247430181 0 -0.46857810181099829 -0.22486784275082261 0 -0.48114952412016337 -0.22028093099336349 0 -0.48798868478634799 -0.231470988200419 0 -0.49893749834448198 -0.22833723847294871 0 -0.48114952412016337 -0.22028093099336349 0 -0.49893749834448198 -0.22833723847294871 0 -0.48798868478634799 -0.231470988200419 0 -0.49893749834448198 -0.22833723847294871 0 -0.4875835208682564 -0.24248539692068891 0 -0.5 -0.25669760885461612 0 -0.49893749834448198 -0.22833723847294871 0 -0.4875835208682564 -0.24248539692068891 0 -0.48798868478634799 -0.231470988200419 0 -0.4875835208682564 -0.24248539692068891 0 -0.47142395938804471 -0.23802335247430181 0 -0.47878778985378329 -0.25835102983948688 0 -0.4875835208682564 -0.24248539692068891 0 -0.47142395938804471 -0.23802335247430181 0 -0.45662330498375908 -0.25656877445722759 0 -0.47142395938804471 -0.23802335247430181 0 -0.45034617445999431 -0.24335722649563979 0 -0.47142395938804471 -0.23802335247430181 0 -0.45735065046854989 -0.23051648340969341 0 -0.45034617445999431 -0.24335722649563979 0 -0.46336154989584488 -0.2122246235137781 0 -0.46857810181099829 -0.22486784275082261 0 -0.45735065046854989 -0.23051648340969341 0 -0.46336154989584488 -0.2122246235137781 0 -0.45735065046854989 -0.23051648340969341 0 -0.47142395938804471 -0.23802335247430181 0 -0.46857810181099829 -0.22486784275082261 0 -0.45735065046854989 -0.23051648340969341 0 -0.46336154989584488 -0.2122246235137781 0 -0.45338394269579491 -0.2190794284651259 0 -0.45735065046854989 -0.23051648340969341 0 -0.45338394269579491 -0.2190794284651259 0 -0.45735065046854989 -0.23051648340969341 0 -0.43806130733353449 -0.23541812032183559 0 -0.44166379455333399 -0.21604972156869759 0 -0.43806130733353449 -0.23541812032183559 0 -0.44166379455333399 -0.21604972156869759 0 -0.45338394269579491 -0.2190794284651259 0 -0.43806130733353449 -0.23541812032183559 0 -0.45735065046854989 -0.23051648340969341 0 -0.45034617445999431 -0.24335722649563979 0 -0.43806130733353449 -0.23541812032183559 0 -0.43445882011373449 -0.25478651907497341 0 -0.45034617445999431 -0.24335722649563979 0 -0.43806130733353449 -0.23541812032183559 0 -0.41324955929443102 -0.038374170610562031 0 -0.41005136228565903 -0.05540387285823338 0 -0.42435348212729052 -0.04457483879584373 0 -0.41324955929443102 -0.038374170610562031 0 -0.41005136228565903 -0.05540387285823338 0 -0.39900851660089293 -0.046429079601448257 0 -0.41324955929443102 -0.038374170610562031 0 -0.40747857107326091 -0.02424585309778798 0 -0.40045416304880688 -0.034240371911693122 0 -0.41005136228565903 -0.05540387285823338 0 -0.4246600563061857 -0.059067830999859447 0 -0.41422906440869389 -0.068128229862373102 0 -0.41005136228565903 -0.05540387285823338 0 -0.4246600563061857 -0.059067830999859447 0 -0.42435348212729052 -0.04457483879584373 0 -0.4246600563061857 -0.059067830999859447 0 -0.42435348212729052 -0.04457483879584373 0 -0.43957367317472601 -0.045089571971719818 0 -0.4246600563061857 -0.059067830999859447 0 -0.43957367317472601 -0.045089571971719818 0 -0.44544580640037118 -0.056213229689383748 0 -0.41324955929443102 -0.038374170610562031 0 -0.42435348212729052 -0.04457483879584373 0 -0.42981912379901888 -0.030443092666165631 0 -0.42435348212729052 -0.04457483879584373 0 -0.42981912379901888 -0.030443092666165631 0 -0.43957367317472601 -0.045089571971719818 0 -0.41302196833726168 -0.01226972299954816 0 -0.4392085005598273 -0.024676348383282701 0 -0.42659341977192161 -0.010103830507352861 0 -0.41302196833726168 -0.01226972299954816 0 -0.4392085005598273 -0.024676348383282701 0 -0.42981912379901888 -0.030443092666165631 0 -0.41673372021425997 -0.022240754673565791 0 -0.4392085005598273 -0.024676348383282701 0 -0.41302196833726168 -0.01226972299954816 0 -0.41673372021425997 -0.022240754673565791 0 -0.4392085005598273 -0.024676348383282701 0 -0.43741768347029059 -0.01288367903972009 0 -0.42659341977192161 -0.010103830507352861 0 -0.4392085005598273 -0.024676348383282701 0 -0.4441818909265971 -0.00998157505946092 0 -0.42578104856505677 0.0031949168855625672 0 -0.43741768347029059 -0.01288367903972009 0 -0.4441818909265971 -0.00998157505946092 0 -0.42578104856505677 0.0031949168855625672 0 -0.43741768347029059 -0.01288367903972009 0 -0.42659341977192161 -0.010103830507352861 0 -0.42578104856505677 0.0031949168855625672 0 -0.43741768347029059 -0.01288367903972009 0 -0.42578104856505677 0.0031949168855625672 0 -0.42659341977192161 -0.010103830507352861 0 -0.41753789792717189 -0.0038843189997757009 0 -0.42578104856505677 0.0031949168855625672 0 -0.42659341977192161 -0.010103830507352861 0 -0.41753789792717189 -0.0038843189997757009 0 -0.41302196833726168 -0.01226972299954816 0 -0.41753789792717189 -0.0038843189997757009 0 -0.41302196833726168 -0.01226972299954816 0 -0.40771050441737638 -0.0035262849216432719 0 -0.41753789792717189 -0.0038843189997757009 0 -0.40771050441737638 -0.0035262849216432719 0 -0.41105156913745711 0.0034129409419674369 0 -0.42981912379901888 -0.030443092666165631 0 -0.40747857107326091 -0.02424585309778798 0 -0.41324955929443102 -0.038374170610562031 0 -0.42981912379901888 -0.030443092666165631 0 -0.40747857107326091 -0.02424585309778798 0 -0.42981912379901888 -0.030443092666165631 0 -0.41673372021425997 -0.022240754673565791 0 -0.40747857107326091 -0.02424585309778798 0 -0.41302196833726168 -0.01226972299954816 0 -0.41673372021425997 -0.022240754673565791 0 -0.40747857107326091 -0.02424585309778798 0 -0.41673372021425997 -0.022240754673565791 0 -0.40747857107326091 -0.02424585309778798 0 -0.40747857107326091 -0.02424585309778798 0 -0.38992317137517202 -0.02804917422583518 0 -0.40747857107326091 -0.02424585309778798 0 -0.38992317137517202 -0.02804917422583518 0 -0.38297625517291389 -0.017448943304264108 0 -0.40747857107326091 -0.02424585309778798 0 -0.38992317137517202 -0.02804917422583518 0 -0.40045416304880688 -0.034240371911693122 0 -0.40747857107326091 -0.02424585309778798 0 -0.39567459441968961 -0.012635194689989219 0 -0.38297625517291389 -0.017448943304264108 0 -0.40747857107326091 -0.02424585309778798 0 -0.38297625517291389 -0.017448943304264108 0 -0.41302196833726168 -0.01226972299954816 0 -0.40747857107326091 -0.02424585309778798 0 -0.39567459441968961 -0.012635194689989219 0 -0.41302196833726168 -0.01226972299954816 0 -0.40771050441737638 -0.0035262849216432719 0 -0.38683543611469601 0.0001369023841863784 0 -0.41302196833726168 -0.01226972299954816 0 -0.39567459441968961 -0.012635194689989219 0 -0.38683543611469601 0.0001369023841863784 0 -0.41302196833726168 -0.01226972299954816 0 -0.38683543611469601 0.0001369023841863784 0 -0.40771050441737638 -0.0035262849216432719 0 -0.38683543611469601 0.0001369023841863784 0 -0.40226596945639398 0.0014711925349297271 0 -0.39567459441968961 -0.012635194689989219 0 -0.38502252263107412 -0.0084426060797158468 0 -0.38683543611469601 0.0001369023841863784 0 -0.39567459441968961 -0.012635194689989219 0 -0.38502252263107412 -0.0084426060797158468 0 -0.38297625517291389 -0.017448943304264108 0 -0.38502252263107412 -0.0084426060797158468 0 -0.38009964520605882 -0.0090403485437739461 0 -0.38297625517291389 -0.017448943304264108 0 -0.37278444596104371 -0.0079457960458173115 0 -0.38009964520605882 -0.0090403485437739461 0 -0.38297625517291389 -0.017448943304264108 0 -0.37474494217865062 -0.0022388935110706832 0 -0.38502252263107412 -0.0084426060797158468 0 -0.38683543611469601 0.0001369023841863784 0 -0.37474494217865062 -0.0022388935110706832 0 -0.38502252263107412 -0.0084426060797158468 0 -0.38009964520605882 -0.0090403485437739461 0 -0.37474494217865062 -0.0022388935110706832 0 -0.37278444596104371 -0.0079457960458173115 0 -0.38009964520605882 -0.0090403485437739461 0 -0.37236777167708351 -0.031852495353884333 0 -0.38992317137517202 -0.02804917422583518 0 -0.37990921189048049 -0.023302515363219579 0 -0.37236777167708351 -0.031852495353884333 0 -0.38992317137517202 -0.02804917422583518 0 -0.38992317137517202 -0.02804917422583518 0 -0.38297625517291389 -0.017448943304264108 0 -0.37990921189048049 -0.023302515363219579 0 -0.3739022591900184 -0.02415390189740213 0 -0.38297625517291389 -0.017448943304264108 0 -0.37990921189048049 -0.023302515363219579 0 -0.37236777167708351 -0.031852495353884333 0 -0.3739022591900184 -0.02415390189740213 0 -0.37990921189048049 -0.023302515363219579 0 -0.37236777167708351 -0.031852495353884333 0 -0.37990921189048049 -0.023302515363219579 0 -0.38458287424021398 -0.039388642062709187 0 -0.39900851660089293 -0.046429079601448257 0 -0.3815482533063424 -0.052412606119804542 0 -0.37355784227175309 -0.045246792894939887 0 -0.37236777167708351 -0.031852495353884333 0 -0.38458287424021398 -0.039388642062709187 0 -0.37236777167708351 -0.031852495353884333 0 -0.38992317137517202 -0.02804917422583518 0 -0.38458287424021398 -0.039388642062709187 0 -0.37355784227175309 -0.045246792894939887 0 -0.38458287424021398 -0.039388642062709187 0 -0.3815482533063424 -0.052412606119804542 0 -0.38458287424021398 -0.039388642062709187 0 -0.39900851660089293 -0.046429079601448257 0 -0.40045416304880688 -0.034240371911693122 0 -0.38992317137517202 -0.02804917422583518 0 -0.38458287424021398 -0.039388642062709187 0 -0.40045416304880688 -0.034240371911693122 0 -0.41324955929443102 -0.038374170610562031 0 -0.39900851660089293 -0.046429079601448257 0 -0.40045416304880688 -0.034240371911693122 0 -0.39900851660089293 -0.046429079601448257 0 -0.39626447370361728 -0.06091275685647668 0 -0.3815482533063424 -0.052412606119804542 0 -0.41005136228565903 -0.05540387285823338 0 -0.39626447370361728 -0.06091275685647668 0 -0.40517181862379281 -0.066558370858305557 0 -0.41005136228565903 -0.05540387285823338 0 -0.39900851660089293 -0.046429079601448257 0 -0.39626447370361728 -0.06091275685647668 0 -0.36862349457690058 -0.057461967220355487 0 -0.3815482533063424 -0.052412606119804542 0 -0.37947166312044489 -0.067272628224985004 0 -0.3815482533063424 -0.052412606119804542 0 -0.37947166312044489 -0.067272628224985004 0 -0.39260231949431601 -0.074533368335879327 0 -0.36882665317829499 -0.078032107790563188 0 -0.39260231949431601 -0.074533368335879327 0 -0.39626447370361728 -0.06091275685647668 0 -0.3815482533063424 -0.052412606119804542 0 -0.39260231949431601 -0.074533368335879327 0 -0.3815482533063424 -0.052412606119804542 0 -0.39260231949431601 -0.074533368335879327 0 -0.36882665317829499 -0.078032107790563188 0 -0.37947166312044489 -0.067272628224985004 0 -0.39260231949431601 -0.074533368335879327 0 -0.36882665317829499 -0.078032107790563188 0 -0.39260231949431601 -0.074533368335879327 0 -0.39002829617667018 -0.099006697234722524 0 -0.36882665317829499 -0.078032107790563188 0 -0.39002829617667018 -0.099006697234722524 0 -0.37367929427193591 -0.1014825750548952 0 -0.36882665317829499 -0.078032107790563188 0 -0.39002829617667018 -0.099006697234722524 0 -0.39260231949431601 -0.074533368335879327 0 -0.39002829617667018 -0.099006697234722524 0 -0.39510370691593599 -0.098958215311000047 0 -0.39260231949431601 -0.074533368335879327 0 -0.40274583300482147 -0.094831984843681591 0 -0.39260231949431601 -0.074533368335879327 0 -0.39510370691593599 -0.098958215311000047 0 -0.40274583300482147 -0.094831984843681591 0 -0.40361170428446441 -0.083317353290434007 0 -0.39260231949431601 -0.074533368335879327 0 -0.40274583300482147 -0.094831984843681591 0 -0.40361170428446441 -0.083317353290434007 0 -0.39867569396630093 -0.073639632925658519 0 -0.40696916935602839 -0.074517235882718885 0 -0.39867569396630093 -0.073639632925658519 0 -0.40517181862379281 -0.066558370858305557 0 -0.40696916935602839 -0.074517235882718885 0 -0.39626447370361728 -0.06091275685647668 0 -0.39867569396630093 -0.073639632925658519 0 -0.40517181862379281 -0.066558370858305557 0 -0.39626447370361728 -0.06091275685647668 0 -0.39867569396630093 -0.073639632925658519 0 -0.39260231949431601 -0.074533368335879327 0 -0.40361170428446441 -0.083317353290434007 0 -0.39867569396630093 -0.073639632925658519 0 -0.39260231949431601 -0.074533368335879327 0 -0.39867569396630093 -0.073639632925658519 0 -0.39260231949431601 -0.074533368335879327 0 -0.37212838853434238 -0.11808059788504249 0 -0.38278168804071749 -0.12940228238898679 0 -0.39044023874876249 -0.11757149150947201 0 -0.37367929427193591 -0.1014825750548952 0 -0.37212838853434238 -0.11808059788504249 0 -0.39044023874876249 -0.11757149150947201 0 -0.37367929427193591 -0.1014825750548952 0 -0.39044023874876249 -0.11757149150947201 0 -0.39002829617667018 -0.099006697234722524 0 -0.39510370691593599 -0.098958215311000047 0 -0.40274583300482147 -0.094831984843681591 0 -0.41288934651532883 -0.11513060135148299 0 -0.39002829617667018 -0.099006697234722524 0 -0.39510370691593599 -0.098958215311000047 0 -0.41122993917504558 -0.1199812866788818 0 -0.39510370691593599 -0.098958215311000047 0 -0.41288934651532883 -0.11513060135148299 0 -0.39647179587780151 -0.13189450107720049 0 -0.39044023874876249 -0.11757149150947201 0 -0.41122993917504558 -0.1199812866788818 0 -0.39002829617667018 -0.099006697234722524 0 -0.41122993917504558 -0.1199812866788818 0 -0.39044023874876249 -0.11757149150947201 0 -0.39002829617667018 -0.099006697234722524 0 -0.41122993917504558 -0.1199812866788818 0 -0.39510370691593599 -0.098958215311000047 0 -0.41122993917504558 -0.1199812866788818 0 -0.41288934651532883 -0.11513060135148299 0 -0.41930562378398423 -0.12797048681614909 0 -0.41122993917504558 -0.1199812866788818 0 -0.4149348530849476 -0.1169905694289516 0 -0.41930562378398423 -0.12797048681614909 0 -0.41122993917504558 -0.1199812866788818 0 -0.41930562378398423 -0.12797048681614909 0 -0.4149348530849476 -0.1169905694289516 0 -0.41122993917504558 -0.1199812866788818 0 -0.41288934651532883 -0.11513060135148299 0 -0.4149348530849476 -0.1169905694289516 0 -0.41122993917504558 -0.1199812866788818 0 -0.4149348530849476 -0.1169905694289516 0 -0.41288934651532883 -0.11513060135148299 0 -0.4149348530849476 -0.1169905694289516 0 -0.41288934651532883 -0.11513060135148299 0 -0.4149348530849476 -0.1169905694289516 0 -0.41458672172207622 -0.10427776634057311 0 -0.40274583300482147 -0.094831984843681591 0 -0.41288934651532883 -0.11513060135148299 0 -0.4149348530849476 -0.1169905694289516 0 -0.41458672172207622 -0.10427776634057311 0 -0.43059848591229039 -0.1043464168163742 0 -0.40274583300482147 -0.094831984843681591 0 -0.41288934651532883 -0.11513060135148299 0 -0.41458672172207622 -0.10427776634057311 0 -0.41458672172207622 -0.10427776634057311 0 -0.41348552386521947 -0.090840815536544176 0 -0.43025813067654672 -0.08737754853092726 0 -0.40274583300482147 -0.094831984843681591 0 -0.41458672172207622 -0.10427776634057311 0 -0.41348552386521947 -0.090840815536544176 0 -0.43059848591229039 -0.1043464168163742 0 -0.43025813067654672 -0.08737754853092726 0 -0.44626211873963212 -0.091702264203795431 0 -0.41458672172207622 -0.10427776634057311 0 -0.43059848591229039 -0.1043464168163742 0 -0.43025813067654672 -0.08737754853092726 0 -0.41458672172207622 -0.10427776634057311 0 -0.43025813067654672 -0.08737754853092726 0 -0.4149348530849476 -0.1169905694289516 0 -0.43059848591229039 -0.1043464168163742 0 -0.43160182387889101 -0.1187955019330571 0 -0.4149348530849476 -0.1169905694289516 0 -0.43059848591229039 -0.1043464168163742 0 -0.43389101300267191 -0.13422730327376839 0 -0.4149348530849476 -0.1169905694289516 0 -0.43160182387889101 -0.1187955019330571 0 -0.43059848591229039 -0.1043464168163742 0 -0.43160182387889101 -0.1187955019330571 0 -0.44003429013576911 -0.11331979272890801 0 -0.43160182387889101 -0.1187955019330571 0 -0.44085253015216358 -0.1237950587173612 0 -0.44003429013576911 -0.11331979272890801 0 -0.41422906440869389 -0.068128229862373102 0 -0.41539885585273961 -0.080089681603359497 0 -0.42594434486026628 -0.073522222089585226 0 -0.4246600563061857 -0.059067830999859447 0 -0.41422906440869389 -0.068128229862373102 0 -0.42594434486026628 -0.073522222089585226 0 -0.41005136228565903 -0.05540387285823338 0 -0.40517181862379281 -0.066558370858305557 0 -0.41422906440869389 -0.068128229862373102 0 -0.40517181862379281 -0.066558370858305557 0 -0.41422906440869389 -0.068128229862373102 0 -0.40696916935602839 -0.074517235882718885 0 -0.41422906440869389 -0.068128229862373102 0 -0.40696916935602839 -0.074517235882718885 0 -0.41539885585273961 -0.080089681603359497 0 -0.41348552386521947 -0.090840815536544176 0 -0.41539885585273961 -0.080089681603359497 0 -0.43025813067654672 -0.08737754853092726 0 -0.40361170428446441 -0.083317353290434007 0 -0.41348552386521947 -0.090840815536544176 0 -0.41539885585273961 -0.080089681603359497 0 -0.40361170428446441 -0.083317353290434007 0 -0.40696916935602839 -0.074517235882718885 0 -0.41539885585273961 -0.080089681603359497 0 -0.40361170428446441 -0.083317353290434007 0 -0.40274583300482147 -0.094831984843681591 0 -0.41348552386521947 -0.090840815536544176 0 -0.41539885585273961 -0.080089681603359497 0 -0.43025813067654672 -0.08737754853092726 0 -0.42594434486026628 -0.073522222089585226 0 -0.4246600563061857 -0.059067830999859447 0 -0.44592953963101739 -0.07047733072128165 0 -0.43025813067654672 -0.08737754853092726 0 -0.42594434486026628 -0.073522222089585226 0 -0.44592953963101739 -0.07047733072128165 0 -0.4246600563061857 -0.059067830999859447 0 -0.42594434486026628 -0.073522222089585226 0 -0.44592953963101739 -0.07047733072128165 0 -0.44592953963101739 -0.07047733072128165 0 -0.45893666683642192 -0.056450303318209168 0 -0.44592953963101739 -0.07047733072128165 0 -0.44626211873963212 -0.091702264203795431 0 -0.46192575156697407 -0.079058111591217034 0 -0.43025813067654672 -0.08737754853092726 0 -0.44592953963101739 -0.07047733072128165 0 -0.43025813067654672 -0.08737754853092726 0 -0.44592953963101739 -0.07047733072128165 0 -0.44626211873963212 -0.091702264203795431 0 -0.44626211873963212 -0.091702264203795431 0 -0.46631049206888459 -0.091444160656324658 0 -0.46192575156697407 -0.079058111591217034 0 -0.44626211873963212 -0.091702264203795431 0 -0.46192575156697407 -0.079058111591217034 0 -0.46631049206888459 -0.091444160656324658 0 -0.46192575156697407 -0.079058111591217034 0 -0.47702460168979111 -0.087157524427869615 0 -0.44592953963101739 -0.07047733072128165 0 -0.46192575156697407 -0.079058111591217034 0 -0.45893666683642192 -0.056450303318209168 0 -0.46192575156697407 -0.079058111591217034 0 -0.47491389520024407 -0.068573693827893439 0 -0.45893666683642192 -0.056450303318209168 0 -0.46192575156697407 -0.079058111591217034 0 -0.47491389520024407 -0.068573693827893439 0 -0.44592953963101739 -0.07047733072128165 0 -0.46192575156697407 -0.079058111591217034 0 -0.45000974795797011 -0.119430952696417 0 -0.44085253015216358 -0.1237950587173612 0 -0.44003429013576911 -0.11331979272890801 0 -0.45000974795797011 -0.119430952696417 0 -0.44003429013576911 -0.11331979272890801 0 -0.44926481423485548 -0.10476542824413421 0 -0.43059848591229039 -0.1043464168163742 0 -0.44626211873963212 -0.091702264203795431 0 -0.43059848591229039 -0.1043464168163742 0 -0.44626211873963212 -0.091702264203795431 0 -0.44926481423485548 -0.10476542824413421 0 -0.43059848591229039 -0.1043464168163742 0 -0.44003429013576911 -0.11331979272890801 0 -0.44926481423485548 -0.10476542824413421 0 -0.44626211873963212 -0.091702264203795431 0 -0.44926481423485548 -0.10476542824413421 0 -0.46153012095291662 -0.1019472767233552 0 -0.44626211873963212 -0.091702264203795431 0 -0.46631049206888459 -0.091444160656324658 0 -0.46153012095291662 -0.1019472767233552 0 -0.46631049206888459 -0.091444160656324658 0 -0.46153012095291662 -0.1019472767233552 0 -0.4710589232177344 -0.098453604121520433 0 -0.46153012095291662 -0.1019472767233552 0 -0.46221413283232399 -0.11366089481890911 0 -0.47430793409480421 -0.10627177682285049 0 -0.44926481423485548 -0.10476542824413421 0 -0.46153012095291662 -0.1019472767233552 0 -0.46221413283232399 -0.11366089481890911 0 -0.45896755277767909 -0.12575633132281341 0 -0.46221413283232399 -0.11366089481890911 0 -0.47750202174635031 -0.1215216316744509 0 -0.45000974795797011 -0.119430952696417 0 -0.44926481423485548 -0.10476542824413421 0 -0.46221413283232399 -0.11366089481890911 0 -0.45896755277767909 -0.12575633132281341 0 -0.45000974795797011 -0.119430952696417 0 -0.46221413283232399 -0.11366089481890911 0 -0.47750202174635031 -0.1215216316744509 0 -0.47430793409480421 -0.10627177682285049 0 -0.48673501487359588 -0.1010237797652184 0 -0.46221413283232399 -0.11366089481890911 0 -0.47750202174635031 -0.1215216316744509 0 -0.47430793409480421 -0.10627177682285049 0 -0.47430793409480421 -0.10627177682285049 0 -0.47745372589702628 -0.099742000537211661 0 -0.48673501487359588 -0.1010237797652184 0 -0.46153012095291662 -0.1019472767233552 0 -0.47430793409480421 -0.10627177682285049 0 -0.4710589232177344 -0.098453604121520433 0 -0.46631049206888459 -0.091444160656324658 0 -0.4710589232177344 -0.098453604121520433 0 -0.47771303140197108 -0.093218841439257433 0 -0.47430793409480421 -0.10627177682285049 0 -0.4710589232177344 -0.098453604121520433 0 -0.47745372589702628 -0.099742000537211661 0 -0.4710589232177344 -0.098453604121520433 0 -0.47745372589702628 -0.099742000537211661 0 -0.47771303140197108 -0.093218841439257433 0 -0.47745372589702628 -0.099742000537211661 0 -0.48673501487359588 -0.1010237797652184 0 -0.47771303140197108 -0.093218841439257433 0 -0.48673501487359588 -0.1010237797652184 0 -0.47771303140197108 -0.093218841439257433 0 -0.47702460168979111 -0.087157524427869615 0 -0.47750202174635031 -0.1215216316744509 0 -0.48673501487359588 -0.1010237797652184 0 -0.4986179579264654 -0.1020768288792674 0 -0.48673501487359588 -0.1010237797652184 0 -0.49842317329231273 -0.098636270432611556 0 -0.47702460168979111 -0.087157524427869615 0 -0.48673501487359588 -0.1010237797652184 0 -0.49842317329231273 -0.098636270432611556 0 -0.4986179579264654 -0.1020768288792674 0 -0.49999999999999939 -0.099482120969144883 0 -0.49842317329231273 -0.098636270432611556 0 -0.4986179579264654 -0.1020768288792674 0 -0.49842317329231273 -0.098636270432611556 0 -0.4986179579264654 -0.1020768288792674 0 -0.49999999999999939 -0.099482120969144883 0 -0.49842317329231273 -0.098636270432611556 0 -0.50000000000000011 -0.12648838757554831 0 -0.47750202174635031 -0.1215216316744509 0 -0.4986179579264654 -0.1020768288792674 0 -0.47750202174635031 -0.1215216316744509 0 -0.4986179579264654 -0.1020768288792674 0 -0.47491389520024407 -0.068573693827893439 0 -0.47702460168979111 -0.087157524427869615 0 -0.4847984782487687 -0.075944598732494498 0 -0.47491389520024407 -0.068573693827893439 0 -0.47702460168979111 -0.087157524427869615 0 -0.47967839073812912 -0.064727650616396362 0 -0.4847984782487687 -0.075944598732494498 0 -0.48794163871831331 -0.064119883023254248 0 -0.47967839073812912 -0.064727650616396362 0 -0.47491389520024407 -0.068573693827893439 0 -0.4847984782487687 -0.075944598732494498 0 -0.47967839073812912 -0.064727650616396362 0 -0.47491389520024407 -0.068573693827893439 0 -0.46192575156697407 -0.079058111591217034 0 -0.47702460168979111 -0.087157524427869615 0 -0.46192575156697407 -0.079058111591217034 0 -0.47491389520024407 -0.068573693827893439 0 -0.47702460168979111 -0.087157524427869615 0 -0.46631049206888459 -0.091444160656324658 0 -0.47771303140197108 -0.093218841439257433 0 -0.47702460168979111 -0.087157524427869615 0 -0.47771303140197108 -0.093218841439257433 0 -0.47702460168979111 -0.087157524427869615 0 -0.49842317329231273 -0.098636270432611556 0 -0.49712708577170861 -0.075742961183477536 0 -0.4847984782487687 -0.075944598732494498 0 -0.49999999999999939 -0.099482120969144883 0 -0.49842317329231273 -0.098636270432611556 0 -0.5 -0.078030389970551228 0 -0.49842317329231273 -0.098636270432611556 0 -0.49712708577170861 -0.075742961183477536 0 -0.49842317329231273 -0.098636270432611556 0 -0.5 -0.078030389970551228 0 -0.49712708577170861 -0.075742961183477536 0 -0.49842317329231273 -0.098636270432611556 0 -0.47702460168979111 -0.087157524427869615 0 -0.4847984782487687 -0.075944598732494498 0 -0.49842317329231273 -0.098636270432611556 0 -0.47702460168979111 -0.087157524427869615 0 -0.5 -0.078030389970551228 0 -0.49712708577170861 -0.075742961183477536 0 -0.49999999999999928 -0.056578658971957581 0 -0.49712708577170861 -0.075742961183477536 0 -0.49583099825110311 -0.052849651934343489 0 -0.49712708577170861 -0.075742961183477536 0 -0.48794163871831331 -0.064119883023254248 0 -0.49583099825110311 -0.052849651934343489 0 -0.49712708577170861 -0.075742961183477536 0 -0.4847984782487687 -0.075944598732494498 0 -0.48794163871831331 -0.064119883023254248 0 -0.49712708577170861 -0.075742961183477536 0 -0.49999999999999928 -0.056578658971957581 0 -0.49583099825110311 -0.052849651934343489 0 -0.49583099825110311 -0.052849651934343489 0 -0.47748890114140963 -0.036443372127734748 0 -0.48227324058185622 -0.051334552649559453 0 -0.49999999999999928 -0.056578658971957581 0 -0.49583099825110311 -0.052849651934343489 0 -0.49999999999999928 -0.056578658971957581 0 -0.50000000000000144 -0.053559852644015388 0 -0.49583099825110311 -0.052849651934343489 0 -0.48794163871831331 -0.064119883023254248 0 -0.49583099825110311 -0.052849651934343489 0 -0.48227324058185622 -0.051334552649559453 0 -0.50000000000000144 -0.053559852644015388 0 -0.49583099825110311 -0.052849651934343489 0 -0.48598145264485831 -0.02728491224803695 0 -0.49583099825110311 -0.052849651934343489 0 -0.47748890114140963 -0.036443372127734748 0 -0.48598145264485831 -0.02728491224803695 0 -0.50000000000000144 -0.053559852644015388 0 -0.48598145264485831 -0.02728491224803695 0 -0.50000000000000144 -0.053559852644015388 0 -0.48598145264485831 -0.02728491224803695 0 -0.5 -0.025161366008633609 0 -0.49583099825110311 -0.052849651934343489 0 -0.47748890114140963 -0.036443372127734748 0 -0.47748890114140963 -0.036443372127734748 0 -0.48598145264485831 -0.02728491224803695 0 -0.47748890114140963 -0.036443372127734748 0 -0.47194379404182718 -0.042423275915137587 0 -0.48227324058185622 -0.051334552649559453 0 -0.47748890114140963 -0.036443372127734748 0 -0.47194379404182718 -0.042423275915137587 0 -0.47748890114140963 -0.036443372127734748 0 -0.47194379404182718 -0.042423275915137587 0 -0.47056077858213702 -0.03024644074295027 0 -0.47194379404182718 -0.042423275915137587 0 -0.46539503278239303 -0.037082973767017267 0 -0.47056077858213702 -0.03024644074295027 0 -0.47194379404182718 -0.042423275915137587 0 -0.47056077858213702 -0.03024644074295027 0 -0.47748890114140963 -0.036443372127734748 0 -0.47056077858213702 -0.03024644074295027 0 -0.47748890114140963 -0.036443372127734748 0 -0.47056077858213702 -0.03024644074295027 0 -0.47745882259212458 -0.028728106929589409 0 -0.47967839073812912 -0.064727650616396362 0 -0.47491389520024407 -0.068573693827893439 0 -0.47194379404182718 -0.042423275915137587 0 -0.47967839073812912 -0.064727650616396362 0 -0.47194379404182718 -0.042423275915137587 0 -0.48227324058185622 -0.051334552649559453 0 -0.47491389520024407 -0.068573693827893439 0 -0.47194379404182718 -0.042423275915137587 0 -0.47967839073812912 -0.064727650616396362 0 -0.48794163871831331 -0.064119883023254248 0 -0.48227324058185622 -0.051334552649559453 0 -0.47491389520024407 -0.068573693827893439 0 -0.47194379404182718 -0.042423275915137587 0 -0.45893666683642192 -0.056450303318209168 0 -0.45893666683642192 -0.056450303318209168 0 -0.45743491846808387 -0.04563500224908737 0 -0.44544580640037118 -0.056213229689383748 0 -0.47194379404182718 -0.042423275915137587 0 -0.45893666683642192 -0.056450303318209168 0 -0.45743491846808387 -0.04563500224908737 0 -0.47194379404182718 -0.042423275915137587 0 -0.45893666683642192 -0.056450303318209168 0 -0.46539503278239303 -0.037082973767017267 0 -0.44890774518284438 -0.02927164544362729 0 -0.46539503278239303 -0.037082973767017267 0 -0.45215967652477718 -0.036640332234541717 0 -0.44890774518284438 -0.02927164544362729 0 -0.46539503278239303 -0.037082973767017267 0 -0.44890774518284438 -0.02927164544362729 0 -0.46189821575704781 -0.02986243911986371 0 -0.47194379404182718 -0.042423275915137587 0 -0.46539503278239303 -0.037082973767017267 0 -0.45743491846808387 -0.04563500224908737 0 -0.46539503278239303 -0.037082973767017267 0 -0.46189821575704781 -0.02986243911986371 0 -0.47056077858213702 -0.03024644074295027 0 -0.46539503278239303 -0.037082973767017267 0 -0.45743491846808387 -0.04563500224908737 0 -0.45215967652477718 -0.036640332234541717 0 -0.42981912379901888 -0.030443092666165631 0 -0.45215967652477718 -0.036640332234541717 0 -0.45743491846808387 -0.04563500224908737 0 -0.45215967652477718 -0.036640332234541717 0 -0.43957367317472601 -0.045089571971719818 0 -0.42981912379901888 -0.030443092666165631 0 -0.45215967652477718 -0.036640332234541717 0 -0.43957367317472601 -0.045089571971719818 0 -0.45743491846808387 -0.04563500224908737 0 -0.43957367317472601 -0.045089571971719818 0 -0.44544580640037118 -0.056213229689383748 0 -0.4246600563061857 -0.059067830999859447 0 -0.44592953963101739 -0.07047733072128165 0 -0.44544580640037118 -0.056213229689383748 0 -0.44592953963101739 -0.07047733072128165 0 -0.45893666683642192 -0.056450303318209168 0 -0.44544580640037118 -0.056213229689383748 0 -0.4441818909265971 -0.00998157505946092 0 -0.45588653083934588 0.00041698580085632909 0 -0.44737850259376799 0.0077656591989471307 0 -0.4441818909265971 -0.00998157505946092 0 -0.4570262928383732 -0.018140378997512391 0 -0.45633913854906122 -0.0094275687658610888 0 -0.4441818909265971 -0.00998157505946092 0 -0.45633913854906122 -0.0094275687658610888 0 -0.45588653083934588 0.00041698580085632909 0 -0.43741768347029059 -0.01288367903972009 0 -0.4441818909265971 -0.00998157505946092 0 -0.44890774518284438 -0.02927164544362729 0 -0.42981912379901888 -0.030443092666165631 0 -0.45215967652477718 -0.036640332234541717 0 -0.4392085005598273 -0.024676348383282701 0 -0.4441818909265971 -0.00998157505946092 0 -0.44890774518284438 -0.02927164544362729 0 -0.46258273328813732 -0.023158067004484729 0 -0.43741768347029059 -0.01288367903972009 0 -0.44890774518284438 -0.02927164544362729 0 -0.43741768347029059 -0.01288367903972009 0 -0.4392085005598273 -0.024676348383282701 0 -0.44890774518284438 -0.02927164544362729 0 -0.4392085005598273 -0.024676348383282701 0 -0.44890774518284438 -0.02927164544362729 0 -0.45215967652477718 -0.036640332234541717 0 -0.4392085005598273 -0.024676348383282701 0 -0.44890774518284438 -0.02927164544362729 0 -0.4441818909265971 -0.00998157505946092 0 -0.46258273328813732 -0.023158067004484729 0 -0.46258273328813732 -0.023158067004484729 0 -0.46826183959192841 -0.01000530680732737 0 -0.47056077858213702 -0.03024644074295027 0 -0.4441818909265971 -0.00998157505946092 0 -0.4570262928383732 -0.018140378997512391 0 -0.46258273328813732 -0.023158067004484729 0 -0.4570262928383732 -0.018140378997512391 0 -0.46258273328813732 -0.023158067004484729 0 -0.44890774518284438 -0.02927164544362729 0 -0.46189821575704781 -0.02986243911986371 0 -0.46258273328813732 -0.023158067004484729 0 -0.46258273328813732 -0.023158067004484729 0 -0.47056077858213702 -0.03024644074295027 0 -0.46189821575704781 -0.02986243911986371 0 -0.46258273328813732 -0.023158067004484729 0 -0.47056077858213702 -0.03024644074295027 0 -0.4570262928383732 -0.018140378997512391 0 -0.46258273328813732 -0.023158067004484729 0 -0.46826183959192841 -0.01000530680732737 0 -0.4570262928383732 -0.018140378997512391 0 -0.46826183959192841 -0.01000530680732737 0 -0.45633913854906122 -0.0094275687658610888 0 -0.46826183959192841 -0.01000530680732737 0 -0.45633913854906122 -0.0094275687658610888 0 -0.45588653083934588 0.00041698580085632909 0 -0.46826183959192841 -0.01000530680732737 0 -0.47597217662329228 -0.0085245425598697612 0 -0.4659629006017233 0.010235827128295859 0 -0.46826183959192841 -0.01000530680732737 0 -0.47597217662329228 -0.0085245425598697612 0 -0.47580415800009379 -0.02093770259963601 0 -0.47597217662329228 -0.0085245425598697612 0 -0.48922725890134677 -0.010453537226696331 0 -0.48082517856277007 0.001845263919603602 0 -0.47597217662329228 -0.0085245425598697612 0 -0.47580415800009379 -0.02093770259963601 0 -0.48598145264485831 -0.02728491224803695 0 -0.47597217662329228 -0.0085245425598697612 0 -0.48598145264485831 -0.02728491224803695 0 -0.46826183959192841 -0.01000530680732737 0 -0.47056077858213702 -0.03024644074295027 0 -0.47580415800009379 -0.02093770259963601 0 -0.47597217662329228 -0.0085245425598697612 0 -0.48598145264485831 -0.02728491224803695 0 -0.4893389393206713 -0.02366416211133009 0 -0.46826183959192841 -0.01000530680732737 0 -0.47056077858213702 -0.03024644074295027 0 -0.47056077858213702 -0.03024644074295027 0 -0.47580415800009379 -0.02093770259963601 0 -0.47745882259212458 -0.028728106929589409 0 -0.47580415800009379 -0.02093770259963601 0 -0.47745882259212458 -0.028728106929589409 0 -0.48598145264485831 -0.02728491224803695 0 -0.47748890114140963 -0.036443372127734748 0 -0.47745882259212458 -0.028728106929589409 0 -0.48598145264485831 -0.02728491224803695 0 -0.48598145264485831 -0.02728491224803695 0 -0.4893389393206713 -0.02366416211133009 0 -0.5 -0.025161366008633609 0 -0.48598145264485831 -0.02728491224803695 0 -0.4893389393206713 -0.02366416211133009 0 -0.4893389393206713 -0.02366416211133009 0 -0.5 -0.025161366008633609 0 -0.48922725890134677 -0.010453537226696331 0 -0.48922725890134677 -0.010453537226696331 0 -0.5 0.0032371206267481911 0 -0.48082517856277007 0.001845263919603602 0 -0.5 -0.025161366008633609 0 -0.48922725890134677 -0.010453537226696331 0 -0.5 0.0032371206267481911 0 -0.47597217662329228 -0.0085245425598697612 0 -0.4893389393206713 -0.02366416211133009 0 -0.48922725890134677 -0.010453537226696331 0 -0.5 0.0032371206267481911 0 -0.48596576445654982 0.01457961489688041 0 -0.48082517856277007 0.001845263919603602 0 -0.48596576445654982 0.01457961489688041 0 -0.47541999506787802 0.025418180444172121 0 -0.5 0.031635607262129987 0 -0.5 0.0032371206267481911 0 -0.48596576445654982 0.01457961489688041 0 -0.5 0.031635607262129987 0 -0.48596576445654982 0.01457961489688041 0 -0.47541999506787802 0.025418180444172121 0 -0.47401658579892991 0.013489912392399149 0 -0.47541999506787802 0.025418180444172121 0 -0.46963945276383978 0.01793989872667965 0 -0.47401658579892991 0.013489912392399149 0 -0.47597217662329228 -0.0085245425598697612 0 -0.48082517856277007 0.001845263919603602 0 -0.4659629006017233 0.010235827128295859 0 -0.47401658579892991 0.013489912392399149 0 -0.48082517856277007 0.001845263919603602 0 -0.4659629006017233 0.010235827128295859 0 -0.46963945276383978 0.01793989872667965 0 -0.47401658579892991 0.013489912392399149 0 -0.4659629006017233 0.010235827128295859 0 -0.47597217662329228 -0.0085245425598697612 0 -0.4659629006017233 0.010235827128295859 0 -0.48596576445654982 0.01457961489688041 0 -0.47401658579892991 0.013489912392399149 0 -0.48082517856277007 0.001845263919603602 0 -0.5 0.060034093897511798 0 -0.47816362815030861 0.043832779932641487 0 -0.48068047186290208 0.063626500276227002 0 -0.47541999506787802 0.025418180444172121 0 -0.5 0.031635607262129987 0 -0.47816362815030861 0.043832779932641487 0 -0.5 0.060034093897511798 0 -0.5 0.031635607262129987 0 -0.47816362815030861 0.043832779932641487 0 -0.47541999506787802 0.025418180444172121 0 -0.47816362815030861 0.043832779932641487 0 -0.46442391639916691 0.036471327701905212 0 -0.47816362815030861 0.043832779932641487 0 -0.46119618507356652 0.049359273152949731 0 -0.48068047186290208 0.063626500276227002 0 -0.46119618507356652 0.049359273152949731 0 -0.46103932749027238 0.064238871702306077 0 -0.48068047186290208 0.063626500276227002 0 -0.46119618507356652 0.049359273152949731 0 -0.44286953411296898 0.045255716157198693 0 -0.46103932749027238 0.064238871702306077 0 -0.47816362815030861 0.043832779932641487 0 -0.46119618507356652 0.049359273152949731 0 -0.46442391639916691 0.036471327701905212 0 -0.46119618507356652 0.049359273152949731 0 -0.46442391639916691 0.036471327701905212 0 -0.45082509298125129 0.038608595210277222 0 -0.46442391639916691 0.036471327701905212 0 -0.45082509298125129 0.038608595210277222 0 -0.4583939967914884 0.024422211169287101 0 -0.45082509298125129 0.038608595210277222 0 -0.4583939967914884 0.024422211169287101 0 -0.46119618507356652 0.049359273152949731 0 -0.45082509298125129 0.038608595210277222 0 -0.44286953411296898 0.045255716157198693 0 -0.45082509298125129 0.038608595210277222 0 -0.4405409619944019 0.035432846457562263 0 -0.4458839614772655 0.023387518650519249 0 -0.45082509298125129 0.038608595210277222 0 -0.4405409619944019 0.035432846457562263 0 -0.44286953411296898 0.045255716157198693 0 -0.4405409619944019 0.035432846457562263 0 -0.44286953411296898 0.045255716157198693 0 -0.43229092530358848 0.04451632412921195 0 -0.44286953411296898 0.045255716157198693 0 -0.44282721760043869 0.062046251170956107 0 -0.46103932749027238 0.064238871702306077 0 -0.44286953411296898 0.045255716157198693 0 -0.44282721760043869 0.062046251170956107 0 -0.43188097302969042 0.056955122555226501 0 -0.44286953411296898 0.045255716157198693 0 -0.46103932749027238 0.064238871702306077 0 -0.46826183959192841 -0.01000530680732737 0 -0.45588653083934588 0.00041698580085632909 0 -0.4659629006017233 0.010235827128295859 0 -0.46826183959192841 -0.01000530680732737 0 -0.4659629006017233 0.010235827128295859 0 -0.45609316173783881 0.014082317838893479 0 -0.45588653083934588 0.00041698580085632909 0 -0.4659629006017233 0.010235827128295859 0 -0.46963945276383978 0.01793989872667965 0 -0.4659629006017233 0.010235827128295859 0 -0.4583939967914884 0.024422211169287101 0 -0.4659629006017233 0.010235827128295859 0 -0.4583939967914884 0.024422211169287101 0 -0.47541999506787802 0.025418180444172121 0 -0.46963945276383978 0.01793989872667965 0 -0.4583939967914884 0.024422211169287101 0 -0.47541999506787802 0.025418180444172121 0 -0.46442391639916691 0.036471327701905212 0 -0.4583939967914884 0.024422211169287101 0 -0.45609316173783881 0.014082317838893479 0 -0.4659629006017233 0.010235827128295859 0 -0.4583939967914884 0.024422211169287101 0 -0.45609316173783881 0.014082317838893479 0 -0.4583939967914884 0.024422211169287101 0 -0.4458839614772655 0.023387518650519249 0 -0.45082509298125129 0.038608595210277222 0 -0.4583939967914884 0.024422211169287101 0 -0.4458839614772655 0.023387518650519249 0 -0.4405409619944019 0.035432846457562263 0 -0.4458839614772655 0.023387518650519249 0 -0.43566193494816191 0.02574822372494872 0 -0.4458839614772655 0.023387518650519249 0 -0.4359559447540089 0.01018896392150693 0 -0.43566193494816191 0.02574822372494872 0 -0.4441818909265971 -0.00998157505946092 0 -0.44737850259376799 0.0077656591989471307 0 -0.4359559447540089 0.01018896392150693 0 -0.4458839614772655 0.023387518650519249 0 -0.44737850259376799 0.0077656591989471307 0 -0.4359559447540089 0.01018896392150693 0 -0.45609316173783881 0.014082317838893479 0 -0.4458839614772655 0.023387518650519249 0 -0.44737850259376799 0.0077656591989471307 0 -0.45609316173783881 0.014082317838893479 0 -0.45588653083934588 0.00041698580085632909 0 -0.44737850259376799 0.0077656591989471307 0 -0.4441818909265971 -0.00998157505946092 0 -0.4359559447540089 0.01018896392150693 0 -0.42578104856505677 0.0031949168855625672 0 -0.42578104856505677 0.0031949168855625672 0 -0.41622595309658328 0.016397403714119251 0 -0.42870406893849561 0.019163111370922251 0 -0.4359559447540089 0.01018896392150693 0 -0.42578104856505677 0.0031949168855625672 0 -0.42870406893849561 0.019163111370922251 0 -0.41753789792717189 -0.0038843189997757009 0 -0.42578104856505677 0.0031949168855625672 0 -0.41105156913745711 0.0034129409419674369 0 -0.42578104856505677 0.0031949168855625672 0 -0.40852807671777941 0.0155494406680463 0 -0.41622595309658328 0.016397403714119251 0 -0.42578104856505677 0.0031949168855625672 0 -0.40852807671777941 0.0155494406680463 0 -0.41105156913745711 0.0034129409419674369 0 -0.42578104856505677 0.0031949168855625672 0 -0.40852807671777941 0.0155494406680463 0 -0.42578104856505677 0.0031949168855625672 0 -0.41622595309658328 0.016397403714119251 0 -0.40852807671777941 0.0155494406680463 0 -0.41105156913745711 0.0034129409419674369 0 -0.40262572535869262 0.0089097845909437267 0 -0.40771050441737638 -0.0035262849216432719 0 -0.41105156913745711 0.0034129409419674369 0 -0.40226596945639398 0.0014711925349297271 0 -0.40667085762811028 0.029599890542676258 0 -0.41622595309658328 0.016397403714119251 0 -0.42870406893849561 0.019163111370922251 0 -0.40667085762811028 0.029599890542676258 0 -0.42870406893849561 0.019163111370922251 0 -0.40667085762811028 0.029599890542676258 0 -0.41990433555607742 0.03061685230769556 0 -0.42870406893849561 0.019163111370922251 0 -0.40852807671777941 0.0155494406680463 0 -0.40667085762811028 0.029599890542676258 0 -0.41622595309658328 0.016397403714119251 0 -0.40667085762811028 0.029599890542676258 0 -0.41622595309658328 0.016397403714119251 0 -0.41990433555607742 0.03061685230769556 0 -0.4284463216954002 0.029357354603554459 0 -0.42870406893849561 0.019163111370922251 0 -0.4359559447540089 0.01018896392150693 0 -0.42870406893849561 0.019163111370922251 0 -0.43566193494816191 0.02574822372494872 0 -0.4284463216954002 0.029357354603554459 0 -0.42870406893849561 0.019163111370922251 0 -0.43566193494816191 0.02574822372494872 0 -0.4284463216954002 0.029357354603554459 0 -0.43566193494816191 0.02574822372494872 0 -0.43264023121812112 0.033917661463996759 0 -0.4405409619944019 0.035432846457562263 0 -0.43264023121812112 0.033917661463996759 0 -0.43229092530358848 0.04451632412921195 0 -0.43264023121812112 0.033917661463996759 0 -0.43229092530358848 0.04451632412921195 0 -0.42532103781614489 0.037340924150209003 0 -0.4405409619944019 0.035432846457562263 0 -0.43566193494816191 0.02574822372494872 0 -0.43264023121812112 0.033917661463996759 0 -0.43229092530358848 0.04451632412921195 0 -0.42532103781614489 0.037340924150209003 0 -0.42042490988599091 0.046091327469671317 0 -0.4284463216954002 0.029357354603554459 0 -0.43264023121812112 0.033917661463996759 0 -0.42532103781614489 0.037340924150209003 0 -0.41990433555607742 0.03061685230769556 0 -0.4284463216954002 0.029357354603554459 0 -0.42532103781614489 0.037340924150209003 0 -0.43229092530358848 0.04451632412921195 0 -0.43188097302969042 0.056955122555226501 0 -0.42585725303016408 0.051510102087770737 0 -0.44286953411296898 0.045255716157198693 0 -0.43229092530358848 0.04451632412921195 0 -0.43188097302969042 0.056955122555226501 0 -0.43229092530358848 0.04451632412921195 0 -0.42585725303016408 0.051510102087770737 0 -0.42042490988599091 0.046091327469671317 0 -0.43188097302969042 0.056955122555226501 0 -0.41883220390138681 0.058477634196973202 0 -0.43131469147834472 0.070632617455275076 0 -0.43188097302969042 0.056955122555226501 0 -0.42585725303016408 0.051510102087770737 0 -0.41883220390138681 0.058477634196973202 0 -0.41883220390138681 0.058477634196973202 0 -0.40840220717331749 0.048304634434869917 0 -0.39985653820026013 0.060860810446949978 0 -0.42585725303016408 0.051510102087770737 0 -0.41883220390138681 0.058477634196973202 0 -0.42042490988599091 0.046091327469671317 0 -0.41883220390138681 0.058477634196973202 0 -0.40840220717331749 0.048304634434869917 0 -0.42042490988599091 0.046091327469671317 0 -0.41990433555607742 0.03061685230769556 0 -0.42532103781614489 0.037340924150209003 0 -0.4122967326089878 0.037821593301397609 0 -0.42532103781614489 0.037340924150209003 0 -0.42042490988599091 0.046091327469671317 0 -0.4122967326089878 0.037821593301397609 0 -0.40840220717331749 0.048304634434869917 0 -0.4122967326089878 0.037821593301397609 0 -0.40579981868685489 0.041495006097714962 0 -0.40840220717331749 0.048304634434869917 0 -0.42042490988599091 0.046091327469671317 0 -0.4122967326089878 0.037821593301397609 0 -0.4122967326089878 0.037821593301397609 0 -0.40278544391907911 0.034968452634622761 0 -0.40579981868685489 0.041495006097714962 0 -0.40667085762811028 0.029599890542676258 0 -0.4122967326089878 0.037821593301397609 0 -0.40278544391907911 0.034968452634622761 0 -0.40667085762811028 0.029599890542676258 0 -0.41990433555607742 0.03061685230769556 0 -0.4122967326089878 0.037821593301397609 0 -0.40667085762811028 0.029599890542676258 0 -0.40278544391907911 0.034968452634622761 0 -0.40667085762811028 0.029599890542676258 0 -0.38856614517843069 0.038175802748282091 0 -0.40667085762811028 0.029599890542676258 0 -0.38856614517843069 0.038175802748282091 0 -0.39127510487050182 0.027903964450529759 0 -0.40667085762811028 0.029599890542676258 0 -0.40278544391907911 0.034968452634622761 0 -0.38856614517843069 0.038175802748282091 0 -0.40278544391907911 0.034968452634622761 0 -0.40579981868685489 0.041495006097714962 0 -0.3977250587697031 0.045015474274426849 0 -0.40840220717331749 0.048304634434869917 0 -0.40579981868685489 0.041495006097714962 0 -0.3977250587697031 0.045015474274426849 0 -0.40278544391907911 0.034968452634622761 0 -0.3977250587697031 0.045015474274426849 0 -0.38856614517843069 0.038175802748282091 0 -0.40840220717331749 0.048304634434869917 0 -0.3977250587697031 0.045015474274426849 0 -0.39985653820026013 0.060860810446949978 0 -0.3977250587697031 0.045015474274426849 0 -0.39985653820026013 0.060860810446949978 0 -0.38472691017257071 0.052921849058569698 0 -0.39985653820026013 0.060860810446949978 0 -0.38472691017257071 0.052921849058569698 0 -0.38510762700538009 0.066428587654483159 0 -0.38472691017257071 0.052921849058569698 0 -0.37046143272875132 0.04675171495388801 0 -0.37000681959492809 0.05831264468359916 0 -0.38472691017257071 0.052921849058569698 0 -0.38510762700538009 0.066428587654483159 0 -0.37000681959492809 0.05831264468359916 0 -0.38856614517843069 0.038175802748282091 0 -0.37871402691879819 0.03757115751491092 0 -0.37046143272875132 0.04675171495388801 0 -0.38856614517843069 0.038175802748282091 0 -0.37046143272875132 0.04675171495388801 0 -0.38472691017257071 0.052921849058569698 0 -0.38856614517843069 0.038175802748282091 0 -0.37046143272875132 0.04675171495388801 0 -0.38856614517843069 0.038175802748282091 0 -0.38315308642314733 0.033917821982192238 0 -0.39127510487050182 0.027903964450529759 0 -0.38856614517843069 0.038175802748282091 0 -0.38315308642314733 0.033917821982192238 0 -0.37871402691879819 0.03757115751491092 0 -0.3977250587697031 0.045015474274426849 0 -0.38472691017257071 0.052921849058569698 0 -0.38856614517843069 0.038175802748282091 0 -0.37871402691879819 0.03757115751491092 0 -0.3764786745208083 0.032098692741998169 0 -0.37046143272875132 0.04675171495388801 0 -0.38315308642314733 0.033917821982192238 0 -0.3764786745208083 0.032098692741998169 0 -0.38155727091044611 0.028316364585127811 0 -0.38315308642314733 0.033917821982192238 0 -0.37871402691879819 0.03757115751491092 0 -0.3764786745208083 0.032098692741998169 0 -0.3764786745208083 0.032098692741998169 0 -0.38155727091044611 0.028316364585127811 0 -0.37960108001976323 0.022263106047543741 0 -0.37960108001976323 0.022263106047543741 0 -0.37998819155715241 0.0057865511937031933 0 -0.37123175334181557 0.027162262264614271 0 -0.3764786745208083 0.032098692741998169 0 -0.37960108001976323 0.022263106047543741 0 -0.37123175334181557 0.027162262264614271 0 -0.38155727091044611 0.028316364585127811 0 -0.38533699425949169 0.022674384769296389 0 -0.37960108001976323 0.022263106047543741 0 -0.38155727091044611 0.028316364585127811 0 -0.38533699425949169 0.022674384769296389 0 -0.39127510487050182 0.027903964450529759 0 -0.38315308642314733 0.033917821982192238 0 -0.38155727091044611 0.028316364585127811 0 -0.39127510487050182 0.027903964450529759 0 -0.39054146691731162 0.018060194648231769 0 -0.38533699425949169 0.022674384769296389 0 -0.39127510487050182 0.027903964450529759 0 -0.38533699425949169 0.022674384769296389 0 -0.3837100485794358 0.01682829411504885 0 -0.37960108001976323 0.022263106047543741 0 -0.39054146691731162 0.018060194648231769 0 -0.38533699425949169 0.022674384769296389 0 -0.3837100485794358 0.01682829411504885 0 -0.3837100485794358 0.01682829411504885 0 -0.37960108001976323 0.022263106047543741 0 -0.37998819155715241 0.0057865511937031933 0 -0.37998819155715241 0.0057865511937031933 0 -0.38683543611469601 0.0001369023841863784 0 -0.36064890389212972 0.0125435277679194 0 -0.37998819155715241 0.0057865511937031933 0 -0.38683543611469601 0.0001369023841863784 0 -0.38901012294298121 0.0062908016400105649 0 -0.38683543611469601 0.0001369023841863784 0 -0.38901012294298121 0.0062908016400105649 0 -0.39501457079486157 0.0055715078560810288 0 -0.37998819155715241 0.0057865511937031933 0 -0.38901012294298121 0.0062908016400105649 0 -0.38744744785130802 0.01185902438546781 0 -0.3837100485794358 0.01682829411504885 0 -0.37998819155715241 0.0057865511937031933 0 -0.38744744785130802 0.01185902438546781 0 -0.38901012294298121 0.0062908016400105649 0 -0.38744744785130802 0.01185902438546781 0 -0.39422738021243581 0.01127211946813913 0 -0.39054146691731162 0.018060194648231769 0 -0.3837100485794358 0.01682829411504885 0 -0.38744744785130802 0.01185902438546781 0 -0.39054146691731162 0.018060194648231769 0 -0.39422738021243581 0.01127211946813913 0 -0.39743955081534421 0.016339100765178138 0 -0.39054146691731162 0.018060194648231769 0 -0.38744744785130802 0.01185902438546781 0 -0.39422738021243581 0.01127211946813913 0 -0.39422738021243581 0.01127211946813913 0 -0.39501457079486157 0.0055715078560810288 0 -0.40262572535869262 0.0089097845909437267 0 -0.39422738021243581 0.01127211946813913 0 -0.40262572535869262 0.0089097845909437267 0 -0.39743955081534421 0.016339100765178138 0 -0.38683543611469601 0.0001369023841863784 0 -0.39501457079486157 0.0055715078560810288 0 -0.40226596945639398 0.0014711925349297271 0 -0.38901012294298121 0.0062908016400105649 0 -0.39422738021243581 0.01127211946813913 0 -0.39501457079486157 0.0055715078560810288 0 -0.41105156913745711 0.0034129409419674369 0 -0.40226596945639398 0.0014711925349297271 0 -0.40262572535869262 0.0089097845909437267 0 -0.39501457079486157 0.0055715078560810288 0 -0.40226596945639398 0.0014711925349297271 0 -0.40262572535869262 0.0089097845909437267 0 -0.40852807671777941 0.0155494406680463 0 -0.40262572535869262 0.0089097845909437267 0 -0.39743955081534421 0.016339100765178138 0 -0.40852807671777941 0.0155494406680463 0 -0.39127510487050182 0.027903964450529759 0 -0.40852807671777941 0.0155494406680463 0 -0.40667085762811028 0.029599890542676258 0 -0.39127510487050182 0.027903964450529759 0 -0.40852807671777941 0.0155494406680463 0 -0.39127510487050182 0.027903964450529759 0 -0.39743955081534421 0.016339100765178138 0 -0.39054146691731162 0.018060194648231769 0 -0.39127510487050182 0.027903964450529759 0 -0.39743955081534421 0.016339100765178138 0 -0.39792088922733271 0.1160922105611595 0 -0.40104213778508202 0.092866093853817611 0 -0.41467909406405851 0.1139188519362445 0 -0.39792088922733271 0.1160922105611595 0 -0.3782625711058698 0.101617738696854 0 -0.40104213778508202 0.092866093853817611 0 -0.3782625711058698 0.101617738696854 0 -0.38372255811484618 0.13025780258704611 0 -0.3782625711058698 0.101617738696854 0 -0.38372255811484618 0.13025780258704611 0 -0.36747352968705388 0.12273486311700831 0 -0.39792088922733271 0.1160922105611595 0 -0.3782625711058698 0.101617738696854 0 -0.38372255811484618 0.13025780258704611 0 -0.39792088922733271 0.1160922105611595 0 -0.3782625711058698 0.101617738696854 0 -0.3782625711058698 0.101617738696854 0 -0.40104213778508202 0.092866093853817611 0 -0.37470600383380392 0.082961959162170973 0 -0.39520328107527708 0.075997639864115257 0 -0.40104213778508202 0.092866093853817611 0 -0.37470600383380392 0.082961959162170973 0 -0.3782625711058698 0.101617738696854 0 -0.37470600383380392 0.082961959162170973 0 -0.40104213778508202 0.092866093853817611 0 -0.37470600383380392 0.082961959162170973 0 -0.38510762700538009 0.066428587654483159 0 -0.37000681959492809 0.05831264468359916 0 -0.37470600383380392 0.082961959162170973 0 -0.38510762700538009 0.066428587654483159 0 -0.39520328107527708 0.075997639864115257 0 -0.37470600383380392 0.082961959162170973 0 -0.39985653820026013 0.060860810446949978 0 -0.39520328107527708 0.075997639864115257 0 -0.41322693425173768 0.074694678089132868 0 -0.39985653820026013 0.060860810446949978 0 -0.38510762700538009 0.066428587654483159 0 -0.39520328107527708 0.075997639864115257 0 -0.39520328107527708 0.075997639864115257 0 -0.40104213778508202 0.092866093853817611 0 -0.41322693425173768 0.074694678089132868 0 -0.40104213778508202 0.092866093853817611 0 -0.41322693425173768 0.074694678089132868 0 -0.42957324029363853 0.085693113452461764 0 -0.41883220390138681 0.058477634196973202 0 -0.41322693425173768 0.074694678089132868 0 -0.43131469147834472 0.070632617455275076 0 -0.41883220390138681 0.058477634196973202 0 -0.39985653820026013 0.060860810446949978 0 -0.41322693425173768 0.074694678089132868 0 -0.43131469147834472 0.070632617455275076 0 -0.42957324029363853 0.085693113452461764 0 -0.4470315618909167 0.073148927984774167 0 -0.41322693425173768 0.074694678089132868 0 -0.43131469147834472 0.070632617455275076 0 -0.42957324029363853 0.085693113452461764 0 -0.44282721760043869 0.062046251170956107 0 -0.43188097302969042 0.056955122555226501 0 -0.43131469147834472 0.070632617455275076 0 -0.42957324029363853 0.085693113452461764 0 -0.42737827173636012 0.1027702285454639 0 -0.44343173260412461 0.097571970950778963 0 -0.40104213778508202 0.092866093853817611 0 -0.42737827173636012 0.1027702285454639 0 -0.41467909406405851 0.1139188519362445 0 -0.40104213778508202 0.092866093853817611 0 -0.42737827173636012 0.1027702285454639 0 -0.40104213778508202 0.092866093853817611 0 -0.42957324029363853 0.085693113452461764 0 -0.42737827173636012 0.1027702285454639 0 -0.39792088922733271 0.1160922105611595 0 -0.41467909406405851 0.1139188519362445 0 -0.417579207348795 0.13056668242546571 0 -0.39792088922733271 0.1160922105611595 0 -0.417579207348795 0.13056668242546571 0 -0.41467909406405851 0.1139188519362445 0 -0.42608096723388439 0.1205091241492761 0 -0.417579207348795 0.13056668242546571 0 -0.42737827173636012 0.1027702285454639 0 -0.41467909406405851 0.1139188519362445 0 -0.42608096723388439 0.1205091241492761 0 -0.42737827173636012 0.1027702285454639 0 -0.42608096723388439 0.1205091241492761 0 -0.43826405507869293 0.1195835460605416 0 -0.42608096723388439 0.1205091241492761 0 -0.43826405507869293 0.1195835460605416 0 -0.43293323699752101 0.1317554923945817 0 -0.43826405507869293 0.1195835460605416 0 -0.45371440568763749 0.1126743632371118 0 -0.44901593584904892 0.12912088192892021 0 -0.42737827173636012 0.1027702285454639 0 -0.43826405507869293 0.1195835460605416 0 -0.45371440568763749 0.1126743632371118 0 -0.4523882543875366 0.10983005993361 0 -0.45371440568763749 0.1126743632371118 0 -0.42737827173636012 0.1027702285454639 0 -0.4523882543875366 0.10983005993361 0 -0.44343173260412461 0.097571970950778963 0 -0.42737827173636012 0.1027702285454639 0 -0.4523882543875366 0.10983005993361 0 -0.45371440568763749 0.1126743632371118 0 -0.42737827173636012 0.1027702285454639 0 -0.45371440568763749 0.1126743632371118 0 -0.44343173260412461 0.097571970950778963 0 -0.45084974973894648 0.096020795281878568 0 -0.45306155814551219 0.1028275296158008 0 -0.44343173260412461 0.097571970950778963 0 -0.45084974973894648 0.096020795281878568 0 -0.44733932132275389 0.088290098875458828 0 -0.4523882543875366 0.10983005993361 0 -0.44343173260412461 0.097571970950778963 0 -0.45306155814551219 0.1028275296158008 0 -0.4523882543875366 0.10983005993361 0 -0.45306155814551219 0.1028275296158008 0 -0.45661100561120399 0.109540819014999 0 -0.45306155814551219 0.1028275296158008 0 -0.46084618436187341 0.10490351706993729 0 -0.45661100561120399 0.109540819014999 0 -0.45306155814551219 0.1028275296158008 0 -0.46084618436187341 0.10490351706993729 0 -0.45799439118323759 0.099220837031069903 0 -0.46084618436187341 0.10490351706993729 0 -0.4635407771028337 0.1124237257980706 0 -0.45661100561120399 0.109540819014999 0 -0.45799439118323759 0.099220837031069903 0 -0.46723244863383712 0.097971273043108306 0 -0.45594156200913483 0.091684632610025046 0 -0.45084974973894648 0.096020795281878568 0 -0.45799439118323759 0.099220837031069903 0 -0.45594156200913483 0.091684632610025046 0 -0.45084974973894648 0.096020795281878568 0 -0.45306155814551219 0.1028275296158008 0 -0.45799439118323759 0.099220837031069903 0 -0.46084618436187341 0.10490351706993729 0 -0.45799439118323759 0.099220837031069903 0 -0.46723244863383712 0.097971273043108306 0 -0.46084618436187341 0.10490351706993729 0 -0.46723244863383712 0.097971273043108306 0 -0.46686982756835349 0.1074114054382402 0 -0.46084618436187341 0.10490351706993729 0 -0.46686982756835349 0.1074114054382402 0 -0.4635407771028337 0.1124237257980706 0 -0.45371440568763749 0.1126743632371118 0 -0.46425598871103851 0.13528374379222011 0 -0.4635407771028337 0.1124237257980706 0 -0.45674497769142258 0.1138140594952527 0 -0.46958882025875243 0.12035793204680111 0 -0.46686982756835349 0.1074114054382402 0 -0.4635407771028337 0.1124237257980706 0 -0.47044075898603932 0.11380610730348489 0 -0.4635407771028337 0.1124237257980706 0 -0.46958882025875243 0.12035793204680111 0 -0.47044075898603932 0.11380610730348489 0 -0.45674497769142258 0.1138140594952527 0 -0.45371440568763749 0.1126743632371118 0 -0.46425598871103851 0.13528374379222011 0 -0.45674497769142258 0.1138140594952527 0 -0.46958882025875243 0.12035793204680111 0 -0.46425598871103851 0.13528374379222011 0 -0.4523882543875366 0.10983005993361 0 -0.45661100561120399 0.109540819014999 0 -0.45371440568763749 0.1126743632371118 0 -0.45674497769142258 0.1138140594952527 0 -0.45661100561120399 0.109540819014999 0 -0.45371440568763749 0.1126743632371118 0 -0.45674497769142258 0.1138140594952527 0 -0.45371440568763749 0.1126743632371118 0 -0.4635407771028337 0.1124237257980706 0 -0.45674497769142258 0.1138140594952527 0 -0.45661100561120399 0.109540819014999 0 -0.44282721760043869 0.062046251170956107 0 -0.4470315618909167 0.073148927984774167 0 -0.46103932749027238 0.064238871702306077 0 -0.44282721760043869 0.062046251170956107 0 -0.43131469147834472 0.070632617455275076 0 -0.4470315618909167 0.073148927984774167 0 -0.42957324029363853 0.085693113452461764 0 -0.44343173260412461 0.097571970950778963 0 -0.44733932132275389 0.088290098875458828 0 -0.42957324029363853 0.085693113452461764 0 -0.4470315618909167 0.073148927984774167 0 -0.44733932132275389 0.088290098875458828 0 -0.4470315618909167 0.073148927984774167 0 -0.44733932132275389 0.088290098875458828 0 -0.46047789149500767 0.082617330138573752 0 -0.45084974973894648 0.096020795281878568 0 -0.44733932132275389 0.088290098875458828 0 -0.45594156200913483 0.091684632610025046 0 -0.44733932132275389 0.088290098875458828 0 -0.45594156200913483 0.091684632610025046 0 -0.46047789149500767 0.082617330138573752 0 -0.46723244863383712 0.097971273043108306 0 -0.45594156200913483 0.091684632610025046 0 -0.46047789149500767 0.082617330138573752 0 -0.46047789149500767 0.082617330138573752 0 -0.46103932749027238 0.064238871702306077 0 -0.47920912086757578 0.083222027247413538 0 -0.4470315618909167 0.073148927984774167 0 -0.46047789149500767 0.082617330138573752 0 -0.46103932749027238 0.064238871702306077 0 -0.46103932749027238 0.064238871702306077 0 -0.48068047186290208 0.063626500276227002 0 -0.47920912086757578 0.083222027247413538 0 -0.46103932749027238 0.064238871702306077 0 -0.47920912086757578 0.083222027247413538 0 -0.46723244863383712 0.097971273043108306 0 -0.46047789149500767 0.082617330138573752 0 -0.47920912086757578 0.083222027247413538 0 -0.48068047186290208 0.063626500276227002 0 -0.47920912086757578 0.083222027247413538 0 -0.5 0.088432580532893601 0 -0.47920912086757578 0.083222027247413538 0 -0.49737891424487929 0.102205182792521 0 -0.47920912086757578 0.083222027247413538 0 -0.5 0.088432580532893601 0 -0.49737891424487929 0.102205182792521 0 -0.5 0.060034093897511798 0 -0.48068047186290208 0.063626500276227002 0 -0.5 0.088432580532893601 0 -0.47827810320487629 0.116675775998883 0 -0.48837893466537508 0.1117690854599766 0 -0.4842723158563047 0.1301441798928954 0 -0.47827810320487629 0.116675775998883 0 -0.47512549980118862 0.10796659812409699 0 -0.48837893466537508 0.1117690854599766 0 -0.47827810320487629 0.116675775998883 0 -0.46958882025875243 0.12035793204680111 0 -0.4842723158563047 0.1301441798928954 0 -0.47827810320487629 0.116675775998883 0 -0.47044075898603932 0.11380610730348489 0 -0.47512549980118862 0.10796659812409699 0 -0.46686982756835349 0.1074114054382402 0 -0.47044075898603932 0.11380610730348489 0 -0.47512549980118862 0.10796659812409699 0 -0.47827810320487629 0.116675775998883 0 -0.46958882025875243 0.12035793204680111 0 -0.47044075898603932 0.11380610730348489 0 -0.46723244863383712 0.097971273043108306 0 -0.47512549980118862 0.10796659812409699 0 -0.48162445158666772 0.1005823670901454 0 -0.46723244863383712 0.097971273043108306 0 -0.47920912086757578 0.083222027247413538 0 -0.48162445158666772 0.1005823670901454 0 -0.46723244863383712 0.097971273043108306 0 -0.46686982756835349 0.1074114054382402 0 -0.47512549980118862 0.10796659812409699 0 -0.47512549980118862 0.10796659812409699 0 -0.48162445158666772 0.1005823670901454 0 -0.48837893466537508 0.1117690854599766 0 -0.48162445158666772 0.1005823670901454 0 -0.49737891424487929 0.102205182792521 0 -0.48837893466537508 0.1117690854599766 0 -0.47920912086757578 0.083222027247413538 0 -0.48162445158666772 0.1005823670901454 0 -0.49737891424487929 0.102205182792521 0 -0.5 0.088432580532893601 0 -0.49737891424487929 0.102205182792521 0 -0.5 0.1168310671682755 0 -0.49737891424487929 0.102205182792521 0 -0.5 0.1168310671682755 0 -0.48837893466537508 0.1117690854599766 0 -0.5 0.1168310671682755 0 -0.48837893466537508 0.1117690854599766 0 -0.4842723158563047 0.1301441798928954 0 -0.5 0.1168310671682755 0 -0.4842723158563047 0.1301441798928954 0 -0.5 0.14522955380365729 0 -0.46958882025875243 0.12035793204680111 0 -0.4842723158563047 0.1301441798928954 0 -0.46425598871103851 0.13528374379222011 0 -0.4842723158563047 0.1301441798928954 0 -0.47479757173443998 0.15789312434732811 0 -0.46425598871103851 0.13528374379222011 0 -0.47479757173443998 0.15789312434732811 0 -0.46425598871103851 0.13528374379222011 0 -0.4842723158563047 0.1301441798928954 0 -0.5 0.14522955380365729 0 -0.47479757173443998 0.15789312434732811 0 -0.5 0.14522955380365729 0 -0.49999999999999972 0.17362804043903909 0 -0.47479757173443998 0.15789312434732811 0 -0.49999999999999972 0.17362804043903909 0 -0.47479757173443998 0.15789312434732811 0 -0.49999999999999972 0.17362804043903909 0 -0.49200992699072321 0.1743962810239672 0 -0.47479757173443998 0.15789312434732811 0 -0.48341269367675271 0.17637066895233999 0 -0.49170634683837577 0.1941587336203292 0 -0.49368671912131301 0.1828531969182482 0 -0.49999999999999972 0.17362804043903909 0 -0.5 0.19278741936367841 0 -0.49368671912131301 0.1828531969182482 0 -0.48341269367675271 0.17637066895233999 0 -0.49170634683837577 0.1941587336203292 0 -0.49368671912131301 0.1828531969182482 0 -0.49999999999999972 0.17362804043903909 0 -0.49200992699072321 0.1743962810239672 0 -0.49200992699072321 0.1743962810239672 0 -0.48341269367675271 0.17637066895233999 0 -0.49368671912131301 0.1828531969182482 0 -0.49200992699072321 0.1743962810239672 0 -0.48341269367675271 0.17637066895233999 0 -0.48341269367675271 0.17637066895233999 0 -0.45591042926964898 0.18268667049205081 0 -0.47274380268756999 0.19288508587190861 0 -0.48341269367675271 0.17637066895233999 0 -0.45591042926964898 0.18268667049205081 0 -0.49200992699072321 0.1743962810239672 0 -0.48341269367675271 0.17637066895233999 0 -0.47479757173443998 0.15789312434732811 0 -0.48341269367675271 0.17637066895233999 0 -0.47479757173443998 0.15789312434732811 0 -0.48341269367675271 0.17637066895233999 0 -0.47479757173443998 0.15789312434732811 0 -0.45723956394668003 0.16387676974864759 0 -0.48341269367675271 0.17637066895233999 0 -0.45723956394668003 0.16387676974864759 0 -0.45591042926964898 0.18268667049205081 0 -0.45591042926964898 0.18268667049205081 0 -0.43992511097516529 0.17411109905454999 0 -0.4284081648625454 0.1890026720317621 0 -0.45591042926964898 0.18268667049205081 0 -0.4284081648625454 0.1890026720317621 0 -0.45723956394668003 0.16387676974864759 0 -0.45591042926964898 0.18268667049205081 0 -0.43992511097516529 0.17411109905454999 0 -0.45723956394668003 0.16387676974864759 0 -0.43992511097516529 0.17411109905454999 0 -0.43892522612619872 0.15930650560997939 0 -0.43892522612619872 0.15930650560997939 0 -0.43796764784210812 0.14528805014891141 0 -0.45386540436598038 0.14482430837095511 0 -0.45723956394668003 0.16387676974864759 0 -0.43892522612619872 0.15930650560997939 0 -0.45386540436598038 0.14482430837095511 0 -0.45386540436598038 0.14482430837095511 0 -0.43293323699752101 0.1317554923945817 0 -0.43826405507869293 0.1195835460605416 0 -0.44901593584904892 0.12912088192892021 0 -0.43293323699752101 0.1317554923945817 0 -0.43796764784210812 0.14528805014891141 0 -0.45386540436598038 0.14482430837095511 0 -0.43293323699752101 0.1317554923945817 0 -0.44901593584904892 0.12912088192892021 0 -0.45386540436598038 0.14482430837095511 0 -0.43293323699752101 0.1317554923945817 0 -0.45371440568763749 0.1126743632371118 0 -0.44901593584904892 0.12912088192892021 0 -0.46425598871103851 0.13528374379222011 0 -0.44901593584904892 0.12912088192892021 0 -0.46425598871103851 0.13528374379222011 0 -0.45386540436598038 0.14482430837095511 0 -0.47479757173443998 0.15789312434732811 0 -0.45723956394668003 0.16387676974864759 0 -0.45386540436598038 0.14482430837095511 0 -0.47479757173443998 0.15789312434732811 0 -0.46425598871103851 0.13528374379222011 0 -0.45386540436598038 0.14482430837095511 0 -0.47479757173443998 0.15789312434732811 0 -0.45386540436598038 0.14482430837095511 0 -0.48226153920099157 0.23766317590200001 0 -0.47864167104372218 0.246590621409366 0 -0.48932095354102823 0.25454658797793611 0 -0.47315400564016008 0.2364435414805684 0 -0.47864167104372218 0.246590621409366 0 -0.46938038244821267 0.25133041049185839 0 -0.47315400564016008 0.2364435414805684 0 -0.48226153920099157 0.23766317590200001 0 -0.47864167104372218 0.246590621409366 0 -0.49106398183666961 0.22759324404760359 0 -0.48932095354102823 0.25454658797793611 0 -0.5 0.23810140997737081 0 -0.49106398183666961 0.22759324404760359 0 -0.48932095354102823 0.25454658797793611 0 -0.48226153920099157 0.23766317590200001 0 -0.49106398183666961 0.22759324404760359 0 -0.48932095354102823 0.25454658797793611 0 -0.5 0.23810140997737081 0 -0.49106398183666961 0.22759324404760359 0 -0.50000000000000022 0.21194679828831781 0 -0.49106398183666961 0.22759324404760359 0 -0.47912708394337772 0.2231418845945258 0 -0.48726644121087642 0.21298690825741631 0 -0.48226153920099157 0.23766317590200001 0 -0.49106398183666961 0.22759324404760359 0 -0.47912708394337772 0.2231418845945258 0 -0.47315400564016008 0.2364435414805684 0 -0.48226153920099157 0.23766317590200001 0 -0.47912708394337772 0.2231418845945258 0 -0.47315400564016008 0.2364435414805684 0 -0.47912708394337772 0.2231418845945258 0 -0.46764368341616458 0.22415830119077751 0 -0.47912708394337772 0.2231418845945258 0 -0.47360767850491831 0.20951316246361981 0 -0.46764368341616458 0.22415830119077751 0 -0.47360767850491831 0.20951316246361981 0 -0.48726644121087642 0.21298690825741631 0 -0.49170634683837577 0.1941587336203292 0 -0.47912708394337772 0.2231418845945258 0 -0.47360767850491831 0.20951316246361981 0 -0.48726644121087642 0.21298690825741631 0 -0.49106398183666961 0.22759324404760359 0 -0.50000000000000022 0.21194679828831781 0 -0.48726644121087642 0.21298690825741631 0 -0.50000000000000022 0.21194679828831781 0 -0.48726644121087642 0.21298690825741631 0 -0.49170634683837577 0.1941587336203292 0 -0.50000000000000022 0.21194679828831781 0 -0.49170634683837577 0.1941587336203292 0 -0.50000000000000022 0.21194679828831781 0 -0.5 0.19278741936367841 0 -0.49170634683837577 0.1941587336203292 0 -0.49368671912131301 0.1828531969182482 0 -0.5 0.19278741936367841 0 -0.49170634683837577 0.1941587336203292 0 -0.48341269367675271 0.17637066895233999 0 -0.49170634683837577 0.1941587336203292 0 -0.47274380268756999 0.19288508587190861 0 -0.47360767850491831 0.20951316246361981 0 -0.49170634683837577 0.1941587336203292 0 -0.47274380268756999 0.19288508587190861 0 -0.47360767850491831 0.20951316246361981 0 -0.47274380268756999 0.19288508587190861 0 -0.45820261548712909 0.20353130823034371 0 -0.45591042926964898 0.18268667049205081 0 -0.47274380268756999 0.19288508587190861 0 -0.45820261548712909 0.20353130823034371 0 -0.45591042926964898 0.18268667049205081 0 -0.43516662619925378 0.20614333559983469 0 -0.4284081648625454 0.1890026720317621 0 -0.45591042926964898 0.18268667049205081 0 -0.45820261548712909 0.20353130823034371 0 -0.43516662619925378 0.20614333559983469 0 -0.44192508753596349 0.22328399916790689 0 -0.43516662619925378 0.20614333559983469 0 -0.45032248765871591 0.2151961798839368 0 -0.44192508753596349 0.22328399916790689 0 -0.43516662619925378 0.20614333559983469 0 -0.45032248765871591 0.2151961798839368 0 -0.45820261548712909 0.20353130823034371 0 -0.43516662619925378 0.20614333559983469 0 -0.45032248765871591 0.2151961798839368 0 -0.46109406183397039 0.21551848415653921 0 -0.45620465585954723 0.2251951411450015 0 -0.45032248765871591 0.2151961798839368 0 -0.45820261548712909 0.20353130823034371 0 -0.46109406183397039 0.21551848415653921 0 -0.47360767850491831 0.20951316246361981 0 -0.45820261548712909 0.20353130823034371 0 -0.46109406183397039 0.21551848415653921 0 -0.47360767850491831 0.20951316246361981 0 -0.46109406183397039 0.21551848415653921 0 -0.46764368341616458 0.22415830119077751 0 -0.47315400564016008 0.2364435414805684 0 -0.46764368341616458 0.22415830119077751 0 -0.45925329591452863 0.2407771106774913 0 -0.46764368341616458 0.22415830119077751 0 -0.45620465585954723 0.2251951411450015 0 -0.45925329591452863 0.2407771106774913 0 -0.46109406183397039 0.21551848415653921 0 -0.46764368341616458 0.22415830119077751 0 -0.45620465585954723 0.2251951411450015 0 -0.45032248765871591 0.2151961798839368 0 -0.45620465585954723 0.2251951411450015 0 -0.44192508753596349 0.22328399916790689 0 -0.44192508753596349 0.22328399916790689 0 -0.44062222049055039 0.24203477259657111 0 -0.43146145522804691 0.2313120115293863 0 -0.45620465585954723 0.2251951411450015 0 -0.44062222049055039 0.24203477259657111 0 -0.45620465585954723 0.2251951411450015 0 -0.44192508753596349 0.22328399916790689 0 -0.44062222049055039 0.24203477259657111 0 -0.44062222049055039 0.24203477259657111 0 -0.45046339488490522 0.249057113070103 0 -0.44442574262614493 0.25832327296872359 0 -0.44062222049055039 0.24203477259657111 0 -0.45046339488490522 0.249057113070103 0 -0.45925329591452863 0.2407771106774913 0 -0.45620465585954723 0.2251951411450015 0 -0.44062222049055039 0.24203477259657111 0 -0.45925329591452863 0.2407771106774913 0 -0.45046339488490522 0.249057113070103 0 -0.45925329591452863 0.2407771106774913 0 -0.45807104112411212 0.25534721177055669 0 -0.45925329591452863 0.2407771106774913 0 -0.46938038244821267 0.25133041049185839 0 -0.45807104112411212 0.25534721177055669 0 -0.47315400564016008 0.2364435414805684 0 -0.45925329591452863 0.2407771106774913 0 -0.46938038244821267 0.25133041049185839 0 -0.4198454647722451 0.23985190764030939 0 -0.40081965837488509 0.24074316727492401 0 -0.40585136056822319 0.25674789398696107 0 -0.4198454647722451 0.23985190764030939 0 -0.405480724964072 0.22581663549259839 0 -0.40081965837488509 0.24074316727492401 0 -0.44062222049055039 0.24203477259657111 0 -0.4198454647722451 0.23985190764030939 0 -0.42503978512155383 0.25887440404814072 0 -0.44062222049055039 0.24203477259657111 0 -0.4198454647722451 0.23985190764030939 0 -0.43146145522804691 0.2313120115293863 0 -0.4198454647722451 0.23985190764030939 0 -0.43146145522804691 0.2313120115293863 0 -0.42370673975344808 0.22056464269113771 0 -0.44192508753596349 0.22328399916790689 0 -0.43146145522804691 0.2313120115293863 0 -0.42370673975344808 0.22056464269113771 0 -0.4198454647722451 0.23985190764030939 0 -0.42370673975344808 0.22056464269113771 0 -0.405480724964072 0.22581663549259839 0 -0.42370673975344808 0.22056464269113771 0 -0.40708390191205951 0.20882890034131879 0 -0.405480724964072 0.22581663549259839 0 -0.42370673975344808 0.22056464269113771 0 -0.40708390191205951 0.20882890034131879 0 -0.42107335870595469 0.2022269477122331 0 -0.44192508753596349 0.22328399916790689 0 -0.42370673975344808 0.22056464269113771 0 -0.43516662619925378 0.20614333559983469 0 -0.42370673975344808 0.22056464269113771 0 -0.43516662619925378 0.20614333559983469 0 -0.42107335870595469 0.2022269477122331 0 -0.43516662619925378 0.20614333559983469 0 -0.4284081648625454 0.1890026720317621 0 -0.42107335870595469 0.2022269477122331 0 -0.43516662619925378 0.20614333559983469 0 -0.4284081648625454 0.1890026720317621 0 -0.4284081648625454 0.1890026720317621 0 -0.40915969581062839 0.19342315750049971 0 -0.4284081648625454 0.1890026720317621 0 -0.42107335870595469 0.2022269477122331 0 -0.40915969581062839 0.19342315750049971 0 -0.40708390191205951 0.20882890034131879 0 -0.42107335870595469 0.2022269477122331 0 -0.40915969581062839 0.19342315750049971 0 -0.40708390191205951 0.20882890034131879 0 -0.40915969581062839 0.19342315750049971 0 -0.38991122675871148 0.19784364296923759 0 -0.40915969581062839 0.19342315750049971 0 -0.38991122675871148 0.19784364296923759 0 -0.40915969581062839 0.19342315750049971 0 -0.38991122675871148 0.19784364296923759 0 -0.39569501158598158 0.17813944679546001 0 -0.39158905321283283 0.2136173787495643 0 -0.38435338999826391 0.22831720607051781 0 -0.36414166766971379 0.2074649771098355 0 -0.38991122675871148 0.19784364296923759 0 -0.39158905321283283 0.2136173787495643 0 -0.36414166766971379 0.2074649771098355 0 -0.40708390191205951 0.20882890034131879 0 -0.39158905321283283 0.2136173787495643 0 -0.405480724964072 0.22581663549259839 0 -0.40708390191205951 0.20882890034131879 0 -0.38991122675871148 0.19784364296923759 0 -0.39158905321283283 0.2136173787495643 0 -0.405480724964072 0.22581663549259839 0 -0.38435338999826391 0.22831720607051781 0 -0.40081965837488509 0.24074316727492401 0 -0.39158905321283283 0.2136173787495643 0 -0.405480724964072 0.22581663549259839 0 -0.38435338999826391 0.22831720607051781 0 -0.37619177155740557 0.24036243622333081 0 -0.38790582398472923 0.24962922847932231 0 -0.36318679658289171 0.25196182354824148 0 -0.38435338999826391 0.22831720607051781 0 -0.37619177155740557 0.24036243622333081 0 -0.38790582398472923 0.24962922847932231 0 -0.38435338999826391 0.22831720607051781 0 -0.38790582398472923 0.24962922847932231 0 -0.40081965837488509 0.24074316727492401 0 -0.38790582398472923 0.24962922847932231 0 -0.40081965837488509 0.24074316727492401 0 -0.40585136056822319 0.25674789398696107 0 -0.40926453963391513 0.14045102348790381 0 -0.42614672387873248 0.14526589422012931 0 -0.41883635224822963 0.16472684775983329 0 -0.40926453963391513 0.14045102348790381 0 -0.41883635224822963 0.16472684775983329 0 -0.40926453963391513 0.14045102348790381 0 -0.41883635224822963 0.16472684775983329 0 -0.40029434983296169 0.15790366282291429 0 -0.40926453963391513 0.14045102348790381 0 -0.417579207348795 0.13056668242546571 0 -0.40026410281127539 0.13237877311027449 0 -0.40926453963391513 0.14045102348790381 0 -0.417579207348795 0.13056668242546571 0 -0.42614672387873248 0.14526589422012931 0 -0.417579207348795 0.13056668242546571 0 -0.43293323699752101 0.1317554923945817 0 -0.42614672387873248 0.14526589422012931 0 -0.42608096723388439 0.1205091241492761 0 -0.417579207348795 0.13056668242546571 0 -0.43293323699752101 0.1317554923945817 0 -0.43796764784210812 0.14528805014891141 0 -0.43293323699752101 0.1317554923945817 0 -0.42614672387873248 0.14526589422012931 0 -0.43892522612619872 0.15930650560997939 0 -0.43796764784210812 0.14528805014891141 0 -0.42614672387873248 0.14526589422012931 0 -0.43892522612619872 0.15930650560997939 0 -0.42614672387873248 0.14526589422012931 0 -0.41883635224822963 0.16472684775983329 0 -0.43992511097516529 0.17411109905454999 0 -0.43892522612619872 0.15930650560997939 0 -0.41883635224822963 0.16472684775983329 0 -0.4284081648625454 0.1890026720317621 0 -0.41883635224822963 0.16472684775983329 0 -0.43992511097516529 0.17411109905454999 0 -0.4284081648625454 0.1890026720317621 0 -0.41883635224822963 0.16472684775983329 0 -0.40915969581062839 0.19342315750049971 0 -0.41883635224822963 0.16472684775983329 0 -0.39569501158598158 0.17813944679546001 0 -0.4284081648625454 0.1890026720317621 0 -0.40915969581062839 0.19342315750049971 0 -0.41883635224822963 0.16472684775983329 0 -0.40029434983296169 0.15790366282291429 0 -0.39569501158598158 0.17813944679546001 0 -0.38484252596519369 0.16167484958157691 0 -0.41883635224822963 0.16472684775983329 0 -0.40029434983296169 0.15790366282291429 0 -0.39569501158598158 0.17813944679546001 0 -0.39569501158598158 0.17813944679546001 0 -0.38484252596519369 0.16167484958157691 0 -0.36525228834216061 0.17922160577889321 0 -0.38991122675871148 0.19784364296923759 0 -0.39569501158598158 0.17813944679546001 0 -0.36525228834216061 0.17922160577889321 0 -0.39283331973148827 0.14452614648979731 0 -0.38372255811484618 0.13025780258704611 0 -0.36636290901460722 0.1509782344479508 0 -0.38484252596519369 0.16167484958157691 0 -0.39283331973148827 0.14452614648979731 0 -0.36636290901460722 0.1509782344479508 0 -0.40029434983296169 0.15790366282291429 0 -0.38484252596519369 0.16167484958157691 0 -0.39283331973148827 0.14452614648979731 0 -0.40926453963391513 0.14045102348790381 0 -0.40029434983296169 0.15790366282291429 0 -0.39283331973148827 0.14452614648979731 0 -0.39283331973148827 0.14452614648979731 0 -0.40026410281127539 0.13237877311027449 0 -0.38372255811484618 0.13025780258704611 0 -0.39792088922733271 0.1160922105611595 0 -0.417579207348795 0.13056668242546571 0 -0.40026410281127539 0.13237877311027449 0 -0.39792088922733271 0.1160922105611595 0 -0.40026410281127539 0.13237877311027449 0 -0.38372255811484618 0.13025780258704611 0 -0.40926453963391513 0.14045102348790381 0 -0.39283331973148827 0.14452614648979731 0 -0.40026410281127539 0.13237877311027449 0 -0.38372255811484618 0.13025780258704611 0 -0.36636290901460722 0.1509782344479508 0 -0.36747352968705388 0.12273486311700831 0 -0.36636290901460722 0.1509782344479508 0 -0.36747352968705388 0.12273486311700831 0 -0.35528769071996391 0.12689780186549679 0 -0.36636290901460722 0.1509782344479508 0 -0.36747352968705388 0.12273486311700831 0 -0.35528769071996391 0.12689780186549679 0 -0.33512599087492562 0.1447950320020088 0 -0.35528769071996391 0.12689780186549679 0 -0.35168351666373848 0.14314256241625531 0 -0.33512599087492562 0.1447950320020088 0 -0.35528769071996391 0.12689780186549679 0 -0.33512599087492562 0.1447950320020088 0 -0.34115039425197219 0.12498493974687711 0 -0.35528769071996391 0.12689780186549679 0 -0.35168351666373848 0.14314256241625531 0 -0.36636290901460722 0.1509782344479508 0 -0.35168351666373848 0.14314256241625531 0 -0.36636290901460722 0.1509782344479508 0 -0.34333519974196419 0.16612441953572921 0 -0.38484252596519369 0.16167484958157691 0 -0.36636290901460722 0.1509782344479508 0 -0.36525228834216061 0.17922160577889321 0 -0.36636290901460722 0.1509782344479508 0 -0.36525228834216061 0.17922160577889321 0 -0.36525228834216061 0.17922160577889321 0 -0.34333519974196419 0.16612441953572921 0 -0.34654591437965571 0.19533490523866279 0 -0.36636290901460722 0.1509782344479508 0 -0.36525228834216061 0.17922160577889321 0 -0.34333519974196419 0.16612441953572921 0 -0.34333519974196419 0.16612441953572921 0 -0.31496429102988749 0.16269226213852109 0 -0.33512599087492562 0.1447950320020088 0 -0.34333519974196419 0.16612441953572921 0 -0.34654591437965571 0.19533490523866279 0 -0.32412519241006588 0.1878495682783011 0 -0.31496429102988749 0.16269226213852109 0 -0.32412519241006588 0.1878495682783011 0 -0.34333519974196419 0.16612441953572921 0 -0.31496429102988749 0.16269226213852109 0 -0.32412519241006588 0.1878495682783011 0 -0.31303823693556859 0.17707572181323081 0 -0.31496429102988749 0.16269226213852109 0 -0.32412519241006588 0.1878495682783011 0 -0.31303823693556859 0.17707572181323081 0 -0.32412519241006588 0.1878495682783011 0 -0.3108046026399135 0.18379038091696129 0 -0.31496429102988749 0.16269226213852109 0 -0.31353256245119709 0.1587605055712967 0 -0.31354631638020197 0.13395604467094269 0 -0.33512599087492562 0.1447950320020088 0 -0.3122891553291075 0.14635758184588041 0 -0.31353256245119709 0.1587605055712967 0 -0.33512599087492562 0.1447950320020088 0 -0.3122891553291075 0.14635758184588041 0 -0.31496429102988749 0.16269226213852109 0 -0.31353256245119709 0.1587605055712967 0 -0.33512599087492562 0.1447950320020088 0 -0.31496429102988749 0.16269226213852109 0 -0.33512599087492562 0.1447950320020088 0 -0.31354631638020197 0.13395604467094269 0 -0.32917568526667751 0.12578156900391591 0 -0.33512599087492562 0.1447950320020088 0 -0.31354631638020197 0.13395604467094269 0 -0.32917568526667751 0.12578156900391591 0 -0.32114709127587232 0.11611322513389059 0 -0.32917568526667751 0.12578156900391591 0 -0.33512599087492562 0.1447950320020088 0 -0.34115039425197219 0.12498493974687711 0 -0.35168351666373848 0.14314256241625531 0 -0.34333519974196419 0.16612441953572921 0 -0.33512599087492562 0.1447950320020088 0 -0.36303104699726713 0.23570834844077809 0 -0.34244699517042121 0.23816418055786151 0 -0.36318679658289171 0.25196182354824148 0 -0.34244699517042121 0.23816418055786151 0 -0.36318679658289171 0.25196182354824148 0 -0.33952374355129727 0.25899057541505788 0 -0.37619177155740557 0.24036243622333081 0 -0.36303104699726713 0.23570834844077809 0 -0.36318679658289171 0.25196182354824148 0 -0.38435338999826391 0.22831720607051781 0 -0.37619177155740557 0.24036243622333081 0 -0.36303104699726713 0.23570834844077809 0 -0.38435338999826391 0.22831720607051781 0 -0.36303104699726713 0.23570834844077809 0 -0.36414166766971379 0.2074649771098355 0 -0.36303104699726713 0.23570834844077809 0 -0.36414166766971379 0.2074649771098355 0 -0.36303104699726713 0.23570834844077809 0 -0.35084793517488477 0.2210857468323085 0 -0.34244699517042121 0.23816418055786151 0 -0.36303104699726713 0.23570834844077809 0 -0.35084793517488477 0.2210857468323085 0 -0.36414166766971379 0.2074649771098355 0 -0.35084793517488477 0.2210857468323085 0 -0.36414166766971379 0.2074649771098355 0 -0.34654591437965571 0.19533490523866279 0 -0.36525228834216061 0.17922160577889321 0 -0.36414166766971379 0.2074649771098355 0 -0.38991122675871148 0.19784364296923759 0 -0.36525228834216061 0.17922160577889321 0 -0.36414166766971379 0.2074649771098355 0 -0.36525228834216061 0.17922160577889321 0 -0.36414166766971379 0.2074649771098355 0 -0.34654591437965571 0.19533490523866279 0 -0.32412519241006588 0.1878495682783011 0 -0.33328609379024349 0.2130068744180813 0 -0.34654591437965571 0.19533490523866279 0 -0.32412519241006588 0.1878495682783011 0 -0.33328609379024349 0.2130068744180813 0 -0.32412519241006588 0.1878495682783011 0 -0.33328609379024349 0.2130068744180813 0 -0.31080006153106382 0.20197173666100501 0 -0.32412519241006588 0.1878495682783011 0 -0.31080006153106382 0.20197173666100501 0 -0.3108046026399135 0.18379038091696129 0 -0.33328609379024349 0.2130068744180813 0 -0.31873218963182409 0.22654972870499029 0 -0.31080006153106382 0.20197173666100501 0 -0.35084793517488477 0.2210857468323085 0 -0.34654591437965571 0.19533490523866279 0 -0.33328609379024349 0.2130068744180813 0 -0.35084793517488477 0.2210857468323085 0 -0.33328609379024349 0.2130068744180813 0 -0.34244699517042121 0.23816418055786151 0 -0.33328609379024349 0.2130068744180813 0 -0.34244699517042121 0.23816418055786151 0 -0.33328609379024349 0.2130068744180813 0 -0.31873218963182409 0.22654972870499029 0 -0.34244699517042121 0.23816418055786151 0 -0.31873218963182409 0.22654972870499029 0 -0.32200613725511351 0.24850726385495631 0 -0.34244699517042121 0.23816418055786151 0 -0.31873218963182409 0.22654972870499029 0 -0.32200613725511351 0.24850726385495631 0 -0.30672251365844311 0.23743048015470111 0 -0.32200613725511351 0.24850726385495631 0 -0.34244699517042121 0.23816418055786151 0 -0.33952374355129727 0.25899057541505788 0 -0.29125564533142001 0.24067530578368901 0 -0.30672251365844311 0.23743048015470111 0 -0.30640548876467488 0.25787073169030861 0 -0.32200613725511351 0.24850726385495631 0 -0.30672251365844311 0.23743048015470111 0 -0.30640548876467488 0.25787073169030861 0 -0.29125564533142001 0.24067530578368901 0 -0.30672251365844311 0.23743048015470111 0 -0.29521310730918271 0.21354937073956171 0 -0.31873218963182409 0.22654972870499029 0 -0.30672251365844311 0.23743048015470111 0 -0.29521310730918271 0.21354937073956171 0 -0.29125564533142001 0.24067530578368901 0 -0.29521310730918271 0.21354937073956171 0 -0.29125564533142001 0.24067530578368901 0 -0.29521310730918271 0.21354937073956171 0 -0.27258595833473342 0.22149207507906341 0 -0.29521310730918271 0.21354937073956171 0 -0.28878760701375322 0.1984352968903606 0 -0.27490594785389072 0.20112241201531189 0 -0.31873218963182409 0.22654972870499029 0 -0.29521310730918271 0.21354937073956171 0 -0.31080006153106382 0.20197173666100501 0 -0.29521310730918271 0.21354937073956171 0 -0.29917056928694541 0.1864234356954344 0 -0.29521310730918271 0.21354937073956171 0 -0.31080006153106382 0.20197173666100501 0 -0.29917056928694541 0.1864234356954344 0 -0.31080006153106382 0.20197173666100501 0 -0.3108046026399135 0.18379038091696129 0 -0.29917056928694541 0.1864234356954344 0 -0.28878760701375322 0.1984352968903606 0 -0.29917056928694541 0.1864234356954344 0 -0.28955343229492791 0.1852490896997587 0 -0.29521310730918271 0.21354937073956171 0 -0.28878760701375322 0.1984352968903606 0 -0.29917056928694541 0.1864234356954344 0 -0.28878760701375322 0.1984352968903606 0 -0.27938784373491388 0.18917199981814359 0 -0.28955343229492791 0.1852490896997587 0 -0.27938784373491388 0.18917199981814359 0 -0.27490594785389072 0.20112241201531189 0 -0.26439180367967152 0.18225540552070321 0 -0.28878760701375322 0.1984352968903606 0 -0.27938784373491388 0.18917199981814359 0 -0.27490594785389072 0.20112241201531189 0 -0.27490594785389072 0.20112241201531189 0 -0.25370102580463139 0.2052288024824625 0 -0.26439180367967152 0.18225540552070321 0 -0.25370102580463139 0.2052288024824625 0 -0.26439180367967152 0.18225540552070321 0 -0.23359887481107691 0.1809086922627815 0 -0.27490594785389072 0.20112241201531189 0 -0.25370102580463139 0.2052288024824625 0 -0.27258595833473342 0.22149207507906341 0 -0.29521310730918271 0.21354937073956171 0 -0.27490594785389072 0.20112241201531189 0 -0.27258595833473342 0.22149207507906341 0 -0.29125564533142001 0.24067530578368901 0 -0.27258595833473342 0.22149207507906341 0 -0.26834113505385238 0.23837358332174549 0 -0.27258595833473342 0.22149207507906341 0 -0.25272375818517617 0.22994970808158929 0 -0.26834113505385238 0.23837358332174549 0 -0.25370102580463139 0.2052288024824625 0 -0.27258595833473342 0.22149207507906341 0 -0.25272375818517617 0.22994970808158929 0 -0.25272375818517617 0.22994970808158929 0 -0.25621817608628389 0.2460965770837312 0 -0.26834113505385238 0.23837358332174549 0 -0.25621817608628389 0.2460965770837312 0 -0.26834113505385238 0.23837358332174549 0 -0.26892213733164849 0.25365425058065472 0 -0.29125564533142001 0.24067530578368901 0 -0.26834113505385238 0.23837358332174549 0 -0.26892213733164849 0.25365425058065472 0 -0.29370567785695612 0.15770531643225719 0 -0.28412418886142132 0.16518528890623771 0 -0.28065913062351988 0.14575155473079041 0 -0.30159211447790629 0.14759241864651959 0 -0.29370567785695612 0.15770531643225719 0 -0.28065913062351988 0.14575155473079041 0 -0.29682817834931757 0.13068013418198679 0 -0.30159211447790629 0.14759241864651959 0 -0.28065913062351988 0.14575155473079041 0 -0.29682817834931757 0.13068013418198679 0 -0.28065913062351988 0.14575155473079041 0 -0.28285123447775751 0.1183560919224374 0 -0.31354631638020197 0.13395604467094269 0 -0.29682817834931757 0.13068013418198679 0 -0.30159211447790629 0.14759241864651959 0 -0.31354631638020197 0.13395604467094269 0 -0.3122891553291075 0.14635758184588041 0 -0.30159211447790629 0.14759241864651959 0 -0.31353256245119709 0.1587605055712967 0 -0.3122891553291075 0.14635758184588041 0 -0.30159211447790629 0.14759241864651959 0 -0.31496429102988749 0.16269226213852109 0 -0.31353256245119709 0.1587605055712967 0 -0.30488677357152572 0.1641353808659653 0 -0.30159211447790629 0.14759241864651959 0 -0.30488677357152572 0.1641353808659653 0 -0.29370567785695612 0.15770531643225719 0 -0.31353256245119709 0.1587605055712967 0 -0.30159211447790629 0.14759241864651959 0 -0.30488677357152572 0.1641353808659653 0 -0.31496429102988749 0.16269226213852109 0 -0.30225886166240762 0.17397067591913981 0 -0.31303823693556859 0.17707572181323081 0 -0.31496429102988749 0.16269226213852109 0 -0.30225886166240762 0.17397067591913981 0 -0.31496429102988749 0.16269226213852109 0 -0.30488677357152572 0.1641353808659653 0 -0.30225886166240762 0.17397067591913981 0 -0.30488677357152572 0.1641353808659653 0 -0.30225886166240762 0.17397067591913981 0 -0.29597535979189887 0.1670989905046398 0 -0.30488677357152572 0.1641353808659653 0 -0.29370567785695612 0.15770531643225719 0 -0.29597535979189887 0.1670989905046398 0 -0.31303823693556859 0.17707572181323081 0 -0.3108046026399135 0.18379038091696129 0 -0.30225886166240762 0.17397067591913981 0 -0.30225886166240762 0.17397067591913981 0 -0.29917056928694541 0.1864234356954344 0 -0.28955343229492791 0.1852490896997587 0 -0.3108046026399135 0.18379038091696129 0 -0.30225886166240762 0.17397067591913981 0 -0.29917056928694541 0.1864234356954344 0 -0.30225886166240762 0.17397067591913981 0 -0.28955343229492791 0.1852490896997587 0 -0.30225886166240762 0.17397067591913981 0 -0.28955343229492791 0.1852490896997587 0 -0.29024545837739651 0.173916500811098 0 -0.28955343229492791 0.1852490896997587 0 -0.29024545837739651 0.173916500811098 0 -0.27889874324695868 0.17762520371433099 0 -0.29024545837739651 0.173916500811098 0 -0.28412418886142132 0.16518528890623771 0 -0.27889874324695868 0.17762520371433099 0 -0.27938784373491388 0.18917199981814359 0 -0.28955343229492791 0.1852490896997587 0 -0.27889874324695868 0.17762520371433099 0 -0.29370567785695612 0.15770531643225719 0 -0.29597535979189887 0.1670989905046398 0 -0.28412418886142132 0.16518528890623771 0 -0.30225886166240762 0.17397067591913981 0 -0.29024545837739651 0.173916500811098 0 -0.29597535979189887 0.1670989905046398 0 -0.29024545837739651 0.173916500811098 0 -0.29597535979189887 0.1670989905046398 0 -0.28412418886142132 0.16518528890623771 0 -0.28412418886142132 0.16518528890623771 0 -0.26844272787379447 0.16268744982768751 0 -0.27889874324695868 0.17762520371433099 0 -0.28412418886142132 0.16518528890623771 0 -0.26844272787379447 0.16268744982768751 0 -0.28065913062351988 0.14575155473079041 0 -0.26844272787379447 0.16268744982768751 0 -0.27889874324695868 0.17762520371433099 0 -0.26439180367967152 0.18225540552070321 0 -0.27938784373491388 0.18917199981814359 0 -0.27889874324695868 0.17762520371433099 0 -0.26439180367967152 0.18225540552070321 0 -0.26844272787379447 0.16268744982768751 0 -0.26439180367967152 0.18225540552070321 0 -0.247018622616726 0.15992587597476091 0 -0.26844272787379447 0.16268744982768751 0 -0.25846103874104392 0.14702121199507179 0 -0.247018622616726 0.15992587597476091 0 -0.26844272787379447 0.16268744982768751 0 -0.25846103874104392 0.14702121199507179 0 -0.28065913062351988 0.14575155473079041 0 -0.25846103874104392 0.14702121199507179 0 -0.28065913062351988 0.14575155473079041 0 -0.25922316449870308 0.12628093809151891 0 -0.28065913062351988 0.14575155473079041 0 -0.25922316449870308 0.12628093809151891 0 -0.28285123447775751 0.1183560919224374 0 -0.25846103874104392 0.14702121199507179 0 -0.25922316449870308 0.12628093809151891 0 -0.2369615480924761 0.1404602413506009 0 -0.25922316449870308 0.12628093809151891 0 -0.25136603029008331 0.1103208693098497 0 -0.26687835675477128 0.1014348965859585 0 -0.25136603029008331 0.1103208693098497 0 -0.26687835675477128 0.1014348965859585 0 -0.24377998071086901 0.096378574065869249 0 -0.26687835675477128 0.1014348965859585 0 -0.28737892951993471 0.098967158637655914 0 -0.27569457229827071 0.081243623470509244 0 -0.26687835675477128 0.1014348965859585 0 -0.28285123447775751 0.1183560919224374 0 -0.28737892951993471 0.098967158637655914 0 -0.25922316449870308 0.12628093809151891 0 -0.26687835675477128 0.1014348965859585 0 -0.28285123447775751 0.1183560919224374 0 -0.29682817834931757 0.13068013418198679 0 -0.28285123447775751 0.1183560919224374 0 -0.30549209578720232 0.10774456093924389 0 -0.28285123447775751 0.1183560919224374 0 -0.28737892951993471 0.098967158637655914 0 -0.30549209578720232 0.10774456093924389 0 -0.28737892951993471 0.098967158637655914 0 -0.30549209578720232 0.10774456093924389 0 -0.29743787519420251 0.08153307720754506 0 -0.30549209578720232 0.10774456093924389 0 -0.29743787519420251 0.08153307720754506 0 -0.31354631638020197 0.13395604467094269 0 -0.29682817834931757 0.13068013418198679 0 -0.30549209578720232 0.10774456093924389 0 -0.31354631638020197 0.13395604467094269 0 -0.30549209578720232 0.10774456093924389 0 -0.29926204670725021 0.066629363318123747 0 -0.30931237829482389 0.073252958087475881 0 -0.31697319293959142 0.061410437985649477 0 -0.29926204670725021 0.066629363318123747 0 -0.30931237829482389 0.073252958087475881 0 -0.29743787519420251 0.08153307720754506 0 -0.30549209578720232 0.10774456093924389 0 -0.29743787519420251 0.08153307720754506 0 -0.31312795334666071 0.083579729522452809 0 -0.30931237829482389 0.073252958087475881 0 -0.29743787519420251 0.08153307720754506 0 -0.31312795334666071 0.083579729522452809 0 -0.28737892951993471 0.098967158637655914 0 -0.29743787519420251 0.08153307720754506 0 -0.27569457229827071 0.081243623470509244 0 -0.29743787519420251 0.08153307720754506 0 -0.28743776060402371 0.060458689408765323 0 -0.28938365460120269 0.05532159347584624 0 -0.29743787519420251 0.08153307720754506 0 -0.28938365460120269 0.05532159347584624 0 -0.29926204670725021 0.066629363318123747 0 -0.29743787519420251 0.08153307720754506 0 -0.28938365460120269 0.05532159347584624 0 -0.29743787519420251 0.08153307720754506 0 -0.27569457229827071 0.081243623470509244 0 -0.28743776060402371 0.060458689408765323 0 -0.27569457229827071 0.081243623470509244 0 -0.26257114212692878 0.06573449919026883 0 -0.28743776060402371 0.060458689408765323 0 -0.26257114212692878 0.06573449919026883 0 -0.28743776060402371 0.060458689408765323 0 -0.26687835675477128 0.1014348965859585 0 -0.25261226255175379 0.080423606239198905 0 -0.24377998071086901 0.096378574065869249 0 -0.26687835675477128 0.1014348965859585 0 -0.27569457229827071 0.081243623470509244 0 -0.25261226255175379 0.080423606239198905 0 -0.26257114212692878 0.06573449919026883 0 -0.23770452364983391 0.071010308971772351 0 -0.25261226255175379 0.080423606239198905 0 -0.26257114212692878 0.06573449919026883 0 -0.23770452364983391 0.071010308971772351 0 -0.27569457229827071 0.081243623470509244 0 -0.25261226255175379 0.080423606239198905 0 -0.26257114212692878 0.06573449919026883 0 -0.2522816967992324 0.037264740289820159 0 -0.27263172987273521 0.051913181220590639 0 -0.24906194248509719 0.058488871325365822 0 -0.26257114212692878 0.06573449919026883 0 -0.27263172987273521 0.051913181220590639 0 -0.24906194248509719 0.058488871325365822 0 -0.2522816967992324 0.037264740289820159 0 -0.2684979789729644 0.03593820420606865 0 -0.27263172987273521 0.051913181220590639 0 -0.2684979789729644 0.03593820420606865 0 -0.27263172987273521 0.051913181220590639 0 -0.28132943400820298 0.02911010974414751 0 -0.27263172987273521 0.051913181220590639 0 -0.28132943400820298 0.02911010974414751 0 -0.28938365460120269 0.05532159347584624 0 -0.26257114212692878 0.06573449919026883 0 -0.27263172987273521 0.051913181220590639 0 -0.28743776060402371 0.060458689408765323 0 -0.25267499080189931 -0.0034516002120552492 0 -0.26909988492935111 -0.0018655285383734981 0 -0.25157722050270093 0.012682655753942951 0 -0.26909988492935111 -0.0018655285383734981 0 -0.25157722050270093 0.012682655753942951 0 -0.27200359261247947 0.017754051058092819 0 -0.2522816967992324 0.037264740289820159 0 -0.25157722050270093 0.012682655753942951 0 -0.27200359261247947 0.017754051058092819 0 -0.2522816967992324 0.037264740289820159 0 -0.2684979789729644 0.03593820420606865 0 -0.27200359261247947 0.017754051058092819 0 -0.2522816967992324 0.037264740289820159 0 -0.27200359261247947 0.017754051058092819 0 -0.27200359261247947 0.017754051058092819 0 -0.28831373269731447 0.017122983851404761 0 -0.28132943400820298 0.02911010974414751 0 -0.2684979789729644 0.03593820420606865 0 -0.27200359261247947 0.017754051058092819 0 -0.28132943400820298 0.02911010974414751 0 -0.26909988492935111 -0.0018655285383734981 0 -0.2917254884257266 -0.0017566381736345419 0 -0.27200359261247947 0.017754051058092819 0 -0.2917254884257266 -0.0017566381736345419 0 -0.27200359261247947 0.017754051058092819 0 -0.28831373269731447 0.017122983851404761 0 -0.2917254884257266 -0.0017566381736345419 0 -0.28831373269731447 0.017122983851404761 0 -0.29997880334656019 0.01439552450637107 0 -0.2917254884257266 -0.0017566381736345419 0 -0.27200359261247947 0.017754051058092819 0 -0.28831373269731447 0.017122983851404761 0 -0.29656482898857922 0.02610767777843559 0 -0.29997880334656019 0.01439552450637107 0 -0.28831373269731447 0.017122983851404761 0 -0.28132943400820298 0.02911010974414751 0 -0.29656482898857922 0.02610767777843559 0 -0.28132943400820298 0.02911010974414751 0 -0.29656482898857922 0.02610767777843559 0 -0.29344050585463782 0.03493273697686209 0 -0.29656482898857922 0.02610767777843559 0 -0.31039051656375261 0.022327184027059441 0 -0.30541723396373921 0.038711125382435783 0 -0.31039051656375261 0.022327184027059441 0 -0.30541723396373921 0.038711125382435783 0 -0.32038394146944787 0.031620215762440292 0 -0.29656482898857922 0.02610767777843559 0 -0.31039051656375261 0.022327184027059441 0 -0.29997880334656019 0.01439552450637107 0 -0.31039051656375261 0.022327184027059441 0 -0.31177688145040278 0.0050359958776742568 0 -0.29997880334656019 0.01439552450637107 0 -0.2917254884257266 -0.0017566381736345419 0 -0.31177688145040278 0.0050359958776742568 0 -0.29997880334656019 0.01439552450637107 0 -0.27263172987273521 0.051913181220590639 0 -0.28743776060402371 0.060458689408765323 0 -0.28938365460120269 0.05532159347584624 0 -0.28938365460120269 0.05532159347584624 0 -0.29045052645802971 0.045802035002429492 0 -0.29738278035354182 0.050541329601553678 0 -0.28938365460120269 0.05532159347584624 0 -0.29738278035354182 0.050541329601553678 0 -0.29780899910201009 0.056562827273038227 0 -0.29926204670725021 0.066629363318123747 0 -0.28938365460120269 0.05532159347584624 0 -0.29780899910201009 0.056562827273038227 0 -0.28132943400820298 0.02911010974414751 0 -0.28938365460120269 0.05532159347584624 0 -0.29045052645802971 0.045802035002429492 0 -0.28132943400820298 0.02911010974414751 0 -0.28938365460120269 0.05532159347584624 0 -0.28132943400820298 0.02911010974414751 0 -0.29344050585463782 0.03493273697686209 0 -0.29045052645802971 0.045802035002429492 0 -0.29344050585463782 0.03493273697686209 0 -0.29045052645802971 0.045802035002429492 0 -0.30541723396373921 0.038711125382435783 0 -0.29045052645802971 0.045802035002429492 0 -0.30541723396373921 0.038711125382435783 0 -0.29738278035354182 0.050541329601553678 0 -0.29045052645802971 0.045802035002429492 0 -0.30541723396373921 0.038711125382435783 0 -0.29656482898857922 0.02610767777843559 0 -0.29344050585463782 0.03493273697686209 0 -0.30541723396373921 0.038711125382435783 0 -0.30541723396373921 0.038711125382435783 0 -0.30520751474604563 0.05375902269662923 0 -0.31780711793698518 0.045521831715634557 0 -0.29926204670725021 0.066629363318123747 0 -0.30520751474604563 0.05375902269662923 0 -0.31697319293959142 0.061410437985649477 0 -0.30541723396373921 0.038711125382435783 0 -0.30520751474604563 0.05375902269662923 0 -0.29738278035354182 0.050541329601553678 0 -0.30520751474604563 0.05375902269662923 0 -0.29738278035354182 0.050541329601553678 0 -0.29780899910201009 0.056562827273038227 0 -0.29926204670725021 0.066629363318123747 0 -0.30520751474604563 0.05375902269662923 0 -0.29780899910201009 0.056562827273038227 0 -0.32553678940662539 0.052415823907368687 0 -0.31780711793698518 0.045521831715634557 0 -0.33422422494732851 0.04449049745268327 0 -0.31697319293959142 0.061410437985649477 0 -0.32553678940662539 0.052415823907368687 0 -0.31780711793698518 0.045521831715634557 0 -0.30520751474604563 0.05375902269662923 0 -0.31697319293959142 0.061410437985649477 0 -0.31780711793698518 0.045521831715634557 0 -0.31697319293959142 0.061410437985649477 0 -0.32808937753058609 0.059947696530402161 0 -0.32553678940662539 0.052415823907368687 0 -0.31780711793698518 0.045521831715634557 0 -0.32038394146944787 0.031620215762440292 0 -0.33422422494732851 0.04449049745268327 0 -0.30541723396373921 0.038711125382435783 0 -0.31780711793698518 0.045521831715634557 0 -0.32038394146944787 0.031620215762440292 0 -0.30541723396373921 0.038711125382435783 0 -0.32038394146944787 0.031620215762440292 0 -0.32038394146944787 0.031620215762440292 0 -0.33422422494732851 0.04449049745268327 0 -0.33422422494732851 0.04449049745268327 0 -0.34051642268078958 0.02208187176518148 0 -0.34924074101412461 0.03711639968071382 0 -0.32038394146944787 0.031620215762440292 0 -0.33422422494732851 0.04449049745268327 0 -0.34051642268078958 0.02208187176518148 0 -0.33422422494732851 0.04449049745268327 0 -0.34715076893326918 0.04673829876922056 0 -0.34924074101412461 0.03711639968071382 0 -0.33422422494732851 0.04449049745268327 0 -0.34806450842520742 0.057360779142928031 0 -0.34715076893326918 0.04673829876922056 0 -0.33422422494732851 0.04449049745268327 0 -0.34806450842520742 0.057360779142928031 0 -0.33422422494732851 0.04449049745268327 0 -0.33482930480244999 0.055095026294593591 0 -0.34806450842520742 0.057360779142928031 0 -0.3407399656121517 0.06083029771636933 0 -0.33482930480244999 0.055095026294593591 0 -0.33440717105718593 0.063083878638897639 0 -0.3407399656121517 0.06083029771636933 0 -0.33482930480244999 0.055095026294593591 0 -0.34806450842520742 0.057360779142928031 0 -0.32808937753058609 0.059947696530402161 0 -0.33482930480244999 0.055095026294593591 0 -0.33440717105718593 0.063083878638897639 0 -0.32808937753058609 0.059947696530402161 0 -0.32553678940662539 0.052415823907368687 0 -0.33482930480244999 0.055095026294593591 0 -0.32553678940662539 0.052415823907368687 0 -0.33422422494732851 0.04449049745268327 0 -0.33482930480244999 0.055095026294593591 0 -0.31039051656375261 0.022327184027059441 0 -0.31177688145040278 0.0050359958776742568 0 -0.3261420213634148 0.01391490981329808 0 -0.32828291010712762 -0.0049346835118845543 0 -0.31177688145040278 0.0050359958776742568 0 -0.3261420213634148 0.01391490981329808 0 -0.31039051656375261 0.022327184027059441 0 -0.32038394146944787 0.031620215762440292 0 -0.3261420213634148 0.01391490981329808 0 -0.31039051656375261 0.022327184027059441 0 -0.32038394146944787 0.031620215762440292 0 -0.32038394146944787 0.031620215762440292 0 -0.34051642268078958 0.02208187176518148 0 -0.32038394146944787 0.031620215762440292 0 -0.3261420213634148 0.01391490981329808 0 -0.34051642268078958 0.02208187176518148 0 -0.3261420213634148 0.01391490981329808 0 -0.34051642268078958 0.02208187176518148 0 -0.34055428987364128 0.0059527955302196532 0 -0.32828291010712762 -0.0049346835118845543 0 -0.3261420213634148 0.01391490981329808 0 -0.34055428987364128 0.0059527955302196532 0 -0.34051642268078958 0.02208187176518148 0 -0.34055428987364128 0.0059527955302196532 0 -0.36064890389212972 0.0125435277679194 0 -0.34718119132474479 -0.01384164818341615 0 -0.34055428987364128 0.0059527955302196532 0 -0.36064890389212972 0.0125435277679194 0 -0.34051642268078958 0.02208187176518148 0 -0.36064890389212972 0.0125435277679194 0 -0.34051642268078958 0.02208187176518148 0 -0.35699945364537122 0.027147445145089769 0 -0.34924074101412461 0.03711639968071382 0 -0.34051642268078958 0.02208187176518148 0 -0.35699945364537122 0.027147445145089769 0 -0.36064890389212972 0.0125435277679194 0 -0.35699945364537122 0.027147445145089769 0 -0.36163302121541668 0.029781402687577421 0 -0.35940737946489582 0.035374977024224222 0 -0.37998819155715241 0.0057865511937031933 0 -0.36738966121720701 0.029980518529024301 0 -0.37123175334181557 0.027162262264614271 0 -0.37998819155715241 0.0057865511937031933 0 -0.36738966121720701 0.029980518529024301 0 -0.3645477689834325 0.020181962352102071 0 -0.37998819155715241 0.0057865511937031933 0 -0.36738966121720701 0.029980518529024301 0 -0.36273559053419291 0.026622670051971411 0 -0.36738966121720701 0.029980518529024301 0 -0.3645477689834325 0.020181962352102071 0 -0.35699945364537122 0.027147445145089769 0 -0.36163302121541668 0.029781402687577421 0 -0.36273559053419291 0.026622670051971411 0 -0.35699945364537122 0.027147445145089769 0 -0.36273559053419291 0.026622670051971411 0 -0.3645477689834325 0.020181962352102071 0 -0.36163302121541668 0.029781402687577421 0 -0.36273559053419291 0.026622670051971411 0 -0.36738966121720701 0.029980518529024301 0 -0.35699945364537122 0.027147445145089769 0 -0.3645477689834325 0.020181962352102071 0 -0.36064890389212972 0.0125435277679194 0 -0.3645477689834325 0.020181962352102071 0 -0.36064890389212972 0.0125435277679194 0 -0.37998819155715241 0.0057865511937031933 0 -0.3645477689834325 0.020181962352102071 0 -0.36064890389212972 0.0125435277679194 0 -0.38683543611469601 0.0001369023841863784 0 -0.36064890389212972 0.0125435277679194 0 -0.37474494217865062 -0.0022388935110706832 0 -0.38683543611469601 0.0001369023841863784 0 -0.36064890389212972 0.0125435277679194 0 -0.37474494217865062 -0.0022388935110706832 0 -0.36307869926690151 -0.00068504054922277494 0 -0.36064890389212972 0.0125435277679194 0 -0.35479113087726238 0.05417448586434577 0 -0.34715076893326918 0.04673829876922056 0 -0.35593663516940488 0.04278932274017315 0 -0.35479113087726238 0.05417448586434577 0 -0.35147867423579721 0.06053566178096708 0 -0.3622197730044176 0.060127746183944272 0 -0.35479113087726238 0.05417448586434577 0 -0.35147867423579721 0.06053566178096708 0 -0.35479113087726238 0.05417448586434577 0 -0.34806450842520742 0.057360779142928031 0 -0.35147867423579721 0.06053566178096708 0 -0.35479113087726238 0.05417448586434577 0 -0.34806450842520742 0.057360779142928031 0 -0.34806450842520742 0.057360779142928031 0 -0.35147867423579721 0.06053566178096708 0 -0.3447014191436914 0.063951910484466787 0 -0.34806450842520742 0.057360779142928031 0 -0.35147867423579721 0.06053566178096708 0 -0.3407399656121517 0.06083029771636933 0 -0.34806450842520742 0.057360779142928031 0 -0.3407399656121517 0.06083029771636933 0 -0.34806450842520742 0.057360779142928031 0 -0.3447014191436914 0.063951910484466787 0 -0.35479113087726238 0.05417448586434577 0 -0.34806450842520742 0.057360779142928031 0 -0.34715076893326918 0.04673829876922056 0 -0.34715076893326918 0.04673829876922056 0 -0.34924074101412461 0.03711639968071382 0 -0.35593663516940488 0.04278932274017315 0 -0.36738966121720701 0.029980518529024301 0 -0.35479113087726238 0.05417448586434577 0 -0.35593663516940488 0.04278932274017315 0 -0.35699945364537122 0.027147445145089769 0 -0.34924074101412461 0.03711639968071382 0 -0.35940737946489582 0.035374977024224222 0 -0.34924074101412461 0.03711639968071382 0 -0.35593663516940488 0.04278932274017315 0 -0.35940737946489582 0.035374977024224222 0 -0.36738966121720701 0.029980518529024301 0 -0.35479113087726238 0.05417448586434577 0 -0.36677646394688163 0.041367990420506082 0 -0.37123175334181557 0.027162262264614271 0 -0.37046143272875132 0.04675171495388801 0 -0.36738966121720701 0.029980518529024301 0 -0.35479113087726238 0.05417448586434577 0 -0.37123175334181557 0.027162262264614271 0 -0.36677646394688163 0.041367990420506082 0 -0.37046143272875132 0.04675171495388801 0 -0.3764786745208083 0.032098692741998169 0 -0.37123175334181557 0.027162262264614271 0 -0.37046143272875132 0.04675171495388801 0 -0.36163302121541668 0.029781402687577421 0 -0.36738966121720701 0.029980518529024301 0 -0.35940737946489582 0.035374977024224222 0 -0.36738966121720701 0.029980518529024301 0 -0.35593663516940488 0.04278932274017315 0 -0.35940737946489582 0.035374977024224222 0 -0.36738966121720701 0.029980518529024301 0 -0.37123175334181557 0.027162262264614271 0 -0.36677646394688163 0.041367990420506082 0 -0.36677646394688163 0.041367990420506082 0 -0.37046143272875132 0.04675171495388801 0 -0.36802302346639398 0.047906750352184523 0 -0.36677646394688163 0.041367990420506082 0 -0.36802302346639398 0.047906750352184523 0 -0.37046143272875132 0.04675171495388801 0 -0.37000681959492809 0.05831264468359916 0 -0.36802302346639398 0.047906750352184523 0 -0.37000681959492809 0.05831264468359916 0 -0.37046143272875132 0.04675171495388801 0 -0.36802302346639398 0.047906750352184523 0 -0.37000681959492809 0.05831264468359916 0 -0.37046143272875132 0.04675171495388801 0 -0.36802302346639398 0.047906750352184523 0 -0.35479113087726238 0.05417448586434577 0 -0.36802302346639398 0.047906750352184523 0 -0.35479113087726238 0.05417448586434577 0 -0.36802302346639398 0.047906750352184523 0 -0.3622197730044176 0.060127746183944272 0 -0.35479113087726238 0.05417448586434577 0 -0.36677646394688163 0.041367990420506082 0 -0.36802302346639398 0.047906750352184523 0 -0.36802302346639398 0.047906750352184523 0 -0.3622197730044176 0.060127746183944272 0 -0.37000681959492809 0.05831264468359916 0 -0.35147867423579721 0.06053566178096708 0 -0.36926886504626422 0.077079019973005369 0 -0.3622197730044176 0.060127746183944272 0 -0.37000681959492809 0.05831264468359916 0 -0.36926886504626422 0.077079019973005369 0 -0.37000681959492809 0.05831264468359916 0 -0.36926886504626422 0.077079019973005369 0 -0.37079498002478778 0.078498176574577722 0 -0.36926886504626422 0.077079019973005369 0 -0.34551673285671652 0.071984855543133663 0 -0.36912013352382872 0.080861301107253064 0 -0.37000681959492809 0.05831264468359916 0 -0.37079498002478778 0.078498176574577722 0 -0.37470600383380392 0.082961959162170973 0 -0.35147867423579721 0.06053566178096708 0 -0.3622197730044176 0.060127746183944272 0 -0.36926886504626422 0.077079019973005369 0 -0.37000681959492809 0.05831264468359916 0 -0.37470600383380392 0.082961959162170973 0 -0.37000681959492809 0.05831264468359916 0 -0.36926886504626422 0.077079019973005369 0 -0.36926886504626422 0.077079019973005369 0 -0.37079498002478778 0.078498176574577722 0 -0.34551673285671652 0.071984855543133663 0 -0.34763839367566191 0.079069075487607554 0 -0.36912013352382872 0.080861301107253064 0 -0.34551673285671652 0.071984855543133663 0 -0.36912013352382872 0.080861301107253064 0 -0.35147867423579721 0.06053566178096708 0 -0.36926886504626422 0.077079019973005369 0 -0.34551673285671652 0.071984855543133663 0 -0.34408269824063842 0.074738747125954852 0 -0.34763839367566191 0.079069075487607554 0 -0.34179116264722731 0.080399472229040897 0 -0.34408269824063842 0.074738747125954852 0 -0.34551673285671652 0.071984855543133663 0 -0.34763839367566191 0.079069075487607554 0 -0.34408269824063842 0.074738747125954852 0 -0.34551673285671652 0.071984855543133663 0 -0.35147867423579721 0.06053566178096708 0 -0.34551673285671652 0.071984855543133663 0 -0.3447014191436914 0.063951910484466787 0 -0.35147867423579721 0.06053566178096708 0 -0.34551673285671652 0.071984855543133663 0 -0.34763839367566191 0.079069075487607554 0 -0.36858415035949882 0.094491491786065696 0 -0.34763839367566191 0.079069075487607554 0 -0.36858415035949882 0.094491491786065696 0 -0.35198293914272999 0.094145145766245733 0 -0.34456144318064219 0.08667329674911145 0 -0.34763839367566191 0.079069075487607554 0 -0.35198293914272999 0.094145145766245733 0 -0.34456144318064219 0.08667329674911145 0 -0.35198293914272999 0.094145145766245733 0 -0.34431035454597703 0.093789606507308373 0 -0.34456144318064219 0.08667329674911145 0 -0.34763839367566191 0.079069075487607554 0 -0.34179116264722731 0.080399472229040897 0 -0.3782625711058698 0.101617738696854 0 -0.37470600383380392 0.082961959162170973 0 -0.36858415035949882 0.094491491786065696 0 -0.34763839367566191 0.079069075487607554 0 -0.36912013352382872 0.080861301107253064 0 -0.36858415035949882 0.094491491786065696 0 -0.36926886504626422 0.077079019973005369 0 -0.37079498002478778 0.078498176574577722 0 -0.36912013352382872 0.080861301107253064 0 -0.36926886504626422 0.077079019973005369 0 -0.36912013352382872 0.080861301107253064 0 -0.36912013352382872 0.080861301107253064 0 -0.37470600383380392 0.082961959162170973 0 -0.37079498002478778 0.078498176574577722 0 -0.36912013352382872 0.080861301107253064 0 -0.37470600383380392 0.082961959162170973 0 -0.36912013352382872 0.080861301107253064 0 -0.37470600383380392 0.082961959162170973 0 -0.36858415035949882 0.094491491786065696 0 -0.36912013352382872 0.080861301107253064 0 -0.36858415035949882 0.094491491786065696 0 -0.36858415035949882 0.094491491786065696 0 -0.36747352968705388 0.12273486311700831 0 -0.3782625711058698 0.101617738696854 0 -0.36858415035949882 0.094491491786065696 0 -0.36858415035949882 0.094491491786065696 0 -0.36006702585218792 0.10838608290929221 0 -0.35198293914272999 0.094145145766245733 0 -0.36858415035949882 0.094491491786065696 0 -0.36006702585218792 0.10838608290929221 0 -0.36747352968705388 0.12273486311700831 0 -0.3782625711058698 0.101617738696854 0 -0.36858415035949882 0.094491491786065696 0 -0.36747352968705388 0.12273486311700831 0 -0.36006702585218792 0.10838608290929221 0 -0.36747352968705388 0.12273486311700831 0 -0.35832203275528268 0.1183511860346923 0 -0.35528769071996391 0.12689780186549679 0 -0.36747352968705388 0.12273486311700831 0 -0.35832203275528268 0.1183511860346923 0 -0.35528769071996391 0.12689780186549679 0 -0.35832203275528268 0.1183511860346923 0 -0.35045988476192508 0.115385996246972 0 -0.36006702585218792 0.10838608290929221 0 -0.35832203275528268 0.1183511860346923 0 -0.35045988476192508 0.115385996246972 0 -0.35045988476192508 0.115385996246972 0 -0.34547580274860562 0.10394098399483009 0 -0.33570271963636877 0.11206429961599181 0 -0.35528769071996391 0.12689780186549679 0 -0.35045988476192508 0.115385996246972 0 -0.34115039425197219 0.12498493974687711 0 -0.36006702585218792 0.10838608290929221 0 -0.35198293914272999 0.094145145766245733 0 -0.34547580274860562 0.10394098399483009 0 -0.36006702585218792 0.10838608290929221 0 -0.35045988476192508 0.115385996246972 0 -0.34547580274860562 0.10394098399483009 0 -0.35198293914272999 0.094145145766245733 0 -0.34547580274860562 0.10394098399483009 0 -0.34431035454597703 0.093789606507308373 0 -0.34547580274860562 0.10394098399483009 0 -0.34431035454597703 0.093789606507308373 0 -0.335413749579693 0.097286071719103154 0 -0.34547580274860562 0.10394098399483009 0 -0.335413749579693 0.097286071719103154 0 -0.33570271963636877 0.11206429961599181 0 -0.335413749579693 0.097286071719103154 0 -0.33570271963636877 0.11206429961599181 0 -0.32444247844199348 0.1047035033472971 0 -0.35045988476192508 0.115385996246972 0 -0.34115039425197219 0.12498493974687711 0 -0.33570271963636877 0.11206429961599181 0 -0.32917568526667751 0.12578156900391591 0 -0.33570271963636877 0.11206429961599181 0 -0.32114709127587232 0.11611322513389059 0 -0.32917568526667751 0.12578156900391591 0 -0.34115039425197219 0.12498493974687711 0 -0.33570271963636877 0.11206429961599181 0 -0.31354631638020197 0.13395604467094269 0 -0.30549209578720232 0.10774456093924389 0 -0.32114709127587232 0.11611322513389059 0 -0.30549209578720232 0.10774456093924389 0 -0.32114709127587232 0.11611322513389059 0 -0.32444247844199348 0.1047035033472971 0 -0.33570271963636877 0.11206429961599181 0 -0.32114709127587232 0.11611322513389059 0 -0.32444247844199348 0.1047035033472971 0 -0.30549209578720232 0.10774456093924389 0 -0.32444247844199348 0.1047035033472971 0 -0.32445673593083119 0.090309359328255762 0 -0.30549209578720232 0.10774456093924389 0 -0.32445673593083119 0.090309359328255762 0 -0.31312795334666071 0.083579729522452809 0 -0.335413749579693 0.097286071719103154 0 -0.32444247844199348 0.1047035033472971 0 -0.32445673593083119 0.090309359328255762 0 -0.32445673593083119 0.090309359328255762 0 -0.3275606083710243 0.080211281293741998 0 -0.31312795334666071 0.083579729522452809 0 -0.3275606083710243 0.080211281293741998 0 -0.31312795334666071 0.083579729522452809 0 -0.31976082328641481 0.073112182403608325 0 -0.30931237829482389 0.073252958087475881 0 -0.31312795334666071 0.083579729522452809 0 -0.31976082328641481 0.073112182403608325 0 -0.30931237829482389 0.073252958087475881 0 -0.31697319293959142 0.061410437985649477 0 -0.31976082328641481 0.073112182403608325 0 -0.31697319293959142 0.061410437985649477 0 -0.31976082328641481 0.073112182403608325 0 -0.32886731949388731 0.069155273298144179 0 -0.31697319293959142 0.061410437985649477 0 -0.32808937753058609 0.059947696530402161 0 -0.32886731949388731 0.069155273298144179 0 -0.3275606083710243 0.080211281293741998 0 -0.31976082328641481 0.073112182403608325 0 -0.32886731949388731 0.069155273298144179 0 -0.32886731949388731 0.069155273298144179 0 -0.33770721458858299 0.069047958238937293 0 -0.336378655355973 0.076693290193422539 0 -0.3275606083710243 0.080211281293741998 0 -0.32886731949388731 0.069155273298144179 0 -0.336378655355973 0.076693290193422539 0 -0.33440717105718593 0.063083878638897639 0 -0.32886731949388731 0.069155273298144179 0 -0.33770721458858299 0.069047958238937293 0 -0.32808937753058609 0.059947696530402161 0 -0.33440717105718593 0.063083878638897639 0 -0.32886731949388731 0.069155273298144179 0 -0.3407399656121517 0.06083029771636933 0 -0.33440717105718593 0.063083878638897639 0 -0.33770721458858299 0.069047958238937293 0 -0.3407399656121517 0.06083029771636933 0 -0.3447014191436914 0.063951910484466787 0 -0.33770721458858299 0.069047958238937293 0 -0.34551673285671652 0.071984855543133663 0 -0.3447014191436914 0.063951910484466787 0 -0.33770721458858299 0.069047958238937293 0 -0.34408269824063842 0.074738747125954852 0 -0.33770721458858299 0.069047958238937293 0 -0.336378655355973 0.076693290193422539 0 -0.34408269824063842 0.074738747125954852 0 -0.34551673285671652 0.071984855543133663 0 -0.33770721458858299 0.069047958238937293 0 -0.34551673285671652 0.071984855543133663 0 -0.33770721458858299 0.069047958238937293 0 -0.34408269824063842 0.074738747125954852 0 -0.336378655355973 0.076693290193422539 0 -0.34179116264722731 0.080399472229040897 0 -0.336378655355973 0.076693290193422539 0 -0.34179116264722731 0.080399472229040897 0 -0.33708436589161489 0.085963183755354639 0 -0.34456144318064219 0.08667329674911145 0 -0.34179116264722731 0.080399472229040897 0 -0.33708436589161489 0.085963183755354639 0 -0.34456144318064219 0.08667329674911145 0 -0.34431035454597703 0.093789606507308373 0 -0.33708436589161489 0.085963183755354639 0 -0.34431035454597703 0.093789606507308373 0 -0.335413749579693 0.097286071719103154 0 -0.33708436589161489 0.085963183755354639 0 -0.335413749579693 0.097286071719103154 0 -0.32445673593083119 0.090309359328255762 0 -0.33708436589161489 0.085963183755354639 0 -0.32445673593083119 0.090309359328255762 0 -0.3275606083710243 0.080211281293741998 0 -0.33708436589161489 0.085963183755354639 0 -0.3275606083710243 0.080211281293741998 0 -0.336378655355973 0.076693290193422539 0 -0.33708436589161489 0.085963183755354639 0 -0.38891458820749281 0.47713565504117422 0 -0.42172655890518862 0.5 0 -0.3640375775585698 0.5 0 -0.38891458820749281 0.47713565504117422 0 -0.37103467036260362 0.45695891695805302 0 -0.36943712044780219 0.47475959506207249 0 -0.39694697642853649 0.45370639251272787 0 -0.37103467036260362 0.45695891695805302 0 -0.38891458820749281 0.47713565504117422 0 -0.39694697642853649 0.45370639251272787 0 -0.37103467036260362 0.45695891695805302 0 -0.38249991962136642 0.44345487931465249 0 -0.39694697642853649 0.45370639251272787 0 -0.37103467036260362 0.45695891695805302 0 -0.38249991962136642 0.44345487931465249 0 -0.39694697642853649 0.45370639251272787 0 -0.40464661760035381 0.43350824459614162 0 -0.38891458820749281 0.47713565504117422 0 -0.39694697642853649 0.45370639251272787 0 -0.41631826774707797 0.4711213942969617 0 -0.39694697642853649 0.45370639251272787 0 -0.42285928249446952 0.45045386806740279 0 -0.41631826774707797 0.4711213942969617 0 -0.42285928249446952 0.45045386806740279 0 -0.42501824733507809 0.43459816807542118 0 -0.40464661760035381 0.43350824459614162 0 -0.39694697642853649 0.45370639251272787 0 -0.42285928249446952 0.45045386806740279 0 -0.39694697642853649 0.45370639251272787 0 -0.42285928249446952 0.45045386806740279 0 -0.40464661760035381 0.43350824459614162 0 -0.42285928249446952 0.45045386806740279 0 -0.43521244088076849 0.46107148678855758 0 -0.44877158856040261 0.44720134362207808 0 -0.42285928249446952 0.45045386806740279 0 -0.44877158856040261 0.44720134362207808 0 -0.42285928249446952 0.45045386806740279 0 -0.43592409671607729 0.44045812782560079 0 -0.44877158856040261 0.44720134362207808 0 -0.42285928249446952 0.45045386806740279 0 -0.43592409671607729 0.44045812782560079 0 -0.42501824733507809 0.43459816807542118 0 -0.42285928249446952 0.45045386806740279 0 -0.43521244088076849 0.46107148678855758 0 -0.41631826774707797 0.4711213942969617 0 -0.41631826774707797 0.4711213942969617 0 -0.42172655890518862 0.5 0 -0.43935827984199688 0.47473889959161758 0 -0.43521244088076849 0.46107148678855758 0 -0.41631826774707797 0.4711213942969617 0 -0.43935827984199688 0.47473889959161758 0 -0.38891458820749281 0.47713565504117422 0 -0.41631826774707797 0.4711213942969617 0 -0.42172655890518862 0.5 0 -0.42172655890518862 0.5 0 -0.43935827984199688 0.47473889959161758 0 -0.47784082473980471 0.47626967285504462 0 -0.42172655890518862 0.5 0 -0.5 0.5 0 -0.47784082473980471 0.47626967285504462 0 -0.43935827984199688 0.47473889959161758 0 -0.47784082473980471 0.47626967285504462 0 -0.4487547857598953 0.46184192836472759 0 -0.5 0.5 0 -0.47784082473980471 0.47626967285504462 0 -0.49999999999999589 0.44077113011354369 0 -0.47784082473980471 0.47626967285504462 0 -0.47438579428019922 0.44398623686781052 0 -0.4627013265822788 0.4545376326069438 0 -0.47784082473980471 0.47626967285504462 0 -0.49999999999999589 0.44077113011354369 0 -0.47438579428019922 0.44398623686781052 0 -0.49999999999999589 0.44077113011354369 0 -0.47438579428019922 0.44398623686781052 0 -0.48180565015534738 0.42787197640755792 0 -0.49999999999999589 0.44077113011354369 0 -0.47438579428019922 0.44398623686781052 0 -0.47438579428019922 0.44398623686781052 0 -0.4627013265822788 0.4545376326069438 0 -0.44877158856040261 0.44720134362207808 0 -0.47438579428019922 0.44398623686781052 0 -0.44877158856040261 0.44720134362207808 0 -0.47438579428019922 0.44398623686781052 0 -0.44877158856040261 0.44720134362207808 0 -0.46289485375526918 0.43579199928955081 0 -0.44877158856040261 0.44720134362207808 0 -0.44878504691792248 0.43547483269414872 0 -0.46289485375526918 0.43579199928955081 0 -0.47784082473980471 0.47626967285504462 0 -0.4627013265822788 0.4545376326069438 0 -0.4487547857598953 0.46184192836472759 0 -0.4627013265822788 0.4545376326069438 0 -0.4487547857598953 0.46184192836472759 0 -0.44877158856040261 0.44720134362207808 0 -0.4487547857598953 0.46184192836472759 0 -0.44877158856040261 0.44720134362207808 0 -0.43521244088076849 0.46107148678855758 0 -0.4487547857598953 0.46184192836472759 0 -0.44877158856040261 0.44720134362207808 0 -0.43521244088076849 0.46107148678855758 0 -0.43935827984199688 0.47473889959161758 0 -0.4487547857598953 0.46184192836472759 0 -0.44877158856040261 0.44720134362207808 0 -0.44508566455651338 0.43839632914573512 0 -0.44878504691792248 0.43547483269414872 0 -0.44877158856040261 0.44720134362207808 0 -0.44878504691792248 0.43547483269414872 0 -0.43592409671607729 0.44045812782560079 0 -0.44877158856040261 0.44720134362207808 0 -0.44508566455651338 0.43839632914573512 0 -0.44531233658805403 0.42513554986162888 0 -0.44878504691792248 0.43547483269414872 0 -0.44880957839306629 0.41410011360809668 0 -0.44878504691792248 0.43547483269414872 0 -0.44880957839306629 0.41410011360809668 0 -0.43788570063392329 0.43164093021736671 0 -0.44531233658805403 0.42513554986162888 0 -0.44878504691792248 0.43547483269414872 0 -0.43592409671607729 0.44045812782560079 0 -0.44508566455651338 0.43839632914573512 0 -0.43788570063392329 0.43164093021736671 0 -0.44508566455651338 0.43839632914573512 0 -0.43788570063392329 0.43164093021736671 0 -0.44878504691792248 0.43547483269414872 0 -0.44508566455651338 0.43839632914573512 0 -0.44878504691792248 0.43547483269414872 0 -0.44531233658805403 0.42513554986162888 0 -0.44880957839306629 0.41410011360809668 0 -0.42391867717568832 0.41711337076656618 0 -0.44880957839306629 0.41410011360809668 0 -0.46585669794528167 0.42199291516666237 0 -0.4641229039382897 0.40091036417177778 0 -0.44878504691792248 0.43547483269414872 0 -0.46585669794528167 0.42199291516666237 0 -0.44878504691792248 0.43547483269414872 0 -0.44880957839306629 0.41410011360809668 0 -0.46585669794528167 0.42199291516666237 0 -0.44878504691792248 0.43547483269414872 0 -0.46585669794528167 0.42199291516666237 0 -0.46289485375526918 0.43579199928955081 0 -0.47438579428019922 0.44398623686781052 0 -0.46289485375526918 0.43579199928955081 0 -0.48180565015534738 0.42787197640755792 0 -0.46585669794528167 0.42199291516666237 0 -0.46289485375526918 0.43579199928955081 0 -0.48180565015534738 0.42787197640755792 0 -0.46585669794528167 0.42199291516666237 0 -0.48292834897264081 0.4085109976391762 0 -0.4641229039382897 0.40091036417177778 0 -0.46585669794528167 0.42199291516666237 0 -0.48292834897264081 0.4085109976391762 0 -0.46585669794528167 0.42199291516666237 0 -0.48180565015534738 0.42787197640755792 0 -0.48292834897264081 0.4085109976391762 0 -0.48292834897264081 0.4085109976391762 0 -0.5 0.41790010511261683 0 -0.5 0.39502908011169002 0 -0.48180565015534738 0.42787197640755792 0 -0.48292834897264081 0.4085109976391762 0 -0.5 0.41790010511261683 0 -0.49999999999999589 0.44077113011354369 0 -0.48180565015534738 0.42787197640755792 0 -0.5 0.41790010511261683 0 -0.48850556386005051 0.3766603246979251 0 -0.5 0.39502908011169002 0 -0.47832653283541199 0.38608194873200979 0 -0.48850556386005051 0.3766603246979251 0 -0.5 0.39502908011169002 0 -0.5 0.36887446842263683 0 -0.48292834897264081 0.4085109976391762 0 -0.5 0.39502908011169002 0 -0.47832653283541199 0.38608194873200979 0 -0.48292834897264081 0.4085109976391762 0 -0.5 0.39502908011169002 0 -0.48292834897264081 0.4085109976391762 0 -0.47832653283541199 0.38608194873200979 0 -0.4641229039382897 0.40091036417177778 0 -0.48850556386005051 0.3766603246979251 0 -0.47832653283541199 0.38608194873200979 0 -0.48259334700195489 0.36409898273387958 0 -0.47832653283541199 0.38608194873200979 0 -0.46059005399087027 0.38292215568240928 0 -0.4641229039382897 0.40091036417177778 0 -0.47832653283541199 0.38608194873200979 0 -0.46059005399087027 0.38292215568240928 0 -0.46572599417265398 0.36772482908493609 0 -0.44880957839306629 0.41410011360809668 0 -0.4641229039382897 0.40091036417177778 0 -0.44883410986820999 0.3927253945220448 0 -0.46059005399087027 0.38292215568240928 0 -0.4641229039382897 0.40091036417177778 0 -0.44883410986820999 0.3927253945220448 0 -0.44880957839306629 0.41410011360809668 0 -0.44883410986820999 0.3927253945220448 0 -0.43699833754743561 0.40294499431243458 0 -0.44880957839306629 0.41410011360809668 0 -0.44883410986820999 0.3927253945220448 0 -0.44883410986820999 0.3927253945220448 0 -0.43978391516082421 0.3912231797547942 0 -0.43699833754743561 0.40294499431243458 0 -0.44883410986820999 0.3927253945220448 0 -0.43978391516082421 0.3912231797547942 0 -0.44802713623065987 0.37645115623263098 0 -0.44883410986820999 0.3927253945220448 0 -0.44885864134335329 0.37135067543599282 0 -0.44883410986820999 0.3927253945220448 0 -0.44802713623065987 0.37645115623263098 0 -0.44885864134335329 0.37135067543599282 0 -0.43978391516082421 0.3912231797547942 0 -0.44802713623065987 0.37645115623263098 0 -0.42527607699699133 0.39277117395206662 0 -0.46059005399087027 0.38292215568240928 0 -0.44883410986820999 0.3927253945220448 0 -0.44885864134335329 0.37135067543599282 0 -0.44802713623065987 0.37645115623263098 0 -0.4250431626101242 0.37647010748543319 0 -0.42527607699699133 0.39277117395206662 0 -0.44802713623065987 0.37645115623263098 0 -0.42527607699699133 0.39277117395206662 0 -0.4250431626101242 0.37647010748543319 0 -0.4134887672477453 0.38574914578498593 0 -0.40122768387689522 0.38158953953487368 0 -0.4250431626101242 0.37647010748543319 0 -0.40122768387689522 0.38158953953487368 0 -0.4250431626101242 0.37647010748543319 0 -0.4134887672477453 0.38574914578498593 0 -0.42527607699699133 0.39277117395206662 0 -0.4250431626101242 0.37647010748543319 0 -0.40122768387689522 0.38158953953487368 0 -0.40086489287733429 0.37467411733839928 0 -0.4134887672477453 0.38574914578498593 0 -0.40798835104355652 0.39359067917546098 0 -0.40557429982823212 0.38794008425198068 0 -0.4134887672477453 0.38574914578498593 0 -0.40122768387689522 0.38158953953487368 0 -0.40557429982823212 0.38794008425198068 0 -0.40798835104355652 0.39359067917546098 0 -0.42527607699699133 0.39277117395206662 0 -0.40252501776332311 0.40909119167150271 0 -0.42527607699699133 0.39277117395206662 0 -0.40252501776332311 0.40909119167150271 0 -0.4134887672477453 0.38574914578498593 0 -0.40798835104355652 0.39359067917546098 0 -0.42527607699699133 0.39277117395206662 0 -0.42527607699699133 0.39277117395206662 0 -0.43699833754743561 0.40294499431243458 0 -0.42391867717568832 0.41711337076656618 0 -0.43978391516082421 0.3912231797547942 0 -0.42527607699699133 0.39277117395206662 0 -0.43699833754743561 0.40294499431243458 0 -0.44880957839306629 0.41410011360809668 0 -0.43699833754743561 0.40294499431243458 0 -0.42391867717568832 0.41711337076656618 0 -0.44531233658805403 0.42513554986162888 0 -0.42391867717568832 0.41711337076656618 0 -0.43788570063392329 0.43164093021736671 0 -0.44531233658805403 0.42513554986162888 0 -0.42391867717568832 0.41711337076656618 0 -0.43788570063392329 0.43164093021736671 0 -0.42391867717568832 0.41711337076656618 0 -0.42501824733507809 0.43459816807542118 0 -0.43592409671607729 0.44045812782560079 0 -0.43788570063392329 0.43164093021736671 0 -0.42501824733507809 0.43459816807542118 0 -0.42391867717568832 0.41711337076656618 0 -0.42501824733507809 0.43459816807542118 0 -0.40464661760035381 0.43350824459614162 0 -0.42527607699699133 0.39277117395206662 0 -0.42391867717568832 0.41711337076656618 0 -0.40252501776332311 0.40909119167150271 0 -0.42391867717568832 0.41711337076656618 0 -0.40252501776332311 0.40909119167150271 0 -0.40464661760035381 0.43350824459614162 0 -0.42391867717568832 0.41711337076656618 0 -0.40252501776332311 0.40909119167150271 0 -0.40252501776332311 0.40909119167150271 0 -0.37875820238401509 0.42613984176471847 0 -0.40252501776332311 0.40909119167150271 0 -0.40464661760035381 0.43350824459614162 0 -0.37875820238401509 0.42613984176471847 0 -0.38249991962136642 0.44345487931465249 0 -0.40464661760035381 0.43350824459614162 0 -0.37875820238401509 0.42613984176471847 0 -0.40252501776332311 0.40909119167150271 0 -0.37875820238401509 0.42613984176471847 0 -0.37769092578324193 0.39977892163450779 0 -0.37769092578324193 0.39977892163450779 0 -0.38963770449155072 0.39285491215608792 0 -0.37686086334024771 0.38257038446795849 0 -0.40252501776332311 0.40909119167150271 0 -0.37769092578324193 0.39977892163450779 0 -0.38963770449155072 0.39285491215608792 0 -0.40252501776332311 0.40909119167150271 0 -0.37769092578324193 0.39977892163450779 0 -0.37686086334024771 0.38257038446795849 0 -0.39363670834615189 0.38450398520198442 0 -0.40086489287733429 0.37467411733839928 0 -0.38963770449155072 0.39285491215608792 0 -0.37686086334024771 0.38257038446795849 0 -0.39363670834615189 0.38450398520198442 0 -0.37686086334024771 0.38257038446795849 0 -0.40086489287733429 0.37467411733839928 0 -0.37686086334024771 0.38257038446795849 0 -0.40086489287733429 0.37467411733839928 0 -0.39033592763893787 0.37070590072739279 0 -0.39363670834615189 0.38450398520198442 0 -0.40122768387689522 0.38158953953487368 0 -0.39959239714473138 0.39083097251260251 0 -0.38963770449155072 0.39285491215608792 0 -0.39363670834615189 0.38450398520198442 0 -0.39959239714473138 0.39083097251260251 0 -0.39363670834615189 0.38450398520198442 0 -0.40122768387689522 0.38158953953487368 0 -0.40086489287733429 0.37467411733839928 0 -0.40122768387689522 0.38158953953487368 0 -0.40557429982823212 0.38794008425198068 0 -0.39959239714473138 0.39083097251260251 0 -0.40798835104355652 0.39359067917546098 0 -0.40557429982823212 0.38794008425198068 0 -0.39959239714473138 0.39083097251260251 0 -0.40252501776332311 0.40909119167150271 0 -0.38963770449155072 0.39285491215608792 0 -0.39959239714473138 0.39083097251260251 0 -0.40798835104355652 0.39359067917546098 0 -0.40252501776332311 0.40909119167150271 0 -0.39959239714473138 0.39083097251260251 0 -0.3926828114571661 0.35541775914535301 0 -0.40105078960399698 0.34662517948293931 0 -0.40586906590548888 0.3393029225754271 0 -0.3926828114571661 0.35541775914535301 0 -0.39400561065841477 0.34382680172727831 0 -0.40586906590548888 0.3393029225754271 0 -0.3926828114571661 0.35541775914535301 0 -0.40586906590548888 0.3393029225754271 0 -0.3926828114571661 0.35541775914535301 0 -0.39969836615416421 0.35756427730283669 0 -0.39341808057325789 0.36431669671432632 0 -0.3926828114571661 0.35541775914535301 0 -0.40105078960399698 0.34662517948293931 0 -0.39969836615416421 0.35756427730283669 0 -0.3926828114571661 0.35541775914535301 0 -0.39400561065841477 0.34382680172727831 0 -0.38539473684528258 0.34837828204789067 0 -0.40105078960399698 0.34662517948293931 0 -0.40525205349158999 0.35429039595711992 0 -0.40888688292129022 0.34941903462410451 0 -0.40105078960399698 0.34662517948293931 0 -0.4080564418273247 0.34368885170405422 0 -0.40888688292129022 0.34941903462410451 0 -0.40105078960399698 0.34662517948293931 0 -0.40525205349158999 0.35429039595711992 0 -0.39969836615416421 0.35756427730283669 0 -0.40525205349158999 0.35429039595711992 0 -0.39969836615416421 0.35756427730283669 0 -0.40553625032349627 0.36037170931698131 0 -0.40553625032349627 0.36037170931698131 0 -0.40544017780568847 0.3661562974108753 0 -0.40025021147547779 0.36436392320030081 0 -0.40544017780568847 0.3661562974108753 0 -0.40025021147547779 0.36436392320030081 0 -0.397742957241214 0.36844985128713797 0 -0.39969836615416421 0.35756427730283669 0 -0.40553625032349627 0.36037170931698131 0 -0.40025021147547779 0.36436392320030081 0 -0.40544017780568847 0.3661562974108753 0 -0.40086489287733429 0.37467411733839928 0 -0.397742957241214 0.36844985128713797 0 -0.40086489287733429 0.37467411733839928 0 -0.397742957241214 0.36844985128713797 0 -0.39033592763893787 0.37070590072739279 0 -0.397742957241214 0.36844985128713797 0 -0.39341808057325789 0.36431669671432632 0 -0.39033592763893787 0.37070590072739279 0 -0.39969836615416421 0.35756427730283669 0 -0.40025021147547779 0.36436392320030081 0 -0.39341808057325789 0.36431669671432632 0 -0.40025021147547779 0.36436392320030081 0 -0.397742957241214 0.36844985128713797 0 -0.39341808057325789 0.36431669671432632 0 -0.3926828114571661 0.35541775914535301 0 -0.39341808057325789 0.36431669671432632 0 -0.37949655700884349 0.37153259571527891 0 -0.37949655700884349 0.37153259571527891 0 -0.37823932191431281 0.35548757599615399 0 -0.37024808467873749 0.36543132639488701 0 -0.3926828114571661 0.35541775914535301 0 -0.37949655700884349 0.37153259571527891 0 -0.37823932191431281 0.35548757599615399 0 -0.3926828114571661 0.35541775914535301 0 -0.37949655700884349 0.37153259571527891 0 -0.39341808057325789 0.36431669671432632 0 -0.39033592763893787 0.37070590072739279 0 -0.37949655700884349 0.37153259571527891 0 -0.37686086334024771 0.38257038446795849 0 -0.39033592763893787 0.37070590072739279 0 -0.37949655700884349 0.37153259571527891 0 -0.37823932191431281 0.35548757599615399 0 -0.38539473684528258 0.34837828204789067 0 -0.3787015959315434 0.33902802614693439 0 -0.3926828114571661 0.35541775914535301 0 -0.37823932191431281 0.35548757599615399 0 -0.38539473684528258 0.34837828204789067 0 -0.3787015959315434 0.33902802614693439 0 -0.37816355277066899 0.32985684687273281 0 -0.39158393304450312 0.32769252248945308 0 -0.39400561065841477 0.34382680172727831 0 -0.38539473684528258 0.34837828204789067 0 -0.3787015959315434 0.33902802614693439 0 -0.39158393304450312 0.32769252248945308 0 -0.37442838800096029 0.32044424157556423 0 -0.37816355277066899 0.32985684687273281 0 -0.39158393304450312 0.32769252248945308 0 -0.37442838800096029 0.32044424157556423 0 -0.38613629988198012 0.31665983269396758 0 -0.39158393304450312 0.32769252248945308 0 -0.37442838800096029 0.32044424157556423 0 -0.38613629988198012 0.31665983269396758 0 -0.37442838800096029 0.32044424157556423 0 -0.37415321332832258 0.31386652142517069 0 -0.39158393304450312 0.32769252248945308 0 -0.4039094095666334 0.320812311378052 0 -0.40925887999808552 0.33516025262174892 0 -0.38613629988198012 0.31665983269396758 0 -0.39830358576524327 0.31266849694114901 0 -0.39158393304450312 0.32769252248945308 0 -0.39830358576524327 0.31266849694114901 0 -0.39158393304450312 0.32769252248945308 0 -0.4039094095666334 0.320812311378052 0 -0.39830358576524327 0.31266849694114901 0 -0.4039094095666334 0.320812311378052 0 -0.40826549608127172 0.31275764886218971 0 -0.3787015959315434 0.33902802614693439 0 -0.40777024278950652 0.33697950655941222 0 -0.39158393304450312 0.32769252248945308 0 -0.40925887999808552 0.33516025262174892 0 -0.39158393304450312 0.32769252248945308 0 -0.40777024278950652 0.33697950655941222 0 -0.40925887999808552 0.33516025262174892 0 -0.3787015959315434 0.33902802614693439 0 -0.39158393304450312 0.32769252248945308 0 -0.40777024278950652 0.33697950655941222 0 -0.39400561065841477 0.34382680172727831 0 -0.3787015959315434 0.33902802614693439 0 -0.40777024278950652 0.33697950655941222 0 -0.39400561065841477 0.34382680172727831 0 -0.40586906590548888 0.3393029225754271 0 -0.40777024278950652 0.33697950655941222 0 -0.40105078960399698 0.34662517948293931 0 -0.40586906590548888 0.3393029225754271 0 -0.40105078960399698 0.34662517948293931 0 -0.40586906590548888 0.3393029225754271 0 -0.4080564418273247 0.34368885170405422 0 -0.4080564418273247 0.34368885170405422 0 -0.41125860555200922 0.34134685969384471 0 -0.40895905381070002 0.33957121871677393 0 -0.40586906590548888 0.3393029225754271 0 -0.4080564418273247 0.34368885170405422 0 -0.40895905381070002 0.33957121871677393 0 -0.4080564418273247 0.34368885170405422 0 -0.41125860555200922 0.34134685969384471 0 -0.41366919887348358 0.34576378073699821 0 -0.41125860555200922 0.34134685969384471 0 -0.41273643032526569 0.33662953043248711 0 -0.41433336845197538 0.3415594658204692 0 -0.41125860555200922 0.34134685969384471 0 -0.41433336845197538 0.3415594658204692 0 -0.41366919887348358 0.34576378073699821 0 -0.41125860555200922 0.34134685969384471 0 -0.41273643032526569 0.33662953043248711 0 -0.40895905381070002 0.33957121871677393 0 -0.41273643032526569 0.33662953043248711 0 -0.40777024278950652 0.33697950655941222 0 -0.41273643032526569 0.33662953043248711 0 -0.40895905381070002 0.33957121871677393 0 -0.40777024278950652 0.33697950655941222 0 -0.41273643032526569 0.33662953043248711 0 -0.40777024278950652 0.33697950655941222 0 -0.40925887999808552 0.33516025262174892 0 -0.40777024278950652 0.33697950655941222 0 -0.40925887999808552 0.33516025262174892 0 -0.40586906590548888 0.3393029225754271 0 -0.40895905381070002 0.33957121871677393 0 -0.40777024278950652 0.33697950655941222 0 -0.40586906590548888 0.3393029225754271 0 -0.40777024278950652 0.33697950655941222 0 -0.41273643032526569 0.33662953043248711 0 -0.40925887999808552 0.33516025262174892 0 -0.40925887999808552 0.33516025262174892 0 -0.42024067891477529 0.32173946694831868 0 -0.40925887999808552 0.33516025262174892 0 -0.42071708592719742 0.33131558094746122 0 -0.42024067891477529 0.32173946694831868 0 -0.41273643032526569 0.33662953043248711 0 -0.40925887999808552 0.33516025262174892 0 -0.42071708592719742 0.33131558094746122 0 -0.41273643032526569 0.33662953043248711 0 -0.4199209072431685 0.34318781838679219 0 -0.41433336845197538 0.3415594658204692 0 -0.4199209072431685 0.34318781838679219 0 -0.41433336845197538 0.3415594658204692 0 -0.41366919887348358 0.34576378073699821 0 -0.40925887999808552 0.33516025262174892 0 -0.41892768793075841 0.31754462100172592 0 -0.42141481873501418 0.31567829233095179 0 -0.40925887999808552 0.33516025262174892 0 -0.411263050936583 0.31954773430139438 0 -0.41892768793075841 0.31754462100172592 0 -0.40925887999808552 0.33516025262174892 0 -0.42141481873501418 0.31567829233095179 0 -0.40925887999808552 0.33516025262174892 0 -0.42024067891477529 0.32173946694831868 0 -0.42141481873501418 0.31567829233095179 0 -0.411263050936583 0.31954773430139438 0 -0.40826549608127172 0.31275764886218971 0 -0.41647318301620623 0.31168328686166002 0 -0.4039094095666334 0.320812311378052 0 -0.411263050936583 0.31954773430139438 0 -0.40826549608127172 0.31275764886218971 0 -0.4039094095666334 0.320812311378052 0 -0.40925887999808552 0.33516025262174892 0 -0.411263050936583 0.31954773430139438 0 -0.411263050936583 0.31954773430139438 0 -0.41892768793075841 0.31754462100172592 0 -0.41647318301620623 0.31168328686166002 0 -0.41892768793075841 0.31754462100172592 0 -0.42141481873501418 0.31567829233095179 0 -0.41892768793075841 0.31754462100172592 0 -0.42141481873501418 0.31567829233095179 0 -0.41647318301620623 0.31168328686166002 0 -0.42024067891477529 0.32173946694831868 0 -0.43790895006943947 0.32081412042189511 0 -0.43122247783146522 0.30831868127488848 0 -0.42024067891477529 0.32173946694831868 0 -0.42938605365092247 0.3272194948190838 0 -0.43790895006943947 0.32081412042189511 0 -0.42024067891477529 0.32173946694831868 0 -0.42141481873501418 0.31567829233095179 0 -0.43122247783146522 0.30831868127488848 0 -0.42024067891477529 0.32173946694831868 0 -0.43122247783146522 0.30831868127488848 0 -0.42071708592719742 0.33131558094746122 0 -0.42024067891477529 0.32173946694831868 0 -0.42938605365092247 0.3272194948190838 0 -0.42938605365092247 0.3272194948190838 0 -0.43674098495811231 0.33493788649063261 0 -0.43790895006943947 0.32081412042189511 0 -0.43790895006943947 0.32081412042189511 0 -0.4401847358662575 0.3127477530096977 0 -0.43122247783146522 0.30831868127488848 0 -0.41273643032526569 0.33662953043248711 0 -0.43674098495811231 0.33493788649063261 0 -0.42071708592719742 0.33131558094746122 0 -0.42938605365092247 0.3272194948190838 0 -0.43674098495811231 0.33493788649063261 0 -0.41273643032526569 0.33662953043248711 0 -0.4199209072431685 0.34318781838679219 0 -0.43385085243219867 0.34555045147446217 0 -0.41273643032526569 0.33662953043248711 0 -0.42071708592719742 0.33131558094746122 0 -0.43674098495811231 0.33493788649063261 0 -0.41273643032526569 0.33662953043248711 0 -0.43385085243219867 0.34555045147446217 0 -0.41273643032526569 0.33662953043248711 0 -0.43674098495811231 0.33493788649063261 0 -0.43385085243219867 0.34555045147446217 0 -0.43385085243219867 0.34555045147446217 0 -0.4302486007270056 0.35272204188882378 0 -0.42573384958437638 0.34916959158482058 0 -0.43385085243219867 0.34555045147446217 0 -0.43539550265875948 0.35741731211322858 0 -0.44110397924445488 0.35756373905142852 0 -0.43539550265875948 0.35741731211322858 0 -0.4302486007270056 0.35272204188882378 0 -0.42757171946388478 0.35850981688022993 0 -0.43385085243219867 0.34555045147446217 0 -0.43539550265875948 0.35741731211322858 0 -0.4302486007270056 0.35272204188882378 0 -0.4302486007270056 0.35272204188882378 0 -0.42480748600639012 0.35482075793933809 0 -0.42573384958437638 0.34916959158482058 0 -0.4302486007270056 0.35272204188882378 0 -0.42757171946388478 0.35850981688022993 0 -0.42480748600639012 0.35482075793933809 0 -0.42757171946388478 0.35850981688022993 0 -0.42480748600639012 0.35482075793933809 0 -0.42195212413097077 0.36043988011418487 0 -0.4199209072431685 0.34318781838679219 0 -0.43385085243219867 0.34555045147446217 0 -0.42573384958437638 0.34916959158482058 0 -0.42480748600639012 0.35482075793933809 0 -0.42573384958437638 0.34916959158482058 0 -0.41984140151311927 0.3495668882346864 0 -0.4199209072431685 0.34318781838679219 0 -0.42573384958437638 0.34916959158482058 0 -0.41984140151311927 0.3495668882346864 0 -0.4199209072431685 0.34318781838679219 0 -0.41984140151311927 0.3495668882346864 0 -0.41366919887348358 0.34576378073699821 0 -0.41984140151311927 0.3495668882346864 0 -0.41366919887348358 0.34576378073699821 0 -0.41404230344944593 0.35073751764187411 0 -0.42480748600639012 0.35482075793933809 0 -0.41984140151311927 0.3495668882346864 0 -0.41755863725870102 0.35684421707679032 0 -0.42480748600639012 0.35482075793933809 0 -0.41755863725870102 0.35684421707679032 0 -0.42195212413097077 0.36043988011418487 0 -0.41984140151311927 0.3495668882346864 0 -0.41755863725870102 0.35684421707679032 0 -0.41404230344944593 0.35073751764187411 0 -0.41755863725870102 0.35684421707679032 0 -0.41125051028190041 0.35540848222164118 0 -0.41404230344944593 0.35073751764187411 0 -0.41125051028190041 0.35540848222164118 0 -0.40888688292129022 0.34941903462410451 0 -0.41404230344944593 0.35073751764187411 0 -0.41755863725870102 0.35684421707679032 0 -0.41125051028190041 0.35540848222164118 0 -0.41142088061722581 0.36176204086772412 0 -0.40553625032349627 0.36037170931698131 0 -0.41125051028190041 0.35540848222164118 0 -0.41142088061722581 0.36176204086772412 0 -0.40525205349158999 0.35429039595711992 0 -0.40553625032349627 0.36037170931698131 0 -0.41125051028190041 0.35540848222164118 0 -0.40525205349158999 0.35429039595711992 0 -0.41125051028190041 0.35540848222164118 0 -0.40888688292129022 0.34941903462410451 0 -0.4080564418273247 0.34368885170405422 0 -0.40888688292129022 0.34941903462410451 0 -0.41366919887348358 0.34576378073699821 0 -0.40888688292129022 0.34941903462410451 0 -0.41366919887348358 0.34576378073699821 0 -0.41404230344944593 0.35073751764187411 0 -0.4250431626101242 0.37647010748543319 0 -0.40086489287733429 0.37467411733839928 0 -0.42486892241442098 0.36677785020884007 0 -0.40086489287733429 0.37467411733839928 0 -0.42486892241442098 0.36677785020884007 0 -0.40086489287733429 0.37467411733839928 0 -0.41378193274770297 0.36450427419225789 0 -0.42486892241442098 0.36677785020884007 0 -0.40544017780568847 0.3661562974108753 0 -0.40086489287733429 0.37467411733839928 0 -0.41378193274770297 0.36450427419225789 0 -0.40544017780568847 0.3661562974108753 0 -0.41142088061722581 0.36176204086772412 0 -0.41378193274770297 0.36450427419225789 0 -0.40553625032349627 0.36037170931698131 0 -0.40544017780568847 0.3661562974108753 0 -0.41142088061722581 0.36176204086772412 0 -0.41755863725870102 0.35684421707679032 0 -0.41378193274770297 0.36450427419225789 0 -0.42195212413097077 0.36043988011418487 0 -0.41378193274770297 0.36450427419225789 0 -0.42486892241442098 0.36677785020884007 0 -0.42195212413097077 0.36043988011418487 0 -0.41755863725870102 0.35684421707679032 0 -0.41142088061722581 0.36176204086772412 0 -0.41378193274770297 0.36450427419225789 0 -0.4250431626101242 0.37647010748543319 0 -0.44885864134335329 0.37135067543599282 0 -0.4250431626101242 0.37647010748543319 0 -0.42486892241442098 0.36677785020884007 0 -0.44885864134335329 0.37135067543599282 0 -0.42486892241442098 0.36677785020884007 0 -0.448872951951507 0.35888158307927881 0 -0.43539550265875948 0.35741731211322858 0 -0.42486892241442098 0.36677785020884007 0 -0.44110397924445488 0.35756373905142852 0 -0.43539550265875948 0.35741731211322858 0 -0.42757171946388478 0.35850981688022993 0 -0.42486892241442098 0.36677785020884007 0 -0.42757171946388478 0.35850981688022993 0 -0.42486892241442098 0.36677785020884007 0 -0.42195212413097077 0.36043988011418487 0 -0.42486892241442098 0.36677785020884007 0 -0.44885864134335329 0.37135067543599282 0 -0.448872951951507 0.35888158307927881 0 -0.44802713623065987 0.37645115623263098 0 -0.4250431626101242 0.37647010748543319 0 -0.44885864134335329 0.37135067543599282 0 -0.42486892241442098 0.36677785020884007 0 -0.44110397924445488 0.35756373905142852 0 -0.448872951951507 0.35888158307927881 0 -0.44885864134335329 0.37135067543599282 0 -0.448872951951507 0.35888158307927881 0 -0.44885864134335329 0.37135067543599282 0 -0.448872951951507 0.35888158307927881 0 -0.45634368000688869 0.36512471152292858 0 -0.43385085243219867 0.34555045147446217 0 -0.45496527453913199 0.35447137251643651 0 -0.44889299330712729 0.34242966823447613 0 -0.43385085243219867 0.34555045147446217 0 -0.45496527453913199 0.35447137251643651 0 -0.43385085243219867 0.34555045147446217 0 -0.44887533288597797 0.35680703170406669 0 -0.45496527453913199 0.35447137251643651 0 -0.43385085243219867 0.34555045147446217 0 -0.44110397924445488 0.35756373905142852 0 -0.44887533288597797 0.35680703170406669 0 -0.44110397924445488 0.35756373905142852 0 -0.44887533288597797 0.35680703170406669 0 -0.448872951951507 0.35888158307927881 0 -0.44887533288597797 0.35680703170406669 0 -0.448872951951507 0.35888158307927881 0 -0.44887533288597797 0.35680703170406669 0 -0.448872951951507 0.35888158307927881 0 -0.45496527453913199 0.35447137251643651 0 -0.448872951951507 0.35888158307927881 0 -0.45496527453913199 0.35447137251643651 0 -0.47186707529616939 0.3513175305497272 0 -0.448872951951507 0.35888158307927881 0 -0.47186707529616939 0.3513175305497272 0 -0.448872951951507 0.35888158307927881 0 -0.45634368000688869 0.36512471152292858 0 -0.47186707529616939 0.3513175305497272 0 -0.45911772068334677 0.34536620346235469 0 -0.45496527453913199 0.35447137251643651 0 -0.47186707529616939 0.3513175305497272 0 -0.45911772068334677 0.34536620346235469 0 -0.45496527453913199 0.35447137251643651 0 -0.44889299330712729 0.34242966823447613 0 -0.46572599417265398 0.36772482908493609 0 -0.45634368000688869 0.36512471152292858 0 -0.47186707529616939 0.3513175305497272 0 -0.46059005399087027 0.38292215568240928 0 -0.44885864134335329 0.37135067543599282 0 -0.46572599417265398 0.36772482908493609 0 -0.44885864134335329 0.37135067543599282 0 -0.46572599417265398 0.36772482908493609 0 -0.44885864134335329 0.37135067543599282 0 -0.46572599417265398 0.36772482908493609 0 -0.45634368000688869 0.36512471152292858 0 -0.47832653283541199 0.38608194873200979 0 -0.46572599417265398 0.36772482908493609 0 -0.48259334700195489 0.36409898273387958 0 -0.46572599417265398 0.36772482908493609 0 -0.48259334700195489 0.36409898273387958 0 -0.47186707529616939 0.3513175305497272 0 -0.46572599417265398 0.36772482908493609 0 -0.48259334700195489 0.36409898273387958 0 -0.47186707529616939 0.3513175305497272 0 -0.494861198640831 0.34375347802017348 0 -0.47186707529616939 0.3513175305497272 0 -0.48536711719674469 0.35339641184703091 0 -0.494861198640831 0.34375347802017348 0 -0.48259334700195489 0.36409898273387958 0 -0.47186707529616939 0.3513175305497272 0 -0.48536711719674469 0.35339641184703091 0 -0.48259334700195489 0.36409898273387958 0 -0.49214684784802371 0.35441565608434311 0 -0.48536711719674469 0.35339641184703091 0 -0.49214684784802371 0.35441565608434311 0 -0.5 0.36887446842263683 0 -0.5 0.34271985673358363 0 -0.49214684784802371 0.35441565608434311 0 -0.48536711719674469 0.35339641184703091 0 -0.494861198640831 0.34375347802017348 0 -0.49214684784802371 0.35441565608434311 0 -0.494861198640831 0.34375347802017348 0 -0.5 0.34271985673358363 0 -0.48850556386005051 0.3766603246979251 0 -0.48259334700195489 0.36409898273387958 0 -0.5 0.36887446842263683 0 -0.48259334700195489 0.36409898273387958 0 -0.49214684784802371 0.35441565608434311 0 -0.5 0.36887446842263683 0 -0.485708092488497 0.3189911195031831 0 -0.5 0.31656524504453032 0 -0.48475009422380527 0.3315545986069256 0 -0.485708092488497 0.3189911195031831 0 -0.5 0.31656524504453032 0 -0.48583489694974541 0.30845327583860088 0 -0.5 0.31656524504453032 0 -0.5 0.34271985673358363 0 -0.48475009422380527 0.3315545986069256 0 -0.494861198640831 0.34375347802017348 0 -0.5 0.34271985673358363 0 -0.48475009422380527 0.3315545986069256 0 -0.48475009422380527 0.3315545986069256 0 -0.46074553959095882 0.3332462425487791 0 -0.47186707529616939 0.3513175305497272 0 -0.494861198640831 0.34375347802017348 0 -0.48475009422380527 0.3315545986069256 0 -0.47186707529616939 0.3513175305497272 0 -0.48475009422380527 0.3315545986069256 0 -0.46074553959095882 0.3332462425487791 0 -0.48475009422380527 0.3315545986069256 0 -0.47224737878043732 0.31939135852267558 0 -0.46074553959095882 0.3332462425487791 0 -0.485708092488497 0.3189911195031831 0 -0.48475009422380527 0.3315545986069256 0 -0.47224737878043732 0.31939135852267558 0 -0.485708092488497 0.3189911195031831 0 -0.47224737878043732 0.31939135852267558 0 -0.48583489694974541 0.30845327583860088 0 -0.47224737878043732 0.31939135852267558 0 -0.46258830912673421 0.31343425170936878 0 -0.46074553959095882 0.3332462425487791 0 -0.46258830912673421 0.31343425170936878 0 -0.46074553959095882 0.3332462425487791 0 -0.45107709460752138 0.31557533431346357 0 -0.45911772068334677 0.34536620346235469 0 -0.47186707529616939 0.3513175305497272 0 -0.46074553959095882 0.3332462425487791 0 -0.45911772068334677 0.34536620346235469 0 -0.46074553959095882 0.3332462425487791 0 -0.44889299330712729 0.34242966823447613 0 -0.43674098495811231 0.33493788649063261 0 -0.46074553959095882 0.3332462425487791 0 -0.43674098495811231 0.33493788649063261 0 -0.46074553959095882 0.3332462425487791 0 -0.44889299330712729 0.34242966823447613 0 -0.43674098495811231 0.33493788649063261 0 -0.46074553959095882 0.3332462425487791 0 -0.43790895006943947 0.32081412042189511 0 -0.43674098495811231 0.33493788649063261 0 -0.43385085243219867 0.34555045147446217 0 -0.44889299330712729 0.34242966823447613 0 -0.46074553959095882 0.3332462425487791 0 -0.45107709460752138 0.31557533431346357 0 -0.43790895006943947 0.32081412042189511 0 -0.45107709460752138 0.31557533431346357 0 -0.43790895006943947 0.32081412042189511 0 -0.4401847358662575 0.3127477530096977 0 -0.44444415583193408 0.29216055381020578 0 -0.43122247783146522 0.30831868127488848 0 -0.44810052680614793 0.29565349026271098 0 -0.43122247783146522 0.30831868127488848 0 -0.44368336155109173 0.30649675881006838 0 -0.44810052680614793 0.29565349026271098 0 -0.43122247783146522 0.30831868127488848 0 -0.4401847358662575 0.3127477530096977 0 -0.44368336155109173 0.30649675881006838 0 -0.43122247783146522 0.30831868127488848 0 -0.44444415583193408 0.29216055381020578 0 -0.44810052680614793 0.29565349026271098 0 -0.43122247783146522 0.30831868127488848 0 -0.45107709460752138 0.31557533431346357 0 -0.4401847358662575 0.3127477530096977 0 -0.44368336155109173 0.30649675881006838 0 -0.44368336155109173 0.30649675881006838 0 -0.44996115485610377 0.3015940899144034 0 -0.4551770389262465 0.30483297142504889 0 -0.44368336155109173 0.30649675881006838 0 -0.44996115485610377 0.3015940899144034 0 -0.44810052680614793 0.29565349026271098 0 -0.45288369214092922 0.29939313915978533 0 -0.44996115485610377 0.3015940899144034 0 -0.44810052680614793 0.29565349026271098 0 -0.45288369214092922 0.29939313915978533 0 -0.44996115485610377 0.3015940899144034 0 -0.4551770389262465 0.30483297142504889 0 -0.45107709460752138 0.31557533431346357 0 -0.44368336155109173 0.30649675881006838 0 -0.4551770389262465 0.30483297142504889 0 -0.44702735364695217 0.27675533545947301 0 -0.43422108619098299 0.29621681389521232 0 -0.44444415583193408 0.29216055381020578 0 -0.44702735364695217 0.27675533545947301 0 -0.43422108619098299 0.29621681389521232 0 -0.44702735364695217 0.27675533545947301 0 -0.43274811138672559 0.28469846643612018 0 -0.43422108619098299 0.29621681389521232 0 -0.44810052680614793 0.29565349026271098 0 -0.4493542421043164 0.28919027156790111 0 -0.45395006383388498 0.28587005882998617 0 -0.44444415583193408 0.29216055381020578 0 -0.44810052680614793 0.29565349026271098 0 -0.4493542421043164 0.28919027156790111 0 -0.44444415583193408 0.29216055381020578 0 -0.4493542421043164 0.28919027156790111 0 -0.44702735364695217 0.27675533545947301 0 -0.4493542421043164 0.28919027156790111 0 -0.45395006383388498 0.28587005882998617 0 -0.44702735364695217 0.27675533545947301 0 -0.44810052680614793 0.29565349026271098 0 -0.45395006383388498 0.28587005882998617 0 -0.46497857578083068 0.28298829925053381 0 -0.44810052680614793 0.29565349026271098 0 -0.4593999708052337 0.29480301670676529 0 -0.46497857578083068 0.28298829925053381 0 -0.44810052680614793 0.29565349026271098 0 -0.46497857578083068 0.28298829925053381 0 -0.45288369214092922 0.29939313915978533 0 -0.44810052680614793 0.29565349026271098 0 -0.4593999708052337 0.29480301670676529 0 -0.4593999708052337 0.29480301670676529 0 -0.46827174088950307 0.29409138505043392 0 -0.46497857578083068 0.28298829925053381 0 -0.46258830912673421 0.31343425170936878 0 -0.45107709460752138 0.31557533431346357 0 -0.4551770389262465 0.30483297142504889 0 -0.45288369214092922 0.29939313915978533 0 -0.4593999708052337 0.29480301670676529 0 -0.4551770389262465 0.30483297142504889 0 -0.4593999708052337 0.29480301670676529 0 -0.4551770389262465 0.30483297142504889 0 -0.46625021185001803 0.30380681263807602 0 -0.4593999708052337 0.29480301670676529 0 -0.46827174088950307 0.29409138505043392 0 -0.46625021185001803 0.30380681263807602 0 -0.47224737878043732 0.31939135852267558 0 -0.46258830912673421 0.31343425170936878 0 -0.46625021185001803 0.30380681263807602 0 -0.46258830912673421 0.31343425170936878 0 -0.4551770389262465 0.30483297142504889 0 -0.46625021185001803 0.30380681263807602 0 -0.47551717359816043 0.30301602212345602 0 -0.4769183937012712 0.29196404103452073 0 -0.48583489694974541 0.30845327583860088 0 -0.47224737878043732 0.31939135852267558 0 -0.46625021185001803 0.30380681263807602 0 -0.47551717359816043 0.30301602212345602 0 -0.47224737878043732 0.31939135852267558 0 -0.47551717359816043 0.30301602212345602 0 -0.48583489694974541 0.30845327583860088 0 -0.46827174088950307 0.29409138505043392 0 -0.46625021185001803 0.30380681263807602 0 -0.47551717359816043 0.30301602212345602 0 -0.46827174088950307 0.29409138505043392 0 -0.46497857578083068 0.28298829925053381 0 -0.4769183937012712 0.29196404103452073 0 -0.4769183937012712 0.29196404103452073 0 -0.48757792524538679 0.2814999319082685 0 -0.48583489694974541 0.30845327583860088 0 -0.46827174088950307 0.29409138505043392 0 -0.47551717359816043 0.30301602212345602 0 -0.4769183937012712 0.29196404103452073 0 -0.46497857578083068 0.28298829925053381 0 -0.47783287987075052 0.28169384510791978 0 -0.4769183937012712 0.29196404103452073 0 -0.47783287987075052 0.28169384510791978 0 -0.4769183937012712 0.29196404103452073 0 -0.48757792524538679 0.2814999319082685 0 -0.5 0.29041063335547701 0 -0.48757792524538679 0.2814999319082685 0 -0.48583489694974541 0.30845327583860088 0 -0.48757792524538679 0.2814999319082685 0 -0.48583489694974541 0.30845327583860088 0 -0.5 0.31656524504453032 0 -0.5 0.29041063335547701 0 -0.48583489694974541 0.30845327583860088 0 -0.5 0.23810140997737081 0 -0.5 0.26425602166642381 0 -0.48932095354102823 0.25454658797793611 0 -0.48757792524538679 0.2814999319082685 0 -0.48932095354102823 0.25454658797793611 0 -0.48366697684514259 0.26703881783025729 0 -0.48757792524538679 0.2814999319082685 0 -0.5 0.26425602166642381 0 -0.48932095354102823 0.25454658797793611 0 -0.48757792524538679 0.2814999319082685 0 -0.48932095354102823 0.25454658797793611 0 -0.5 0.29041063335547701 0 -0.48757792524538679 0.2814999319082685 0 -0.5 0.26425602166642381 0 -0.46497857578083068 0.28298829925053381 0 -0.48185662475551339 0.27032310823835648 0 -0.46497857578083068 0.28298829925053381 0 -0.47783287987075052 0.28169384510791978 0 -0.48185662475551339 0.27032310823835648 0 -0.48366697684514259 0.26703881783025729 0 -0.45893043448094739 0.2699305570534084 0 -0.48757792524538679 0.2814999319082685 0 -0.48366697684514259 0.26703881783025729 0 -0.48185662475551339 0.27032310823835648 0 -0.48366697684514259 0.26703881783025729 0 -0.48185662475551339 0.27032310823835648 0 -0.47235815296560851 0.27257019559313889 0 -0.46497857578083068 0.28298829925053381 0 -0.48185662475551339 0.27032310823835648 0 -0.47235815296560851 0.27257019559313889 0 -0.48366697684514259 0.26703881783025729 0 -0.46959483388743167 0.25994315597580908 0 -0.45893043448094739 0.2699305570534084 0 -0.48366697684514259 0.26703881783025729 0 -0.47235815296560851 0.27257019559313889 0 -0.45893043448094739 0.2699305570534084 0 -0.47783287987075052 0.28169384510791978 0 -0.48757792524538679 0.2814999319082685 0 -0.48185662475551339 0.27032310823835648 0 -0.48932095354102823 0.25454658797793611 0 -0.48366697684514259 0.26703881783025729 0 -0.47792533453874358 0.25606878273296479 0 -0.48366697684514259 0.26703881783025729 0 -0.46959483388743167 0.25994315597580908 0 -0.47792533453874358 0.25606878273296479 0 -0.47864167104372218 0.246590621409366 0 -0.48932095354102823 0.25454658797793611 0 -0.47792533453874358 0.25606878273296479 0 -0.47864167104372218 0.246590621409366 0 -0.47792533453874358 0.25606878273296479 0 -0.46938038244821267 0.25133041049185839 0 -0.46959483388743167 0.25994315597580908 0 -0.47792533453874358 0.25606878273296479 0 -0.46938038244821267 0.25133041049185839 0 -0.46959483388743167 0.25994315597580908 0 -0.46938038244821267 0.25133041049185839 0 -0.45807104112411212 0.25534721177055669 0 -0.46959483388743167 0.25994315597580908 0 -0.45807104112411212 0.25534721177055669 0 -0.45893043448094739 0.2699305570534084 0 -0.45807104112411212 0.25534721177055669 0 -0.45893043448094739 0.2699305570534084 0 -0.44442574262614493 0.25832327296872359 0 -0.45395006383388498 0.28587005882998617 0 -0.46497857578083068 0.28298829925053381 0 -0.45893043448094739 0.2699305570534084 0 -0.45395006383388498 0.28587005882998617 0 -0.45893043448094739 0.2699305570534084 0 -0.44702735364695217 0.27675533545947301 0 -0.46497857578083068 0.28298829925053381 0 -0.47235815296560851 0.27257019559313889 0 -0.45893043448094739 0.2699305570534084 0 -0.45893043448094739 0.2699305570534084 0 -0.43419389211675241 0.27282229627655952 0 -0.45893043448094739 0.2699305570534084 0 -0.44442574262614493 0.25832327296872359 0 -0.43419389211675241 0.27282229627655952 0 -0.45893043448094739 0.2699305570534084 0 -0.44702735364695217 0.27675533545947301 0 -0.43419389211675241 0.27282229627655952 0 -0.44702735364695217 0.27675533545947301 0 -0.43419389211675241 0.27282229627655952 0 -0.43274811138672559 0.28469846643612018 0 -0.45046339488490522 0.249057113070103 0 -0.45807104112411212 0.25534721177055669 0 -0.44442574262614493 0.25832327296872359 0 -0.44062222049055039 0.24203477259657111 0 -0.44442574262614493 0.25832327296872359 0 -0.42503978512155383 0.25887440404814072 0 -0.44062222049055039 0.24203477259657111 0 -0.42503978512155383 0.25887440404814072 0 -0.44442574262614493 0.25832327296872359 0 -0.42503978512155383 0.25887440404814072 0 -0.43419389211675241 0.27282229627655952 0 -0.42503978512155383 0.25887440404814072 0 -0.40945734975255721 0.27571403549971041 0 -0.40585136056822319 0.25674789398696107 0 -0.4198454647722451 0.23985190764030939 0 -0.42503978512155383 0.25887440404814072 0 -0.40585136056822319 0.25674789398696107 0 -0.40945734975255721 0.27571403549971041 0 -0.43419389211675241 0.27282229627655952 0 -0.42503978512155383 0.25887440404814072 0 -0.40945734975255721 0.27571403549971041 0 -0.42503978512155383 0.25887440404814072 0 -0.40945734975255721 0.27571403549971041 0 -0.43419389211675241 0.27282229627655952 0 -0.40945734975255721 0.27571403549971041 0 -0.43419389211675241 0.27282229627655952 0 -0.4229835889384117 0.28415291652507912 0 -0.43419389211675241 0.27282229627655952 0 -0.43274811138672559 0.28469846643612018 0 -0.4229835889384117 0.28415291652507912 0 -0.43274811138672559 0.28469846643612018 0 -0.43422108619098299 0.29621681389521232 0 -0.42519236151645012 0.29288975242762622 0 -0.43274811138672559 0.28469846643612018 0 -0.42519236151645012 0.29288975242762622 0 -0.4229835889384117 0.28415291652507912 0 -0.42141481873501418 0.31567829233095179 0 -0.43422108619098299 0.29621681389521232 0 -0.42141481873501418 0.31567829233095179 0 -0.43422108619098299 0.29621681389521232 0 -0.42237726971740519 0.30236741203524931 0 -0.44444415583193408 0.29216055381020578 0 -0.43422108619098299 0.29621681389521232 0 -0.43122247783146522 0.30831868127488848 0 -0.42141481873501418 0.31567829233095179 0 -0.43422108619098299 0.29621681389521232 0 -0.43122247783146522 0.30831868127488848 0 -0.43422108619098299 0.29621681389521232 0 -0.42519236151645012 0.29288975242762622 0 -0.42237726971740519 0.30236741203524931 0 -0.42141481873501418 0.31567829233095179 0 -0.43122247783146522 0.30831868127488848 0 -0.42237726971740519 0.30236741203524931 0 -0.41647318301620623 0.31168328686166002 0 -0.40812109447663159 0.30329838776079099 0 -0.42141481873501418 0.31567829233095179 0 -0.42237726971740519 0.30236741203524931 0 -0.41647318301620623 0.31168328686166002 0 -0.42237726971740519 0.30236741203524931 0 -0.40812109447663159 0.30329838776079099 0 -0.41256551749876041 0.29129965580367562 0 -0.40826549608127172 0.31275764886218971 0 -0.41647318301620623 0.31168328686166002 0 -0.40812109447663159 0.30329838776079099 0 -0.40945734975255721 0.27571403549971041 0 -0.4229835889384117 0.28415291652507912 0 -0.41256551749876041 0.29129965580367562 0 -0.42519236151645012 0.29288975242762622 0 -0.4229835889384117 0.28415291652507912 0 -0.41256551749876041 0.29129965580367562 0 -0.42519236151645012 0.29288975242762622 0 -0.42237726971740519 0.30236741203524931 0 -0.41256551749876041 0.29129965580367562 0 -0.40945734975255721 0.27571403549971041 0 -0.39180528154043992 0.29479027846244049 0 -0.39350738277932218 0.27757861076756318 0 -0.40945734975255721 0.27571403549971041 0 -0.39180528154043992 0.29479027846244049 0 -0.40812109447663159 0.30329838776079099 0 -0.41256551749876041 0.29129965580367562 0 -0.39180528154043992 0.29479027846244049 0 -0.40945734975255721 0.27571403549971041 0 -0.41256551749876041 0.29129965580367562 0 -0.39180528154043992 0.29479027846244049 0 -0.38613629988198012 0.31665983269396758 0 -0.39830358576524327 0.31266849694114901 0 -0.39180528154043992 0.29479027846244049 0 -0.39830358576524327 0.31266849694114901 0 -0.40812109447663159 0.30329838776079099 0 -0.39180528154043992 0.29479027846244049 0 -0.39830358576524327 0.31266849694114901 0 -0.40826549608127172 0.31275764886218971 0 -0.40812109447663159 0.30329838776079099 0 -0.39180528154043992 0.29479027846244049 0 -0.37819889022761238 0.29924868842846319 0 -0.37415321332832258 0.31386652142517069 0 -0.38613629988198012 0.31665983269396758 0 -0.39180528154043992 0.29479027846244049 0 -0.37415321332832258 0.31386652142517069 0 -0.39180528154043992 0.29479027846244049 0 -0.37415321332832258 0.31386652142517069 0 -0.39180528154043992 0.29479027846244049 0 -0.37819889022761238 0.29924868842846319 0 -0.37870614451813112 0.28175948497688769 0 -0.39180528154043992 0.29479027846244049 0 -0.37870614451813112 0.28175948497688769 0 -0.39350738277932218 0.27757861076756318 0 -0.37870614451813112 0.28175948497688769 0 -0.37647038179830861 0.26645711442365799 0 -0.39350738277932218 0.27757861076756318 0 -0.37647038179830861 0.26645711442365799 0 -0.39336972403141229 0.26369738761855421 0 -0.39350738277932218 0.27757861076756318 0 -0.38790582398472923 0.24962922847932231 0 -0.37647038179830861 0.26645711442365799 0 -0.39336972403141229 0.26369738761855421 0 -0.38790582398472923 0.24962922847932231 0 -0.37647038179830861 0.26645711442365799 0 -0.36318679658289171 0.25196182354824148 0 -0.40945734975255721 0.27571403549971041 0 -0.40585136056822319 0.25674789398696107 0 -0.39336972403141229 0.26369738761855421 0 -0.38790582398472923 0.24962922847932231 0 -0.40585136056822319 0.25674789398696107 0 -0.39336972403141229 0.26369738761855421 0 -0.40945734975255721 0.27571403549971041 0 -0.39336972403141229 0.26369738761855421 0 -0.39350738277932218 0.27757861076756318 0 -0.40945734975255721 0.27571403549971041 0 -0.39350738277932218 0.27757861076756318 0 -0.35583614606747688 0.27501819518035592 0 -0.36318679658289171 0.25196182354824148 0 -0.33952374355129727 0.25899057541505788 0 -0.37647038179830861 0.26645711442365799 0 -0.35583614606747688 0.27501819518035592 0 -0.36318679658289171 0.25196182354824148 0 -0.37870614451813112 0.28175948497688769 0 -0.37647038179830861 0.26645711442365799 0 -0.35583614606747688 0.27501819518035592 0 -0.37819889022761238 0.29924868842846319 0 -0.37870614451813112 0.28175948497688769 0 -0.36775571630023218 0.2927315942663431 0 -0.37870614451813112 0.28175948497688769 0 -0.35583614606747688 0.27501819518035592 0 -0.36775571630023218 0.2927315942663431 0 -0.37819889022761238 0.29924868842846319 0 -0.36899777432263853 0.30469822459034263 0 -0.37415321332832258 0.31386652142517069 0 -0.36899777432263853 0.30469822459034263 0 -0.36272901898995358 0.31473918551029578 0 -0.37415321332832258 0.31386652142517069 0 -0.37819889022761238 0.29924868842846319 0 -0.36775571630023218 0.2927315942663431 0 -0.36899777432263853 0.30469822459034263 0 -0.36775571630023218 0.2927315942663431 0 -0.36899777432263853 0.30469822459034263 0 -0.35931620367806588 0.30475084950198522 0 -0.36775571630023218 0.2927315942663431 0 -0.35931620367806588 0.30475084950198522 0 -0.35261706249820868 0.29381533636168528 0 -0.36899777432263853 0.30469822459034263 0 -0.35931620367806588 0.30475084950198522 0 -0.36272901898995358 0.31473918551029578 0 -0.35931620367806588 0.30475084950198522 0 -0.35261706249820868 0.29381533636168528 0 -0.34344143829887858 0.30736403781452232 0 -0.35931620367806588 0.30475084950198522 0 -0.34344143829887858 0.30736403781452232 0 -0.35467675850453528 0.31743756764607989 0 -0.35931620367806588 0.30475084950198522 0 -0.35467675850453528 0.31743756764607989 0 -0.36272901898995358 0.31473918551029578 0 -0.35583614606747688 0.27501819518035592 0 -0.36775571630023218 0.2927315942663431 0 -0.35261706249820868 0.29381533636168528 0 -0.35583614606747688 0.27501819518035592 0 -0.35261706249820868 0.29381533636168528 0 -0.33673580814638959 0.28921200504521999 0 -0.35261706249820868 0.29381533636168528 0 -0.33673580814638959 0.28921200504521999 0 -0.34344143829887858 0.30736403781452232 0 -0.33673580814638959 0.28921200504521999 0 -0.32075162894010661 0.28280614760534989 0 -0.33379142081270979 0.2734424933293601 0 -0.34344143829887858 0.30736403781452232 0 -0.31699951866320542 0.30755322334125379 0 -0.34344143829887858 0.30736403781452232 0 -0.31699951866320542 0.30755322334125379 0 -0.33459812393413729 0.32207732583041709 0 -0.33673580814638959 0.28921200504521999 0 -0.34344143829887858 0.30736403781452232 0 -0.31699951866320542 0.30755322334125379 0 -0.33673580814638959 0.28921200504521999 0 -0.31699951866320542 0.30755322334125379 0 -0.32075162894010661 0.28280614760534989 0 -0.31699951866320542 0.30755322334125379 0 -0.32075162894010661 0.28280614760534989 0 -0.30493521127791462 0.28695781074044469 0 -0.32075162894010661 0.28280614760534989 0 -0.31931282352829687 0.26617321261290411 0 -0.33379142081270979 0.2734424933293601 0 -0.32075162894010661 0.28280614760534989 0 -0.31931282352829687 0.26617321261290411 0 -0.30493521127791462 0.28695781074044469 0 -0.35583614606747688 0.27501819518035592 0 -0.33673580814638959 0.28921200504521999 0 -0.33379142081270979 0.2734424933293601 0 -0.35583614606747688 0.27501819518035592 0 -0.33379142081270979 0.2734424933293601 0 -0.33952374355129727 0.25899057541505788 0 -0.31931282352829687 0.26617321261290411 0 -0.33379142081270979 0.2734424933293601 0 -0.33952374355129727 0.25899057541505788 0 -0.32200613725511351 0.24850726385495631 0 -0.31931282352829687 0.26617321261290411 0 -0.33952374355129727 0.25899057541505788 0 -0.32200613725511351 0.24850726385495631 0 -0.31931282352829687 0.26617321261290411 0 -0.30640548876467488 0.25787073169030861 0 -0.31931282352829687 0.26617321261290411 0 -0.30640548876467488 0.25787073169030861 0 -0.3010630097917536 0.27273037638764702 0 -0.31931282352829687 0.26617321261290411 0 -0.3010630097917536 0.27273037638764702 0 -0.30493521127791462 0.28695781074044469 0 -0.31931282352829687 0.26617321261290411 0 -0.30493521127791462 0.28695781074044469 0 -0.3010630097917536 0.27273037638764702 0 -0.29309283898050847 0.28048055459605348 0 -0.30493521127791462 0.28695781074044469 0 -0.3010630097917536 0.27273037638764702 0 -0.29309283898050847 0.28048055459605348 0 -0.28156868640737281 0.27216957229852412 0 -0.30640548876467488 0.25787073169030861 0 -0.3010630097917536 0.27273037638764702 0 -0.28156868640737281 0.27216957229852412 0 -0.30640548876467488 0.25787073169030861 0 -0.28156868640737281 0.27216957229852412 0 -0.28729818335365731 0.26780124082781631 0 -0.28156868640737281 0.27216957229852412 0 -0.28729818335365731 0.26780124082781631 0 -0.27880962639343299 0.26078065685839158 0 -0.29309283898050847 0.28048055459605348 0 -0.28156868640737281 0.27216957229852412 0 -0.28401529333418091 0.28255904946725641 0 -0.30640548876467488 0.25787073169030861 0 -0.28156868640737281 0.27216957229852412 0 -0.29125564533142001 0.24067530578368901 0 -0.30640548876467488 0.25787073169030861 0 -0.28729818335365731 0.26780124082781631 0 -0.29125564533142001 0.24067530578368901 0 -0.28729818335365731 0.26780124082781631 0 -0.27880962639343299 0.26078065685839158 0 -0.29125564533142001 0.24067530578368901 0 -0.28729818335365731 0.26780124082781631 0 -0.29125564533142001 0.24067530578368901 0 -0.26892213733164849 0.25365425058065472 0 -0.27880962639343299 0.26078065685839158 0 -0.26892213733164849 0.25365425058065472 0 -0.27880962639343299 0.26078065685839158 0 -0.26500347954306669 0.26960291480127369 0 -0.28156868640737281 0.27216957229852412 0 -0.25673188405007052 0.28646841290673969 0 -0.28156868640737281 0.27216957229852412 0 -0.26500347954306669 0.26960291480127369 0 -0.25673188405007052 0.28646841290673969 0 -0.28156868640737281 0.27216957229852412 0 -0.27880962639343299 0.26078065685839158 0 -0.26500347954306669 0.26960291480127369 0 -0.28156868640737281 0.27216957229852412 0 -0.27479408276187339 0.28687287199942368 0 -0.28401529333418091 0.28255904946725641 0 -0.26500347954306669 0.26960291480127369 0 -0.25265925142613249 0.26128234508680298 0 -0.25673188405007052 0.28646841290673969 0 -0.26892213733164849 0.25365425058065472 0 -0.26500347954306669 0.26960291480127369 0 -0.25265925142613249 0.26128234508680298 0 -0.25621817608628389 0.2460965770837312 0 -0.26892213733164849 0.25365425058065472 0 -0.25265925142613249 0.26128234508680298 0 -0.25505401324638421 0.30366623925853881 0 -0.26661761067819428 0.2958317928062858 0 -0.26721257633701828 0.30790943684761429 0 -0.25505401324638421 0.30366623925853881 0 -0.26721257633701828 0.30790943684761429 0 -0.25901197930261888 0.31383205914145501 0 -0.26721257633701828 0.30790943684761429 0 -0.25901197930261888 0.31383205914145501 0 -0.26528599585519008 0.31471464054907522 0 -0.25505401324638421 0.30366623925853881 0 -0.25901197930261888 0.31383205914145501 0 -0.24885494741763489 0.31718848033418301 0 -0.25505401324638421 0.30366623925853881 0 -0.25673188405007052 0.28646841290673969 0 -0.26661761067819428 0.2958317928062858 0 -0.26661761067819428 0.2958317928062858 0 -0.27573637841232751 0.29432500902679382 0 -0.27326763327687947 0.30016750757533939 0 -0.28156868640737281 0.27216957229852412 0 -0.25673188405007052 0.28646841290673969 0 -0.27479408276187339 0.28687287199942368 0 -0.26661761067819428 0.2958317928062858 0 -0.27479408276187339 0.28687287199942368 0 -0.27573637841232751 0.29432500902679382 0 -0.25673188405007052 0.28646841290673969 0 -0.26661761067819428 0.2958317928062858 0 -0.27479408276187339 0.28687287199942368 0 -0.27479408276187339 0.28687287199942368 0 -0.28401529333418091 0.28255904946725641 0 -0.28313816676434478 0.29069510378855717 0 -0.27479408276187339 0.28687287199942368 0 -0.27573637841232751 0.29432500902679382 0 -0.28313816676434478 0.29069510378855717 0 -0.27573637841232751 0.29432500902679382 0 -0.28086439858034518 0.29805776896436298 0 -0.28313816676434478 0.29069510378855717 0 -0.28086439858034518 0.29805776896436298 0 -0.27753065875984329 0.30327410754998058 0 -0.28274061889410179 0.30278083970340541 0 -0.27753065875984329 0.30327410754998058 0 -0.27514776209796898 0.30785266251660498 0 -0.28274061889410179 0.30278083970340541 0 -0.27753065875984329 0.30327410754998058 0 -0.27326763327687947 0.30016750757533939 0 -0.27348155140824082 0.30658246875079598 0 -0.28086439858034518 0.29805776896436298 0 -0.27753065875984329 0.30327410754998058 0 -0.27326763327687947 0.30016750757533939 0 -0.27573637841232751 0.29432500902679382 0 -0.28086439858034518 0.29805776896436298 0 -0.27326763327687947 0.30016750757533939 0 -0.26661761067819428 0.2958317928062858 0 -0.27326763327687947 0.30016750757533939 0 -0.26721257633701828 0.30790943684761429 0 -0.26721257633701828 0.30790943684761429 0 -0.27514776209796898 0.30785266251660498 0 -0.27123720609067609 0.3158529302113221 0 -0.26721257633701828 0.30790943684761429 0 -0.27348155140824082 0.30658246875079598 0 -0.27514776209796898 0.30785266251660498 0 -0.26721257633701828 0.30790943684761429 0 -0.27514776209796898 0.30785266251660498 0 -0.27326763327687947 0.30016750757533939 0 -0.26721257633701828 0.30790943684761429 0 -0.27348155140824082 0.30658246875079598 0 -0.27514776209796898 0.30785266251660498 0 -0.2851872012256097 0.31550597615259851 0 -0.27753065875984329 0.30327410754998058 0 -0.27348155140824082 0.30658246875079598 0 -0.27514776209796898 0.30785266251660498 0 -0.27348155140824082 0.30658246875079598 0 -0.27514776209796898 0.30785266251660498 0 -0.27514776209796898 0.30785266251660498 0 -0.2905575990275322 0.30774240886798532 0 -0.27514776209796898 0.30785266251660498 0 -0.2905575990275322 0.30774240886798532 0 -0.2851872012256097 0.31550597615259851 0 -0.2896026760048197 0.2969772506180926 0 -0.2905575990275322 0.30774240886798532 0 -0.30493521127791462 0.28695781074044469 0 -0.27514776209796898 0.30785266251660498 0 -0.28274061889410179 0.30278083970340541 0 -0.2905575990275322 0.30774240886798532 0 -0.2905575990275322 0.30774240886798532 0 -0.2851872012256097 0.31550597615259851 0 -0.28274061889410179 0.30278083970340541 0 -0.2896026760048197 0.2969772506180926 0 -0.2905575990275322 0.30774240886798532 0 -0.28086439858034518 0.29805776896436298 0 -0.28274061889410179 0.30278083970340541 0 -0.2896026760048197 0.2969772506180926 0 -0.28401529333418091 0.28255904946725641 0 -0.28313816676434478 0.29069510378855717 0 -0.29095683727235372 0.28753395384208091 0 -0.28086439858034518 0.29805776896436298 0 -0.2896026760048197 0.2969772506180926 0 -0.28313816676434478 0.29069510378855717 0 -0.2896026760048197 0.2969772506180926 0 -0.28313816676434478 0.29069510378855717 0 -0.29095683727235372 0.28753395384208091 0 -0.2896026760048197 0.2969772506180926 0 -0.29095683727235372 0.28753395384208091 0 -0.30493521127791462 0.28695781074044469 0 -0.29309283898050847 0.28048055459605348 0 -0.29095683727235372 0.28753395384208091 0 -0.30493521127791462 0.28695781074044469 0 -0.29309283898050847 0.28048055459605348 0 -0.28401529333418091 0.28255904946725641 0 -0.29095683727235372 0.28753395384208091 0 -0.31699951866320542 0.30755322334125379 0 -0.2905575990275322 0.30774240886798532 0 -0.30563014257680821 0.31779627416788381 0 -0.31699951866320542 0.30755322334125379 0 -0.2905575990275322 0.30774240886798532 0 -0.2905575990275322 0.30774240886798532 0 -0.30493521127791462 0.28695781074044469 0 -0.31699951866320542 0.30755322334125379 0 -0.2905575990275322 0.30774240886798532 0 -0.30493521127791462 0.28695781074044469 0 -0.30538608464820588 0.33090408634228141 0 -0.28942706780696309 0.31873813168532672 0 -0.30563014257680821 0.31779627416788381 0 -0.30538608464820588 0.33090408634228141 0 -0.31811651498789978 0.32488887006413791 0 -0.30563014257680821 0.31779627416788381 0 -0.30538608464820588 0.33090408634228141 0 -0.2937791937433501 0.31637108240395312 0 -0.30538608464820588 0.33090408634228141 0 -0.3017933608705089 0.344447887165377 0 -0.32134510148944728 0.34307004099923799 0 -0.30538608464820588 0.33090408634228141 0 -0.29093013722955491 0.33661105704622479 0 -0.3017933608705089 0.344447887165377 0 -0.30538608464820588 0.33090408634228141 0 -0.29093013722955491 0.33661105704622479 0 -0.2885751077852815 0.32830696870384862 0 -0.29093013722955491 0.33661105704622479 0 -0.28224162025157051 0.34582573333151501 0 -0.3017933608705089 0.344447887165377 0 -0.2885751077852815 0.32830696870384862 0 -0.28146834572906437 0.33465123959114113 0 -0.2790455690922089 0.3243844570517187 0 -0.29093013722955491 0.33661105704622479 0 -0.2885751077852815 0.32830696870384862 0 -0.28146834572906437 0.33465123959114113 0 -0.29093013722955491 0.33661105704622479 0 -0.28146834572906437 0.33465123959114113 0 -0.28224162025157051 0.34582573333151501 0 -0.30538608464820588 0.33090408634228141 0 -0.2885751077852815 0.32830696870384862 0 -0.28942706780696309 0.31873813168532672 0 -0.30538608464820588 0.33090408634228141 0 -0.28942706780696309 0.31873813168532672 0 -0.2937791937433501 0.31637108240395312 0 -0.28942706780696309 0.31873813168532672 0 -0.2937791937433501 0.31637108240395312 0 -0.2851872012256097 0.31550597615259851 0 -0.2905575990275322 0.30774240886798532 0 -0.30563014257680821 0.31779627416788381 0 -0.2937791937433501 0.31637108240395312 0 -0.2905575990275322 0.30774240886798532 0 -0.2937791937433501 0.31637108240395312 0 -0.2851872012256097 0.31550597615259851 0 -0.28942706780696309 0.31873813168532672 0 -0.2937791937433501 0.31637108240395312 0 -0.2885751077852815 0.32830696870384862 0 -0.28942706780696309 0.31873813168532672 0 -0.2790455690922089 0.3243844570517187 0 -0.28942706780696309 0.31873813168532672 0 -0.2790455690922089 0.3243844570517187 0 -0.2851872012256097 0.31550597615259851 0 -0.2790455690922089 0.3243844570517187 0 -0.28942706780696309 0.31873813168532672 0 -0.2851872012256097 0.31550597615259851 0 -0.2790455690922089 0.3243844570517187 0 -0.28942706780696309 0.31873813168532672 0 -0.2851872012256097 0.31550597615259851 0 -0.27514776209796898 0.30785266251660498 0 -0.2851872012256097 0.31550597615259851 0 -0.27699557949655113 0.31645322234696882 0 -0.2851872012256097 0.31550597615259851 0 -0.27699557949655113 0.31645322234696882 0 -0.2790455690922089 0.3243844570517187 0 -0.27514776209796898 0.30785266251660498 0 -0.27699557949655113 0.31645322234696882 0 -0.27123720609067609 0.3158529302113221 0 -0.27001263578126711 0.32263717043347712 0 -0.2790455690922089 0.3243844570517187 0 -0.25910260253645218 0.33523110656146687 0 -0.26721257633701828 0.30790943684761429 0 -0.27123720609067609 0.3158529302113221 0 -0.26528599585519008 0.31471464054907522 0 -0.27699557949655113 0.31645322234696882 0 -0.27123720609067609 0.3158529302113221 0 -0.27001263578126711 0.32263717043347712 0 -0.27123720609067609 0.3158529302113221 0 -0.26528599585519008 0.31471464054907522 0 -0.26368222169044719 0.32126413599590953 0 -0.27123720609067609 0.3158529302113221 0 -0.27001263578126711 0.32263717043347712 0 -0.26368222169044719 0.32126413599590953 0 -0.27699557949655113 0.31645322234696882 0 -0.27001263578126711 0.32263717043347712 0 -0.2790455690922089 0.3243844570517187 0 -0.2790455690922089 0.3243844570517187 0 -0.25910260253645218 0.33523110656146687 0 -0.2790455690922089 0.3243844570517187 0 -0.26824012707650141 0.34000504592112352 0 -0.28146834572906437 0.33465123959114113 0 -0.2790455690922089 0.3243844570517187 0 -0.26824012707650141 0.34000504592112352 0 -0.2790455690922089 0.3243844570517187 0 -0.26824012707650141 0.34000504592112352 0 -0.25910260253645218 0.33523110656146687 0 -0.28146834572906437 0.33465123959114113 0 -0.26824012707650141 0.34000504592112352 0 -0.28224162025157051 0.34582573333151501 0 -0.25910260253645218 0.33523110656146687 0 -0.25407523553642281 0.3497448278934856 0 -0.23915963598069589 0.34607775607121571 0 -0.25910260253645218 0.33523110656146687 0 -0.25407523553642281 0.3497448278934856 0 -0.26309588156361569 0.34576168367824162 0 -0.26824012707650141 0.34000504592112352 0 -0.25910260253645218 0.33523110656146687 0 -0.26309588156361569 0.34576168367824162 0 -0.25910260253645218 0.33523110656146687 0 -0.25451497659773847 0.32559442806853028 0 -0.24843663428782739 0.33758714710907461 0 -0.25451497659773847 0.32559442806853028 0 -0.25901197930261888 0.31383205914145501 0 -0.24885494741763489 0.31718848033418301 0 -0.25451497659773847 0.32559442806853028 0 -0.25901197930261888 0.31383205914145501 0 -0.26368222169044719 0.32126413599590953 0 -0.25901197930261888 0.31383205914145501 0 -0.26528599585519008 0.31471464054907522 0 -0.26368222169044719 0.32126413599590953 0 -0.27001263578126711 0.32263717043347712 0 -0.25910260253645218 0.33523110656146687 0 -0.26368222169044719 0.32126413599590953 0 -0.25910260253645218 0.33523110656146687 0 -0.25451497659773847 0.32559442806853028 0 -0.26368222169044719 0.32126413599590953 0 -0.26470209097228098 0.37140351159401941 0 -0.25562758441007077 0.36194187249828802 0 -0.266880351992417 0.3582272519812631 0 -0.26470209097228098 0.37140351159401941 0 -0.25213085833087667 0.37355178257669552 0 -0.25562758441007077 0.36194187249828802 0 -0.25213085833087667 0.37355178257669552 0 -0.25562758441007077 0.36194187249828802 0 -0.24329038266145239 0.36134909741814653 0 -0.25562758441007077 0.36194187249828802 0 -0.25407523553642281 0.3497448278934856 0 -0.24329038266145239 0.36134909741814653 0 -0.25407523553642281 0.3497448278934856 0 -0.26309588156361569 0.34576168367824162 0 -0.266880351992417 0.3582272519812631 0 -0.25562758441007077 0.36194187249828802 0 -0.25407523553642281 0.3497448278934856 0 -0.266880351992417 0.3582272519812631 0 -0.266880351992417 0.3582272519812631 0 -0.27640009279511962 0.35155878343443242 0 -0.28837447244510311 0.36628710188532532 0 -0.26309588156361569 0.34576168367824162 0 -0.266880351992417 0.3582272519812631 0 -0.27640009279511962 0.35155878343443242 0 -0.26824012707650141 0.34000504592112352 0 -0.26309588156361569 0.34576168367824162 0 -0.27640009279511962 0.35155878343443242 0 -0.26824012707650141 0.34000504592112352 0 -0.27640009279511962 0.35155878343443242 0 -0.28224162025157051 0.34582573333151501 0 -0.266880351992417 0.3582272519812631 0 -0.28837447244510311 0.36628710188532532 0 -0.266880351992417 0.3582272519812631 0 -0.28837447244510311 0.36628710188532532 0 -0.27747916353329311 0.37529003384729942 0 -0.26470209097228098 0.37140351159401941 0 -0.266880351992417 0.3582272519812631 0 -0.27747916353329311 0.37529003384729942 0 -0.28837447244510311 0.36628710188532532 0 -0.28714059247178902 0.37543321948423419 0 -0.27747916353329311 0.37529003384729942 0 -0.28837447244510311 0.36628710188532532 0 -0.28956810344150979 0.35324588380912608 0 -0.30292150033679799 0.36018321991941088 0 -0.28837447244510311 0.36628710188532532 0 -0.29874239202075642 0.37528196759933868 0 -0.28714059247178902 0.37543321948423419 0 -0.28224162025157051 0.34582573333151501 0 -0.3017933608705089 0.344447887165377 0 -0.28224162025157051 0.34582573333151501 0 -0.28956810344150979 0.35324588380912608 0 -0.3017933608705089 0.344447887165377 0 -0.27640009279511962 0.35155878343443242 0 -0.28224162025157051 0.34582573333151501 0 -0.28956810344150979 0.35324588380912608 0 -0.27640009279511962 0.35155878343443242 0 -0.28837447244510311 0.36628710188532532 0 -0.28956810344150979 0.35324588380912608 0 -0.3017933608705089 0.344447887165377 0 -0.31193410579265052 0.3536039280541286 0 -0.30292150033679799 0.36018321991941088 0 -0.28956810344150979 0.35324588380912608 0 -0.3017933608705089 0.344447887165377 0 -0.30292150033679799 0.36018321991941088 0 -0.3017933608705089 0.344447887165377 0 -0.32134510148944728 0.34307004099923799 0 -0.3017933608705089 0.344447887165377 0 -0.31193410579265052 0.3536039280541286 0 -0.32134510148944728 0.34307004099923799 0 -0.31193410579265052 0.3536039280541286 0 -0.30292150033679799 0.36018321991941088 0 -0.31340485972314069 0.36375751913665871 0 -0.28837447244510311 0.36628710188532532 0 -0.30292150033679799 0.36018321991941088 0 -0.30986859289778912 0.37434695178938759 0 -0.28837447244510311 0.36628710188532532 0 -0.30986859289778912 0.37434695178938759 0 -0.28837447244510311 0.36628710188532532 0 -0.30986859289778912 0.37434695178938759 0 -0.29874239202075642 0.37528196759933868 0 -0.30292150033679799 0.36018321991941088 0 -0.30986859289778912 0.37434695178938759 0 -0.31340485972314069 0.36375751913665871 0 -0.30986859289778912 0.37434695178938759 0 -0.31340485972314069 0.36375751913665871 0 -0.32167824364597858 0.36970754211250728 0 -0.31340485972314069 0.36375751913665871 0 -0.32243327870136801 0.35950699838777223 0 -0.32167824364597858 0.36970754211250728 0 -0.32243327870136801 0.35950699838777223 0 -0.32167824364597858 0.36970754211250728 0 -0.33132177355711989 0.36851943955526861 0 -0.32167824364597858 0.36970754211250728 0 -0.33132177355711989 0.36851943955526861 0 -0.33136271335047512 0.38240680169344993 0 -0.32243327870136801 0.35950699838777223 0 -0.33132177355711989 0.36851943955526861 0 -0.33989838930305449 0.35721367281084643 0 -0.33132177355711989 0.36851943955526861 0 -0.34304766554360439 0.37232322735168022 0 -0.33136271335047512 0.38240680169344993 0 -0.33132177355711989 0.36851943955526861 0 -0.34304766554360439 0.37232322735168022 0 -0.33989838930305449 0.35721367281084643 0 -0.33989838930305449 0.35721367281084643 0 -0.32134510148944728 0.34307004099923799 0 -0.33989838930305449 0.35721367281084643 0 -0.32134510148944728 0.34307004099923799 0 -0.3500233487104954 0.34104903357308669 0 -0.32243327870136801 0.35950699838777223 0 -0.33989838930305449 0.35721367281084643 0 -0.32134510148944728 0.34307004099923799 0 -0.31193410579265052 0.3536039280541286 0 -0.32243327870136801 0.35950699838777223 0 -0.32134510148944728 0.34307004099923799 0 -0.31193410579265052 0.3536039280541286 0 -0.31340485972314069 0.36375751913665871 0 -0.32243327870136801 0.35950699838777223 0 -0.30538608464820588 0.33090408634228141 0 -0.32134510148944728 0.34307004099923799 0 -0.30538608464820588 0.33090408634228141 0 -0.32134510148944728 0.34307004099923799 0 -0.31811651498789978 0.32488887006413791 0 -0.32134510148944728 0.34307004099923799 0 -0.31811651498789978 0.32488887006413791 0 -0.33459812393413729 0.32207732583041709 0 -0.31699951866320542 0.30755322334125379 0 -0.30563014257680821 0.31779627416788381 0 -0.31811651498789978 0.32488887006413791 0 -0.31699951866320542 0.30755322334125379 0 -0.31811651498789978 0.32488887006413791 0 -0.33459812393413729 0.32207732583041709 0 -0.32134510148944728 0.34307004099923799 0 -0.34342889555096417 0.33131534648734451 0 -0.3500233487104954 0.34104903357308669 0 -0.32134510148944728 0.34307004099923799 0 -0.33459812393413729 0.32207732583041709 0 -0.34342889555096417 0.33131534648734451 0 -0.32134510148944728 0.34307004099923799 0 -0.3500233487104954 0.34104903357308669 0 -0.3500233487104954 0.34104903357308669 0 -0.35650114511620551 0.33294276438790088 0 -0.36794029410566942 0.33226259727897972 0 -0.34342889555096417 0.33131534648734451 0 -0.3500233487104954 0.34104903357308669 0 -0.35650114511620551 0.33294276438790088 0 -0.33459812393413729 0.32207732583041709 0 -0.34342889555096417 0.33131534648734451 0 -0.35467675850453528 0.31743756764607989 0 -0.34344143829887858 0.30736403781452232 0 -0.33459812393413729 0.32207732583041709 0 -0.35467675850453528 0.31743756764607989 0 -0.35650114511620551 0.33294276438790088 0 -0.35467675850453528 0.31743756764607989 0 -0.36272901898995358 0.31473918551029578 0 -0.34342889555096417 0.33131534648734451 0 -0.35650114511620551 0.33294276438790088 0 -0.35467675850453528 0.31743756764607989 0 -0.35650114511620551 0.33294276438790088 0 -0.36272901898995358 0.31473918551029578 0 -0.37415321332832258 0.31386652142517069 0 -0.35650114511620551 0.33294276438790088 0 -0.37415321332832258 0.31386652142517069 0 -0.35650114511620551 0.33294276438790088 0 -0.37442838800096029 0.32044424157556423 0 -0.37415321332832258 0.31386652142517069 0 -0.37816355277066899 0.32985684687273281 0 -0.37442838800096029 0.32044424157556423 0 -0.36794029410566942 0.33226259727897972 0 -0.3787015959315434 0.33902802614693439 0 -0.3500233487104954 0.34104903357308669 0 -0.36794029410566942 0.33226259727897972 0 -0.35650114511620551 0.33294276438790088 0 -0.37442838800096029 0.32044424157556423 0 -0.36794029410566942 0.33226259727897972 0 -0.3787015959315434 0.33902802614693439 0 -0.3500233487104954 0.34104903357308669 0 -0.3787015959315434 0.33902802614693439 0 -0.37816355277066899 0.32985684687273281 0 -0.36794029410566942 0.33226259727897972 0 -0.3787015959315434 0.33902802614693439 0 -0.3500233487104954 0.34104903357308669 0 -0.36501658974902518 0.35367198233662939 0 -0.37823932191431281 0.35548757599615399 0 -0.3787015959315434 0.33902802614693439 0 -0.36501658974902518 0.35367198233662939 0 -0.37823932191431281 0.35548757599615399 0 -0.36501658974902518 0.35367198233662939 0 -0.37024808467873749 0.36543132639488701 0 -0.36501658974902518 0.35367198233662939 0 -0.37024808467873749 0.36543132639488701 0 -0.35845167711666143 0.37135730462245548 0 -0.37949655700884349 0.37153259571527891 0 -0.37024808467873749 0.36543132639488701 0 -0.36758280318953013 0.37627165255961892 0 -0.37024808467873749 0.36543132639488701 0 -0.35845167711666143 0.37135730462245548 0 -0.36758280318953013 0.37627165255961892 0 -0.36501658974902518 0.35367198233662939 0 -0.35845167711666143 0.37135730462245548 0 -0.35334750121980912 0.35582299833575448 0 -0.34304766554360439 0.37232322735168022 0 -0.33989838930305449 0.35721367281084643 0 -0.35845167711666143 0.37135730462245548 0 -0.33989838930305449 0.35721367281084643 0 -0.35845167711666143 0.37135730462245548 0 -0.35334750121980912 0.35582299833575448 0 -0.33989838930305449 0.35721367281084643 0 -0.35845167711666143 0.37135730462245548 0 -0.33989838930305449 0.35721367281084643 0 -0.3500233487104954 0.34104903357308669 0 -0.35334750121980912 0.35582299833575448 0 -0.3500233487104954 0.34104903357308669 0 -0.36501658974902518 0.35367198233662939 0 -0.35334750121980912 0.35582299833575448 0 -0.35285683380316007 0.39046665159751448 0 -0.36027192889352422 0.40897543894708011 0 -0.34270265381785459 0.40768080501023862 0 -0.34304766554360439 0.37232322735168022 0 -0.35845167711666143 0.37135730462245548 0 -0.35285683380316007 0.39046665159751448 0 -0.37686086334024771 0.38257038446795849 0 -0.35285683380316007 0.39046665159751448 0 -0.37686086334024771 0.38257038446795849 0 -0.35285683380316007 0.39046665159751448 0 -0.36758280318953013 0.37627165255961892 0 -0.35845167711666143 0.37135730462245548 0 -0.35285683380316007 0.39046665159751448 0 -0.36758280318953013 0.37627165255961892 0 -0.37686086334024771 0.38257038446795849 0 -0.37949655700884349 0.37153259571527891 0 -0.36758280318953013 0.37627165255961892 0 -0.37769092578324193 0.39977892163450779 0 -0.35285683380316007 0.39046665159751448 0 -0.37769092578324193 0.39977892163450779 0 -0.37686086334024771 0.38257038446795849 0 -0.35285683380316007 0.39046665159751448 0 -0.37769092578324193 0.39977892163450779 0 -0.35285683380316007 0.39046665159751448 0 -0.36027192889352422 0.40897543894708011 0 -0.37875820238401509 0.42613984176471847 0 -0.37769092578324193 0.39977892163450779 0 -0.36027192889352422 0.40897543894708011 0 -0.37875820238401509 0.42613984176471847 0 -0.36027192889352422 0.40897543894708011 0 -0.36048507512927641 0.42545129427310208 0 -0.37875820238401509 0.42613984176471847 0 -0.36048507512927641 0.42545129427310208 0 -0.35499138700470761 0.44318849185793469 0 -0.37875820238401509 0.42613984176471847 0 -0.35499138700470761 0.44318849185793469 0 -0.34691622899781399 0.42161541908905831 0 -0.33223168701086447 0.43660936806356893 0 -0.35499138700470761 0.44318849185793469 0 -0.36048507512927641 0.42545129427310208 0 -0.34691622899781399 0.42161541908905831 0 -0.35499138700470761 0.44318849185793469 0 -0.36027192889352422 0.40897543894708011 0 -0.34691622899781399 0.42161541908905831 0 -0.34270265381785459 0.40768080501023862 0 -0.36027192889352422 0.40897543894708011 0 -0.36048507512927641 0.42545129427310208 0 -0.34691622899781399 0.42161541908905831 0 -0.34270265381785459 0.40768080501023862 0 -0.32841174735063311 0.41773478988879181 0 -0.32505653004414181 0.39961172552874852 0 -0.34691622899781399 0.42161541908905831 0 -0.34270265381785459 0.40768080501023862 0 -0.32841174735063311 0.41773478988879181 0 -0.34691622899781399 0.42161541908905831 0 -0.32841174735063311 0.41773478988879181 0 -0.33223168701086447 0.43660936806356893 0 -0.32841174735063311 0.41773478988879181 0 -0.33223168701086447 0.43660936806356893 0 -0.31148998866141242 0.43181261152586448 0 -0.32841174735063311 0.41773478988879181 0 -0.31441363705571701 0.41408607272300291 0 -0.32505653004414181 0.39961172552874852 0 -0.32841174735063311 0.41773478988879181 0 -0.31441363705571701 0.41408607272300291 0 -0.31148998866141242 0.43181261152586448 0 -0.32505653004414181 0.39961172552874852 0 -0.31219235154091651 0.39185403334122892 0 -0.30619500853749271 0.39725637532293351 0 -0.32505653004414181 0.39961172552874852 0 -0.31778050989885959 0.38527433798844479 0 -0.31219235154091651 0.39185403334122892 0 -0.35285683380316007 0.39046665159751448 0 -0.32505653004414181 0.39961172552874852 0 -0.33136271335047512 0.38240680169344993 0 -0.35285683380316007 0.39046665159751448 0 -0.34270265381785459 0.40768080501023862 0 -0.32505653004414181 0.39961172552874852 0 -0.35285683380316007 0.39046665159751448 0 -0.32505653004414181 0.39961172552874852 0 -0.35285683380316007 0.39046665159751448 0 -0.33136271335047512 0.38240680169344993 0 -0.34304766554360439 0.37232322735168022 0 -0.35285683380316007 0.39046665159751448 0 -0.33136271335047512 0.38240680169344993 0 -0.30986859289778912 0.37434695178938759 0 -0.32167824364597858 0.36970754211250728 0 -0.33136271335047512 0.38240680169344993 0 -0.30986859289778912 0.37434695178938759 0 -0.33136271335047512 0.38240680169344993 0 -0.32505653004414181 0.39961172552874852 0 -0.33136271335047512 0.38240680169344993 0 -0.31778050989885959 0.38527433798844479 0 -0.30986859289778912 0.37434695178938759 0 -0.33136271335047512 0.38240680169344993 0 -0.31778050989885959 0.38527433798844479 0 -0.30986859289778912 0.37434695178938759 0 -0.31778050989885959 0.38527433798844479 0 -0.30574515252343709 0.38648905476423068 0 -0.30986859289778912 0.37434695178938759 0 -0.30574515252343709 0.38648905476423068 0 -0.29874239202075642 0.37528196759933868 0 -0.30574515252343709 0.38648905476423068 0 -0.29874239202075642 0.37528196759933868 0 -0.29146244090030071 0.40289140707507309 0 -0.31778050989885959 0.38527433798844479 0 -0.30574515252343709 0.38648905476423068 0 -0.31219235154091651 0.39185403334122892 0 -0.32505653004414181 0.39961172552874852 0 -0.30619500853749271 0.39725637532293351 0 -0.29725622628512233 0.40875679945997928 0 -0.32505653004414181 0.39961172552874852 0 -0.29725622628512233 0.40875679945997928 0 -0.30574515252343709 0.38648905476423068 0 -0.30619500853749271 0.39725637532293351 0 -0.29146244090030071 0.40289140707507309 0 -0.30574515252343709 0.38648905476423068 0 -0.31219235154091651 0.39185403334122892 0 -0.30619500853749271 0.39725637532293351 0 -0.30619500853749271 0.39725637532293351 0 -0.29146244090030071 0.40289140707507309 0 -0.29725622628512233 0.40875679945997928 0 -0.29146244090030071 0.40289140707507309 0 -0.2882496590958894 0.39023794275143442 0 -0.278827461574497 0.39790462172635238 0 -0.28396634188800352 0.38487377460497352 0 -0.2882496590958894 0.39023794275143442 0 -0.278827461574497 0.39790462172635238 0 -0.29146244090030071 0.40289140707507309 0 -0.278827461574497 0.39790462172635238 0 -0.27940045790464241 0.41220012044695847 0 -0.29874239202075642 0.37528196759933868 0 -0.29146244090030071 0.40289140707507309 0 -0.29874239202075642 0.37528196759933868 0 -0.29146244090030071 0.40289140707507309 0 -0.2882496590958894 0.39023794275143442 0 -0.29874239202075642 0.37528196759933868 0 -0.28396634188800352 0.38487377460497352 0 -0.28714059247178902 0.37543321948423419 0 -0.29874239202075642 0.37528196759933868 0 -0.28396634188800352 0.38487377460497352 0 -0.2882496590958894 0.39023794275143442 0 -0.28396634188800352 0.38487377460497352 0 -0.28714059247178902 0.37543321948423419 0 -0.27747916353329311 0.37529003384729942 0 -0.28396634188800352 0.38487377460497352 0 -0.27747916353329311 0.37529003384729942 0 -0.26775424033426293 0.38456849691175748 0 -0.28396634188800352 0.38487377460497352 0 -0.26775424033426293 0.38456849691175748 0 -0.278827461574497 0.39790462172635238 0 -0.26470209097228098 0.37140351159401941 0 -0.27747916353329311 0.37529003384729942 0 -0.26775424033426293 0.38456849691175748 0 -0.278827461574497 0.39790462172635238 0 -0.26298604578065232 0.3973558675440883 0 -0.2677584473194361 0.40899541659639099 0 -0.26775424033426293 0.38456849691175748 0 -0.278827461574497 0.39790462172635238 0 -0.26298604578065232 0.3973558675440883 0 -0.26298604578065232 0.3973558675440883 0 -0.25152819264859128 0.38883491631829081 0 -0.2490618870264745 0.40647588616764979 0 -0.26298604578065232 0.3973558675440883 0 -0.2677584473194361 0.40899541659639099 0 -0.2490618870264745 0.40647588616764979 0 -0.25213085833087667 0.37355178257669552 0 -0.26775424033426293 0.38456849691175748 0 -0.25152819264859128 0.38883491631829081 0 -0.26775424033426293 0.38456849691175748 0 -0.26298604578065232 0.3973558675440883 0 -0.25152819264859128 0.38883491631829081 0 -0.26470209097228098 0.37140351159401941 0 -0.25213085833087667 0.37355178257669552 0 -0.26775424033426293 0.38456849691175748 0 -0.2572482915111563 0.42152384209731297 0 -0.26330490497154813 0.43976041958731371 0 -0.24092688658692171 0.43286849171069308 0 -0.2572482915111563 0.42152384209731297 0 -0.27163392734069919 0.42205675226444578 0 -0.26330490497154813 0.43976041958731371 0 -0.2572482915111563 0.42152384209731297 0 -0.2677584473194361 0.40899541659639099 0 -0.2490618870264745 0.40647588616764979 0 -0.2572482915111563 0.42152384209731297 0 -0.2677584473194361 0.40899541659639099 0 -0.27163392734069919 0.42205675226444578 0 -0.27940045790464241 0.41220012044695847 0 -0.27163392734069919 0.42205675226444578 0 -0.28418248977984512 0.43050084655080739 0 -0.2677584473194361 0.40899541659639099 0 -0.27940045790464241 0.41220012044695847 0 -0.27163392734069919 0.42205675226444578 0 -0.278827461574497 0.39790462172635238 0 -0.2677584473194361 0.40899541659639099 0 -0.27940045790464241 0.41220012044695847 0 -0.27163392734069919 0.42205675226444578 0 -0.28418248977984512 0.43050084655080739 0 -0.26330490497154813 0.43976041958731371 0 -0.28418248977984512 0.43050084655080739 0 -0.29943060469912958 0.42576946359573847 0 -0.28981068171355151 0.44369098771903792 0 -0.29146244090030071 0.40289140707507309 0 -0.28418248977984512 0.43050084655080739 0 -0.29146244090030071 0.40289140707507309 0 -0.27940045790464241 0.41220012044695847 0 -0.28418248977984512 0.43050084655080739 0 -0.28418248977984512 0.43050084655080739 0 -0.29725622628512233 0.40875679945997928 0 -0.29943060469912958 0.42576946359573847 0 -0.29146244090030071 0.40289140707507309 0 -0.28418248977984512 0.43050084655080739 0 -0.29725622628512233 0.40875679945997928 0 -0.31441363705571701 0.41408607272300291 0 -0.32505653004414181 0.39961172552874852 0 -0.29725622628512233 0.40875679945997928 0 -0.31441363705571701 0.41408607272300291 0 -0.29725622628512233 0.40875679945997928 0 -0.29943060469912958 0.42576946359573847 0 -0.31441363705571701 0.41408607272300291 0 -0.29943060469912958 0.42576946359573847 0 -0.31148998866141242 0.43181261152586448 0 -0.29943060469912958 0.42576946359573847 0 -0.31148998866141242 0.43181261152586448 0 -0.28981068171355151 0.44369098771903792 0 -0.31148998866141242 0.43181261152586448 0 -0.30120616623050861 0.45239726712555162 0 -0.31718999816658727 0.45065056632578487 0 -0.31148998866141242 0.43181261152586448 0 -0.30120616623050861 0.45239726712555162 0 -0.31148998866141242 0.43181261152586448 0 -0.30120616623050861 0.45239726712555162 0 -0.28981068171355151 0.44369098771903792 0 -0.30120616623050861 0.45239726712555162 0 -0.29092234379960469 0.47298192272523881 0 -0.30745775624609217 0.47728579204436761 0 -0.30120616623050861 0.45239726712555162 0 -0.30745775624609217 0.47728579204436761 0 -0.31718999816658727 0.45065056632578487 0 -0.2852957606144535 0.45730244818253718 0 -0.28186649269177161 0.46567885888970018 0 -0.29092234379960469 0.47298192272523881 0 -0.30120616623050861 0.45239726712555162 0 -0.29092234379960469 0.47298192272523881 0 -0.30120616623050861 0.45239726712555162 0 -0.2852957606144535 0.45730244818253718 0 -0.29092234379960469 0.47298192272523881 0 -0.2852957606144535 0.45730244818253718 0 -0.28186649269177161 0.46567885888970018 0 -0.27690253865938408 0.45811028602654041 0 -0.28418248977984512 0.43050084655080739 0 -0.28981068171355151 0.44369098771903792 0 -0.27690253865938408 0.45811028602654041 0 -0.30120616623050861 0.45239726712555162 0 -0.2852957606144535 0.45730244818253718 0 -0.28981068171355151 0.44369098771903792 0 -0.2852957606144535 0.45730244818253718 0 -0.28981068171355151 0.44369098771903792 0 -0.27690253865938408 0.45811028602654041 0 -0.28418248977984512 0.43050084655080739 0 -0.27690253865938408 0.45811028602654041 0 -0.28418248977984512 0.43050084655080739 0 -0.27690253865938408 0.45811028602654041 0 -0.26330490497154813 0.43976041958731371 0 -0.2852957606144535 0.45730244818253718 0 -0.27690253865938408 0.45811028602654041 0 -0.28186649269177161 0.46567885888970018 0 -0.27690253865938408 0.45811028602654041 0 -0.27835780074514338 0.47366975871288508 0 -0.27690253865938408 0.45811028602654041 0 -0.25345677561811758 0.46036691342989022 0 -0.27690253865938408 0.45811028602654041 0 -0.25345677561811758 0.46036691342989022 0 -0.26590293397843329 0.47057525233348851 0 -0.25345677561811758 0.46036691342989022 0 -0.25315469521642581 0.4750486889203015 0 -0.26590293397843329 0.47057525233348851 0 -0.25345677561811758 0.46036691342989022 0 -0.26330490497154813 0.43976041958731371 0 -0.24129970279445639 0.44943490890582899 0 -0.27690253865938408 0.45811028602654041 0 -0.25345677561811758 0.46036691342989022 0 -0.26330490497154813 0.43976041958731371 0 -0.26169037092037989 0.4910190989046625 0 -0.25397816739109252 0.5 0 -0.27113802145370669 0.49283981386083792 0 -0.26169037092037989 0.4910190989046625 0 -0.25474868654415728 0.48692894813519849 0 -0.26689660829256312 0.48430763362261348 0 -0.26169037092037989 0.4910190989046625 0 -0.25397816739109252 0.5 0 -0.25474868654415728 0.48692894813519849 0 -0.25315469521642581 0.4750486889203015 0 -0.26689660829256312 0.48430763362261348 0 -0.25315469521642581 0.4750486889203015 0 -0.26689660829256312 0.48430763362261348 0 -0.26590293397843329 0.47057525233348851 0 -0.25474868654415728 0.48692894813519849 0 -0.25315469521642581 0.4750486889203015 0 -0.26689660829256312 0.48430763362261348 0 -0.27690253865938408 0.45811028602654041 0 -0.26590293397843329 0.47057525233348851 0 -0.26946370716205509 0.4860372782758946 0 -0.27690253865938408 0.45811028602654041 0 -0.26946370716205509 0.4860372782758946 0 -0.27690253865938408 0.45811028602654041 0 -0.27835780074514338 0.47366975871288508 0 -0.26946370716205509 0.4860372782758946 0 -0.26689660829256312 0.48430763362261348 0 -0.26590293397843329 0.47057525233348851 0 -0.26946370716205509 0.4860372782758946 0 -0.28186649269177161 0.46567885888970018 0 -0.27835780074514338 0.47366975871288508 0 -0.28298297564177088 0.4743823417855309 0 -0.27835780074514338 0.47366975871288508 0 -0.2798907507987049 0.48286402398659151 0 -0.28298297564177088 0.4743823417855309 0 -0.27835780074514338 0.47366975871288508 0 -0.2798907507987049 0.48286402398659151 0 -0.26946370716205509 0.4860372782758946 0 -0.26946370716205509 0.4860372782758946 0 -0.28063852136870049 0.49356657832492562 0 -0.26946370716205509 0.4860372782758946 0 -0.27113802145370669 0.49283981386083792 0 -0.28063852136870049 0.49356657832492562 0 -0.2798907507987049 0.48286402398659151 0 -0.26946370716205509 0.4860372782758946 0 -0.28063852136870049 0.49356657832492562 0 -0.25397816739109252 0.5 0 -0.27113802145370669 0.49283981386083792 0 -0.27742446875513049 0.50000000000000155 0 -0.26689660829256312 0.48430763362261348 0 -0.26946370716205509 0.4860372782758946 0 -0.27113802145370669 0.49283981386083792 0 -0.26169037092037989 0.4910190989046625 0 -0.26689660829256312 0.48430763362261348 0 -0.27113802145370669 0.49283981386083792 0 -0.26689660829256312 0.48430763362261348 0 -0.26946370716205509 0.4860372782758946 0 -0.27113802145370669 0.49283981386083792 0 -0.28063852136870049 0.49356657832492562 0 -0.27742446875513049 0.50000000000000155 0 -0.28063852136870049 0.49356657832492562 0 -0.27742446875513049 0.50000000000000155 0 -0.28063852136870049 0.49356657832492562 0 -0.27742446875513049 0.50000000000000155 0 -0.29018685806186229 0.50000000000000122 0 -0.28063852136870049 0.49356657832492562 0 -0.29018685806186229 0.50000000000000122 0 -0.29092234379960469 0.47298192272523881 0 -0.28063852136870049 0.49356657832492562 0 -0.29018685806186229 0.50000000000000122 0 -0.29018685806186229 0.50000000000000122 0 -0.29092234379960469 0.47298192272523881 0 -0.30745775624609217 0.47728579204436761 0 -0.28063852136870049 0.49356657832492562 0 -0.29092234379960469 0.47298192272523881 0 -0.2798907507987049 0.48286402398659151 0 -0.28063852136870049 0.49356657832492562 0 -0.29092234379960469 0.47298192272523881 0 -0.28186649269177161 0.46567885888970018 0 -0.28298297564177088 0.4743823417855309 0 -0.29092234379960469 0.47298192272523881 0 -0.2798907507987049 0.48286402398659151 0 -0.28298297564177088 0.4743823417855309 0 -0.29092234379960469 0.47298192272523881 0 -0.29018685806186229 0.50000000000000122 0 -0.30745775624609217 0.47728579204436761 0 -0.3640375775585698 0.5 0 -0.30745775624609217 0.47728579204436761 0 -0.33122457162539992 0.46023714195115112 0 -0.3640375775585698 0.5 0 -0.30745775624609217 0.47728579204436761 0 -0.33122457162539992 0.46023714195115112 0 -0.30745775624609217 0.47728579204436761 0 -0.31718999816658727 0.45065056632578487 0 -0.33122457162539992 0.46023714195115112 0 -0.33223168701086447 0.43660936806356893 0 -0.31148998866141242 0.43181261152586448 0 -0.31718999816658727 0.45065056632578487 0 -0.33223168701086447 0.43660936806356893 0 -0.31718999816658727 0.45065056632578487 0 -0.33122457162539992 0.46023714195115112 0 -0.33122457162539992 0.46023714195115112 0 -0.35499138700470761 0.44318849185793469 0 -0.33223168701086447 0.43660936806356893 0 -0.33122457162539992 0.46023714195115112 0 -0.35499138700470761 0.44318849185793469 0 -0.33122457162539992 0.46023714195115112 0 -0.35376164566254242 0.46494380824906301 0 -0.35499138700470761 0.44318849185793469 0 -0.38249991962136642 0.44345487931465249 0 -0.35499138700470761 0.44318849185793469 0 -0.37103467036260362 0.45695891695805302 0 -0.38249991962136642 0.44345487931465249 0 -0.37875820238401509 0.42613984176471847 0 -0.35499138700470761 0.44318849185793469 0 -0.35376164566254242 0.46494380824906301 0 -0.35499138700470761 0.44318849185793469 0 -0.37103467036260362 0.45695891695805302 0 -0.35376164566254242 0.46494380824906301 0 -0.37103467036260362 0.45695891695805302 0 -0.36943712044780219 0.47475959506207249 0 -0.33122457162539992 0.46023714195115112 0 -0.35376164566254242 0.46494380824906301 0 -0.3640375775585698 0.5 0 -0.38891458820749281 0.47713565504117422 0 -0.36943712044780219 0.47475959506207249 0 -0.3640375775585698 0.5 0 -0.35376164566254242 0.46494380824906301 0 -0.36943712044780219 0.47475959506207249 0 -0.3640375775585698 0.5 0 -0.1410608215807003 0.47118489318428192 0 -0.1506389915883973 0.47451242435581331 0 -0.15779819732271971 0.4695739402503486 0 -0.1410608215807003 0.47118489318428192 0 -0.15779819732271971 0.4695739402503486 0 -0.1455325599989582 0.47665965757352818 0 -0.14983465253105441 0.48099067897208148 0 -0.1405957742956809 0.47995063378193648 0 -0.14983465253105441 0.48099067897208148 0 -0.14427471349546869 0.48965289008050411 0 -0.1405957742956809 0.47995063378193648 0 -0.1455325599989582 0.47665965757352818 0 -0.1410608215807003 0.47118489318428192 0 -0.1506389915883973 0.47451242435581331 0 -0.1455325599989582 0.47665965757352818 0 -0.1410608215807003 0.47118489318428192 0 -0.1405957742956809 0.47995063378193648 0 -0.1506389915883973 0.47451242435581331 0 -0.15682389603308189 0.47748605108520858 0 -0.15779819732271971 0.4695739402503486 0 -0.1506389915883973 0.47451242435581331 0 -0.14983465253105441 0.48099067897208148 0 -0.15682389603308189 0.47748605108520858 0 -0.1455325599989582 0.47665965757352818 0 -0.1506389915883973 0.47451242435581331 0 -0.14983465253105441 0.48099067897208148 0 -0.14983465253105441 0.48099067897208148 0 -0.1558122254133027 0.48316327461493752 0 -0.15682389603308189 0.47748605108520858 0 -0.14983465253105441 0.48099067897208148 0 -0.1558122254133027 0.48316327461493752 0 -0.15140604362779489 0.486968875654338 0 -0.1558122254133027 0.48316327461493752 0 -0.15140604362779489 0.486968875654338 0 -0.15545271364459581 0.49281799385228547 0 -0.14983465253105441 0.48099067897208148 0 -0.15140604362779489 0.486968875654338 0 -0.14427471349546869 0.48965289008050411 0 -0.15140604362779489 0.486968875654338 0 -0.15545271364459581 0.49281799385228547 0 -0.14427471349546869 0.48965289008050411 0 -0.15453849507163009 0.5 0 -0.14427471349546869 0.48965289008050411 0 -0.12543772684428189 0.5 0 -0.15453849507163009 0.5 0 -0.15545271364459581 0.49281799385228547 0 -0.14427471349546869 0.48965289008050411 0 -0.14427471349546869 0.48965289008050411 0 -0.12543772684428189 0.5 0 -0.13178312884530541 0.48627570230508688 0 -0.14427471349546869 0.48965289008050411 0 -0.13178312884530541 0.48627570230508688 0 -0.1405957742956809 0.47995063378193648 0 -0.13178312884530541 0.48627570230508688 0 -0.1317912103042716 0.47600940211286807 0 -0.11642361318749669 0.48420448820259387 0 -0.1317912103042716 0.47600940211286807 0 -0.14083201439797821 0.46516349611765162 0 -0.12052644250191399 0.4682622397032008 0 -0.13178312884530541 0.48627570230508688 0 -0.1405957742956809 0.47995063378193648 0 -0.1317912103042716 0.47600940211286807 0 -0.1410608215807003 0.47118489318428192 0 -0.1405957742956809 0.47995063378193648 0 -0.1317912103042716 0.47600940211286807 0 -0.1410608215807003 0.47118489318428192 0 -0.1317912103042716 0.47600940211286807 0 -0.14083201439797821 0.46516349611765162 0 -0.12618187852634369 0.45882241462805679 0 -0.14083201439797821 0.46516349611765162 0 -0.12052644250191399 0.4682622397032008 0 -0.14083201439797821 0.46516349611765162 0 -0.12052644250191399 0.4682622397032008 0 -0.12618187852634369 0.45882241462805679 0 -0.13621980461969219 0.45775649261309698 0 -0.13482926781972801 0.45201676164804122 0 -0.13621980461969219 0.45775649261309698 0 -0.13482926781972801 0.45201676164804122 0 -0.1430360577347192 0.45502329805863873 0 -0.13621980461969219 0.45775649261309698 0 -0.14083201439797821 0.46516349611765162 0 -0.1430360577347192 0.45502329805863873 0 -0.12618187852634369 0.45882241462805679 0 -0.13621980461969219 0.45775649261309698 0 -0.14083201439797821 0.46516349611765162 0 -0.12618187852634369 0.45882241462805679 0 -0.13482926781972801 0.45201676164804122 0 -0.1248743097581413 0.44162978393037222 0 -0.13482926781972801 0.45201676164804122 0 -0.13973201497409549 0.44099892737807922 0 -0.1415241139788854 0.4488412036993919 0 -0.13482926781972801 0.45201676164804122 0 -0.1415241139788854 0.4488412036993919 0 -0.1430360577347192 0.45502329805863873 0 -0.13973201497409549 0.44099892737807922 0 -0.13491063247587859 0.43073185275000708 0 -0.1248743097581413 0.44162978393037222 0 -0.13482926781972801 0.45201676164804122 0 -0.13973201497409549 0.44099892737807922 0 -0.1248743097581413 0.44162978393037222 0 -0.13973201497409549 0.44099892737807922 0 -0.14849911538699881 0.44732582771280882 0 -0.14949031039727409 0.43903968606904947 0 -0.14849911538699881 0.44732582771280882 0 -0.1430360577347192 0.45502329805863873 0 -0.15230793746503779 0.45507497120342549 0 -0.13973201497409549 0.44099892737807922 0 -0.1415241139788854 0.4488412036993919 0 -0.14849911538699881 0.44732582771280882 0 -0.1415241139788854 0.4488412036993919 0 -0.14849911538699881 0.44732582771280882 0 -0.1430360577347192 0.45502329805863873 0 -0.14849911538699881 0.44732582771280882 0 -0.15230793746503779 0.45507497120342549 0 -0.15767924869329919 0.44641741059368378 0 -0.14949031039727409 0.43903968606904947 0 -0.15767924869329919 0.44641741059368378 0 -0.15912083936695831 0.4347249498771325 0 -0.14849911538699881 0.44732582771280882 0 -0.14949031039727409 0.43903968606904947 0 -0.15767924869329919 0.44641741059368378 0 -0.14083201439797821 0.46516349611765162 0 -0.16113758629404229 0.46206475253210239 0 -0.15779819732271971 0.4695739402503486 0 -0.1410608215807003 0.47118489318428192 0 -0.14083201439797821 0.46516349611765162 0 -0.15779819732271971 0.4695739402503486 0 -0.14083201439797821 0.46516349611765162 0 -0.16113758629404229 0.46206475253210239 0 -0.14083201439797821 0.46516349611765162 0 -0.15230793746503779 0.45507497120342549 0 -0.16113758629404229 0.46206475253210239 0 -0.14083201439797821 0.46516349611765162 0 -0.1430360577347192 0.45502329805863873 0 -0.15230793746503779 0.45507497120342549 0 -0.16113758629404229 0.46206475253210239 0 -0.16940388650370539 0.44815354093755089 0 -0.18144315819010631 0.45896600894655282 0 -0.16113758629404229 0.46206475253210239 0 -0.18144315819010631 0.45896600894655282 0 -0.16113758629404229 0.46206475253210239 0 -0.17453557306473899 0.46796298731641428 0 -0.15779819732271971 0.4695739402503486 0 -0.15230793746503779 0.45507497120342549 0 -0.16113758629404229 0.46206475253210239 0 -0.16013216473902109 0.45292766881669072 0 -0.16113758629404229 0.46206475253210239 0 -0.16013216473902109 0.45292766881669072 0 -0.16940388650370539 0.44815354093755089 0 -0.15767924869329919 0.44641741059368378 0 -0.16940388650370539 0.44815354093755089 0 -0.15912083936695831 0.4347249498771325 0 -0.15230793746503779 0.45507497120342549 0 -0.16013216473902109 0.45292766881669072 0 -0.15767924869329919 0.44641741059368378 0 -0.16013216473902109 0.45292766881669072 0 -0.15767924869329919 0.44641741059368378 0 -0.16940388650370539 0.44815354093755089 0 -0.1829590266345629 0.45699162349075462 0 -0.18255950863604661 0.43173185523385532 0 -0.1829590266345629 0.45699162349075462 0 -0.19557533522393281 0.44055915781337712 0 -0.18255950863604661 0.43173185523385532 0 -0.16940388650370539 0.44815354093755089 0 -0.1829590266345629 0.45699162349075462 0 -0.18255950863604661 0.43173185523385532 0 -0.16113758629404229 0.46206475253210239 0 -0.17453557306473899 0.46796298731641428 0 -0.18144315819010631 0.45896600894655282 0 -0.17453557306473899 0.46796298731641428 0 -0.18144315819010631 0.45896600894655282 0 -0.17453557306473899 0.46796298731641428 0 -0.18311948649431831 0.46713679563994498 0 -0.16940388650370539 0.44815354093755089 0 -0.18144315819010631 0.45896600894655282 0 -0.1829590266345629 0.45699162349075462 0 -0.18144315819010631 0.45896600894655282 0 -0.1829590266345629 0.45699162349075462 0 -0.18144315819010631 0.45896600894655282 0 -0.1829865290739871 0.45873048193697258 0 -0.1829590266345629 0.45699162349075462 0 -0.18144315819010631 0.45896600894655282 0 -0.1829865290739871 0.45873048193697258 0 -0.1829865290739871 0.45873048193697258 0 -0.1829590266345629 0.45699162349075462 0 -0.17453557306473899 0.46796298731641428 0 -0.18144315819010631 0.45896600894655282 0 -0.18311948649431831 0.46713679563994498 0 -0.1829865290739871 0.45873048193697258 0 -0.18311948649431831 0.46713679563994498 0 -0.18144315819010631 0.45896600894655282 0 -0.1829865290739871 0.45873048193697258 0 -0.18311948649431831 0.46713679563994498 0 -0.18311948649431831 0.46713679563994498 0 -0.18337937489664821 0.48356839781997168 0 -0.19511197543601369 0.47606725323690458 0 -0.18311948649431831 0.46713679563994498 0 -0.18337937489664821 0.48356839781997168 0 -0.18311948649431831 0.46713679563994498 0 -0.18337937489664821 0.48356839781997168 0 -0.17485937494801759 0.47808814193434568 0 -0.17453557306473899 0.46796298731641428 0 -0.18311948649431831 0.46713679563994498 0 -0.17485937494801759 0.47808814193434568 0 -0.17453557306473899 0.46796298731641428 0 -0.15779819732271971 0.4695739402503486 0 -0.17453557306473899 0.46796298731641428 0 -0.16499414335466689 0.48039049058434952 0 -0.17453557306473899 0.46796298731641428 0 -0.16499414335466689 0.48039049058434952 0 -0.15779819732271971 0.4695739402503486 0 -0.17453557306473899 0.46796298731641428 0 -0.17485937494801759 0.47808814193434568 0 -0.16499414335466689 0.48039049058434952 0 -0.17485937494801759 0.47808814193434568 0 -0.16499414335466689 0.48039049058434952 0 -0.1699453859209171 0.49288017845899518 0 -0.1558122254133027 0.48316327461493752 0 -0.16499414335466689 0.48039049058434952 0 -0.15682389603308189 0.47748605108520858 0 -0.16499414335466689 0.48039049058434952 0 -0.15682389603308189 0.47748605108520858 0 -0.15779819732271971 0.4695739402503486 0 -0.15453849507163009 0.5 0 -0.1699453859209171 0.49288017845899518 0 -0.18363926329897839 0.49999999999999828 0 -0.15453849507163009 0.5 0 -0.15545271364459581 0.49281799385228547 0 -0.1699453859209171 0.49288017845899518 0 -0.15545271364459581 0.49281799385228547 0 -0.16499414335466689 0.48039049058434952 0 -0.1699453859209171 0.49288017845899518 0 -0.15545271364459581 0.49281799385228547 0 -0.16499414335466689 0.48039049058434952 0 -0.1558122254133027 0.48316327461493752 0 -0.15545271364459581 0.49281799385228547 0 -0.16499414335466689 0.48039049058434952 0 -0.18337937489664821 0.48356839781997168 0 -0.18363926329897839 0.49999999999999828 0 -0.18337937489664821 0.48356839781997168 0 -0.1699453859209171 0.49288017845899518 0 -0.18363926329897839 0.49999999999999828 0 -0.18337937489664821 0.48356839781997168 0 -0.17485937494801759 0.47808814193434568 0 -0.1699453859209171 0.49288017845899518 0 -0.18337937489664821 0.48356839781997168 0 -0.18363926329897839 0.49999999999999828 0 -0.19848883175809501 0.48685236178056529 0 -0.18363926329897839 0.49999999999999828 0 -0.19848883175809501 0.48685236178056529 0 -0.20708556466301639 0.5 0 -0.18311948649431831 0.46713679563994498 0 -0.19511197543601369 0.47606725323690458 0 -0.20656524953558469 0.46488016823659339 0 -0.18337937489664821 0.48356839781997168 0 -0.19848883175809501 0.48685236178056529 0 -0.19511197543601369 0.47606725323690458 0 -0.19848883175809501 0.48685236178056529 0 -0.19511197543601369 0.47606725323690458 0 -0.206747867840962 0.47700509082497228 0 -0.19511197543601369 0.47606725323690458 0 -0.206747867840962 0.47700509082497228 0 -0.20656524953558469 0.46488016823659339 0 -0.19848883175809501 0.48685236178056529 0 -0.206747867840962 0.47700509082497228 0 -0.21585796601610141 0.48648558657266339 0 -0.206747867840962 0.47700509082497228 0 -0.21852396914967101 0.47285401242330122 0 -0.20656524953558469 0.46488016823659339 0 -0.206747867840962 0.47700509082497228 0 -0.21852396914967101 0.47285401242330122 0 -0.21585796601610141 0.48648558657266339 0 -0.20708556466301639 0.5 0 -0.21585796601610141 0.48648558657266339 0 -0.23053186602705439 0.5 0 -0.19848883175809501 0.48685236178056529 0 -0.20708556466301639 0.5 0 -0.21585796601610141 0.48648558657266339 0 -0.21585796601610141 0.48648558657266339 0 -0.23053186602705439 0.5 0 -0.2373192826940049 0.48342253064983348 0 -0.21852396914967101 0.47285401242330122 0 -0.2373192826940049 0.48342253064983348 0 -0.23001101257685119 0.46262354083324181 0 -0.21852396914967101 0.47285401242330122 0 -0.21585796601610141 0.48648558657266339 0 -0.2373192826940049 0.48342253064983348 0 -0.25474868654415728 0.48692894813519849 0 -0.25315469521642581 0.4750486889203015 0 -0.2373192826940049 0.48342253064983348 0 -0.25315469521642581 0.4750486889203015 0 -0.2373192826940049 0.48342253064983348 0 -0.23001101257685119 0.46262354083324181 0 -0.25397816739109252 0.5 0 -0.23053186602705439 0.5 0 -0.2373192826940049 0.48342253064983348 0 -0.25397816739109252 0.5 0 -0.25474868654415728 0.48692894813519849 0 -0.2373192826940049 0.48342253064983348 0 -0.26330490497154813 0.43976041958731371 0 -0.24129970279445639 0.44943490890582899 0 -0.24092688658692171 0.43286849171069308 0 -0.24129970279445639 0.44943490890582899 0 -0.2242493546558077 0.44235471361969553 0 -0.24092688658692171 0.43286849171069308 0 -0.25345677561811758 0.46036691342989022 0 -0.23001101257685119 0.46262354083324181 0 -0.25345677561811758 0.46036691342989022 0 -0.24129970279445639 0.44943490890582899 0 -0.23001101257685119 0.46262354083324181 0 -0.25345677561811758 0.46036691342989022 0 -0.25315469521642581 0.4750486889203015 0 -0.23001101257685119 0.46262354083324181 0 -0.24129970279445639 0.44943490890582899 0 -0.23001101257685119 0.46262354083324181 0 -0.2242493546558077 0.44235471361969553 0 -0.23001101257685119 0.46262354083324181 0 -0.2242493546558077 0.44235471361969553 0 -0.2144914677851314 0.45380351874251162 0 -0.2242493546558077 0.44235471361969553 0 -0.20880164963731279 0.443380440886459 0 -0.2144914677851314 0.45380351874251162 0 -0.20880164963731279 0.443380440886459 0 -0.2144914677851314 0.45380351874251162 0 -0.20415969833182021 0.45549933815243238 0 -0.23001101257685119 0.46262354083324181 0 -0.2144914677851314 0.45380351874251162 0 -0.20656524953558469 0.46488016823659339 0 -0.21852396914967101 0.47285401242330122 0 -0.23001101257685119 0.46262354083324181 0 -0.20656524953558469 0.46488016823659339 0 -0.23001101257685119 0.46262354083324181 0 -0.20656524953558469 0.46488016823659339 0 -0.2144914677851314 0.45380351874251162 0 -0.20415969833182021 0.45549933815243238 0 -0.20656524953558469 0.46488016823659339 0 -0.1829865290739871 0.45873048193697258 0 -0.1829590266345629 0.45699162349075462 0 -0.20415969833182021 0.45549933815243238 0 -0.1829865290739871 0.45873048193697258 0 -0.20415969833182021 0.45549933815243238 0 -0.18311948649431831 0.46713679563994498 0 -0.20415969833182021 0.45549933815243238 0 -0.20656524953558469 0.46488016823659339 0 -0.1829865290739871 0.45873048193697258 0 -0.18311948649431831 0.46713679563994498 0 -0.20415969833182021 0.45549933815243238 0 -0.18311948649431831 0.46713679563994498 0 -0.20656524953558469 0.46488016823659339 0 -0.1829590266345629 0.45699162349075462 0 -0.19557533522393281 0.44055915781337712 0 -0.1829590266345629 0.45699162349075462 0 -0.20415969833182021 0.45549933815243238 0 -0.19557533522393281 0.44055915781337712 0 -0.20880164963731279 0.443380440886459 0 -0.20415969833182021 0.45549933815243238 0 -0.19557533522393281 0.44055915781337712 0 -0.19557533522393281 0.44055915781337712 0 -0.20819164381331129 0.42412669213600601 0 -0.19557533522393281 0.44055915781337712 0 -0.19413142888046839 0.4217351031076268 0 -0.18255950863604661 0.43173185523385532 0 -0.19557533522393281 0.44055915781337712 0 -0.19413142888046839 0.4217351031076268 0 -0.20819164381331129 0.42412669213600601 0 -0.19413142888046839 0.4217351031076268 0 -0.20819164381331129 0.42412669213600601 0 -0.2021706660915297 0.40578572337793972 0 -0.19413142888046839 0.4217351031076268 0 -0.2021706660915297 0.40578572337793972 0 -0.18215999063752189 0.40647208697695608 0 -0.20819164381331129 0.42412669213600601 0 -0.22405449890785839 0.40643558214578251 0 -0.2021706660915297 0.40578572337793972 0 -0.20880164963731279 0.443380440886459 0 -0.19557533522393281 0.44055915781337712 0 -0.20819164381331129 0.42412669213600601 0 -0.2242493546558077 0.44235471361969553 0 -0.20880164963731279 0.443380440886459 0 -0.20819164381331129 0.42412669213600601 0 -0.2242493546558077 0.44235471361969553 0 -0.20819164381331129 0.42412669213600601 0 -0.22600929792909111 0.42518400498706249 0 -0.2242493546558077 0.44235471361969553 0 -0.22600929792909111 0.42518400498706249 0 -0.24092688658692171 0.43286849171069308 0 -0.20819164381331129 0.42412669213600601 0 -0.22600929792909111 0.42518400498706249 0 -0.22405449890785839 0.40643558214578251 0 -0.22600929792909111 0.42518400498706249 0 -0.22405449890785839 0.40643558214578251 0 -0.2382988550227183 0.41778448946306668 0 -0.2572482915111563 0.42152384209731297 0 -0.2382988550227183 0.41778448946306668 0 -0.2490618870264745 0.40647588616764979 0 -0.22405449890785839 0.40643558214578251 0 -0.2382988550227183 0.41778448946306668 0 -0.2490618870264745 0.40647588616764979 0 -0.2572482915111563 0.42152384209731297 0 -0.2382988550227183 0.41778448946306668 0 -0.24092688658692171 0.43286849171069308 0 -0.22600929792909111 0.42518400498706249 0 -0.2382988550227183 0.41778448946306668 0 -0.24092688658692171 0.43286849171069308 0 -0.24000210142933509 0.37809552861286783 0 -0.23801773827758249 0.39392053259368742 0 -0.22567210936962789 0.38582584627882549 0 -0.25152819264859128 0.38883491631829081 0 -0.24000210142933509 0.37809552861286783 0 -0.23801773827758249 0.39392053259368742 0 -0.25213085833087667 0.37355178257669552 0 -0.25152819264859128 0.38883491631829081 0 -0.24000210142933509 0.37809552861286783 0 -0.25152819264859128 0.38883491631829081 0 -0.2490618870264745 0.40647588616764979 0 -0.23801773827758249 0.39392053259368742 0 -0.22405449890785839 0.40643558214578251 0 -0.2490618870264745 0.40647588616764979 0 -0.23801773827758249 0.39392053259368742 0 -0.22405449890785839 0.40643558214578251 0 -0.22567210936962789 0.38582584627882549 0 -0.2099895612515065 0.38861519238670661 0 -0.22405449890785839 0.40643558214578251 0 -0.23801773827758249 0.39392053259368742 0 -0.22567210936962789 0.38582584627882549 0 -0.22567210936962789 0.38582584627882549 0 -0.21752164111765379 0.37637519474985792 0 -0.23054114355980421 0.3681661286558337 0 -0.24000210142933509 0.37809552861286783 0 -0.22567210936962789 0.38582584627882549 0 -0.23054114355980421 0.3681661286558337 0 -0.22567210936962789 0.38582584627882549 0 -0.21752164111765379 0.37637519474985792 0 -0.2099895612515065 0.38861519238670661 0 -0.21752164111765379 0.37637519474985792 0 -0.2099895612515065 0.38861519238670661 0 -0.20825127389149589 0.37038948781896619 0 -0.2099895612515065 0.38861519238670661 0 -0.1956253707180633 0.37355818799515828 0 -0.20825127389149589 0.37038948781896619 0 -0.22405449890785839 0.40643558214578251 0 -0.2099895612515065 0.38861519238670661 0 -0.2021706660915297 0.40578572337793972 0 -0.2021706660915297 0.40578572337793972 0 -0.19434121226752371 0.39112870189136351 0 -0.18215999063752189 0.40647208697695608 0 -0.2099895612515065 0.38861519238670661 0 -0.2021706660915297 0.40578572337793972 0 -0.19434121226752371 0.39112870189136351 0 -0.2099895612515065 0.38861519238670661 0 -0.19434121226752371 0.39112870189136351 0 -0.1956253707180633 0.37355818799515828 0 -0.19434121226752371 0.39112870189136351 0 -0.18176047263899719 0.38121231872005679 0 -0.1956253707180633 0.37355818799515828 0 -0.18176047263899719 0.38121231872005679 0 -0.16585623702428451 0.39107516703040651 0 -0.16689278400863089 0.37048631692620287 0 -0.16585623702428451 0.39107516703040651 0 -0.1532541744773912 0.375434017343177 0 -0.15169756500005979 0.38990146883471011 0 -0.16585623702428451 0.39107516703040651 0 -0.1532541744773912 0.375434017343177 0 -0.16689278400863089 0.37048631692620287 0 -0.16585623702428451 0.39107516703040651 0 -0.1665369108918931 0.40914444316194981 0 -0.1556916669008335 0.40278409093046019 0 -0.16585623702428451 0.39107516703040651 0 -0.18215999063752189 0.40647208697695608 0 -0.1665369108918931 0.40914444316194981 0 -0.16585623702428451 0.39107516703040651 0 -0.15169756500005979 0.38990146883471011 0 -0.1556916669008335 0.40278409093046019 0 -0.18176047263899719 0.38121231872005679 0 -0.16585623702428451 0.39107516703040651 0 -0.18215999063752189 0.40647208697695608 0 -0.18176047263899719 0.38121231872005679 0 -0.18215999063752189 0.40647208697695608 0 -0.19434121226752371 0.39112870189136351 0 -0.18176047263899719 0.38121231872005679 0 -0.18215999063752189 0.40647208697695608 0 -0.18215999063752189 0.40647208697695608 0 -0.18255950863604661 0.43173185523385532 0 -0.18215999063752189 0.40647208697695608 0 -0.16958367679162159 0.42493542776846188 0 -0.1665369108918931 0.40914444316194981 0 -0.19413142888046839 0.4217351031076268 0 -0.18215999063752189 0.40647208697695608 0 -0.18255950863604661 0.43173185523385532 0 -0.18215999063752189 0.40647208697695608 0 -0.18255950863604661 0.43173185523385532 0 -0.16958367679162159 0.42493542776846188 0 -0.16940388650370539 0.44815354093755089 0 -0.18255950863604661 0.43173185523385532 0 -0.16958367679162159 0.42493542776846188 0 -0.16940388650370539 0.44815354093755089 0 -0.16958367679162159 0.42493542776846188 0 -0.15912083936695831 0.4347249498771325 0 -0.16958367679162159 0.42493542776846188 0 -0.15912083936695831 0.4347249498771325 0 -0.15604886632200479 0.41831593774319042 0 -0.16958367679162159 0.42493542776846188 0 -0.1665369108918931 0.40914444316194981 0 -0.15604886632200479 0.41831593774319042 0 -0.1665369108918931 0.40914444316194981 0 -0.15604886632200479 0.41831593774319042 0 -0.1556916669008335 0.40278409093046019 0 -0.15604886632200479 0.41831593774319042 0 -0.14768726638806501 0.40958107086639878 0 -0.1556916669008335 0.40278409093046019 0 -0.15604886632200479 0.41831593774319042 0 -0.1455440964649429 0.41771164433310332 0 -0.14575226394851429 0.42876386523653243 0 -0.15604886632200479 0.41831593774319042 0 -0.1455440964649429 0.41771164433310332 0 -0.14768726638806501 0.40958107086639878 0 -0.1455440964649429 0.41771164433310332 0 -0.14768726638806501 0.40958107086639878 0 -0.13820848934052041 0.41088683445876423 0 -0.15912083936695831 0.4347249498771325 0 -0.15604886632200479 0.41831593774319042 0 -0.14575226394851429 0.42876386523653243 0 -0.14949031039727409 0.43903968606904947 0 -0.15912083936695831 0.4347249498771325 0 -0.14575226394851429 0.42876386523653243 0 -0.1455440964649429 0.41771164433310332 0 -0.14575226394851429 0.42876386523653243 0 -0.13557398954387551 0.42076075412316039 0 -0.13973201497409549 0.44099892737807922 0 -0.14949031039727409 0.43903968606904947 0 -0.14575226394851429 0.42876386523653243 0 -0.13491063247587859 0.43073185275000708 0 -0.1242188050129694 0.42501783294758849 0 -0.1248743097581413 0.44162978393037222 0 -0.13973201497409549 0.44099892737807922 0 -0.14575226394851429 0.42876386523653243 0 -0.13491063247587859 0.43073185275000708 0 -0.14575226394851429 0.42876386523653243 0 -0.13491063247587859 0.43073185275000708 0 -0.13557398954387551 0.42076075412316039 0 -0.13491063247587859 0.43073185275000708 0 -0.13557398954387551 0.42076075412316039 0 -0.1242188050129694 0.42501783294758849 0 -0.13820848934052041 0.41088683445876423 0 -0.13557398954387551 0.42076075412316039 0 -0.12623023605756489 0.41143854881348008 0 -0.1455440964649429 0.41771164433310332 0 -0.13820848934052041 0.41088683445876423 0 -0.13557398954387551 0.42076075412316039 0 -0.13557398954387551 0.42076075412316039 0 -0.12623023605756489 0.41143854881348008 0 -0.1242188050129694 0.42501783294758849 0 -0.13820848934052041 0.41088683445876423 0 -0.12623023605756489 0.41143854881348008 0 -0.13398515235888339 0.40371564514020769 0 -0.12997925716256209 0.39431640422262348 0 -0.14074253368576661 0.38200722200303072 0 -0.1429432129120235 0.39820684686647628 0 -0.12623023605756489 0.41143854881348008 0 -0.13398515235888339 0.40371564514020769 0 -0.12997925716256209 0.39431640422262348 0 -0.13398515235888339 0.40371564514020769 0 -0.12997925716256209 0.39431640422262348 0 -0.1429432129120235 0.39820684686647628 0 -0.13820848934052041 0.41088683445876423 0 -0.13398515235888339 0.40371564514020769 0 -0.1429432129120235 0.39820684686647628 0 -0.12997925716256209 0.39431640422262348 0 -0.14074253368576661 0.38200722200303072 0 -0.12523428666698541 0.37069662222368049 0 -0.12997925716256209 0.39431640422262348 0 -0.12523428666698541 0.37069662222368049 0 -0.12103247972044499 0.39311621374447298 0 -0.14074253368576661 0.38200722200303072 0 -0.15169756500005979 0.38990146883471011 0 -0.1429432129120235 0.39820684686647628 0 -0.14074253368576661 0.38200722200303072 0 -0.1532541744773912 0.375434017343177 0 -0.15169756500005979 0.38990146883471011 0 -0.15169756500005979 0.38990146883471011 0 -0.1556916669008335 0.40278409093046019 0 -0.1429432129120235 0.39820684686647628 0 -0.14768726638806501 0.40958107086639878 0 -0.1556916669008335 0.40278409093046019 0 -0.1429432129120235 0.39820684686647628 0 -0.14768726638806501 0.40958107086639878 0 -0.13820848934052041 0.41088683445876423 0 -0.1429432129120235 0.39820684686647628 0 -0.14407255521749979 0.34403263722221961 0 -0.15504053286571459 0.3545366000593369 0 -0.14129669608781389 0.36249735492572199 0 -0.14407255521749979 0.34403263722221961 0 -0.15504053286571459 0.3545366000593369 0 -0.1549481930100888 0.34056708499864929 0 -0.14074253368576661 0.38200722200303072 0 -0.1532541744773912 0.375434017343177 0 -0.14129669608781389 0.36249735492572199 0 -0.1532541744773912 0.375434017343177 0 -0.15504053286571459 0.3545366000593369 0 -0.14129669608781389 0.36249735492572199 0 -0.14129669608781389 0.36249735492572199 0 -0.12523428666698541 0.37069662222368049 0 -0.1294360936135257 0.3482770307028879 0 -0.12523428666698541 0.37069662222368049 0 -0.1294360936135257 0.3482770307028879 0 -0.14074253368576661 0.38200722200303072 0 -0.14129669608781389 0.36249735492572199 0 -0.12523428666698541 0.37069662222368049 0 -0.14407255521749979 0.34403263722221961 0 -0.14129669608781389 0.36249735492572199 0 -0.1294360936135257 0.3482770307028879 0 -0.1294360936135257 0.3482770307028879 0 -0.13363790056006589 0.32585743918209531 0 -0.14407255521749979 0.34403263722221961 0 -0.1294360936135257 0.3482770307028879 0 -0.13363790056006589 0.32585743918209531 0 -0.1294360936135257 0.3482770307028879 0 -0.13363790056006589 0.32585743918209531 0 -0.1154499742120704 0.34086754873962172 0 -0.12722248981549561 0.3181430308760943 0 -0.13363790056006589 0.32585743918209531 0 -0.1360408951285694 0.3130357752318072 0 -0.12722248981549561 0.3181430308760943 0 -0.1360408951285694 0.3130357752318072 0 -0.12136448477009221 0.30951812845445109 0 -0.12722248981549561 0.3181430308760943 0 -0.13363790056006589 0.32585743918209531 0 -0.12142985306419619 0.32461006626398298 0 -0.13363790056006589 0.32585743918209531 0 -0.12142985306419619 0.32461006626398298 0 -0.13363790056006589 0.32585743918209531 0 -0.1360408951285694 0.3130357752318072 0 -0.14290423209994971 0.32095809222069871 0 -0.13363790056006589 0.32585743918209531 0 -0.1360408951285694 0.3130357752318072 0 -0.14290423209994971 0.32095809222069871 0 -0.1532404752523272 0.32269894785805692 0 -0.1464174014568787 0.29836992735667278 0 -0.13363790056006589 0.32585743918209531 0 -0.14290423209994971 0.32095809222069871 0 -0.15729966860100811 0.32827511069417059 0 -0.13363790056006589 0.32585743918209531 0 -0.15729966860100811 0.32827511069417059 0 -0.14290423209994971 0.32095809222069871 0 -0.1532404752523272 0.32269894785805692 0 -0.15729966860100811 0.32827511069417059 0 -0.1532404752523272 0.32269894785805692 0 -0.15943794807189979 0.31595908059817063 0 -0.1547819877644892 0.3091453549012102 0 -0.14407255521749979 0.34403263722221961 0 -0.13363790056006589 0.32585743918209531 0 -0.14748957934716561 0.33468306802428371 0 -0.13363790056006589 0.32585743918209531 0 -0.14748957934716561 0.33468306802428371 0 -0.15729966860100811 0.32827511069417059 0 -0.14748957934716561 0.33468306802428371 0 -0.1549481930100888 0.34056708499864929 0 -0.15729966860100811 0.32827511069417059 0 -0.14407255521749979 0.34403263722221961 0 -0.14748957934716561 0.33468306802428371 0 -0.1549481930100888 0.34056708499864929 0 -0.15729966860100811 0.32827511069417059 0 -0.18096143664194889 0.33069278220625808 0 -0.1549481930100888 0.34056708499864929 0 -0.15729966860100811 0.32827511069417059 0 -0.16781010436956259 0.34240718275037813 0 -0.15729966860100811 0.32827511069417059 0 -0.16781010436956259 0.34240718275037813 0 -0.18096143664194889 0.33069278220625808 0 -0.15729966860100811 0.32827511069417059 0 -0.17028988351433311 0.32233995817617028 0 -0.18096143664194889 0.33069278220625808 0 -0.15943794807189979 0.31595908059817063 0 -0.16495134068588049 0.31685297469802859 0 -0.1638395481514221 0.30983277085387728 0 -0.1532404752523272 0.32269894785805692 0 -0.15943794807189979 0.31595908059817063 0 -0.16037638850537991 0.32126535467967993 0 -0.15943794807189979 0.31595908059817063 0 -0.16037638850537991 0.32126535467967993 0 -0.16495134068588049 0.31685297469802859 0 -0.15729966860100811 0.32827511069417059 0 -0.16037638850537991 0.32126535467967993 0 -0.17028988351433311 0.32233995817617028 0 -0.1532404752523272 0.32269894785805692 0 -0.15729966860100811 0.32827511069417059 0 -0.16037638850537991 0.32126535467967993 0 -0.16495134068588049 0.31685297469802859 0 -0.17285953122972289 0.31090601179704258 0 -0.1638395481514221 0.30983277085387728 0 -0.17028988351433311 0.32233995817617028 0 -0.16495134068588049 0.31685297469802859 0 -0.17285953122972289 0.31090601179704258 0 -0.16037638850537991 0.32126535467967993 0 -0.17028988351433311 0.32233995817617028 0 -0.16495134068588049 0.31685297469802859 0 -0.18077272512400111 0.31876138179813301 0 -0.17285953122972289 0.31090601179704258 0 -0.17028988351433311 0.32233995817617028 0 -0.18077272512400111 0.31876138179813301 0 -0.17285953122972289 0.31090601179704258 0 -0.17028988351433311 0.32233995817617028 0 -0.18077272512400111 0.31876138179813301 0 -0.18096143664194889 0.33069278220625808 0 -0.18077272512400111 0.31876138179813301 0 -0.19386790912735871 0.33176087567547108 0 -0.18077272512400111 0.31876138179813301 0 -0.18096143664194889 0.33069278220625808 0 -0.18077272512400111 0.31876138179813301 0 -0.18096143664194889 0.33069278220625808 0 -0.19386790912735871 0.33176087567547108 0 -0.18096143664194889 0.33069278220625808 0 -0.1813609546404725 0.35595255046315749 0 -0.18096143664194889 0.33069278220625808 0 -0.1813609546404725 0.35595255046315749 0 -0.19258948339875709 0.33633707034479371 0 -0.16781010436956259 0.34240718275037813 0 -0.18096143664194889 0.33069278220625808 0 -0.1813609546404725 0.35595255046315749 0 -0.18096143664194889 0.33069278220625808 0 -0.19386790912735871 0.33176087567547108 0 -0.15504053286571459 0.3545366000593369 0 -0.16781010436956259 0.34240718275037813 0 -0.1813609546404725 0.35595255046315749 0 -0.15504053286571459 0.3545366000593369 0 -0.1549481930100888 0.34056708499864929 0 -0.16781010436956259 0.34240718275037813 0 -0.1532541744773912 0.375434017343177 0 -0.15504053286571459 0.3545366000593369 0 -0.16689278400863089 0.37048631692620287 0 -0.15504053286571459 0.3545366000593369 0 -0.1813609546404725 0.35595255046315749 0 -0.16689278400863089 0.37048631692620287 0 -0.18176047263899719 0.38121231872005679 0 -0.1813609546404725 0.35595255046315749 0 -0.18176047263899719 0.38121231872005679 0 -0.1813609546404725 0.35595255046315749 0 -0.1956253707180633 0.37355818799515828 0 -0.18176047263899719 0.38121231872005679 0 -0.1813609546404725 0.35595255046315749 0 -0.16689278400863089 0.37048631692620287 0 -0.1813609546404725 0.35595255046315749 0 -0.1956253707180633 0.37355818799515828 0 -0.2000380028121157 0.35856944723279938 0 -0.1956253707180633 0.37355818799515828 0 -0.2000380028121157 0.35856944723279938 0 -0.20825127389149589 0.37038948781896619 0 -0.1813609546404725 0.35595255046315749 0 -0.1951678646333711 0.34883535218340811 0 -0.19258948339875709 0.33633707034479371 0 -0.1813609546404725 0.35595255046315749 0 -0.1951678646333711 0.34883535218340811 0 -0.2000380028121157 0.35856944723279938 0 -0.1951678646333711 0.34883535218340811 0 -0.2000380028121157 0.35856944723279938 0 -0.20668301768213909 0.34448234069288158 0 -0.20668301768213909 0.34448234069288158 0 -0.2120127789660084 0.36084248239747968 0 -0.21921666942493959 0.3569244055809645 0 -0.2000380028121157 0.35856944723279938 0 -0.20668301768213909 0.34448234069288158 0 -0.2120127789660084 0.36084248239747968 0 -0.2120127789660084 0.36084248239747968 0 -0.21921666942493959 0.3569244055809645 0 -0.20668301768213909 0.34448234069288158 0 -0.21921666942493959 0.3569244055809645 0 -0.22158808080033929 0.34557455345049992 0 -0.20668301768213909 0.34448234069288158 0 -0.21921666942493959 0.3569244055809645 0 -0.2000380028121157 0.35856944723279938 0 -0.20825127389149589 0.37038948781896619 0 -0.2120127789660084 0.36084248239747968 0 -0.2120127789660084 0.36084248239747968 0 -0.2199937556016836 0.36693485901855288 0 -0.21921666942493959 0.3569244055809645 0 -0.20825127389149589 0.37038948781896619 0 -0.2120127789660084 0.36084248239747968 0 -0.2199937556016836 0.36693485901855288 0 -0.21752164111765379 0.37637519474985792 0 -0.20825127389149589 0.37038948781896619 0 -0.2199937556016836 0.36693485901855288 0 -0.21752164111765379 0.37637519474985792 0 -0.23054114355980421 0.3681661286558337 0 -0.2199937556016836 0.36693485901855288 0 -0.23054114355980421 0.3681661286558337 0 -0.21921666942493959 0.3569244055809645 0 -0.23305195790672301 0.35812934693154008 0 -0.23054114355980421 0.3681661286558337 0 -0.2199937556016836 0.36693485901855288 0 -0.21921666942493959 0.3569244055809645 0 -0.23054114355980421 0.3681661286558337 0 -0.21921666942493959 0.3569244055809645 0 -0.21921666942493959 0.3569244055809645 0 -0.22158808080033929 0.34557455345049992 0 -0.23915963598069589 0.34607775607121571 0 -0.21921666942493959 0.3569244055809645 0 -0.23915963598069589 0.34607775607121571 0 -0.21921666942493959 0.3569244055809645 0 -0.23305195790672301 0.35812934693154008 0 -0.23915963598069589 0.34607775607121571 0 -0.23305195790672301 0.35812934693154008 0 -0.23915963598069589 0.34607775607121571 0 -0.24329038266145239 0.36134909741814653 0 -0.25407523553642281 0.3497448278934856 0 -0.23915963598069589 0.34607775607121571 0 -0.24329038266145239 0.36134909741814653 0 -0.25213085833087667 0.37355178257669552 0 -0.24000210142933509 0.37809552861286783 0 -0.24329038266145239 0.36134909741814653 0 -0.24000210142933509 0.37809552861286783 0 -0.23054114355980421 0.3681661286558337 0 -0.24329038266145239 0.36134909741814653 0 -0.23054114355980421 0.3681661286558337 0 -0.23305195790672301 0.35812934693154008 0 -0.24329038266145239 0.36134909741814653 0 -0.23582541811145999 0.32679902143390172 0 -0.24885494741763489 0.31718848033418301 0 -0.23189508169276829 0.30076725351495531 0 -0.23582541811145999 0.32679902143390172 0 -0.24885494741763489 0.31718848033418301 0 -0.24633099797708269 0.32737693631841108 0 -0.25451497659773847 0.32559442806853028 0 -0.24885494741763489 0.31718848033418301 0 -0.24633099797708269 0.32737693631841108 0 -0.24843663428782739 0.33758714710907461 0 -0.22129300011358269 0.33481371145693772 0 -0.25451497659773847 0.32559442806853028 0 -0.24633099797708269 0.32737693631841108 0 -0.24843663428782739 0.33758714710907461 0 -0.25910260253645218 0.33523110656146687 0 -0.23915963598069589 0.34607775607121571 0 -0.23582541811145999 0.32679902143390172 0 -0.24633099797708269 0.32737693631841108 0 -0.24843663428782739 0.33758714710907461 0 -0.25910260253645218 0.33523110656146687 0 -0.23915963598069589 0.34607775607121571 0 -0.24843663428782739 0.33758714710907461 0 -0.23582541811145999 0.32679902143390172 0 -0.24843663428782739 0.33758714710907461 0 -0.22129300011358269 0.33481371145693772 0 -0.23915963598069589 0.34607775607121571 0 -0.24843663428782739 0.33758714710907461 0 -0.22129300011358269 0.33481371145693772 0 -0.22158808080033929 0.34557455345049992 0 -0.23915963598069589 0.34607775607121571 0 -0.22129300011358269 0.33481371145693772 0 -0.23582541811145999 0.32679902143390172 0 -0.21954464392232159 0.31820766509236142 0 -0.23189508169276829 0.30076725351495531 0 -0.23582541811145999 0.32679902143390172 0 -0.22129300011358269 0.33481371145693772 0 -0.21954464392232159 0.31820766509236142 0 -0.21954464392232159 0.31820766509236142 0 -0.20492818889453221 0.32276220977772679 0 -0.20060783596013981 0.3076349397264902 0 -0.22129300011358269 0.33481371145693772 0 -0.21954464392232159 0.31820766509236142 0 -0.20492818889453221 0.32276220977772679 0 -0.22129300011358269 0.33481371145693772 0 -0.20492818889453221 0.32276220977772679 0 -0.19386790912735871 0.33176087567547108 0 -0.22129300011358269 0.33481371145693772 0 -0.19386790912735871 0.33176087567547108 0 -0.20668301768213909 0.34448234069288158 0 -0.22129300011358269 0.33481371145693772 0 -0.19386790912735871 0.33176087567547108 0 -0.20668301768213909 0.34448234069288158 0 -0.22158808080033929 0.34557455345049992 0 -0.22129300011358269 0.33481371145693772 0 -0.20668301768213909 0.34448234069288158 0 -0.19386790912735871 0.33176087567547108 0 -0.19258948339875709 0.33633707034479371 0 -0.20668301768213909 0.34448234069288158 0 -0.19386790912735871 0.33176087567547108 0 -0.1951678646333711 0.34883535218340811 0 -0.20668301768213909 0.34448234069288158 0 -0.19258948339875709 0.33633707034479371 0 -0.18096143664194889 0.33069278220625808 0 -0.19386790912735871 0.33176087567547108 0 -0.19258948339875709 0.33633707034479371 0 -0.19386790912735871 0.33176087567547108 0 -0.19258948339875709 0.33633707034479371 0 -0.18077272512400111 0.31876138179813301 0 -0.19386790912735871 0.33176087567547108 0 -0.20060783596013981 0.3076349397264902 0 -0.20492818889453221 0.32276220977772679 0 -0.19386790912735871 0.33176087567547108 0 -0.20060783596013981 0.3076349397264902 0 -0.19386790912735871 0.33176087567547108 0 -0.20060783596013981 0.3076349397264902 0 -0.20060783596013981 0.3076349397264902 0 -0.20734776279292019 0.28350900377750898 0 -0.23189508169276829 0.30076725351495531 0 -0.21954464392232159 0.31820766509236142 0 -0.20060783596013981 0.3076349397264902 0 -0.23189508169276829 0.30076725351495531 0 -0.20060783596013981 0.3076349397264902 0 -0.20734776279292019 0.28350900377750898 0 -0.18034630435624241 0.29180066960649809 0 -0.20734776279292019 0.28350900377750898 0 -0.19375927737912041 0.2730469699042487 0 -0.18034630435624241 0.29180066960649809 0 -0.20060783596013981 0.3076349397264902 0 -0.20734776279292019 0.28350900377750898 0 -0.20734776279292019 0.28350900377750898 0 -0.23189508169276829 0.30076725351495531 0 -0.22396762922540969 0.27514125130055722 0 -0.23189508169276829 0.30076725351495531 0 -0.2378434694439332 0.28391349183279069 0 -0.22396762922540969 0.27514125130055722 0 -0.25673188405007052 0.28646841290673969 0 -0.23189508169276829 0.30076725351495531 0 -0.2378434694439332 0.28391349183279069 0 -0.25673188405007052 0.28646841290673969 0 -0.23189508169276829 0.30076725351495531 0 -0.25505401324638421 0.30366623925853881 0 -0.25673188405007052 0.28646841290673969 0 -0.23189508169276829 0.30076725351495531 0 -0.25505401324638421 0.30366623925853881 0 -0.24885494741763489 0.31718848033418301 0 -0.23189508169276829 0.30076725351495531 0 -0.25265925142613249 0.26128234508680298 0 -0.23885305679183191 0.2684477152547543 0 -0.23951274761537589 0.2474853768326048 0 -0.23885305679183191 0.2684477152547543 0 -0.22811192938500721 0.25829645972706228 0 -0.23951274761537589 0.2474853768326048 0 -0.25621817608628389 0.2460965770837312 0 -0.25265925142613249 0.26128234508680298 0 -0.23951274761537589 0.2474853768326048 0 -0.25673188405007052 0.28646841290673969 0 -0.2378434694439332 0.28391349183279069 0 -0.23885305679183191 0.2684477152547543 0 -0.25265925142613249 0.26128234508680298 0 -0.25673188405007052 0.28646841290673969 0 -0.23885305679183191 0.2684477152547543 0 -0.23885305679183191 0.2684477152547543 0 -0.22396762922540969 0.27514125130055722 0 -0.22811192938500721 0.25829645972706228 0 -0.2378434694439332 0.28391349183279069 0 -0.23885305679183191 0.2684477152547543 0 -0.22396762922540969 0.27514125130055722 0 -0.22811192938500721 0.25829645972706228 0 -0.22371849106378741 0.2462845034026982 0 -0.23951274761537589 0.2474853768326048 0 -0.22396762922540969 0.27514125130055722 0 -0.22811192938500721 0.25829645972706228 0 -0.21408768962570049 0.25938306782852782 0 -0.22811192938500721 0.25829645972706228 0 -0.21408768962570049 0.25938306782852782 0 -0.22371849106378741 0.2462845034026982 0 -0.21408768962570049 0.25938306782852782 0 -0.19928355658839081 0.25766712263582692 0 -0.2066863838603582 0.24242880758937649 0 -0.21408768962570049 0.25938306782852782 0 -0.20163280817849061 0.26608937016207479 0 -0.19928355658839081 0.25766712263582692 0 -0.20734776279292019 0.28350900377750898 0 -0.21408768962570049 0.25938306782852782 0 -0.20734776279292019 0.28350900377750898 0 -0.22396762922540969 0.27514125130055722 0 -0.21408768962570049 0.25938306782852782 0 -0.20734776279292019 0.28350900377750898 0 -0.21408768962570049 0.25938306782852782 0 -0.20163280817849061 0.26608937016207479 0 -0.20734776279292019 0.28350900377750898 0 -0.20163280817849061 0.26608937016207479 0 -0.19375927737912041 0.2730469699042487 0 -0.20163280817849061 0.26608937016207479 0 -0.19375927737912041 0.2730469699042487 0 -0.19160269433399771 0.26436194023610149 0 -0.19375927737912041 0.2730469699042487 0 -0.19160269433399771 0.26436194023610149 0 -0.17991988358848049 0.26483995741486333 0 -0.19928355658839081 0.25766712263582692 0 -0.18259587964237009 0.2606558300825601 0 -0.2066863838603582 0.24242880758937649 0 -0.18259587964237009 0.2606558300825601 0 -0.19333963139412971 0.24385714112684301 0 -0.19928355658839081 0.25766712263582692 0 -0.19160269433399771 0.26436194023610149 0 -0.18259587964237009 0.2606558300825601 0 -0.18259587964237009 0.2606558300825601 0 -0.2066863838603582 0.24242880758937649 0 -0.20163280817849061 0.26608937016207479 0 -0.19928355658839081 0.25766712263582692 0 -0.19160269433399771 0.26436194023610149 0 -0.17991988358848049 0.26483995741486333 0 -0.17951502337729761 0.2392424245160312 0 -0.17991988358848049 0.26483995741486333 0 -0.17042143569771079 0.26099360542817968 0 -0.17951502337729761 0.2392424245160312 0 -0.18259587964237009 0.2606558300825601 0 -0.17991988358848049 0.26483995741486333 0 -0.17951502337729761 0.2392424245160312 0 -0.19160269433399771 0.26436194023610149 0 -0.18259587964237009 0.2606558300825601 0 -0.17991988358848049 0.26483995741486333 0 -0.18259587964237009 0.2606558300825601 0 -0.17991988358848049 0.26483995741486333 0 -0.17991988358848049 0.26483995741486333 0 -0.17042143569771079 0.26099360542817968 0 -0.17716480609589361 0.26914773470870201 0 -0.17042143569771079 0.26099360542817968 0 -0.1627301728603629 0.26968240911070368 0 -0.1532221513837192 0.25419418888983192 0 -0.17042143569771079 0.26099360542817968 0 -0.1532221513837192 0.25419418888983192 0 -0.17951502337729761 0.2392424245160312 0 -0.1627301728603629 0.26968240911070368 0 -0.1620479085915319 0.28265904931380531 0 -0.15271877240598841 0.27446820953958367 0 -0.17042143569771079 0.26099360542817968 0 -0.1627301728603629 0.26968240911070368 0 -0.1699765768805111 0.26885491792894611 0 -0.1627301728603629 0.26968240911070368 0 -0.1699765768805111 0.26885491792894611 0 -0.16860704672851359 0.27535934789532951 0 -0.1627301728603629 0.26968240911070368 0 -0.16860704672851359 0.27535934789532951 0 -0.1620479085915319 0.28265904931380531 0 -0.16860704672851359 0.27535934789532951 0 -0.17077339862397739 0.28423195702734899 0 -0.1620479085915319 0.28265904931380531 0 -0.17991988358848049 0.26483995741486333 0 -0.18034630435624241 0.29180066960649809 0 -0.17991988358848049 0.26483995741486333 0 -0.17716480609589361 0.26914773470870201 0 -0.18034630435624241 0.29180066960649809 0 -0.16860704672851359 0.27535934789532951 0 -0.17716480609589361 0.26914773470870201 0 -0.17077339862397739 0.28423195702734899 0 -0.19375927737912041 0.2730469699042487 0 -0.17991988358848049 0.26483995741486333 0 -0.18034630435624241 0.29180066960649809 0 -0.17042143569771079 0.26099360542817968 0 -0.1699765768805111 0.26885491792894611 0 -0.17716480609589361 0.26914773470870201 0 -0.1699765768805111 0.26885491792894611 0 -0.16860704672851359 0.27535934789532951 0 -0.17716480609589361 0.26914773470870201 0 -0.17991988358848049 0.26483995741486333 0 -0.17716480609589361 0.26914773470870201 0 -0.17716480609589361 0.26914773470870201 0 -0.18034630435624241 0.29180066960649809 0 -0.17077339862397739 0.28423195702734899 0 -0.18034630435624241 0.29180066960649809 0 -0.16501618616712291 0.29775164083812761 0 -0.17077339862397739 0.28423195702734899 0 -0.18077272512400111 0.31876138179813301 0 -0.18034630435624241 0.29180066960649809 0 -0.18077272512400111 0.31876138179813301 0 -0.18034630435624241 0.29180066960649809 0 -0.17285953122972289 0.31090601179704258 0 -0.18034630435624241 0.29180066960649809 0 -0.17285953122972289 0.31090601179704258 0 -0.16501618616712291 0.29775164083812761 0 -0.18077272512400111 0.31876138179813301 0 -0.20060783596013981 0.3076349397264902 0 -0.18034630435624241 0.29180066960649809 0 -0.16501618616712291 0.29775164083812761 0 -0.15329008091572741 0.28945008379417048 0 -0.1547819877644892 0.3091453549012102 0 -0.17285953122972289 0.31090601179704258 0 -0.16501618616712291 0.29775164083812761 0 -0.1638395481514221 0.30983277085387728 0 -0.16501618616712291 0.29775164083812761 0 -0.1638395481514221 0.30983277085387728 0 -0.1547819877644892 0.3091453549012102 0 -0.15943794807189979 0.31595908059817063 0 -0.1638395481514221 0.30983277085387728 0 -0.1547819877644892 0.3091453549012102 0 -0.16501618616712291 0.29775164083812761 0 -0.17077339862397739 0.28423195702734899 0 -0.1620479085915319 0.28265904931380531 0 -0.16501618616712291 0.29775164083812761 0 -0.1620479085915319 0.28265904931380531 0 -0.15329008091572741 0.28945008379417048 0 -0.1464174014568787 0.29836992735667278 0 -0.13959432766143021 0.2740409068552887 0 -0.1620479085915319 0.28265904931380531 0 -0.15329008091572741 0.28945008379417048 0 -0.15271877240598841 0.27446820953958367 0 -0.15329008091572741 0.28945008379417048 0 -0.1464174014568787 0.29836992735667278 0 -0.13959432766143021 0.2740409068552887 0 -0.15329008091572741 0.28945008379417048 0 -0.1464174014568787 0.29836992735667278 0 -0.1547819877644892 0.3091453549012102 0 -0.1532404752523272 0.32269894785805692 0 -0.1464174014568787 0.29836992735667278 0 -0.1360408951285694 0.3130357752318072 0 -0.14290423209994971 0.32095809222069871 0 -0.1464174014568787 0.29836992735667278 0 -0.1532404752523272 0.32269894785805692 0 -0.1464174014568787 0.29836992735667278 0 -0.1547819877644892 0.3091453549012102 0 -0.1360408951285694 0.3130357752318072 0 -0.1264253840414637 0.29528772621663357 0 -0.12136448477009221 0.30951812845445109 0 -0.1360408951285694 0.3130357752318072 0 -0.1464174014568787 0.29836992735667278 0 -0.1264253840414637 0.29528772621663357 0 -0.1464174014568787 0.29836992735667278 0 -0.1264253840414637 0.29528772621663357 0 -0.13959432766143021 0.2740409068552887 0 -0.1264253840414637 0.29528772621663357 0 -0.13959432766143021 0.2740409068552887 0 -0.1185373796182298 0.27837978510360878 0 -0.13959432766143021 0.2740409068552887 0 -0.1327712538659816 0.24971188635390451 0 -0.13959432766143021 0.2740409068552887 0 -0.116744543106582 0.25728181003509248 0 -0.1327712538659816 0.24971188635390451 0 -0.13959432766143021 0.2740409068552887 0 -0.1532221513837192 0.25419418888983192 0 -0.1327712538659816 0.24971188635390451 0 -0.1627301728603629 0.26968240911070368 0 -0.1532221513837192 0.25419418888983192 0 -0.15271877240598841 0.27446820953958367 0 -0.13959432766143021 0.2740409068552887 0 -0.1532221513837192 0.25419418888983192 0 -0.15271877240598841 0.27446820953958367 0 -0.15329008091572741 0.28945008379417048 0 -0.13959432766143021 0.2740409068552887 0 -0.15271877240598841 0.27446820953958367 0 -0.1061606963602142 0.26761343855331338 0 -0.1001789302111205 0.27974269320078388 0 -0.1185373796182298 0.27837978510360878 0 -0.1061606963602142 0.26761343855331338 0 -0.1001789302111205 0.27974269320078388 0 -0.092613028744971265 0.26767711662392979 0 -0.1061606963602142 0.26761343855331338 0 -0.10005120432924321 0.25626016583208688 0 -0.116744543106582 0.25728181003509248 0 -0.1061606963602142 0.26761343855331338 0 -0.10005120432924321 0.25626016583208688 0 -0.092613028744971265 0.26767711662392979 0 -0.10005120432924321 0.25626016583208688 0 -0.116744543106582 0.25728181003509248 0 -0.1045487088169635 0.24438495162540061 0 -0.13959432766143021 0.2740409068552887 0 -0.116744543106582 0.25728181003509248 0 -0.1185373796182298 0.27837978510360878 0 -0.1061606963602142 0.26761343855331338 0 -0.116744543106582 0.25728181003509248 0 -0.1185373796182298 0.27837978510360878 0 -0.1264253840414637 0.29528772621663357 0 -0.1127724140037699 0.30190213115774378 0 -0.1091517300735869 0.29135078386346752 0 -0.1264253840414637 0.29528772621663357 0 -0.1185373796182298 0.27837978510360878 0 -0.1091517300735869 0.29135078386346752 0 -0.1264253840414637 0.29528772621663357 0 -0.12136448477009221 0.30951812845445109 0 -0.1127724140037699 0.30190213115774378 0 -0.12136448477009221 0.30951812845445109 0 -0.1127724140037699 0.30190213115774378 0 -0.1061991548417472 0.31213959050036899 0 -0.1127724140037699 0.30190213115774378 0 -0.1061991548417472 0.31213959050036899 0 -0.1005146973405663 0.30141191014932889 0 -0.1127724140037699 0.30190213115774378 0 -0.1005146973405663 0.30141191014932889 0 -0.1091517300735869 0.29135078386346752 0 -0.1005146973405663 0.30141191014932889 0 -0.094430836728355921 0.29177030977787999 0 -0.089068024122243669 0.30112896568664949 0 -0.1061991548417472 0.31213959050036899 0 -0.1005146973405663 0.30141191014932889 0 -0.090928135519314904 0.31087631578889069 0 -0.1001789302111205 0.27974269320078388 0 -0.1185373796182298 0.27837978510360878 0 -0.1091517300735869 0.29135078386346752 0 -0.1005146973405663 0.30141191014932889 0 -0.1091517300735869 0.29135078386346752 0 -0.094430836728355921 0.29177030977787999 0 -0.1001789302111205 0.27974269320078388 0 -0.1091517300735869 0.29135078386346752 0 -0.094430836728355921 0.29177030977787999 0 -0.1001789302111205 0.27974269320078388 0 -0.094430836728355921 0.29177030977787999 0 -0.086145563619835275 0.2816538088019015 0 -0.094430836728355921 0.29177030977787999 0 -0.086145563619835275 0.2816538088019015 0 -0.081526075002782958 0.29533369696514911 0 -0.094430836728355921 0.29177030977787999 0 -0.081526075002782958 0.29533369696514911 0 -0.089068024122243669 0.30112896568664949 0 -0.086145563619835275 0.2816538088019015 0 -0.081526075002782958 0.29533369696514911 0 -0.070830210313899522 0.29195808219782299 0 -0.090928135519314904 0.31087631578889069 0 -0.079482369404140468 0.30560554845979909 0 -0.074915307566508993 0.31649039264194578 0 -0.090928135519314904 0.31087631578889069 0 -0.089068024122243669 0.30112896568664949 0 -0.079482369404140468 0.30560554845979909 0 -0.1005146973405663 0.30141191014932889 0 -0.090928135519314904 0.31087631578889069 0 -0.089068024122243669 0.30112896568664949 0 -0.081526075002782958 0.29533369696514911 0 -0.089068024122243669 0.30112896568664949 0 -0.079482369404140468 0.30560554845979909 0 -0.054647974243728172 0.30430181459310768 0 -0.074915307566508993 0.31649039264194578 0 -0.079482369404140468 0.30560554845979909 0 -0.068661557073843291 0.3005821027458685 0 -0.074915307566508993 0.31649039264194578 0 -0.068661557073843291 0.3005821027458685 0 -0.054647974243728172 0.30430181459310768 0 -0.074915307566508993 0.31649039264194578 0 -0.081526075002782958 0.29533369696514911 0 -0.079482369404140468 0.30560554845979909 0 -0.068661557073843291 0.3005821027458685 0 -0.070830210313899522 0.29195808219782299 0 -0.067453711470644842 0.27023673344429472 0 -0.052574645638654917 0.28480468584225688 0 -0.081526075002782958 0.29533369696514911 0 -0.068661557073843291 0.3005821027458685 0 -0.070830210313899522 0.29195808219782299 0 -0.068661557073843291 0.3005821027458685 0 -0.070830210313899522 0.29195808219782299 0 -0.068661557073843291 0.3005821027458685 0 -0.070830210313899522 0.29195808219782299 0 -0.059610011597539182 0.29372125904316332 0 -0.086145563619835275 0.2816538088019015 0 -0.070830210313899522 0.29195808219782299 0 -0.077256670317037021 0.26667642926106078 0 -0.070830210313899522 0.29195808219782299 0 -0.067453711470644842 0.27023673344429472 0 -0.070830210313899522 0.29195808219782299 0 -0.077256670317037021 0.26667642926106078 0 -0.070830210313899522 0.29195808219782299 0 -0.067453711470644842 0.27023673344429472 0 -0.077256670317037021 0.26667642926106078 0 -0.086145563619835275 0.2816538088019015 0 -0.077256670317037021 0.26667642926106078 0 -0.092613028744971265 0.26767711662392979 0 -0.1001789302111205 0.27974269320078388 0 -0.086145563619835275 0.2816538088019015 0 -0.092613028744971265 0.26767711662392979 0 -0.077256670317037021 0.26667642926106078 0 -0.086302411784292182 0.25447467192259482 0 -0.083666647235009842 0.24139059785004849 0 -0.077256670317037021 0.26667642926106078 0 -0.083666647235009842 0.24139059785004849 0 -0.10005120432924321 0.25626016583208688 0 -0.086302411784292182 0.25447467192259482 0 -0.094679029848152713 0.24609146959404629 0 -0.10005120432924321 0.25626016583208688 0 -0.092613028744971265 0.26767711662392979 0 -0.086302411784292182 0.25447467192259482 0 -0.077256670317037021 0.26667642926106078 0 -0.092613028744971265 0.26767711662392979 0 -0.086302411784292182 0.25447467192259482 0 -0.077256670317037021 0.26667642926106078 0 -0.064077212627390134 0.24851538469076631 0 -0.083666647235009842 0.24139059785004849 0 -0.067453711470644842 0.27023673344429472 0 -0.077256670317037021 0.26667642926106078 0 -0.064077212627390134 0.24851538469076631 0 -0.067453711470644842 0.27023673344429472 0 -0.064077212627390134 0.24851538469076631 0 -0.067453711470644842 0.27023673344429472 0 -0.04634179854296408 0.26632715615711849 0 -0.064077212627390134 0.24851538469076631 0 -0.04634179854296408 0.26632715615711849 0 -0.064077212627390134 0.24851538469076631 0 -0.046578861792199937 0.24361118962503389 0 -0.067453711470644842 0.27023673344429472 0 -0.04634179854296408 0.26632715615711849 0 -0.052574645638654917 0.28480468584225688 0 -0.04634179854296408 0.26632715615711849 0 -0.034380640920947357 0.29211323654426968 0 -0.052574645638654917 0.28480468584225688 0 -0.04634179854296408 0.26632715615711849 0 -0.022607631921228569 0.27169805167723737 0 -0.034380640920947357 0.29211323654426968 0 -0.04634179854296408 0.26632715615711849 0 -0.03068766995985707 0.25286978792993342 0 -0.022607631921228569 0.27169805167723737 0 -0.04634179854296408 0.26632715615711849 0 -0.03068766995985707 0.25286978792993342 0 -0.046578861792199937 0.24361118962503389 0 -0.03068766995985707 0.25286978792993342 0 -0.022607631921228569 0.27169805167723737 0 -0.0098044441781452579 0.25473951632571468 0 -0.022607631921228569 0.27169805167723737 0 -0.015153941911089409 0.29208252597919021 0 3.3590645499582607e-05 0.27236849017123349 0 -0.022607631921228569 0.27169805167723737 0 -0.0098044441781452579 0.25473951632571468 0 3.3590645499582607e-05 0.27236849017123349 0 -0.0098044441781452579 0.25473951632571468 0 0.0073806355134042019 0.25529449578482938 0 3.3590645499582607e-05 0.27236849017123349 0 -0.0088759444352828343 0.31092800175718183 0 -0.015153941911089409 0.29208252597919021 0 0.0083336089875100904 0.29343585490586271 0 -0.015153941911089409 0.29208252597919021 0 0.0083336089875100904 0.29343585490586271 0 3.3590645499582607e-05 0.27236849017123349 0 -0.022607631921228569 0.27169805167723737 0 -0.015153941911089409 0.29208252597919021 0 -0.034380640920947357 0.29211323654426968 0 -0.0088759444352828343 0.31092800175718183 0 -0.015153941911089409 0.29208252597919021 0 -0.03508050583840458 0.3127012881250415 0 -0.015153941911089409 0.29208252597919021 0 -0.034380640920947357 0.29211323654426968 0 -0.03508050583840458 0.3127012881250415 0 -0.034380640920947357 0.29211323654426968 0 -0.054647974243728172 0.30430181459310768 0 -0.034380640920947357 0.29211323654426968 0 -0.054647974243728172 0.30430181459310768 0 -0.03508050583840458 0.3127012881250415 0 -0.034380640920947357 0.29211323654426968 0 -0.052574645638654917 0.28480468584225688 0 -0.054647974243728172 0.30430181459310768 0 -0.052574645638654917 0.28480468584225688 0 -0.059610011597539182 0.29372125904316332 0 -0.054647974243728172 0.30430181459310768 0 -0.070830210313899522 0.29195808219782299 0 -0.052574645638654917 0.28480468584225688 0 -0.059610011597539182 0.29372125904316332 0 -0.068661557073843291 0.3005821027458685 0 -0.059610011597539182 0.29372125904316332 0 -0.054647974243728172 0.30430181459310768 0 -0.058679851530075752 0.32054224196392622 0 -0.045885169747561752 0.33132665820789581 0 -0.073191842414501496 0.33174208285196288 0 -0.054647974243728172 0.30430181459310768 0 -0.058679851530075752 0.32054224196392622 0 -0.03508050583840458 0.3127012881250415 0 -0.045885169747561752 0.33132665820789581 0 -0.067541502003893042 0.3482616942848048 0 -0.073191842414501496 0.33174208285196288 0 -0.045885169747561752 0.33132665820789581 0 -0.073191842414501496 0.33174208285196288 0 -0.045885169747561752 0.33132665820789581 0 -0.018578497080621779 0.33091123356382868 0 -0.045885169747561752 0.33132665820789581 0 -0.03508050583840458 0.3127012881250415 0 -0.018578497080621779 0.33091123356382868 0 -0.058679851530075752 0.32054224196392622 0 -0.045885169747561752 0.33132665820789581 0 -0.03508050583840458 0.3127012881250415 0 -0.0088759444352828343 0.31092800175718183 0 -0.03508050583840458 0.3127012881250415 0 -0.018578497080621779 0.33091123356382868 0 -0.018578497080621779 0.33091123356382868 0 -0.0050552824635438226 0.34569829691311771 0 -0.02749858990914332 0.35301881799134821 0 -0.045885169747561752 0.33132665820789581 0 -0.018578497080621779 0.33091123356382868 0 -0.02749858990914332 0.35301881799134821 0 -0.018578497080621779 0.33091123356382868 0 -0.0050552824635438226 0.34569829691311771 0 0.0064742168078369342 0.3347740657525386 0 -0.018578497080621779 0.33091123356382868 0 0.0087281755863181168 0.33049580891976171 0 -0.018578497080621779 0.33091123356382868 0 0.0064742168078369342 0.3347740657525386 0 0.0087281755863181168 0.33049580891976171 0 -0.018578497080621779 0.33091123356382868 0 -0.003280447873963227 0.32161399115684158 0 0.0087281755863181168 0.33049580891976171 0 -0.0088759444352828343 0.31092800175718183 0 -0.018578497080621779 0.33091123356382868 0 -0.003280447873963227 0.32161399115684158 0 -0.0088759444352828343 0.31092800175718183 0 -0.003280447873963227 0.32161399115684158 0 0.0056044744337335906 0.31412092038659428 0 -0.0052616759920083916 0.36132776784546622 0 -0.0045342830833226501 0.3863935686212247 0 -0.0052616759920083916 0.36132776784546622 0 -0.024169526760701381 0.37267007813580277 0 -0.0045342830833226501 0.3863935686212247 0 -0.0052616759920083916 0.36132776784546622 0 -0.0045342830833226501 0.3863935686212247 0 0.0079023355216259559 0.37348921158265391 0 -0.0052616759920083916 0.36132776784546622 0 -0.0050552824635438226 0.34569829691311771 0 0.0061318462344260851 0.35417601161121459 0 -0.0052616759920083916 0.36132776784546622 0 -0.0050552824635438226 0.34569829691311771 0 -0.02749858990914332 0.35301881799134821 0 -0.02749858990914332 0.35301881799134821 0 -0.024169526760701381 0.37267007813580277 0 -0.04149310004589906 0.37124785083274592 0 -0.0052616759920083916 0.36132776784546622 0 -0.02749858990914332 0.35301881799134821 0 -0.024169526760701381 0.37267007813580277 0 -0.02749858990914332 0.35301881799134821 0 -0.04149310004589906 0.37124785083274592 0 -0.051818441616049399 0.35735321764765782 0 -0.045885169747561752 0.33132665820789581 0 -0.02749858990914332 0.35301881799134821 0 -0.051818441616049399 0.35735321764765782 0 -0.045885169747561752 0.33132665820789581 0 -0.051818441616049399 0.35735321764765782 0 -0.067541502003893042 0.3482616942848048 0 -0.04149310004589906 0.37124785083274592 0 -0.051818441616049399 0.35735321764765782 0 -0.056875823715872062 0.37631267096962301 0 -0.051818441616049399 0.35735321764765782 0 -0.069616273344600341 0.3650636543096733 0 -0.056875823715872062 0.37631267096962301 0 -0.069616273344600341 0.3650636543096733 0 -0.085055645225370236 0.37193713089684588 0 -0.071788917171084016 0.3809272333041443 0 -0.069616273344600341 0.3650636543096733 0 -0.071788917171084016 0.3809272333041443 0 -0.056875823715872062 0.37631267096962301 0 -0.069616273344600341 0.3650636543096733 0 -0.085055645225370236 0.37193713089684588 0 -0.084100884505446297 0.3554636863979832 0 -0.085055645225370236 0.37193713089684588 0 -0.084100884505446297 0.3554636863979832 0 -0.1008292236537022 0.36036332390371462 0 -0.084100884505446297 0.3554636863979832 0 -0.067541502003893042 0.3482616942848048 0 -0.085709514220790303 0.34113927750747819 0 -0.084100884505446297 0.3554636863979832 0 -0.085709514220790303 0.34113927750747819 0 -0.099722393067727538 0.34687368244968458 0 -0.069616273344600341 0.3650636543096733 0 -0.084100884505446297 0.3554636863979832 0 -0.067541502003893042 0.3482616942848048 0 -0.051818441616049399 0.35735321764765782 0 -0.069616273344600341 0.3650636543096733 0 -0.067541502003893042 0.3482616942848048 0 -0.067541502003893042 0.3482616942848048 0 -0.073191842414501496 0.33174208285196288 0 -0.085709514220790303 0.34113927750747819 0 -0.058679851530075752 0.32054224196392622 0 -0.073191842414501496 0.33174208285196288 0 -0.074915307566508993 0.31649039264194578 0 -0.054647974243728172 0.30430181459310768 0 -0.058679851530075752 0.32054224196392622 0 -0.074915307566508993 0.31649039264194578 0 -0.073191842414501496 0.33174208285196288 0 -0.074915307566508993 0.31649039264194578 0 -0.095182640889289766 0.32867897069078372 0 -0.090928135519314904 0.31087631578889069 0 -0.074915307566508993 0.31649039264194578 0 -0.095182640889289766 0.32867897069078372 0 -0.074915307566508993 0.31649039264194578 0 -0.095182640889289766 0.32867897069078372 0 -0.073191842414501496 0.33174208285196288 0 -0.085709514220790303 0.34113927750747819 0 -0.095182640889289766 0.32867897069078372 0 -0.085709514220790303 0.34113927750747819 0 -0.095182640889289766 0.32867897069078372 0 -0.099722393067727538 0.34687368244968458 0 -0.095182640889289766 0.32867897069078372 0 -0.1154499742120704 0.34086754873962172 0 -0.095182640889289766 0.32867897069078372 0 -0.1098512680755149 0.32470257897991811 0 -0.1154499742120704 0.34086754873962172 0 -0.095182640889289766 0.32867897069078372 0 -0.1154499742120704 0.34086754873962172 0 -0.099722393067727538 0.34687368244968458 0 -0.1061991548417472 0.31213959050036899 0 -0.090928135519314904 0.31087631578889069 0 -0.095182640889289766 0.32867897069078372 0 -0.1061991548417472 0.31213959050036899 0 -0.095182640889289766 0.32867897069078372 0 -0.1098512680755149 0.32470257897991811 0 -0.1061991548417472 0.31213959050036899 0 -0.115330384384618 0.31728312261503783 0 -0.1098512680755149 0.32470257897991811 0 -0.12136448477009221 0.30951812845445109 0 -0.1061991548417472 0.31213959050036899 0 -0.115330384384618 0.31728312261503783 0 -0.115330384384618 0.31728312261503783 0 -0.1098512680755149 0.32470257897991811 0 -0.12142985306419619 0.32461006626398298 0 -0.12722248981549561 0.3181430308760943 0 -0.115330384384618 0.31728312261503783 0 -0.12142985306419619 0.32461006626398298 0 -0.12722248981549561 0.3181430308760943 0 -0.12136448477009221 0.30951812845445109 0 -0.115330384384618 0.31728312261503783 0 -0.1098512680755149 0.32470257897991811 0 -0.12142985306419619 0.32461006626398298 0 -0.1154499742120704 0.34086754873962172 0 -0.13363790056006589 0.32585743918209531 0 -0.12142985306419619 0.32461006626398298 0 -0.1154499742120704 0.34086754873962172 0 -0.12523428666698541 0.37069662222368049 0 -0.1294360936135257 0.3482770307028879 0 -0.1154159689866658 0.35521970897278921 0 -0.1154499742120704 0.34086754873962172 0 -0.1154159689866658 0.35521970897278921 0 -0.099722393067727538 0.34687368244968458 0 -0.1294360936135257 0.3482770307028879 0 -0.1154499742120704 0.34086754873962172 0 -0.1154159689866658 0.35521970897278921 0 -0.12523428666698541 0.37069662222368049 0 -0.1154159689866658 0.35521970897278921 0 -0.11117961403065831 0.36839673047223442 0 -0.12523428666698541 0.37069662222368049 0 -0.11117961403065831 0.36839673047223442 0 -0.1123930043347208 0.38073562172137532 0 -0.11117961403065831 0.36839673047223442 0 -0.1008292236537022 0.36036332390371462 0 -0.09970079949094271 0.37763208900548878 0 -0.1154159689866658 0.35521970897278921 0 -0.11117961403065831 0.36839673047223442 0 -0.1008292236537022 0.36036332390371462 0 -0.085055645225370236 0.37193713089684588 0 -0.1008292236537022 0.36036332390371462 0 -0.09970079949094271 0.37763208900548878 0 -0.084100884505446297 0.3554636863979832 0 -0.1008292236537022 0.36036332390371462 0 -0.099722393067727538 0.34687368244968458 0 -0.1154159689866658 0.35521970897278921 0 -0.1008292236537022 0.36036332390371462 0 -0.099722393067727538 0.34687368244968458 0 -0.1036554482544351 0.39516830989393792 0 -0.1102807352191843 0.41378788895710661 0 -0.09259379641793411 0.40948313349934218 0 -0.1036554482544351 0.39516830989393792 0 -0.09970079949094271 0.37763208900548878 0 -0.1123930043347208 0.38073562172137532 0 -0.1036554482544351 0.39516830989393792 0 -0.09970079949094271 0.37763208900548878 0 -0.084297773186445962 0.39217279846007119 0 -0.11117961403065831 0.36839673047223442 0 -0.09970079949094271 0.37763208900548878 0 -0.1123930043347208 0.38073562172137532 0 -0.12523428666698541 0.37069662222368049 0 -0.1123930043347208 0.38073562172137532 0 -0.12103247972044499 0.39311621374447298 0 -0.1036554482544351 0.39516830989393792 0 -0.1123930043347208 0.38073562172137532 0 -0.12103247972044499 0.39311621374447298 0 -0.12523428666698541 0.37069662222368049 0 -0.12103247972044499 0.39311621374447298 0 -0.1036554482544351 0.39516830989393792 0 -0.12103247972044499 0.39311621374447298 0 -0.1102807352191843 0.41378788895710661 0 -0.12997925716256209 0.39431640422262348 0 -0.1102807352191843 0.41378788895710661 0 -0.12997925716256209 0.39431640422262348 0 -0.12103247972044499 0.39311621374447298 0 -0.1102807352191843 0.41378788895710661 0 -0.12623023605756489 0.41143854881348008 0 -0.1102807352191843 0.41378788895710661 0 -0.1242188050129694 0.42501783294758849 0 -0.12623023605756489 0.41143854881348008 0 -0.12997925716256209 0.39431640422262348 0 -0.1102807352191843 0.41378788895710661 0 -0.1102807352191843 0.41378788895710661 0 -0.1104760497445479 0.43296770510105842 0 -0.1242188050129694 0.42501783294758849 0 -0.1104760497445479 0.43296770510105842 0 -0.1242188050129694 0.42501783294758849 0 -0.1248743097581413 0.44162978393037222 0 -0.1102807352191843 0.41378788895710661 0 -0.090582213275806372 0.43325937369158968 0 -0.1102807352191843 0.41378788895710661 0 -0.1104760497445479 0.43296770510105842 0 -0.090582213275806372 0.43325937369158968 0 -0.1102807352191843 0.41378788895710661 0 -0.09259379641793411 0.40948313349934218 0 -0.090582213275806372 0.43325937369158968 0 -0.09259379641793411 0.40948313349934218 0 -0.090582213275806372 0.43325937369158968 0 -0.074152812153798875 0.41302729649400538 0 -0.090582213275806372 0.43325937369158968 0 -0.066022972602334681 0.42956105407568013 0 -0.074152812153798875 0.41302729649400538 0 -0.066022972602334681 0.42956105407568013 0 -0.074152812153798875 0.41302729649400538 0 -0.049329429094603867 0.41198700835812702 0 -0.074152812153798875 0.41302729649400538 0 -0.063154715464804681 0.39516467689365731 0 -0.084297773186445962 0.39217279846007119 0 -0.09259379641793411 0.40948313349934218 0 -0.074152812153798875 0.41302729649400538 0 -0.084297773186445962 0.39217279846007119 0 -0.1036554482544351 0.39516830989393792 0 -0.09259379641793411 0.40948313349934218 0 -0.084297773186445962 0.39217279846007119 0 -0.085055645225370236 0.37193713089684588 0 -0.09970079949094271 0.37763208900548878 0 -0.084297773186445962 0.39217279846007119 0 -0.085055645225370236 0.37193713089684588 0 -0.084297773186445962 0.39217279846007119 0 -0.071788917171084016 0.3809272333041443 0 -0.063154715464804681 0.39516467689365731 0 -0.084297773186445962 0.39217279846007119 0 -0.071788917171084016 0.3809272333041443 0 -0.063154715464804681 0.39516467689365731 0 -0.071788917171084016 0.3809272333041443 0 -0.056875823715872062 0.37631267096962301 0 -0.04149310004589906 0.37124785083274592 0 -0.056875823715872062 0.37631267096962301 0 -0.04338349465279491 0.38811939282985902 0 -0.063154715464804681 0.39516467689365731 0 -0.056875823715872062 0.37631267096962301 0 -0.04338349465279491 0.38811939282985902 0 -0.063154715464804681 0.39516467689365731 0 -0.04338349465279491 0.38811939282985902 0 -0.049329429094603867 0.41198700835812702 0 -0.04338349465279491 0.38811939282985902 0 -0.024844401122877391 0.39948633252540261 0 -0.049329429094603867 0.41198700835812702 0 -0.024169526760701381 0.37267007813580277 0 -0.04149310004589906 0.37124785083274592 0 -0.04338349465279491 0.38811939282985902 0 -0.024169526760701381 0.37267007813580277 0 -0.04338349465279491 0.38811939282985902 0 -0.024844401122877391 0.39948633252540261 0 -0.024169526760701381 0.37267007813580277 0 -0.024844401122877391 0.39948633252540261 0 -0.0045342830833226501 0.3863935686212247 0 -0.024844401122877391 0.39948633252540261 0 -0.0045342830833226501 0.3863935686212247 0 -0.0038092142255275289 0.41137928311071797 0 -0.0045342830833226501 0.3863935686212247 0 -0.0038092142255275289 0.41137928311071797 0 -0.024169526760701381 0.37267007813580277 0 -0.0045342830833226501 0.3863935686212247 0 -0.0030841453677343121 0.43636499760021141 0 -0.0038092142255275289 0.41137928311071797 0 -0.026324668085478481 0.42779129271708288 0 -0.0030841453677343121 0.43636499760021141 0 -0.0038092142255275289 0.41137928311071797 0 -0.024844401122877391 0.39948633252540261 0 -0.0038092142255275289 0.41137928311071797 0 -0.026324668085478481 0.42779129271708288 0 -0.026324668085478481 0.42779129271708288 0 -0.049329429094603867 0.41198700835812702 0 -0.049413859365407042 0.43472239834070731 0 -0.024844401122877391 0.39948633252540261 0 -0.026324668085478481 0.42779129271708288 0 -0.049329429094603867 0.41198700835812702 0 -0.074152812153798875 0.41302729649400538 0 -0.063154715464804681 0.39516467689365731 0 -0.049329429094603867 0.41198700835812702 0 -0.066022972602334681 0.42956105407568013 0 -0.049329429094603867 0.41198700835812702 0 -0.049413859365407042 0.43472239834070731 0 -0.066022972602334681 0.42956105407568013 0 -0.049413859365407042 0.43472239834070731 0 -0.0708836913324285 0.45273085842607269 0 -0.0393713920190637 0.45112048084748302 0 -0.052402143273794041 0.47435943831340011 0 -0.0708836913324285 0.45273085842607269 0 -0.049413859365407042 0.43472239834070731 0 -0.0393713920190637 0.45112048084748302 0 -0.0708836913324285 0.45273085842607269 0 -0.0393713920190637 0.45112048084748302 0 -0.02876560419008364 0.47203163756026523 0 -0.052402143273794041 0.47435943831340011 0 -0.026324668085478481 0.42779129271708288 0 -0.049413859365407042 0.43472239834070731 0 -0.0393713920190637 0.45112048084748302 0 -0.0030841453677343121 0.43636499760021141 0 -0.026324668085478481 0.42779129271708288 0 -0.01888650882967766 0.45329231687868837 0 -0.026324668085478481 0.42779129271708288 0 -0.0393713920190637 0.45112048084748302 0 -0.01888650882967766 0.45329231687868837 0 -0.0393713920190637 0.45112048084748302 0 -0.01888650882967766 0.45329231687868837 0 -0.02876560419008364 0.47203163756026523 0 -0.01888650882967766 0.45329231687868837 0 -0.01341416680576474 0.47109478045738301 0 -0.02876560419008364 0.47203163756026523 0 -0.01888650882967766 0.45329231687868837 0 -0.002359076509941094 0.46135071208970457 0 -0.01341416680576474 0.47109478045738301 0 -0.0030841453677343121 0.43636499760021141 0 -0.01888650882967766 0.45329231687868837 0 -0.002359076509941094 0.46135071208970457 0 -0.0030841453677343121 0.43636499760021141 0 -0.002359076509941094 0.46135071208970457 0 -0.0090346539348886701 0.5 0 -0.0016340076521478781 0.48633642657919801 0 -0.017460482120078509 0.48648722646036041 0 -0.0016340076521478781 0.48633642657919801 0 -0.01341416680576474 0.47109478045738301 0 -0.017460482120078509 0.48648722646036041 0 -0.002359076509941094 0.46135071208970457 0 -0.0016340076521478781 0.48633642657919801 0 -0.01341416680576474 0.47109478045738301 0 -0.002359076509941094 0.46135071208970457 0 -0.0016340076521478781 0.48633642657919801 0 -0.002359076509941094 0.46135071208970457 0 -0.0016340076521478781 0.48633642657919801 0 0.0036787250480955699 0.47408322248379448 0 -0.01341416680576474 0.47109478045738301 0 -0.02876560419008364 0.47203163756026523 0 -0.017460482120078509 0.48648722646036041 0 -0.02876560419008364 0.47203163756026523 0 -0.017460482120078509 0.48648722646036041 0 -0.038135422162237087 0.5 0 -0.0090346539348886701 0.5 0 -0.017460482120078509 0.48648722646036041 0 -0.038135422162237087 0.5 0 -0.02876560419008364 0.47203163756026523 0 -0.038135422162237087 0.5 0 -0.052402143273794041 0.47435943831340011 0 -0.038135422162237087 0.5 0 -0.052402143273794041 0.47435943831340011 0 -0.067236190389585393 0.5 0 -0.052402143273794041 0.47435943831340011 0 -0.067236190389585393 0.5 0 -0.073349005429332273 0.47921852398434828 0 -0.067236190389585393 0.5 0 -0.073349005429332273 0.47921852398434828 0 -0.096336958616933588 0.5 0 -0.073349005429332273 0.47921852398434828 0 -0.096336958616933588 0.5 0 -0.093805091172543903 0.47224368257650851 0 -0.052402143273794041 0.47435943831340011 0 -0.073349005429332273 0.47921852398434828 0 -0.0708836913324285 0.45273085842607269 0 -0.0708836913324285 0.45273085842607269 0 -0.1043361340672995 0.45358667135048331 0 -0.093805091172543903 0.47224368257650851 0 -0.090582213275806372 0.43325937369158968 0 -0.0708836913324285 0.45273085842607269 0 -0.1043361340672995 0.45358667135048331 0 -0.090582213275806372 0.43325937369158968 0 -0.066022972602334681 0.42956105407568013 0 -0.0708836913324285 0.45273085842607269 0 -0.090582213275806372 0.43325937369158968 0 -0.0708836913324285 0.45273085842607269 0 -0.073349005429332273 0.47921852398434828 0 -0.0708836913324285 0.45273085842607269 0 -0.093805091172543903 0.47224368257650851 0 -0.1043361340672995 0.45358667135048331 0 -0.12052644250191399 0.4682622397032008 0 -0.093805091172543903 0.47224368257650851 0 -0.1104760497445479 0.43296770510105842 0 -0.090582213275806372 0.43325937369158968 0 -0.1043361340672995 0.45358667135048331 0 -0.12618187852634369 0.45882241462805679 0 -0.1043361340672995 0.45358667135048331 0 -0.1248743097581413 0.44162978393037222 0 -0.1104760497445479 0.43296770510105842 0 -0.1043361340672995 0.45358667135048331 0 -0.1248743097581413 0.44162978393037222 0 -0.12618187852634369 0.45882241462805679 0 -0.1043361340672995 0.45358667135048331 0 -0.12052644250191399 0.4682622397032008 0 -0.1317912103042716 0.47600940211286807 0 -0.12052644250191399 0.4682622397032008 0 -0.11642361318749669 0.48420448820259387 0 -0.12052644250191399 0.4682622397032008 0 -0.11642361318749669 0.48420448820259387 0 -0.093805091172543903 0.47224368257650851 0 -0.12543772684428189 0.5 0 -0.11642361318749669 0.48420448820259387 0 -0.096336958616933588 0.5 0 -0.12543772684428189 0.5 0 -0.13178312884530541 0.48627570230508688 0 -0.11642361318749669 0.48420448820259387 0 -0.11642361318749669 0.48420448820259387 0 -0.096336958616933588 0.5 0 -0.093805091172543903 0.47224368257650851 0 -0.1693268494853358 0.079538523923443544 0 -0.16945340910355561 0.089496265134995978 0 -0.1618062267740645 0.07958177760614682 0 -0.16945340910355561 0.089496265134995978 0 -0.1618062267740645 0.07958177760614682 0 -0.1616157516695074 0.095139316102685473 0 -0.1618062267740645 0.07958177760614682 0 -0.1616157516695074 0.095139316102685473 0 -0.14767322655010931 0.084806545451415583 0 -0.1618062267740645 0.07958177760614682 0 -0.16640070467345031 0.07104807823334372 0 -0.15517576509654349 0.068304766057398533 0 -0.16640070467345031 0.07104807823334372 0 -0.15517576509654349 0.068304766057398533 0 -0.16451238623864939 0.061110077383343737 0 -0.16640070467345031 0.07104807823334372 0 -0.17354141001077031 0.063798093567348918 0 -0.16451238623864939 0.061110077383343737 0 -0.17157411485926041 0.074087910936242465 0 -0.16640070467345031 0.07104807823334372 0 -0.17354141001077031 0.063798093567348918 0 -0.1693268494853358 0.079538523923443544 0 -0.17157411485926041 0.074087910936242465 0 -0.16640070467345031 0.07104807823334372 0 -0.1693268494853358 0.079538523923443544 0 -0.1618062267740645 0.07958177760614682 0 -0.16640070467345031 0.07104807823334372 0 -0.17354141001077031 0.063798093567348918 0 -0.17702749526748529 0.081966948020833708 0 -0.17656426821359539 0.052679136019797047 0 -0.18185637422210199 0.067243003367259677 0 -0.17702749526748529 0.081966948020833708 0 -0.17656426821359539 0.052679136019797047 0 -0.17702749526748529 0.081966948020833708 0 -0.17656426821359539 0.052679136019797047 0 -0.17157411485926041 0.074087910936242465 0 -0.17354141001077031 0.063798093567348918 0 -0.17702749526748529 0.081966948020833708 0 -0.18185637422210199 0.067243003367259677 0 -0.1853153676200878 0.058850167416455039 0 -0.18892740292417859 0.064703221589215376 0 -0.18185637422210199 0.067243003367259677 0 -0.19050021368002351 0.072419239531055349 0 -0.18892740292417859 0.064703221589215376 0 -0.18185637422210199 0.067243003367259677 0 -0.18141962227324601 0.075216957450553817 0 -0.17702749526748529 0.081966948020833708 0 -0.18185637422210199 0.067243003367259677 0 -0.18141962227324601 0.075216957450553817 0 -0.19050021368002351 0.072419239531055349 0 -0.18141962227324601 0.075216957450553817 0 -0.1867192510276118 0.077748512173410014 0 -0.19050021368002351 0.072419239531055349 0 -0.18141962227324601 0.075216957450553817 0 -0.1867192510276118 0.077748512173410014 0 -0.1819129998543452 0.079414551687582866 0 -0.18248563084903771 0.082725789105533951 0 -0.17702749526748529 0.081966948020833708 0 -0.17749072232138041 0.1112547600218704 0 -0.1867192510276118 0.077748512173410014 0 -0.18248563084903771 0.082725789105533951 0 -0.1819129998543452 0.079414551687582866 0 -0.18141962227324601 0.075216957450553817 0 -0.1819129998543452 0.079414551687582866 0 -0.17702749526748529 0.081966948020833708 0 -0.18248563084903771 0.082725789105533951 0 -0.1819129998543452 0.079414551687582866 0 -0.17702749526748529 0.081966948020833708 0 -0.1693268494853358 0.079538523923443544 0 -0.16945340910355561 0.089496265134995978 0 -0.17702749526748529 0.081966948020833708 0 -0.1693268494853358 0.079538523923443544 0 -0.17157411485926041 0.074087910936242465 0 -0.17702749526748529 0.081966948020833708 0 -0.17702749526748529 0.081966948020833708 0 -0.17749072232138041 0.1112547600218704 0 -0.16945340910355561 0.089496265134995978 0 -0.17702749526748529 0.081966948020833708 0 -0.17749072232138041 0.1112547600218704 0 -0.17749072232138041 0.1112547600218704 0 -0.1951643137470572 0.093770439387570487 0 -0.18248563084903771 0.082725789105533951 0 -0.17749072232138041 0.1112547600218704 0 -0.1951643137470572 0.093770439387570487 0 -0.17749072232138041 0.1112547600218704 0 -0.19150979458678249 0.1243728737611647 0 -0.17789558253256721 0.1368522929207025 0 -0.17749072232138041 0.1112547600218704 0 -0.17789558253256721 0.1368522929207025 0 -0.17749072232138041 0.1112547600218704 0 -0.16113979031376621 0.12743058591966341 0 -0.17749072232138041 0.1112547600218704 0 -0.15084139672814201 0.110160429760413 0 -0.16113979031376621 0.12743058591966341 0 -0.17749072232138041 0.1112547600218704 0 -0.1616157516695074 0.095139316102685473 0 -0.15084139672814201 0.110160429760413 0 -0.16945340910355561 0.089496265134995978 0 -0.17749072232138041 0.1112547600218704 0 -0.1616157516695074 0.095139316102685473 0 -0.1616157516695074 0.095139316102685473 0 -0.15084139672814201 0.110160429760413 0 -0.14767322655010931 0.084806545451415583 0 -0.15084139672814201 0.110160429760413 0 -0.1348328660863515 0.097215266237156234 0 -0.14767322655010931 0.084806545451415583 0 -0.15084139672814201 0.110160429760413 0 -0.13137241316615089 0.11357835761918721 0 -0.14300315410871919 0.1253406317882016 0 -0.15084139672814201 0.110160429760413 0 -0.16113979031376621 0.12743058591966341 0 -0.14300315410871919 0.1253406317882016 0 -0.13137241316615089 0.11357835761918721 0 -0.14300315410871919 0.1253406317882016 0 -0.12687331202938101 0.13192737382428379 0 -0.13137241316615089 0.11357835761918721 0 -0.1348328660863515 0.097215266237156234 0 -0.1198812247159142 0.095002477965890675 0 -0.15084139672814201 0.110160429760413 0 -0.13137241316615089 0.11357835761918721 0 -0.1348328660863515 0.097215266237156234 0 -0.1348328660863515 0.097215266237156234 0 -0.12533951967512769 0.078274991835817334 0 -0.1198812247159142 0.095002477965890675 0 -0.1348328660863515 0.097215266237156234 0 -0.12533951967512769 0.078274991835817334 0 -0.14767322655010931 0.084806545451415583 0 -0.1618062267740645 0.07958177760614682 0 -0.14767322655010931 0.084806545451415583 0 -0.15517576509654349 0.068304766057398533 0 -0.14767322655010931 0.084806545451415583 0 -0.15517576509654349 0.068304766057398533 0 -0.14001017723872511 0.063978020277280875 0 -0.12533951967512769 0.078274991835817334 0 -0.14767322655010931 0.084806545451415583 0 -0.14001017723872511 0.063978020277280875 0 -0.12533951967512769 0.078274991835817334 0 -0.14001017723872511 0.063978020277280875 0 -0.1248745965026067 0.059896082918310993 0 -0.14001017723872511 0.063978020277280875 0 -0.13626681081840961 0.042829268155062397 0 -0.1248745965026067 0.059896082918310993 0 -0.13626681081840961 0.042829268155062397 0 -0.1339340902388827 0.022300844741854581 0 -0.1180188049733784 0.030804183747700629 0 -0.13626681081840961 0.042829268155062397 0 -0.1339340902388827 0.022300844741854581 0 -0.15968783393996419 0.037567277286728401 0 -0.13626681081840961 0.042829268155062397 0 -0.15351002702878311 0.053877414325468623 0 -0.15968783393996419 0.037567277286728401 0 -0.13626681081840961 0.042829268155062397 0 -0.15968783393996419 0.037567277286728401 0 -0.14001017723872511 0.063978020277280875 0 -0.13626681081840961 0.042829268155062397 0 -0.15351002702878311 0.053877414325468623 0 -0.15517576509654349 0.068304766057398533 0 -0.14001017723872511 0.063978020277280875 0 -0.15351002702878311 0.053877414325468623 0 -0.12735709500343681 0.004015926865657337 0 -0.15177498865293759 0.016606981474429749 0 -0.12735709500343681 0.004015926865657337 0 -0.1339340902388827 0.022300844741854581 0 -0.15177498865293759 0.016606981474429749 0 -0.12735709500343681 0.004015926865657337 0 -0.1339340902388827 0.022300844741854581 0 -0.11835839359799651 0.016938700943610479 0 -0.1339340902388827 0.022300844741854581 0 -0.15177498865293759 0.016606981474429749 0 -0.15968783393996419 0.037567277286728401 0 -0.1339340902388827 0.022300844741854581 0 -0.15968783393996419 0.037567277286728401 0 -0.12735709500343681 0.004015926865657337 0 -0.15177498865293759 0.016606981474429749 0 -0.14801408494475049 0.0031182785745780331 0 -0.15177498865293759 0.016606981474429749 0 -0.14801408494475049 0.0031182785745780331 0 -0.1619193683370386 0.0066468078375689294 0 -0.15773416148281841 -0.0035868741371463562 0 -0.14801408494475049 0.0031182785745780331 0 -0.1619193683370386 0.0066468078375689294 0 -0.15177498865293759 0.016606981474429749 0 -0.1619193683370386 0.0066468078375689294 0 -0.16760309597538539 0.015861310899326669 0 -0.16716832075785379 -0.0032078365625175 0 -0.1619193683370386 0.0066468078375689294 0 -0.17584419881677341 0.0071523107965592754 0 -0.1619193683370386 0.0066468078375689294 0 -0.16760309597538539 0.015861310899326669 0 -0.17584419881677341 0.0071523107965592754 0 -0.15177498865293759 0.016606981474429749 0 -0.17619288230243149 0.029198036083215671 0 -0.15177498865293759 0.016606981474429749 0 -0.17619288230243149 0.029198036083215671 0 -0.15968783393996419 0.037567277286728401 0 -0.15177498865293759 0.016606981474429749 0 -0.16760309597538539 0.015861310899326669 0 -0.17619288230243149 0.029198036083215671 0 -0.17619288230243149 0.029198036083215671 0 -0.1852069371874478 0.015311100034367831 0 -0.17584419881677341 0.0071523107965592754 0 -0.17619288230243149 0.029198036083215671 0 -0.17584419881677341 0.0071523107965592754 0 -0.16760309597538539 0.015861310899326669 0 -0.17619288230243149 0.029198036083215671 0 -0.17584419881677341 0.0071523107965592754 0 -0.17619288230243149 0.029198036083215671 0 -0.19572946351785711 0.039272048382664133 0 -0.19029700863621521 0.024089069561314659 0 -0.17619288230243149 0.029198036083215671 0 -0.1852069371874478 0.015311100034367831 0 -0.19029700863621521 0.024089069561314659 0 -0.1852069371874478 0.015311100034367831 0 -0.18717715497560061 0.0062623078557712403 0 -0.17584419881677341 0.0071523107965592754 0 -0.18154179604087481 -0.0036104187285780349 0 -0.18717715497560061 0.0062623078557712403 0 -0.17584419881677341 0.0071523107965592754 0 -0.15351002702878311 0.053877414325468623 0 -0.1659033968134131 0.050269055427132232 0 -0.15968783393996419 0.037567277286728401 0 -0.1659033968134131 0.050269055427132232 0 -0.16451238623864939 0.061110077383343737 0 -0.17656426821359539 0.052679136019797047 0 -0.17354141001077031 0.063798093567348918 0 -0.16451238623864939 0.061110077383343737 0 -0.17656426821359539 0.052679136019797047 0 -0.16451238623864939 0.061110077383343737 0 -0.17656426821359539 0.052679136019797047 0 -0.15351002702878311 0.053877414325468623 0 -0.1659033968134131 0.050269055427132232 0 -0.16451238623864939 0.061110077383343737 0 -0.15517576509654349 0.068304766057398533 0 -0.15351002702878311 0.053877414325468623 0 -0.16451238623864939 0.061110077383343737 0 -0.15968783393996419 0.037567277286728401 0 -0.1762663423330757 0.033842591165095401 0 -0.1659033968134131 0.050269055427132232 0 -0.15968783393996419 0.037567277286728401 0 -0.1764827173319595 0.047523031967639129 0 -0.17619288230243149 0.029198036083215671 0 -0.15968783393996419 0.037567277286728401 0 -0.1762663423330757 0.033842591165095401 0 -0.15968783393996419 0.037567277286728401 0 -0.1764827173319595 0.047523031967639129 0 -0.15968783393996419 0.037567277286728401 0 -0.1762663423330757 0.033842591165095401 0 -0.1764827173319595 0.047523031967639129 0 -0.17619288230243149 0.029198036083215671 0 -0.19572946351785711 0.039272048382664133 0 -0.181281627628781 0.040827380692469641 0 -0.18051660755046151 0.049914261515807259 0 -0.1764827173319595 0.047523031967639129 0 -0.17619288230243149 0.029198036083215671 0 -0.1762663423330757 0.033842591165095401 0 -0.19572946351785711 0.039272048382664133 0 -0.1762663423330757 0.033842591165095401 0 -0.181281627628781 0.040827380692469641 0 -0.19572946351785711 0.039272048382664133 0 -0.1762663423330757 0.033842591165095401 0 -0.181281627628781 0.040827380692469641 0 -0.1764827173319595 0.047523031967639129 0 -0.1762663423330757 0.033842591165095401 0 -0.1764827173319595 0.047523031967639129 0 -0.17619288230243149 0.029198036083215671 0 -0.1762663423330757 0.033842591165095401 0 -0.181281627628781 0.040827380692469641 0 -0.18051660755046151 0.049914261515807259 0 -0.19572946351785711 0.039272048382664133 0 -0.18051660755046151 0.049914261515807259 0 -0.17656426821359539 0.052679136019797047 0 -0.1853153676200878 0.058850167416455039 0 -0.18051660755046151 0.049914261515807259 0 -0.1764827173319595 0.047523031967639129 0 -0.1764827173319595 0.047523031967639129 0 -0.17656426821359539 0.052679136019797047 0 -0.1659033968134131 0.050269055427132232 0 -0.1764827173319595 0.047523031967639129 0 -0.17656426821359539 0.052679136019797047 0 -0.18051660755046151 0.049914261515807259 0 -0.1764827173319595 0.047523031967639129 0 -0.17656426821359539 0.052679136019797047 0 -0.18051660755046151 0.049914261515807259 0 -0.17656426821359539 0.052679136019797047 0 -0.18185637422210199 0.067243003367259677 0 -0.17656426821359539 0.052679136019797047 0 -0.1853153676200878 0.058850167416455039 0 -0.1853153676200878 0.058850167416455039 0 -0.19803765617450109 0.060300476042091433 0 -0.18892740292417859 0.064703221589215376 0 -0.18051660755046151 0.049914261515807259 0 -0.19803765617450109 0.060300476042091433 0 -0.1977866825790292 0.05007637869738242 0 -0.18051660755046151 0.049914261515807259 0 -0.1853153676200878 0.058850167416455039 0 -0.19803765617450109 0.060300476042091433 0 -0.18051660755046151 0.049914261515807259 0 -0.19803765617450109 0.060300476042091433 0 -0.19803765617450109 0.060300476042091433 0 -0.1977866825790292 0.05007637869738242 0 -0.2066297839190599 0.054855205218219752 0 -0.18051660755046151 0.049914261515807259 0 -0.1977866825790292 0.05007637869738242 0 -0.19572946351785711 0.039272048382664133 0 -0.18051660755046151 0.049914261515807259 0 -0.19572946351785711 0.039272048382664133 0 -0.19572946351785711 0.039272048382664133 0 -0.2098237389609823 0.029412342647955388 0 -0.1977866825790292 0.05007637869738242 0 -0.19572946351785711 0.039272048382664133 0 -0.2073344650466164 0.045256152092875389 0 -0.19572946351785711 0.039272048382664133 0 -0.2073344650466164 0.045256152092875389 0 -0.2073344650466164 0.045256152092875389 0 -0.21702036639386221 0.038769314305699548 0 -0.2098237389609823 0.029412342647955388 0 -0.19572946351785711 0.039272048382664133 0 -0.2073344650466164 0.045256152092875389 0 -0.2098237389609823 0.029412342647955388 0 -0.21702036639386221 0.038769314305699548 0 -0.2098237389609823 0.029412342647955388 0 -0.2284051488343061 0.035137669629428533 0 -0.2073344650466164 0.045256152092875389 0 -0.21702036639386221 0.038769314305699548 0 -0.22251811273354419 0.045271092852538893 0 -0.2073344650466164 0.045256152092875389 0 -0.21769334509658461 0.055951218203848879 0 -0.22251811273354419 0.045271092852538893 0 -0.21769334509658461 0.055951218203848879 0 -0.20947987249717179 0.060448397508133619 0 -0.2066297839190599 0.054855205218219752 0 -0.21769334509658461 0.055951218203848879 0 -0.20947987249717179 0.060448397508133619 0 -0.2155587047985415 0.070686690568374386 0 -0.19803765617450109 0.060300476042091433 0 -0.20947987249717179 0.060448397508133619 0 -0.2066297839190599 0.054855205218219752 0 -0.1977866825790292 0.05007637869738242 0 -0.2073344650466164 0.045256152092875389 0 -0.2066297839190599 0.054855205218219752 0 -0.2073344650466164 0.045256152092875389 0 -0.21769334509658461 0.055951218203848879 0 -0.2066297839190599 0.054855205218219752 0 -0.1989264366345522 -0.0080023544535597537 0 -0.1965234412062255 0.0098537758749781944 0 -0.20713549204565579 6.5395444916274768e-05 0 -0.19066530249761049 -0.0041303576494283751 0 -0.18717715497560061 0.0062623078557712403 0 -0.1965234412062255 0.0098537758749781944 0 -0.1852069371874478 0.015311100034367831 0 -0.18717715497560061 0.0062623078557712403 0 -0.1965234412062255 0.0098537758749781944 0 -0.1965234412062255 0.0098537758749781944 0 -0.20113962024173071 0.02227838771243261 0 -0.2107847094499361 0.011405203725301251 0 -0.19572946351785711 0.039272048382664133 0 -0.20113962024173071 0.02227838771243261 0 -0.2098237389609823 0.029412342647955388 0 -0.19572946351785711 0.039272048382664133 0 -0.20113962024173071 0.02227838771243261 0 -0.19029700863621521 0.024089069561314659 0 -0.1965234412062255 0.0098537758749781944 0 -0.20113962024173071 0.02227838771243261 0 -0.19029700863621521 0.024089069561314659 0 -0.1852069371874478 0.015311100034367831 0 -0.1965234412062255 0.0098537758749781944 0 -0.19029700863621521 0.024089069561314659 0 -0.2098237389609823 0.029412342647955388 0 -0.2107847094499361 0.011405203725301251 0 -0.22391801440410891 0.019552636913248388 0 -0.20113962024173071 0.02227838771243261 0 -0.2098237389609823 0.029412342647955388 0 -0.2107847094499361 0.011405203725301251 0 -0.2098237389609823 0.029412342647955388 0 -0.22391801440410891 0.019552636913248388 0 -0.21702438745170211 -0.0043907958627755336 0 -0.2107847094499361 0.011405203725301251 0 -0.20713549204565579 6.5395444916274768e-05 0 -0.21702438745170211 -0.0043907958627755336 0 -0.2107847094499361 0.011405203725301251 0 -0.22391801440410891 0.019552636913248388 0 -0.1965234412062255 0.0098537758749781944 0 -0.2107847094499361 0.011405203725301251 0 -0.20713549204565579 6.5395444916274768e-05 0 -0.22867745033346079 0.0038692188645070222 0 -0.22391801440410891 0.019552636913248388 0 -0.2344599051246074 0.012178015861532989 0 -0.21702438745170211 -0.0043907958627755336 0 -0.22391801440410891 0.019552636913248388 0 -0.21702438745170211 -0.0043907958627755336 0 -0.22867745033346079 0.0038692188645070222 0 -0.22391801440410891 0.019552636913248388 0 -0.22391801440410891 0.019552636913248388 0 -0.2403792472176362 0.02548084658656756 0 -0.2344599051246074 0.012178015861532989 0 -0.2098237389609823 0.029412342647955388 0 -0.22391801440410891 0.019552636913248388 0 -0.2284051488343061 0.035137669629428533 0 -0.22391801440410891 0.019552636913248388 0 -0.2403792472176362 0.02548084658656756 0 -0.2284051488343061 0.035137669629428533 0 -0.22391801440410891 0.019552636913248388 0 -0.2344599051246074 0.012178015861532989 0 -0.22391801440410891 0.019552636913248388 0 -0.2284051488343061 0.035137669629428533 0 -0.2522816967992324 0.037264740289820159 0 -0.25157722050270093 0.012682655753942951 0 -0.2403792472176362 0.02548084658656756 0 -0.25157722050270093 0.012682655753942951 0 -0.2403792472176362 0.02548084658656756 0 -0.2344599051246074 0.012178015861532989 0 -0.25267499080189931 -0.0034516002120552492 0 -0.25157722050270093 0.012682655753942951 0 -0.2401015516947359 0.00075261550232862703 0 -0.25157722050270093 0.012682655753942951 0 -0.2344599051246074 0.012178015861532989 0 -0.2401015516947359 0.00075261550232862703 0 -0.22867745033346079 0.0038692188645070222 0 -0.2344599051246074 0.012178015861532989 0 -0.2401015516947359 0.00075261550232862703 0 -0.21769334509658461 0.055951218203848879 0 -0.23255980098598539 0.056775429521547523 0 -0.2155587047985415 0.070686690568374386 0 -0.23289228326450309 0.050722702345608793 0 -0.22641588552015429 0.052180110730886013 0 -0.22251811273354419 0.045271092852538893 0 -0.23289228326450309 0.050722702345608793 0 -0.23255980098598539 0.056775429521547523 0 -0.22641588552015429 0.052180110730886013 0 -0.21769334509658461 0.055951218203848879 0 -0.23255980098598539 0.056775429521547523 0 -0.22641588552015429 0.052180110730886013 0 -0.21769334509658461 0.055951218203848879 0 -0.22641588552015429 0.052180110730886013 0 -0.22251811273354419 0.045271092852538893 0 -0.21702036639386221 0.038769314305699548 0 -0.22251811273354419 0.045271092852538893 0 -0.2284051488343061 0.035137669629428533 0 -0.23289228326450309 0.050722702345608793 0 -0.22251811273354419 0.045271092852538893 0 -0.2284051488343061 0.035137669629428533 0 -0.23289228326450309 0.050722702345608793 0 -0.2284051488343061 0.035137669629428533 0 -0.2522816967992324 0.037264740289820159 0 -0.2403792472176362 0.02548084658656756 0 -0.2284051488343061 0.035137669629428533 0 -0.2522816967992324 0.037264740289820159 0 -0.23289228326450309 0.050722702345608793 0 -0.2284051488343061 0.035137669629428533 0 -0.2522816967992324 0.037264740289820159 0 -0.23289228326450309 0.050722702345608793 0 -0.23255980098598539 0.056775429521547523 0 -0.2522816967992324 0.037264740289820159 0 -0.23255980098598539 0.056775429521547523 0 -0.2522816967992324 0.037264740289820159 0 -0.23255980098598539 0.056775429521547523 0 -0.24906194248509719 0.058488871325365822 0 -0.23255980098598539 0.056775429521547523 0 -0.24906194248509719 0.058488871325365822 0 -0.23770452364983391 0.071010308971772351 0 -0.26257114212692878 0.06573449919026883 0 -0.24906194248509719 0.058488871325365822 0 -0.23770452364983391 0.071010308971772351 0 -0.25261226255175379 0.080423606239198905 0 -0.23770452364983391 0.071010308971772351 0 -0.23158356521460469 0.085326977986282804 0 -0.25261226255175379 0.080423606239198905 0 -0.23158356521460469 0.085326977986282804 0 -0.24377998071086901 0.096378574065869249 0 -0.23158356521460469 0.085326977986282804 0 -0.21283790517273879 0.076286118753275345 0 -0.22135706029896429 0.097751395037259853 0 -0.23158356521460469 0.085326977986282804 0 -0.22135706029896429 0.097751395037259853 0 -0.24377998071086901 0.096378574065869249 0 -0.23255980098598539 0.056775429521547523 0 -0.21283790517273879 0.076286118753275345 0 -0.23770452364983391 0.071010308971772351 0 -0.23158356521460469 0.085326977986282804 0 -0.21283790517273879 0.076286118753275345 0 -0.23255980098598539 0.056775429521547523 0 -0.23770452364983391 0.071010308971772351 0 -0.21283790517273879 0.076286118753275345 0 -0.23255980098598539 0.056775429521547523 0 -0.21283790517273879 0.076286118753275345 0 -0.2155587047985415 0.070686690568374386 0 -0.23770452364983391 0.071010308971772351 0 -0.21283790517273879 0.076286118753275345 0 -0.19803765617450109 0.060300476042091433 0 -0.20947987249717179 0.060448397508133619 0 -0.2155587047985415 0.070686690568374386 0 -0.19803765617450109 0.060300476042091433 0 -0.20333782300263301 0.070680183335342567 0 -0.2155587047985415 0.070686690568374386 0 -0.19803765617450109 0.060300476042091433 0 -0.2155587047985415 0.070686690568374386 0 -0.21283790517273879 0.076286118753275345 0 -0.19766176801088831 0.079505953929404904 0 -0.20333782300263301 0.070680183335342567 0 -0.21283790517273879 0.076286118753275345 0 -0.19766176801088831 0.079505953929404904 0 -0.20333782300263301 0.070680183335342567 0 -0.21283790517273879 0.076286118753275345 0 -0.2155587047985415 0.070686690568374386 0 -0.21283790517273879 0.076286118753275345 0 -0.1951643137470572 0.093770439387570487 0 -0.22135706029896429 0.097751395037259853 0 -0.21283790517273879 0.076286118753275345 0 -0.1951643137470572 0.093770439387570487 0 -0.21283790517273879 0.076286118753275345 0 -0.19766176801088831 0.079505953929404904 0 -0.1951643137470572 0.093770439387570487 0 -0.18248563084903771 0.082725789105533951 0 -0.19766176801088831 0.079505953929404904 0 -0.1951643137470572 0.093770439387570487 0 -0.1867192510276118 0.077748512173410014 0 -0.18248563084903771 0.082725789105533951 0 -0.19766176801088831 0.079505953929404904 0 -0.18248563084903771 0.082725789105533951 0 -0.19766176801088831 0.079505953929404904 0 -0.1867192510276118 0.077748512173410014 0 -0.19766176801088831 0.079505953929404904 0 -0.19050021368002351 0.072419239531055349 0 -0.19803765617450109 0.060300476042091433 0 -0.19050021368002351 0.072419239531055349 0 -0.18892740292417859 0.064703221589215376 0 -0.19803765617450109 0.060300476042091433 0 -0.20333782300263301 0.070680183335342567 0 -0.19050021368002351 0.072419239531055349 0 -0.20333782300263301 0.070680183335342567 0 -0.19766176801088831 0.079505953929404904 0 -0.19050021368002351 0.072419239531055349 0 -0.17749072232138041 0.1112547600218704 0 -0.19150979458678249 0.1243728737611647 0 -0.1951643137470572 0.093770439387570487 0 -0.19150979458678249 0.1243728737611647 0 -0.1951643137470572 0.093770439387570487 0 -0.20994497012605751 0.11823125198409511 0 -0.1951643137470572 0.093770439387570487 0 -0.20994497012605751 0.11823125198409511 0 -0.22135706029896429 0.097751395037259853 0 -0.20994497012605751 0.11823125198409511 0 -0.2348316268224595 0.11651500804646669 0 -0.2235388627286797 0.12965651036182041 0 -0.20994497012605751 0.11823125198409511 0 -0.22135706029896429 0.097751395037259853 0 -0.2348316268224595 0.11651500804646669 0 -0.22135706029896429 0.097751395037259853 0 -0.24377998071086901 0.096378574065869249 0 -0.2348316268224595 0.11651500804646669 0 -0.25136603029008331 0.1103208693098497 0 -0.24377998071086901 0.096378574065869249 0 -0.2348316268224595 0.11651500804646669 0 -0.25922316449870308 0.12628093809151891 0 -0.25136603029008331 0.1103208693098497 0 -0.2348316268224595 0.11651500804646669 0 -0.25922316449870308 0.12628093809151891 0 -0.2348316268224595 0.11651500804646669 0 -0.2369615480924761 0.1404602413506009 0 -0.2369615480924761 0.1404602413506009 0 -0.2235388627286797 0.12965651036182041 0 -0.2124173058737257 0.14341954006611901 0 -0.2348316268224595 0.11651500804646669 0 -0.2369615480924761 0.1404602413506009 0 -0.2235388627286797 0.12965651036182041 0 -0.2369615480924761 0.1404602413506009 0 -0.22679867445049531 0.16064067306310431 0 -0.2124173058737257 0.14341954006611901 0 -0.2369615480924761 0.1404602413506009 0 -0.247018622616726 0.15992587597476091 0 -0.22679867445049531 0.16064067306310431 0 -0.25846103874104392 0.14702121199507179 0 -0.2369615480924761 0.1404602413506009 0 -0.247018622616726 0.15992587597476091 0 -0.247018622616726 0.15992587597476091 0 -0.23359887481107691 0.1809086922627815 0 -0.247018622616726 0.15992587597476091 0 -0.23359887481107691 0.1809086922627815 0 -0.22679867445049531 0.16064067306310431 0 -0.26439180367967152 0.18225540552070321 0 -0.247018622616726 0.15992587597476091 0 -0.23359887481107691 0.1809086922627815 0 -0.23359887481107691 0.1809086922627815 0 -0.20517995294037331 0.17379218369948349 0 -0.2201791270054278 0.2018915085508021 0 -0.23359887481107691 0.1809086922627815 0 -0.22679867445049531 0.16064067306310431 0 -0.20517995294037331 0.17379218369948349 0 -0.22679867445049531 0.16064067306310431 0 -0.20517995294037331 0.17379218369948349 0 -0.2124173058737257 0.14341954006611901 0 -0.20517995294037331 0.17379218369948349 0 -0.19274338499996449 0.14807478539393409 0 -0.17830044274374979 0.16244982581953471 0 -0.19150979458678249 0.1243728737611647 0 -0.19274338499996449 0.14807478539393409 0 -0.2124173058737257 0.14341954006611901 0 -0.20994497012605751 0.11823125198409511 0 -0.2235388627286797 0.12965651036182041 0 -0.2124173058737257 0.14341954006611901 0 -0.19150979458678249 0.1243728737611647 0 -0.20994497012605751 0.11823125198409511 0 -0.2124173058737257 0.14341954006611901 0 -0.20517995294037331 0.17379218369948349 0 -0.19274338499996449 0.14807478539393409 0 -0.2124173058737257 0.14341954006611901 0 -0.22371849106378741 0.2462845034026982 0 -0.23019370483249479 0.22382880503591951 0 -0.2066863838603582 0.24242880758937649 0 -0.22371849106378741 0.2462845034026982 0 -0.23951274761537589 0.2474853768326048 0 -0.23019370483249479 0.22382880503591951 0 -0.25272375818517617 0.22994970808158929 0 -0.25621817608628389 0.2460965770837312 0 -0.23951274761537589 0.2474853768326048 0 -0.25370102580463139 0.2052288024824625 0 -0.25272375818517617 0.22994970808158929 0 -0.23019370483249479 0.22382880503591951 0 -0.25272375818517617 0.22994970808158929 0 -0.23951274761537589 0.2474853768326048 0 -0.23019370483249479 0.22382880503591951 0 -0.25370102580463139 0.2052288024824625 0 -0.23359887481107691 0.1809086922627815 0 -0.2201791270054278 0.2018915085508021 0 -0.25370102580463139 0.2052288024824625 0 -0.23019370483249479 0.22382880503591951 0 -0.2201791270054278 0.2018915085508021 0 -0.23019370483249479 0.22382880503591951 0 -0.2201791270054278 0.2018915085508021 0 -0.20675937919977869 0.22287432483882261 0 -0.25370102580463139 0.2052288024824625 0 -0.23019370483249479 0.22382880503591951 0 -0.23359887481107691 0.1809086922627815 0 -0.2201791270054278 0.2018915085508021 0 -0.20517995294037331 0.17379218369948349 0 -0.2201791270054278 0.2018915085508021 0 -0.19686056424972551 0.20437535499954981 0 -0.20517995294037331 0.17379218369948349 0 -0.19686056424972551 0.20437535499954981 0 -0.17870530295493239 0.18804735871836689 0 -0.19686056424972551 0.20437535499954981 0 -0.20675937919977869 0.22287432483882261 0 -0.19122946023172571 0.22600186257262461 0 -0.19686056424972551 0.20437535499954981 0 -0.19122946023172571 0.22600186257262461 0 -0.179110163166115 0.21364489161719899 0 -0.2201791270054278 0.2018915085508021 0 -0.19686056424972551 0.20437535499954981 0 -0.20675937919977869 0.22287432483882261 0 -0.2201791270054278 0.2018915085508021 0 -0.20675937919977869 0.22287432483882261 0 -0.23019370483249479 0.22382880503591951 0 -0.2066863838603582 0.24242880758937649 0 -0.23019370483249479 0.22382880503591951 0 -0.20675937919977869 0.22287432483882261 0 -0.2066863838603582 0.24242880758937649 0 -0.20675937919977869 0.22287432483882261 0 -0.19333963139412971 0.24385714112684301 0 -0.20675937919977869 0.22287432483882261 0 -0.19122946023172571 0.22600186257262461 0 -0.19333963139412971 0.24385714112684301 0 -0.19122946023172571 0.22600186257262461 0 -0.19333963139412971 0.24385714112684301 0 -0.17951502337729761 0.2392424245160312 0 -0.20675937919977869 0.22287432483882261 0 -0.19333963139412971 0.24385714112684301 0 -0.2066863838603582 0.24242880758937649 0 -0.18259587964237009 0.2606558300825601 0 -0.19333963139412971 0.24385714112684301 0 -0.2066863838603582 0.24242880758937649 0 -0.21408768962570049 0.25938306782852782 0 -0.22371849106378741 0.2462845034026982 0 -0.2066863838603582 0.24242880758937649 0 -0.1532221513837192 0.25419418888983192 0 -0.17951502337729761 0.2392424245160312 0 -0.15110003921584569 0.22881829817408891 0 -0.18259587964237009 0.2606558300825601 0 -0.19333963139412971 0.24385714112684301 0 -0.17951502337729761 0.2392424245160312 0 -0.17951502337729761 0.2392424245160312 0 -0.1619547442009632 0.2162214427956837 0 -0.179110163166115 0.21364489161719899 0 -0.19122946023172571 0.22600186257262461 0 -0.17951502337729761 0.2392424245160312 0 -0.179110163166115 0.21364489161719899 0 -0.17951502337729761 0.2392424245160312 0 -0.179110163166115 0.21364489161719899 0 -0.17951502337729761 0.2392424245160312 0 -0.1619547442009632 0.2162214427956837 0 -0.15110003921584569 0.22881829817408891 0 -0.1619547442009632 0.2162214427956837 0 -0.179110163166115 0.21364489161719899 0 -0.17870530295493239 0.18804735871836689 0 -0.19686056424972551 0.20437535499954981 0 -0.179110163166115 0.21364489161719899 0 -0.17870530295493239 0.18804735871836689 0 -0.179110163166115 0.21364489161719899 0 -0.17870530295493239 0.18804735871836689 0 -0.1619547442009632 0.2162214427956837 0 -0.17870530295493239 0.18804735871836689 0 -0.15775407484820861 0.18727827749961631 0 -0.14804225966403101 0.20585853828705919 0 -0.15775407484820861 0.18727827749961631 0 -0.13876353146598761 0.18223131465273959 0 -0.1619547442009632 0.2162214427956837 0 -0.14804225966403101 0.20585853828705919 0 -0.15775407484820861 0.18727827749961631 0 -0.13876353146598761 0.18223131465273959 0 -0.1245765098090509 0.17966052017845999 0 -0.1190175871807343 0.20067046473278771 0 -0.14804225966403101 0.20585853828705919 0 -0.13876353146598761 0.18223131465273959 0 -0.1190175871807343 0.20067046473278771 0 -0.14804225966403101 0.20585853828705919 0 -0.13479108425045189 0.2189379304695287 0 -0.1190175871807343 0.20067046473278771 0 -0.13479108425045189 0.2189379304695287 0 -0.12594818007053379 0.2253828658525201 0 -0.1190175871807343 0.20067046473278771 0 -0.1619547442009632 0.2162214427956837 0 -0.14804225966403101 0.20585853828705919 0 -0.15110003921584569 0.22881829817408891 0 -0.14804225966403101 0.20585853828705919 0 -0.15110003921584569 0.22881829817408891 0 -0.13479108425045189 0.2189379304695287 0 -0.15110003921584569 0.22881829817408891 0 -0.13479108425045189 0.2189379304695287 0 -0.1378537507735782 0.22769286600650679 0 -0.15110003921584569 0.22881829817408891 0 -0.1378537507735782 0.22769286600650679 0 -0.13827307027013019 0.2362506378269415 0 -0.13479108425045189 0.2189379304695287 0 -0.12594818007053379 0.2253828658525201 0 -0.1378537507735782 0.22769286600650679 0 -0.12594818007053379 0.2253828658525201 0 -0.1378537507735782 0.22769286600650679 0 -0.13827307027013019 0.2362506378269415 0 -0.12594818007053379 0.2253828658525201 0 -0.13827307027013019 0.2362506378269415 0 -0.1327712538659816 0.24971188635390451 0 -0.12594818007053379 0.2253828658525201 0 -0.1327712538659816 0.24971188635390451 0 -0.1532221513837192 0.25419418888983192 0 -0.15110003921584569 0.22881829817408891 0 -0.13827307027013019 0.2362506378269415 0 -0.1532221513837192 0.25419418888983192 0 -0.13827307027013019 0.2362506378269415 0 -0.1327712538659816 0.24971188635390451 0 -0.16317411874061041 0.14897554401654969 0 -0.16113979031376621 0.12743058591966341 0 -0.1447888583061562 0.1436064118174607 0 -0.16317411874061041 0.14897554401654969 0 -0.16113979031376621 0.12743058591966341 0 -0.17789558253256721 0.1368522929207025 0 -0.17749072232138041 0.1112547600218704 0 -0.16113979031376621 0.12743058591966341 0 -0.17789558253256721 0.1368522929207025 0 -0.19150979458678249 0.1243728737611647 0 -0.19274338499996449 0.14807478539393409 0 -0.17789558253256721 0.1368522929207025 0 -0.16317411874061041 0.14897554401654969 0 -0.17789558253256721 0.1368522929207025 0 -0.17830044274374979 0.16244982581953471 0 -0.17789558253256721 0.1368522929207025 0 -0.17830044274374979 0.16244982581953471 0 -0.19274338499996449 0.14807478539393409 0 -0.17789558253256721 0.1368522929207025 0 -0.17830044274374979 0.16244982581953471 0 -0.20517995294037331 0.17379218369948349 0 -0.17870530295493239 0.18804735871836689 0 -0.17830044274374979 0.16244982581953471 0 -0.17870530295493239 0.18804735871836689 0 -0.17830044274374979 0.16244982581953471 0 -0.17870530295493239 0.18804735871836689 0 -0.17830044274374979 0.16244982581953471 0 -0.15775407484820861 0.18727827749961631 0 -0.17830044274374979 0.16244982581953471 0 -0.15775407484820861 0.18727827749961631 0 -0.15245232938168229 0.1648839185887534 0 -0.16317411874061041 0.14897554401654969 0 -0.17830044274374979 0.16244982581953471 0 -0.15245232938168229 0.1648839185887534 0 -0.15775407484820861 0.18727827749961631 0 -0.15245232938168229 0.1648839185887534 0 -0.13876353146598761 0.18223131465273959 0 -0.13876353146598761 0.18223131465273959 0 -0.12843792629854631 0.15978223771525801 0 -0.1245765098090509 0.17966052017845999 0 -0.15245232938168229 0.1648839185887534 0 -0.13876353146598761 0.18223131465273959 0 -0.12843792629854631 0.15978223771525801 0 -0.12843792629854631 0.15978223771525801 0 -0.1447888583061562 0.1436064118174607 0 -0.12843792629854631 0.15978223771525801 0 -0.1447888583061562 0.1436064118174607 0 -0.1204435081575875 0.14623213693654391 0 -0.16317411874061041 0.14897554401654969 0 -0.15245232938168229 0.1648839185887534 0 -0.1447888583061562 0.1436064118174607 0 -0.15245232938168229 0.1648839185887534 0 -0.12843792629854631 0.15978223771525801 0 -0.1447888583061562 0.1436064118174607 0 -0.16113979031376621 0.12743058591966341 0 -0.1447888583061562 0.1436064118174607 0 -0.14300315410871919 0.1253406317882016 0 -0.16113979031376621 0.12743058591966341 0 -0.1447888583061562 0.1436064118174607 0 -0.1447888583061562 0.1436064118174607 0 -0.12687331202938101 0.13192737382428379 0 -0.1204435081575875 0.14623213693654391 0 -0.1447888583061562 0.1436064118174607 0 -0.14300315410871919 0.1253406317882016 0 -0.12687331202938101 0.13192737382428379 0 -0.12687331202938101 0.13192737382428379 0 -0.1130049083687871 0.13722853083192951 0 -0.10667563132183119 0.1260080396076822 0 -0.12687331202938101 0.13192737382428379 0 -0.1130049083687871 0.13722853083192951 0 -0.1204435081575875 0.14623213693654391 0 -0.10667563132183119 0.1260080396076822 0 -0.081978849477511453 0.1384377215961772 0 -0.096577670607123245 0.1239972751083621 0 -0.10667563132183119 0.1260080396076822 0 -0.1008242758955458 0.1385116675773613 0 -0.081978849477511453 0.1384377215961772 0 -0.10667563132183119 0.1260080396076822 0 -0.081978849477511453 0.1384377215961772 0 -0.1130049083687871 0.13722853083192951 0 -0.10667563132183119 0.1260080396076822 0 -0.1008242758955458 0.1385116675773613 0 -0.1130049083687871 0.13722853083192951 0 -0.1008242758955458 0.1385116675773613 0 -0.1078791741402548 0.14587794917826699 0 -0.094422293866394627 0.1556947047027778 0 -0.094582816169344081 0.14500609667275041 0 -0.1078791741402548 0.14587794917826699 0 -0.1008242758955458 0.1385116675773613 0 -0.094582816169344081 0.14500609667275041 0 -0.1078791741402548 0.14587794917826699 0 -0.12843792629854631 0.15978223771525801 0 -0.1204435081575875 0.14623213693654391 0 -0.1073217141416921 0.15896651377475199 0 -0.1078791741402548 0.14587794917826699 0 -0.1204435081575875 0.14623213693654391 0 -0.1073217141416921 0.15896651377475199 0 -0.1130049083687871 0.13722853083192951 0 -0.1078791741402548 0.14587794917826699 0 -0.1204435081575875 0.14623213693654391 0 -0.12843792629854631 0.15978223771525801 0 -0.1245765098090509 0.17966052017845999 0 -0.1120869942909358 0.17595806361305491 0 -0.1120869942909358 0.17595806361305491 0 -0.1073217141416921 0.15896651377475199 0 -0.12843792629854631 0.15978223771525801 0 -0.1120869942909358 0.17595806361305491 0 -0.12843792629854631 0.15978223771525801 0 -0.1120869942909358 0.17595806361305491 0 -0.1073217141416921 0.15896651377475199 0 -0.1245765098090509 0.17966052017845999 0 -0.1120869942909358 0.17595806361305491 0 -0.1190175871807343 0.20067046473278771 0 -0.1120869942909358 0.17595806361305491 0 -0.1020860412129876 0.1687304780430319 0 -0.095149617161195271 0.19271405424946009 0 -0.1020860412129876 0.1687304780430319 0 -0.095149617161195271 0.19271405424946009 0 -0.1120869942909358 0.17595806361305491 0 -0.095149617161195271 0.19271405424946009 0 -0.1020860412129876 0.1687304780430319 0 -0.093279947424905002 0.17994671451597891 0 -0.095149617161195271 0.19271405424946009 0 -0.1020860412129876 0.1687304780430319 0 -0.089956478385260899 0.16811851343374709 0 -0.093279947424905002 0.17994671451597891 0 -0.094422293866394627 0.1556947047027778 0 -0.1078791741402548 0.14587794917826699 0 -0.1020860412129876 0.1687304780430319 0 -0.1078791741402548 0.14587794917826699 0 -0.1073217141416921 0.15896651377475199 0 -0.1020860412129876 0.1687304780430319 0 -0.1120869942909358 0.17595806361305491 0 -0.1073217141416921 0.15896651377475199 0 -0.1020860412129876 0.1687304780430319 0 -0.1078791741402548 0.14587794917826699 0 -0.1020860412129876 0.1687304780430319 0 -0.094422293866394627 0.1556947047027778 0 -0.1020860412129876 0.1687304780430319 0 -0.089956478385260899 0.16811851343374709 0 -0.094422293866394627 0.1556947047027778 0 -0.089956478385260899 0.16811851343374709 0 -0.084742563178951485 0.15922574422532609 0 -0.089956478385260899 0.16811851343374709 0 -0.080023232193096983 0.1657260639694961 0 -0.084742563178951485 0.15922574422532609 0 -0.089956478385260899 0.16811851343374709 0 -0.080023232193096983 0.1657260639694961 0 -0.081293191825158789 0.17801619480298669 0 -0.080023232193096983 0.1657260639694961 0 -0.084742563178951485 0.15922574422532609 0 -0.074930767296401246 0.15918989644816289 0 -0.081293191825158789 0.17801619480298669 0 -0.095149617161195271 0.19271405424946009 0 -0.073474196407973841 0.19079473501472519 0 -0.081293191825158789 0.17801619480298669 0 -0.095149617161195271 0.19271405424946009 0 -0.093279947424905002 0.17994671451597891 0 -0.081293191825158789 0.17801619480298669 0 -0.095149617161195271 0.19271405424946009 0 -0.089956478385260899 0.16811851343374709 0 -0.093279947424905002 0.17994671451597891 0 -0.081293191825158789 0.17801619480298669 0 -0.064604308801312821 0.18244611143699499 0 -0.069549912031587807 0.17131438064227461 0 -0.073474196407973841 0.19079473501472519 0 -0.081293191825158789 0.17801619480298669 0 -0.069549912031587807 0.17131438064227461 0 -0.073474196407973841 0.19079473501472519 0 -0.069549912031587807 0.17131438064227461 0 -0.073474196407973841 0.19079473501472519 0 -0.064604308801312821 0.18244611143699499 0 -0.069549912031587807 0.17131438064227461 0 -0.062041409668937363 0.1723934095439342 0 -0.084742563178951485 0.15922574422532609 0 -0.074930767296401246 0.15918989644816289 0 -0.074588176879671189 0.15080810715310269 0 -0.080023232193096983 0.1657260639694961 0 -0.074930767296401246 0.15918989644816289 0 -0.06743676648912228 0.16331833535651319 0 -0.081293191825158789 0.17801619480298669 0 -0.069549912031587807 0.17131438064227461 0 -0.06743676648912228 0.16331833535651319 0 -0.080023232193096983 0.1657260639694961 0 -0.081293191825158789 0.17801619480298669 0 -0.06743676648912228 0.16331833535651319 0 -0.081293191825158789 0.17801619480298669 0 -0.06743676648912228 0.16331833535651319 0 -0.069549912031587807 0.17131438064227461 0 -0.062031688412593149 0.16441565219234799 0 -0.062041409668937363 0.1723934095439342 0 -0.069549912031587807 0.17131438064227461 0 -0.06743676648912228 0.16331833535651319 0 -0.062031688412593149 0.16441565219234799 0 -0.06743676648912228 0.16331833535651319 0 -0.06725389334219653 0.15771987894696021 0 -0.062031688412593149 0.16441565219234799 0 -0.074930767296401246 0.15918989644816289 0 -0.06743676648912228 0.16331833535651319 0 -0.06725389334219653 0.15771987894696021 0 -0.081978849477511453 0.1384377215961772 0 -0.05728206763319247 0.1508674035846734 0 -0.06725389334219653 0.15771987894696021 0 -0.074588176879671189 0.15080810715310269 0 -0.05728206763319247 0.1508674035846734 0 -0.074588176879671189 0.15080810715310269 0 -0.081978849477511453 0.1384377215961772 0 -0.05728206763319247 0.1508674035846734 0 -0.081978849477511453 0.1384377215961772 0 -0.06070043620975589 0.134524720015781 0 -0.05728206763319247 0.1508674035846734 0 -0.074930767296401246 0.15918989644816289 0 -0.06725389334219653 0.15771987894696021 0 -0.074588176879671189 0.15080810715310269 0 -0.071786582042575819 0.1280585334591178 0 -0.081978849477511453 0.1384377215961772 0 -0.08034823769671974 0.121089655777625 0 -0.071786582042575819 0.1280585334591178 0 -0.081978849477511453 0.1384377215961772 0 -0.06070043620975589 0.134524720015781 0 -0.071786582042575819 0.1280585334591178 0 -0.06070043620975589 0.134524720015781 0 -0.06411880478631618 0.11818203644688791 0 -0.081978849477511453 0.1384377215961772 0 -0.08034823769671974 0.121089655777625 0 -0.096577670607123245 0.1239972751083621 0 -0.1008242758955458 0.1385116675773613 0 -0.094582816169344081 0.14500609667275041 0 -0.081978849477511453 0.1384377215961772 0 -0.094582816169344081 0.14500609667275041 0 -0.081978849477511453 0.1384377215961772 0 -0.0854808471676783 0.14892295327365951 0 -0.094422293866394627 0.1556947047027778 0 -0.084742563178951485 0.15922574422532609 0 -0.0854808471676783 0.14892295327365951 0 -0.094422293866394627 0.1556947047027778 0 -0.094582816169344081 0.14500609667275041 0 -0.0854808471676783 0.14892295327365951 0 -0.084742563178951485 0.15922574422532609 0 -0.074588176879671189 0.15080810715310269 0 -0.0854808471676783 0.14892295327365951 0 -0.074588176879671189 0.15080810715310269 0 -0.081978849477511453 0.1384377215961772 0 -0.0854808471676783 0.14892295327365951 0 -0.1045487088169635 0.24438495162540061 0 -0.11455994162881621 0.23631135170566109 0 -0.098826177075254387 0.23394696074010041 0 -0.10005120432924321 0.25626016583208688 0 -0.094679029848152713 0.24609146959404629 0 -0.1045487088169635 0.24438495162540061 0 -0.094679029848152713 0.24609146959404629 0 -0.1045487088169635 0.24438495162540061 0 -0.098826177075254387 0.23394696074010041 0 -0.116744543106582 0.25728181003509248 0 -0.1045487088169635 0.24438495162540061 0 -0.11455994162881621 0.23631135170566109 0 -0.116744543106582 0.25728181003509248 0 -0.1327712538659816 0.24971188635390451 0 -0.11455994162881621 0.23631135170566109 0 -0.12594818007053379 0.2253828658525201 0 -0.1327712538659816 0.24971188635390451 0 -0.11455994162881621 0.23631135170566109 0 -0.11455994162881621 0.23631135170566109 0 -0.1144435087069731 0.2232582902708152 0 -0.1063794885369051 0.22193246116811141 0 -0.12594818007053379 0.2253828658525201 0 -0.1144435087069731 0.2232582902708152 0 -0.1108864245916369 0.20940648235696879 0 -0.12594818007053379 0.2253828658525201 0 -0.11455994162881621 0.23631135170566109 0 -0.1144435087069731 0.2232582902708152 0 -0.11455994162881621 0.23631135170566109 0 -0.1063794885369051 0.22193246116811141 0 -0.098826177075254387 0.23394696074010041 0 -0.1063794885369051 0.22193246116811141 0 -0.098826177075254387 0.23394696074010041 0 -0.089950704149474564 0.21660149084549701 0 -0.1063794885369051 0.22193246116811141 0 -0.089950704149474564 0.21660149084549701 0 -0.10053720550511509 0.21148400771379949 0 -0.095149617161195271 0.19271405424946009 0 -0.089950704149474564 0.21660149084549701 0 -0.1063794885369051 0.22193246116811141 0 -0.10053720550511509 0.21148400771379949 0 -0.089950704149474564 0.21660149084549701 0 -0.10053720550511509 0.21148400771379949 0 -0.1108864245916369 0.20940648235696879 0 -0.095149617161195271 0.19271405424946009 0 -0.1063794885369051 0.22193246116811141 0 -0.10053720550511509 0.21148400771379949 0 -0.1108864245916369 0.20940648235696879 0 -0.12594818007053379 0.2253828658525201 0 -0.1190175871807343 0.20067046473278771 0 -0.12594818007053379 0.2253828658525201 0 -0.1108864245916369 0.20940648235696879 0 -0.1190175871807343 0.20067046473278771 0 -0.12594818007053379 0.2253828658525201 0 -0.1108864245916369 0.20940648235696879 0 -0.1144435087069731 0.2232582902708152 0 -0.1063794885369051 0.22193246116811141 0 -0.1108864245916369 0.20940648235696879 0 -0.1120869942909358 0.17595806361305491 0 -0.1190175871807343 0.20067046473278771 0 -0.1108864245916369 0.20940648235696879 0 -0.1190175871807343 0.20067046473278771 0 -0.10682171669235439 0.1942096232944058 0 -0.1120869942909358 0.17595806361305491 0 -0.1190175871807343 0.20067046473278771 0 -0.10682171669235439 0.1942096232944058 0 -0.1108864245916369 0.20940648235696879 0 -0.095149617161195271 0.19271405424946009 0 -0.1108864245916369 0.20940648235696879 0 -0.10682171669235439 0.1942096232944058 0 -0.095149617161195271 0.19271405424946009 0 -0.1120869942909358 0.17595806361305491 0 -0.10682171669235439 0.1942096232944058 0 -0.095149617161195271 0.19271405424946009 0 -0.095149617161195271 0.19271405424946009 0 -0.077398480784349299 0.2102750893871779 0 -0.095149617161195271 0.19271405424946009 0 -0.073474196407973841 0.19079473501472519 0 -0.077398480784349299 0.2102750893871779 0 -0.095149617161195271 0.19271405424946009 0 -0.077398480784349299 0.2102750893871779 0 -0.087241526055590657 0.20514135106535239 0 -0.073474196407973841 0.19079473501472519 0 -0.077398480784349299 0.2102750893871779 0 -0.073474196407973841 0.19079473501472519 0 -0.077398480784349299 0.2102750893871779 0 -0.068984895145132993 0.20348567813270921 0 -0.064604308801312821 0.18244611143699499 0 -0.073474196407973841 0.19079473501472519 0 -0.062951628171730722 0.19451437844324071 0 -0.073474196407973841 0.19079473501472519 0 -0.062951628171730722 0.19451437844324071 0 -0.068984895145132993 0.20348567813270921 0 -0.062951628171730722 0.19451437844324071 0 -0.068984895145132993 0.20348567813270921 0 -0.057478398324341332 0.20606456403591589 0 -0.068984895145132993 0.20348567813270921 0 -0.075683327299925024 0.21197187487555791 0 -0.057478398324341332 0.20606456403591589 0 -0.075683327299925024 0.21197187487555791 0 -0.060700713784132942 0.2267940359372384 0 -0.057478398324341332 0.20606456403591589 0 -0.075683327299925024 0.21197187487555791 0 -0.057478398324341332 0.20606456403591589 0 -0.077398480784349299 0.2102750893871779 0 -0.068984895145132993 0.20348567813270921 0 -0.075683327299925024 0.21197187487555791 0 -0.075683327299925024 0.21197187487555791 0 -0.077884159070199604 0.2126860219832131 0 -0.060700713784132942 0.2267940359372384 0 -0.075683327299925024 0.21197187487555791 0 -0.077884159070199604 0.2126860219832131 0 -0.077398480784349299 0.2102750893871779 0 -0.075683327299925024 0.21197187487555791 0 -0.077884159070199604 0.2126860219832131 0 -0.077398480784349299 0.2102750893871779 0 -0.077884159070199604 0.2126860219832131 0 -0.077398480784349299 0.2102750893871779 0 -0.075683327299925024 0.21197187487555791 0 -0.077884159070199604 0.2126860219832131 0 -0.089950704149474564 0.21660149084549701 0 -0.077884159070199604 0.2126860219832131 0 -0.087241526055590657 0.20514135106535239 0 -0.089950704149474564 0.21660149084549701 0 -0.095149617161195271 0.19271405424946009 0 -0.087241526055590657 0.20514135106535239 0 -0.089950704149474564 0.21660149084549701 0 -0.095149617161195271 0.19271405424946009 0 -0.089950704149474564 0.21660149084549701 0 -0.077398480784349299 0.2102750893871779 0 -0.077884159070199604 0.2126860219832131 0 -0.087241526055590657 0.20514135106535239 0 -0.077884159070199604 0.2126860219832131 0 -0.083666647235009842 0.24139059785004849 0 -0.089950704149474564 0.21660149084549701 0 -0.083666647235009842 0.24139059785004849 0 -0.077884159070199604 0.2126860219832131 0 -0.089950704149474564 0.21660149084549701 0 -0.083666647235009842 0.24139059785004849 0 -0.098826177075254387 0.23394696074010041 0 -0.089950704149474564 0.21660149084549701 0 -0.083666647235009842 0.24139059785004849 0 -0.077884159070199604 0.2126860219832131 0 -0.083666647235009842 0.24139059785004849 0 -0.060700713784132942 0.2267940359372384 0 -0.075683327299925024 0.21197187487555791 0 -0.060700713784132942 0.2267940359372384 0 -0.064077212627390134 0.24851538469076631 0 -0.083666647235009842 0.24139059785004849 0 -0.060700713784132942 0.2267940359372384 0 -0.086302411784292182 0.25447467192259482 0 -0.083666647235009842 0.24139059785004849 0 -0.094679029848152713 0.24609146959404629 0 -0.098826177075254387 0.23394696074010041 0 -0.083666647235009842 0.24139059785004849 0 -0.086302411784292182 0.25447467192259482 0 -0.094679029848152713 0.24609146959404629 0 -0.083666647235009842 0.24139059785004849 0 -0.03068766995985707 0.25286978792993342 0 -0.034335222642673788 0.23481172099035691 0 -0.046578861792199937 0.24361118962503389 0 -0.034335222642673788 0.23481172099035691 0 -0.046578861792199937 0.24361118962503389 0 -0.045510089746351297 0.2289623102588538 0 -0.064077212627390134 0.24851538469076631 0 -0.046578861792199937 0.24361118962503389 0 -0.055802081643016588 0.23164020743468811 0 -0.064077212627390134 0.24851538469076631 0 -0.055802081643016588 0.23164020743468811 0 -0.060700713784132942 0.2267940359372384 0 -0.064077212627390134 0.24851538469076631 0 -0.060700713784132942 0.2267940359372384 0 -0.046578861792199937 0.24361118962503389 0 -0.055802081643016588 0.23164020743468811 0 -0.045510089746351297 0.2289623102588538 0 -0.055802081643016588 0.23164020743468811 0 -0.053252725762674542 0.2222055350902031 0 -0.045510089746351297 0.2289623102588538 0 -0.055802081643016588 0.23164020743468811 0 -0.060700713784132942 0.2267940359372384 0 -0.053252725762674542 0.2222055350902031 0 -0.055802081643016588 0.23164020743468811 0 -0.060700713784132942 0.2267940359372384 0 -0.053252725762674542 0.2222055350902031 0 -0.045510089746351297 0.2289623102588538 0 -0.046772345315528908 0.21756655778431969 0 -0.045510089746351297 0.2289623102588538 0 -0.036443083940353373 0.22210497005765251 0 -0.046772345315528908 0.21756655778431969 0 -0.034335222642673788 0.23481172099035691 0 -0.045510089746351297 0.2289623102588538 0 -0.036443083940353373 0.22210497005765251 0 -0.034335222642673788 0.23481172099035691 0 -0.036443083940353373 0.22210497005765251 0 -0.024866254401544021 0.22078734426404351 0 -0.036443083940353373 0.22210497005765251 0 -0.046772345315528908 0.21756655778431969 0 -0.031637039445344017 0.19767931081015269 0 -0.046772345315528908 0.21756655778431969 0 -0.057478398324341332 0.20606456403591589 0 -0.031637039445344017 0.19767931081015269 0 -0.060700713784132942 0.2267940359372384 0 -0.053252725762674542 0.2222055350902031 0 -0.057478398324341332 0.20606456403591589 0 -0.060700713784132942 0.2267940359372384 0 -0.057478398324341332 0.20606456403591589 0 -0.053252725762674542 0.2222055350902031 0 -0.046772345315528908 0.21756655778431969 0 -0.057478398324341332 0.20606456403591589 0 -0.062951628171730722 0.19451437844324071 0 -0.057478398324341332 0.20606456403591589 0 -0.054948738746262903 0.1897910154656581 0 -0.057478398324341332 0.20606456403591589 0 -0.054948738746262903 0.1897910154656581 0 -0.031637039445344017 0.19767931081015269 0 -0.057478398324341332 0.20606456403591589 0 -0.054948738746262903 0.1897910154656581 0 -0.054948738746262903 0.1897910154656581 0 -0.031637039445344017 0.19767931081015269 0 -0.039999697082172873 0.18418677263352329 0 -0.057478398324341332 0.20606456403591589 0 -0.031637039445344017 0.19767931081015269 0 -0.031637039445344017 0.19767931081015269 0 -0.0057956805663459468 0.1892940575843915 0 -0.031637039445344017 0.19767931081015269 0 -0.0057956805663459468 0.1892940575843915 0 -0.024775833668462071 0.17590936267321361 0 -0.031637039445344017 0.19767931081015269 0 -0.0057956805663459468 0.1892940575843915 0 -0.01019634689217482 0.20814994011246479 0 -0.0057956805663459468 0.1892940575843915 0 -0.01019634689217482 0.20814994011246479 0 0.0090806704795409685 0.20996839310177981 0 -0.01019634689217482 0.20814994011246479 0 0.00014186162909880781 0.2338185852574263 0 0.0090806704795409685 0.20996839310177981 0 -0.036443083940353373 0.22210497005765251 0 -0.031637039445344017 0.19767931081015269 0 -0.024866254401544021 0.22078734426404351 0 -0.031637039445344017 0.19767931081015269 0 -0.01019634689217482 0.20814994011246479 0 -0.024866254401544021 0.22078734426404351 0 -0.034335222642673788 0.23481172099035691 0 -0.024866254401544021 0.22078734426404351 0 -0.01991034591062427 0.239405390953495 0 -0.024866254401544021 0.22078734426404351 0 0.00014186162909880781 0.2338185852574263 0 -0.024866254401544021 0.22078734426404351 0 -0.01991034591062427 0.239405390953495 0 0.00014186162909880781 0.2338185852574263 0 -0.01019634689217482 0.20814994011246479 0 -0.024866254401544021 0.22078734426404351 0 0.00014186162909880781 0.2338185852574263 0 -0.0098044441781452579 0.25473951632571468 0 0.00014186162909880781 0.2338185852574263 0 0.0073806355134042019 0.25529449578482938 0 -0.0098044441781452579 0.25473951632571468 0 -0.01991034591062427 0.239405390953495 0 0.00014186162909880781 0.2338185852574263 0 -0.03068766995985707 0.25286978792993342 0 -0.034335222642673788 0.23481172099035691 0 -0.01991034591062427 0.239405390953495 0 -0.03068766995985707 0.25286978792993342 0 -0.0098044441781452579 0.25473951632571468 0 -0.01991034591062427 0.239405390953495 0 -0.045513089216113363 0.1481501368583191 0 -0.039963318838929777 0.1583549670989208 0 -0.028048700007850699 0.14601834090005769 0 -0.045513089216113363 0.1481501368583191 0 -0.037584816749385713 0.12707105787504261 0 -0.028048700007850699 0.14601834090005769 0 -0.037584816749385713 0.12707105787504261 0 -0.028048700007850699 0.14601834090005769 0 -0.045513089216113363 0.1481501368583191 0 -0.037584816749385713 0.12707105787504261 0 -0.045513089216113363 0.1481501368583191 0 -0.037584816749385713 0.12707105787504261 0 -0.049753839012929922 0.13582205838018921 0 -0.037584816749385713 0.12707105787504261 0 -0.049753839012929922 0.13582205838018921 0 -0.051208231868337763 0.1260313133231428 0 -0.049753839012929922 0.13582205838018921 0 -0.06070043620975589 0.134524720015781 0 -0.052276118599972977 0.1457036522838337 0 -0.051208231868337763 0.1260313133231428 0 -0.06070043620975589 0.134524720015781 0 -0.06411880478631618 0.11818203644688791 0 -0.06070043620975589 0.134524720015781 0 -0.06411880478631618 0.11818203644688791 0 -0.049753839012929922 0.13582205838018921 0 -0.051208231868337763 0.1260313133231428 0 -0.06070043620975589 0.134524720015781 0 -0.06070043620975589 0.134524720015781 0 -0.052276118599972977 0.1457036522838337 0 -0.05728206763319247 0.1508674035846734 0 -0.06070043620975589 0.134524720015781 0 -0.05728206763319247 0.1508674035846734 0 -0.045513089216113363 0.1481501368583191 0 -0.049753839012929922 0.13582205838018921 0 -0.052276118599972977 0.1457036522838337 0 -0.045513089216113363 0.1481501368583191 0 -0.052276118599972977 0.1457036522838337 0 -0.053440893212920608 0.15280063427064891 0 -0.052276118599972977 0.1457036522838337 0 -0.053440893212920608 0.15280063427064891 0 -0.05728206763319247 0.1508674035846734 0 -0.053440893212920608 0.15280063427064891 0 -0.05728206763319247 0.1508674035846734 0 -0.05728206763319247 0.1508674035846734 0 -0.062031688412593149 0.16441565219234799 0 -0.053441361682841117 0.16922921584159559 0 -0.053440893212920608 0.15280063427064891 0 -0.05728206763319247 0.1508674035846734 0 -0.053441361682841117 0.16922921584159559 0 -0.045513089216113363 0.1481501368583191 0 -0.053440893212920608 0.15280063427064891 0 -0.053441361682841117 0.16922921584159559 0 -0.045513089216113363 0.1481501368583191 0 -0.053441361682841117 0.16922921584159559 0 -0.05728206763319247 0.1508674035846734 0 -0.053441361682841117 0.16922921584159559 0 -0.06725389334219653 0.15771987894696021 0 -0.05728206763319247 0.1508674035846734 0 -0.062031688412593149 0.16441565219234799 0 -0.062031688412593149 0.16441565219234799 0 -0.053441361682841117 0.16922921584159559 0 -0.062041409668937363 0.1723934095439342 0 -0.053441361682841117 0.16922921584159559 0 -0.047633738945979477 0.17108968717192211 0 -0.039963318838929777 0.1583549670989208 0 -0.052991971448818453 0.17137768000779441 0 -0.053441361682841117 0.16922921584159559 0 -0.047633738945979477 0.17108968717192211 0 -0.052991971448818453 0.17137768000779441 0 -0.053441361682841117 0.16922921584159559 0 -0.054948738746262903 0.1897910154656581 0 -0.052419079168185397 0.17351746689540021 0 -0.046888846475854867 0.17837904804597579 0 -0.062951628171730722 0.19451437844324071 0 -0.054948738746262903 0.1897910154656581 0 -0.052419079168185397 0.17351746689540021 0 -0.062951628171730722 0.19451437844324071 0 -0.052991971448818453 0.17137768000779441 0 -0.052419079168185397 0.17351746689540021 0 -0.064604308801312821 0.18244611143699499 0 -0.062951628171730722 0.19451437844324071 0 -0.053441361682841117 0.16922921584159559 0 -0.062951628171730722 0.19451437844324071 0 -0.052991971448818453 0.17137768000779441 0 -0.053441361682841117 0.16922921584159559 0 -0.054948738746262903 0.1897910154656581 0 -0.052419079168185397 0.17351746689540021 0 -0.062951628171730722 0.19451437844324071 0 -0.053441361682841117 0.16922921584159559 0 -0.064604308801312821 0.18244611143699499 0 -0.053441361682841117 0.16922921584159559 0 -0.062041409668937363 0.1723934095439342 0 -0.052991971448818453 0.17137768000779441 0 -0.047633738945979477 0.17108968717192211 0 -0.052419079168185397 0.17351746689540021 0 -0.047633738945979477 0.17108968717192211 0 -0.052419079168185397 0.17351746689540021 0 -0.046888846475854867 0.17837904804597579 0 -0.054948738746262903 0.1897910154656581 0 -0.046888846475854867 0.17837904804597579 0 -0.039999697082172873 0.18418677263352329 0 -0.031637039445344017 0.19767931081015269 0 -0.039999697082172873 0.18418677263352329 0 -0.024775833668462071 0.17590936267321361 0 -0.046888846475854867 0.17837904804597579 0 -0.039999697082172873 0.18418677263352329 0 -0.039442978436673673 0.17331029806337539 0 -0.047633738945979477 0.17108968717192211 0 -0.046888846475854867 0.17837904804597579 0 -0.039442978436673673 0.17331029806337539 0 -0.039442978436673673 0.17331029806337539 0 -0.032139483942643897 0.16694135859911591 0 -0.024775833668462071 0.17590936267321361 0 -0.039999697082172873 0.18418677263352329 0 -0.039442978436673673 0.17331029806337539 0 -0.024775833668462071 0.17590936267321361 0 -0.045513089216113363 0.1481501368583191 0 -0.053441361682841117 0.16922921584159559 0 -0.039963318838929777 0.1583549670989208 0 -0.039963318838929777 0.1583549670989208 0 -0.032139483942643897 0.16694135859911591 0 -0.02343924065842673 0.15869802647678349 0 -0.047633738945979477 0.17108968717192211 0 -0.039442978436673673 0.17331029806337539 0 -0.039963318838929777 0.1583549670989208 0 -0.039442978436673673 0.17331029806337539 0 -0.039963318838929777 0.1583549670989208 0 -0.032139483942643897 0.16694135859911591 0 -0.032139483942643897 0.16694135859911591 0 -0.02343924065842673 0.15869802647678349 0 -0.024775833668462071 0.17590936267321361 0 -0.02343924065842673 0.15869802647678349 0 -0.024775833668462071 0.17590936267321361 0 -0.0048034666842798916 0.1614245706846468 0 -0.0057956805663459468 0.1892940575843915 0 -0.024775833668462071 0.17590936267321361 0 -0.0048034666842798916 0.1614245706846468 0 -0.0048034666842798916 0.1614245706846468 0 -0.01090464080839405 0.14353955890474629 0 0.011098566836083609 0.13484946890849181 0 -0.02343924065842673 0.15869802647678349 0 -0.0048034666842798916 0.1614245706846468 0 -0.01090464080839405 0.14353955890474629 0 -0.039963318838929777 0.1583549670989208 0 -0.02343924065842673 0.15869802647678349 0 -0.028048700007850699 0.14601834090005769 0 -0.02343924065842673 0.15869802647678349 0 -0.01090464080839405 0.14353955890474629 0 -0.028048700007850699 0.14601834090005769 0 -0.037584816749385713 0.12707105787504261 0 -0.0187932077553963 0.1304023687453105 0 -0.02482114599867602 0.1199028763409456 0 -0.01090464080839405 0.14353955890474629 0 -0.028048700007850699 0.14601834090005769 0 -0.0187932077553963 0.1304023687453105 0 -0.037584816749385713 0.12707105787504261 0 -0.028048700007850699 0.14601834090005769 0 -0.0187932077553963 0.1304023687453105 0 -0.0064436606074630637 0.13109611639504981 0 -0.007175360702145514 0.1155930690216506 0 0.011098566836083609 0.13484946890849181 0 -0.01090464080839405 0.14353955890474629 0 -0.0064436606074630637 0.13109611639504981 0 0.011098566836083609 0.13484946890849181 0 -0.0187932077553963 0.1304023687453105 0 -0.0064436606074630637 0.13109611639504981 0 -0.007175360702145514 0.1155930690216506 0 -0.01090464080839405 0.14353955890474629 0 -0.0187932077553963 0.1304023687453105 0 -0.0064436606074630637 0.13109611639504981 0 -0.007175360702145514 0.1155930690216506 0 -0.0040088977147468936 0.097024336429998151 0 -0.013655752966245171 0.094180689311720855 0 -0.007175360702145514 0.1155930690216506 0 -0.0040088977147468936 0.097024336429998151 0 0.0025937760044158291 0.1064596481343341 0 -0.007175360702145514 0.1155930690216506 0 -0.013655752966245171 0.094180689311720855 0 -0.02544928824037461 0.096336669134809427 0 -0.029459919491476121 0.1011230655410132 0 -0.021580178673492881 0.1105609364200745 0 -0.037915498494119543 0.10215930426450601 0 -0.007175360702145514 0.1155930690216506 0 -0.02544928824037461 0.096336669134809427 0 -0.007175360702145514 0.1155930690216506 0 -0.02544928824037461 0.096336669134809427 0 -0.0241566231860777 0.1021061234229471 0 -0.02544928824037461 0.096336669134809427 0 -0.029459919491476121 0.1011230655410132 0 -0.035034026511796899 0.0954599165668297 0 -0.02544928824037461 0.096336669134809427 0 -0.029459919491476121 0.1011230655410132 0 -0.0241566231860777 0.1021061234229471 0 -0.02544928824037461 0.096336669134809427 0 -0.0241566231860777 0.1021061234229471 0 -0.029459919491476121 0.1011230655410132 0 -0.0241566231860777 0.1021061234229471 0 -0.021580178673492881 0.1105609364200745 0 -0.02482114599867602 0.1199028763409456 0 -0.021580178673492881 0.1105609364200745 0 -0.032585978911933711 0.11378053360982859 0 -0.007175360702145514 0.1155930690216506 0 -0.0241566231860777 0.1021061234229471 0 -0.021580178673492881 0.1105609364200745 0 -0.0187932077553963 0.1304023687453105 0 -0.007175360702145514 0.1155930690216506 0 -0.02482114599867602 0.1199028763409456 0 -0.007175360702145514 0.1155930690216506 0 -0.02482114599867602 0.1199028763409456 0 -0.021580178673492881 0.1105609364200745 0 -0.01109578586274463 0.07592966442077155 0 -0.01963881101933795 0.057650575484614511 0 -0.0089029190745683329 0.062319161291970238 0 -0.0031702267477386531 0.067180855403790804 0 -0.01109578586274463 0.07592966442077155 0 0.0065236609159091173 0.071671444604676282 0 -0.0031702267477386531 0.067180855403790804 0 -0.0089029190745683329 0.062319161291970238 0 0.00079413703044923156 0.058803151297745167 0 -0.0031702267477386531 0.067180855403790804 0 -0.01109578586274463 0.07592966442077155 0 -0.0089029190745683329 0.062319161291970238 0 -0.0040088977147468936 0.097024336429998151 0 -0.01109578586274463 0.07592966442077155 0 0.011643404763696401 0.092949868607662828 0 -0.0040088977147468936 0.097024336429998151 0 -0.013655752966245171 0.094180689311720855 0 -0.01109578586274463 0.07592966442077155 0 -0.013655752966245171 0.094180689311720855 0 -0.01109578586274463 0.07592966442077155 0 -0.02054943231121421 0.086019707551374502 0 -0.02544928824037461 0.096336669134809427 0 -0.02054943231121421 0.086019707551374502 0 -0.029642132364781061 0.077623064684345475 0 -0.02544928824037461 0.096336669134809427 0 -0.029642132364781061 0.077623064684345475 0 -0.036673455980692451 0.084509049595857907 0 -0.01109578586274463 0.07592966442077155 0 -0.02054943231121421 0.086019707551374502 0 -0.029642132364781061 0.077623064684345475 0 -0.02544928824037461 0.096336669134809427 0 -0.029642132364781061 0.077623064684345475 0 -0.013655752966245171 0.094180689311720855 0 -0.02544928824037461 0.096336669134809427 0 -0.02054943231121421 0.086019707551374502 0 -0.02544928824037461 0.096336669134809427 0 -0.036673455980692451 0.084509049595857907 0 -0.01109578586274463 0.07592966442077155 0 -0.033834976489186493 0.058909460233881362 0 -0.01109578586274463 0.07592966442077155 0 -0.029642132364781061 0.077623064684345475 0 -0.033834976489186493 0.058909460233881362 0 -0.01109578586274463 0.07592966442077155 0 -0.033834976489186493 0.058909460233881362 0 -0.01963881101933795 0.057650575484614511 0 -0.029642132364781061 0.077623064684345475 0 -0.033834976489186493 0.058909460233881362 0 -0.029642132364781061 0.077623064684345475 0 -0.036732086871232597 0.066761861307427367 0 -0.033834976489186493 0.058909460233881362 0 -0.042969512877196837 0.063698159366550891 0 -0.036732086871232597 0.066761861307427367 0 -0.038306240480512441 0.072768089837317376 0 -0.042969512877196837 0.063698159366550891 0 -0.038306240480512441 0.072768089837317376 0 -0.046136221960229658 0.070392563092827029 0 -0.042969512877196837 0.063698159366550891 0 -0.036732086871232597 0.066761861307427367 0 -0.038907572144486188 0.060810532415041758 0 -0.029642132364781061 0.077623064684345475 0 -0.036732086871232597 0.066761861307427367 0 -0.038306240480512441 0.072768089837317376 0 -0.038306240480512441 0.072768089837317376 0 -0.046136221960229658 0.070392563092827029 0 -0.043586306971417507 0.077534071189344175 0 -0.038306240480512441 0.072768089837317376 0 -0.043586306971417507 0.077534071189344175 0 -0.036673455980692451 0.084509049595857907 0 -0.043586306971417507 0.077534071189344175 0 -0.036673455980692451 0.084509049595857907 0 -0.046978765451358998 0.084182386091036676 0 -0.029642132364781061 0.077623064684345475 0 -0.038306240480512441 0.072768089837317376 0 -0.036673455980692451 0.084509049595857907 0 -0.02544928824037461 0.096336669134809427 0 -0.036673455980692451 0.084509049595857907 0 -0.035034026511796899 0.0954599165668297 0 -0.036673455980692451 0.084509049595857907 0 -0.044089979176562301 0.093675305350012283 0 -0.035034026511796899 0.0954599165668297 0 -0.036673455980692451 0.084509049595857907 0 -0.044089979176562301 0.093675305350012283 0 -0.046978765451358998 0.084182386091036676 0 -0.044089979176562301 0.093675305350012283 0 -0.057144835734191893 0.088207312209507505 0 -0.046978765451358998 0.084182386091036676 0 -0.057144835734191893 0.088207312209507505 0 -0.046978765451358998 0.084182386091036676 0 -0.053399249393930842 0.076986192110461482 0 -0.043586306971417507 0.077534071189344175 0 -0.046978765451358998 0.084182386091036676 0 -0.053399249393930842 0.076986192110461482 0 -0.053399249393930842 0.076986192110461482 0 -0.070406408885084593 0.061857930521202607 0 -0.059815066152941319 0.061788281472960463 0 -0.057144835734191893 0.088207312209507505 0 -0.053399249393930842 0.076986192110461482 0 -0.070406408885084593 0.061857930521202607 0 -0.046136221960229658 0.070392563092827029 0 -0.043586306971417507 0.077534071189344175 0 -0.053399249393930842 0.076986192110461482 0 -0.046136221960229658 0.070392563092827029 0 -0.053399249393930842 0.076986192110461482 0 -0.05257832837313995 0.068950164376806455 0 -0.053399249393930842 0.076986192110461482 0 -0.05257832837313995 0.068950164376806455 0 -0.059815066152941319 0.061788281472960463 0 -0.05257832837313995 0.068950164376806455 0 -0.052166049838275927 0.062310195238599278 0 -0.059815066152941319 0.061788281472960463 0 -0.046136221960229658 0.070392563092827029 0 -0.05257832837313995 0.068950164376806455 0 -0.052166049838275927 0.062310195238599278 0 -0.042969512877196837 0.063698159366550891 0 -0.046136221960229658 0.070392563092827029 0 -0.052166049838275927 0.062310195238599278 0 -0.021580178673492881 0.1105609364200745 0 -0.043883262583300407 0.11455669389781301 0 -0.021580178673492881 0.1105609364200745 0 -0.043883262583300407 0.11455669389781301 0 -0.032585978911933711 0.11378053360982859 0 -0.037584816749385713 0.12707105787504261 0 -0.051208231868337763 0.1260313133231428 0 -0.043883262583300407 0.11455669389781301 0 -0.037584816749385713 0.12707105787504261 0 -0.043883262583300407 0.11455669389781301 0 -0.037584816749385713 0.12707105787504261 0 -0.032585978911933711 0.11378053360982859 0 -0.037584816749385713 0.12707105787504261 0 -0.043883262583300407 0.11455669389781301 0 -0.032585978911933711 0.11378053360982859 0 -0.037584816749385713 0.12707105787504261 0 -0.02482114599867602 0.1199028763409456 0 -0.032585978911933711 0.11378053360982859 0 -0.021580178673492881 0.1105609364200745 0 -0.043883262583300407 0.11455669389781301 0 -0.037915498494119543 0.10215930426450601 0 -0.044089979176562301 0.093675305350012283 0 -0.043883262583300407 0.11455669389781301 0 -0.037915498494119543 0.10215930426450601 0 -0.044089979176562301 0.093675305350012283 0 -0.037915498494119543 0.10215930426450601 0 -0.035034026511796899 0.0954599165668297 0 -0.029459919491476121 0.1011230655410132 0 -0.037915498494119543 0.10215930426450601 0 -0.035034026511796899 0.0954599165668297 0 -0.044089979176562301 0.093675305350012283 0 -0.057144835734191893 0.088207312209507505 0 -0.043883262583300407 0.11455669389781301 0 -0.057144835734191893 0.088207312209507505 0 -0.043883262583300407 0.11455669389781301 0 -0.057144835734191893 0.088207312209507505 0 -0.043883262583300407 0.11455669389781301 0 -0.056175626513735713 0.104231459755559 0 -0.056175626513735713 0.104231459755559 0 -0.061770267295803899 0.1005995653590098 0 -0.06411880478631618 0.11818203644688791 0 -0.057144835734191893 0.088207312209507505 0 -0.056175626513735713 0.104231459755559 0 -0.061770267295803899 0.1005995653590098 0 -0.043883262583300407 0.11455669389781301 0 -0.06411880478631618 0.11818203644688791 0 -0.051208231868337763 0.1260313133231428 0 -0.043883262583300407 0.11455669389781301 0 -0.06411880478631618 0.11818203644688791 0 -0.043883262583300407 0.11455669389781301 0 -0.056175626513735713 0.104231459755559 0 -0.06411880478631618 0.11818203644688791 0 -0.071786582042575819 0.1280585334591178 0 -0.06411880478631618 0.11818203644688791 0 -0.08034823769671974 0.121089655777625 0 -0.06411880478631618 0.11818203644688791 0 -0.08034823769671974 0.121089655777625 0 -0.075381325115152609 0.106019298300689 0 -0.06411880478631618 0.11818203644688791 0 -0.08034823769671974 0.121089655777625 0 -0.08034823769671974 0.121089655777625 0 -0.096577670607123245 0.1239972751083621 0 -0.08034823769671974 0.121089655777625 0 -0.092569001324263961 0.1124699312803344 0 -0.096577670607123245 0.1239972751083621 0 -0.08034823769671974 0.121089655777625 0 -0.083967771981719092 0.1102844810624737 0 -0.092569001324263961 0.1124699312803344 0 -0.08034823769671974 0.121089655777625 0 -0.083967771981719092 0.1102844810624737 0 -0.075381325115152609 0.106019298300689 0 -0.087572523790740042 0.10155903889124659 0 -0.082071947835387321 0.094412947715560025 0 -0.09233625647768956 0.091651488650119919 0 -0.083967771981719092 0.1102844810624737 0 -0.092569001324263961 0.1124699312803344 0 -0.087572523790740042 0.10155903889124659 0 -0.083967771981719092 0.1102844810624737 0 -0.087572523790740042 0.10155903889124659 0 -0.075381325115152609 0.106019298300689 0 -0.087572523790740042 0.10155903889124659 0 -0.082071947835387321 0.094412947715560025 0 -0.075381325115152609 0.106019298300689 0 -0.06411880478631618 0.11818203644688791 0 -0.06964180214897181 0.091777453024084701 0 -0.082071947835387321 0.094412947715560025 0 -0.075381325115152609 0.106019298300689 0 -0.06964180214897181 0.091777453024084701 0 -0.06411880478631618 0.11818203644688791 0 -0.075381325115152609 0.106019298300689 0 -0.06964180214897181 0.091777453024084701 0 -0.061770267295803899 0.1005995653590098 0 -0.06411880478631618 0.11818203644688791 0 -0.06964180214897181 0.091777453024084701 0 -0.057144835734191893 0.088207312209507505 0 -0.061770267295803899 0.1005995653590098 0 -0.06964180214897181 0.091777453024084701 0 -0.06964180214897181 0.091777453024084701 0 -0.075164799511626648 0.065372869601281192 0 -0.057144835734191893 0.088207312209507505 0 -0.06964180214897181 0.091777453024084701 0 -0.068089461569968729 0.076803891339018993 0 -0.06964180214897181 0.091777453024084701 0 -0.068089461569968729 0.076803891339018993 0 -0.075164799511626648 0.065372869601281192 0 -0.057144835734191893 0.088207312209507505 0 -0.068089461569968729 0.076803891339018993 0 -0.070406408885084593 0.061857930521202607 0 -0.06964180214897181 0.091777453024084701 0 -0.075164799511626648 0.065372869601281192 0 -0.08073347634316104 0.073575546631144614 0 -0.057144835734191893 0.088207312209507505 0 -0.070406408885084593 0.061857930521202607 0 -0.068089461569968729 0.076803891339018993 0 -0.075164799511626648 0.065372869601281192 0 -0.070406408885084593 0.061857930521202607 0 -0.089923560922876636 0.068178037636278263 0 -0.08578586832533959 0.082170087930996366 0 -0.103675070998617 0.083967309240415983 0 -0.08073347634316104 0.073575546631144614 0 -0.089923560922876636 0.068178037636278263 0 -0.083186879645449088 0.059889597987781727 0 -0.075164799511626648 0.065372869601281192 0 -0.08073347634316104 0.073575546631144614 0 -0.083186879645449088 0.059889597987781727 0 -0.08073347634316104 0.073575546631144614 0 -0.089923560922876636 0.068178037636278263 0 -0.08578586832533959 0.082170087930996366 0 -0.06964180214897181 0.091777453024084701 0 -0.08073347634316104 0.073575546631144614 0 -0.08578586832533959 0.082170087930996366 0 -0.082071947835387321 0.094412947715560025 0 -0.06964180214897181 0.091777453024084701 0 -0.08578586832533959 0.082170087930996366 0 -0.082071947835387321 0.094412947715560025 0 -0.08578586832533959 0.082170087930996366 0 -0.09233625647768956 0.091651488650119919 0 -0.09233625647768956 0.091651488650119919 0 -0.103675070998617 0.083967309240415983 0 -0.10429444750695741 0.1014886749251958 0 -0.08578586832533959 0.082170087930996366 0 -0.09233625647768956 0.091651488650119919 0 -0.103675070998617 0.083967309240415983 0 -0.103675070998617 0.083967309240415983 0 -0.1198812247159142 0.095002477965890675 0 -0.10429444750695741 0.1014886749251958 0 -0.089923560922876636 0.068178037636278263 0 -0.103675070998617 0.083967309240415983 0 -0.10785209906359081 0.065371441260914459 0 -0.12533951967512769 0.078274991835817334 0 -0.103675070998617 0.083967309240415983 0 -0.10785209906359081 0.065371441260914459 0 -0.12533951967512769 0.078274991835817334 0 -0.10785209906359081 0.065371441260914459 0 -0.1248745965026067 0.059896082918310993 0 -0.12533951967512769 0.078274991835817334 0 -0.103675070998617 0.083967309240415983 0 -0.1198812247159142 0.095002477965890675 0 -0.13137241316615089 0.11357835761918721 0 -0.1198812247159142 0.095002477965890675 0 -0.10429444750695741 0.1014886749251958 0 -0.13137241316615089 0.11357835761918721 0 -0.12687331202938101 0.13192737382428379 0 -0.10667563132183119 0.1260080396076822 0 -0.13137241316615089 0.11357835761918721 0 -0.10667563132183119 0.1260080396076822 0 -0.1062978327852654 0.11550845570815239 0 -0.13137241316615089 0.11357835761918721 0 -0.1062978327852654 0.11550845570815239 0 -0.10429444750695741 0.1014886749251958 0 -0.13137241316615089 0.11357835761918721 0 -0.10667563132183119 0.1260080396076822 0 -0.10667563132183119 0.1260080396076822 0 -0.1062978327852654 0.11550845570815239 0 -0.096577670607123245 0.1239972751083621 0 -0.092569001324263961 0.1124699312803344 0 -0.1062978327852654 0.11550845570815239 0 -0.096577670607123245 0.1239972751083621 0 -0.092569001324263961 0.1124699312803344 0 -0.1062978327852654 0.11550845570815239 0 -0.10429444750695741 0.1014886749251958 0 -0.092569001324263961 0.1124699312803344 0 -0.087572523790740042 0.10155903889124659 0 -0.10429444750695741 0.1014886749251958 0 -0.087572523790740042 0.10155903889124659 0 -0.09233625647768956 0.091651488650119919 0 -0.10429444750695741 0.1014886749251958 0 -0.10370969952600501 0.019997694726909911 0 -0.098524362227562057 0.035744340183224317 0 -0.08645931971955316 0.02325136753113614 0 -0.10370969952600501 0.019997694726909911 0 -0.08645931971955316 0.02325136753113614 0 -0.091682611010439896 0.0063963380850077774 0 -0.10370969952600501 0.019997694726909911 0 -0.1180188049733784 0.030804183747700629 0 -0.098524362227562057 0.035744340183224317 0 -0.10370969952600501 0.019997694726909911 0 -0.10877227824827949 0.0075748546359299482 0 -0.091682611010439896 0.0063963380850077774 0 -0.1029392013539359 -0.0085751277431150782 0 -0.10877227824827949 0.0075748546359299482 0 -0.091682611010439896 0.0063963380850077774 0 -0.10370969952600501 0.019997694726909911 0 -0.10877227824827949 0.0075748546359299482 0 -0.11835839359799651 0.016938700943610479 0 -0.1029392013539359 -0.0085751277431150782 0 -0.12735709500343681 0.004015926865657337 0 -0.10877227824827949 0.0075748546359299482 0 -0.12735709500343681 0.004015926865657337 0 -0.10877227824827949 0.0075748546359299482 0 -0.11835839359799651 0.016938700943610479 0 -0.1339340902388827 0.022300844741854581 0 -0.11835839359799651 0.016938700943610479 0 -0.1180188049733784 0.030804183747700629 0 -0.10370969952600501 0.019997694726909911 0 -0.11835839359799651 0.016938700943610479 0 -0.1180188049733784 0.030804183747700629 0 -0.1180188049733784 0.030804183747700629 0 -0.1128457876968547 0.048091259023394652 0 -0.098524362227562057 0.035744340183224317 0 -0.13626681081840961 0.042829268155062397 0 -0.1128457876968547 0.048091259023394652 0 -0.13626681081840961 0.042829268155062397 0 -0.1180188049733784 0.030804183747700629 0 -0.1128457876968547 0.048091259023394652 0 -0.13626681081840961 0.042829268155062397 0 -0.1128457876968547 0.048091259023394652 0 -0.1248745965026067 0.059896082918310993 0 -0.10785209906359081 0.065371441260914459 0 -0.1128457876968547 0.048091259023394652 0 -0.1248745965026067 0.059896082918310993 0 -0.1128457876968547 0.048091259023394652 0 -0.089424764575299687 0.053353249891726941 0 -0.089923560922876636 0.068178037636278263 0 -0.10785209906359081 0.065371441260914459 0 -0.089424764575299687 0.053353249891726941 0 -0.10785209906359081 0.065371441260914459 0 -0.1128457876968547 0.048091259023394652 0 -0.089424764575299687 0.053353249891726941 0 -0.1128457876968547 0.048091259023394652 0 -0.098524362227562057 0.035744340183224317 0 -0.089424764575299687 0.053353249891726941 0 -0.098524362227562057 0.035744340183224317 0 -0.080687796874281473 0.038968286178477703 0 -0.08645931971955316 0.02325136753113614 0 -0.098524362227562057 0.035744340183224317 0 -0.080687796874281473 0.038968286178477703 0 -0.089424764575299687 0.053353249891726941 0 -0.080687796874281473 0.038968286178477703 0 -0.089424764575299687 0.053353249891726941 0 -0.083186879645449088 0.059889597987781727 0 -0.075164799511626648 0.065372869601281192 0 -0.080687796874281473 0.038968286178477703 0 -0.083186879645449088 0.059889597987781727 0 -0.089923560922876636 0.068178037636278263 0 -0.089424764575299687 0.053353249891726941 0 -0.083186879645449088 0.059889597987781727 0 -0.075164799511626648 0.065372869601281192 0 -0.080687796874281473 0.038968286178477703 0 -0.071303082845968715 0.053347503409362687 0 -0.075164799511626648 0.065372869601281192 0 -0.080687796874281473 0.038968286178477703 0 -0.075164799511626648 0.065372869601281192 0 -0.070406408885084593 0.061857930521202607 0 -0.071303082845968715 0.053347503409362687 0 -0.071303082845968715 0.053347503409362687 0 -0.064856269609628314 0.055117702274744398 0 -0.065400139349222536 0.045420728471107522 0 -0.070406408885084593 0.061857930521202607 0 -0.071303082845968715 0.053347503409362687 0 -0.064856269609628314 0.055117702274744398 0 -0.070406408885084593 0.061857930521202607 0 -0.064856269609628314 0.055117702274744398 0 -0.059815066152941319 0.061788281472960463 0 -0.080687796874281473 0.038968286178477703 0 -0.065400139349222536 0.045420728471107522 0 -0.063264057366842208 0.031259222641012697 0 -0.080687796874281473 0.038968286178477703 0 -0.063264057366842208 0.031259222641012697 0 -0.073460039823911166 0.024685388153665749 0 -0.080687796874281473 0.038968286178477703 0 -0.071303082845968715 0.053347503409362687 0 -0.065400139349222536 0.045420728471107522 0 -0.063264057366842208 0.031259222641012697 0 -0.073460039823911166 0.024685388153665749 0 -0.061440697951084179 0.017621877449499421 0 -0.073460039823911166 0.024685388153665749 0 -0.076769634387976737 0.01135693610240161 0 -0.061440697951084179 0.017621877449499421 0 -0.080687796874281473 0.038968286178477703 0 -0.073460039823911166 0.024685388153665749 0 -0.08645931971955316 0.02325136753113614 0 -0.073460039823911166 0.024685388153665749 0 -0.08645931971955316 0.02325136753113614 0 -0.076769634387976737 0.01135693610240161 0 -0.08645931971955316 0.02325136753113614 0 -0.091682611010439896 0.0063963380850077774 0 -0.076769634387976737 0.01135693610240161 0 -0.091682611010439896 0.0063963380850077774 0 -0.078933949510919491 0.00072378658541613432 0 -0.076769634387976737 0.01135693610240161 0 -0.086097875964997059 -0.0058870606910941042 0 -0.091682611010439896 0.0063963380850077774 0 -0.078933949510919491 0.00072378658541613432 0 -0.078933949510919491 0.00072378658541613432 0 -0.076769634387976737 0.01135693610240161 0 -0.068462160169621672 0.0025537029525893409 0 -0.068462160169621672 0.0025537029525893409 0 -0.057836245250817257 0.0062936453779614283 0 -0.061440697951084179 0.017621877449499421 0 -0.076769634387976737 0.01135693610240161 0 -0.068462160169621672 0.0025537029525893409 0 -0.061440697951084179 0.017621877449499421 0 -0.057836245250817257 0.0062936453779614283 0 -0.061440697951084179 0.017621877449499421 0 -0.042678209040760022 0.019440128409622049 0 -0.057836245250817257 0.0062936453779614283 0 -0.042678209040760022 0.019440128409622049 0 -0.044352522143416888 0.0050416822031405977 0 -0.063264057366842208 0.031259222641012697 0 -0.042678209040760022 0.019440128409622049 0 -0.05195897498334151 0.039592758420259042 0 -0.063264057366842208 0.031259222641012697 0 -0.061440697951084179 0.017621877449499421 0 -0.042678209040760022 0.019440128409622049 0 -0.042678209040760022 0.019440128409622049 0 -0.038256592764973757 0.039174794321751791 0 -0.042678209040760022 0.019440128409622049 0 -0.038256592764973757 0.039174794321751791 0 -0.027511467414372541 0.03001296694831072 0 -0.042678209040760022 0.019440128409622049 0 -0.028180513839983729 0.018098474401369 0 -0.027511467414372541 0.03001296694831072 0 -0.042678209040760022 0.019440128409622049 0 -0.032770024037711037 0.0084985419153508525 0 -0.028180513839983729 0.018098474401369 0 -0.032770024037711037 0.0084985419153508525 0 -0.03614709390981162 0.0015378833132510439 0 -0.044352522143416888 0.0050416822031405977 0 -0.029539197120254941 -0.00051038393964639519 0 -0.032770024037711037 0.0084985419153508525 0 -0.03614709390981162 0.0015378833132510439 0 -0.042678209040760022 0.019440128409622049 0 -0.032770024037711037 0.0084985419153508525 0 -0.044352522143416888 0.0050416822031405977 0 -0.042969512877196837 0.063698159366550891 0 -0.047980875447113908 0.056604040506729722 0 -0.052166049838275927 0.062310195238599278 0 -0.047980875447113908 0.056604040506729722 0 -0.052166049838275927 0.062310195238599278 0 -0.055804220694704088 0.051985500715961808 0 -0.064856269609628314 0.055117702274744398 0 -0.059815066152941319 0.061788281472960463 0 -0.055804220694704088 0.051985500715961808 0 -0.052166049838275927 0.062310195238599278 0 -0.059815066152941319 0.061788281472960463 0 -0.055804220694704088 0.051985500715961808 0 -0.064856269609628314 0.055117702274744398 0 -0.065400139349222536 0.045420728471107522 0 -0.055804220694704088 0.051985500715961808 0 -0.047980875447113908 0.056604040506729722 0 -0.055804220694704088 0.051985500715961808 0 -0.046350630683546529 0.050276175962098407 0 -0.055804220694704088 0.051985500715961808 0 -0.05195897498334151 0.039592758420259042 0 -0.046350630683546529 0.050276175962098407 0 -0.065400139349222536 0.045420728471107522 0 -0.055804220694704088 0.051985500715961808 0 -0.05195897498334151 0.039592758420259042 0 -0.065400139349222536 0.045420728471107522 0 -0.063264057366842208 0.031259222641012697 0 -0.05195897498334151 0.039592758420259042 0 -0.042678209040760022 0.019440128409622049 0 -0.05195897498334151 0.039592758420259042 0 -0.038256592764973757 0.039174794321751791 0 -0.05195897498334151 0.039592758420259042 0 -0.038256592764973757 0.039174794321751791 0 -0.046350630683546529 0.050276175962098407 0 -0.038256592764973757 0.039174794321751791 0 -0.033834976489186493 0.058909460233881362 0 -0.038256592764973757 0.039174794321751791 0 -0.038513274033404883 0.055407770980391423 0 -0.033834976489186493 0.058909460233881362 0 -0.038256592764973757 0.039174794321751791 0 -0.046350630683546529 0.050276175962098407 0 -0.038513274033404883 0.055407770980391423 0 -0.038256592764973757 0.039174794321751791 0 -0.033834976489186493 0.058909460233881362 0 -0.02879531395286377 0.050132256585483953 0 -0.046350630683546529 0.050276175962098407 0 -0.038513274033404883 0.055407770980391423 0 -0.042914570065583427 0.057802329486214707 0 -0.036732086871232597 0.066761861307427367 0 -0.033834976489186493 0.058909460233881362 0 -0.038907572144486188 0.060810532415041758 0 -0.038513274033404883 0.055407770980391423 0 -0.033834976489186493 0.058909460233881362 0 -0.038513274033404883 0.055407770980391423 0 -0.033834976489186493 0.058909460233881362 0 -0.038907572144486188 0.060810532415041758 0 -0.042969512877196837 0.063698159366550891 0 -0.038907572144486188 0.060810532415041758 0 -0.042914570065583427 0.057802329486214707 0 -0.038513274033404883 0.055407770980391423 0 -0.038907572144486188 0.060810532415041758 0 -0.042914570065583427 0.057802329486214707 0 -0.047980875447113908 0.056604040506729722 0 -0.046350630683546529 0.050276175962098407 0 -0.042914570065583427 0.057802329486214707 0 -0.042969512877196837 0.063698159366550891 0 -0.047980875447113908 0.056604040506729722 0 -0.042914570065583427 0.057802329486214707 0 -0.033834976489186493 0.058909460233881362 0 -0.01963881101933795 0.057650575484614511 0 -0.02879531395286377 0.050132256585483953 0 -0.01963881101933795 0.057650575484614511 0 -0.02879531395286377 0.050132256585483953 0 -0.02345087553795689 0.044794196301688183 0 -0.01963881101933795 0.057650575484614511 0 -0.02345087553795689 0.044794196301688183 0 -0.012175026131353321 0.050402421608982242 0 -0.02345087553795689 0.044794196301688183 0 -0.014695186475719159 0.0359408453649432 0 -0.012175026131353321 0.050402421608982242 0 -0.038256592764973757 0.039174794321751791 0 -0.02879531395286377 0.050132256585483953 0 -0.02345087553795689 0.044794196301688183 0 -0.038256592764973757 0.039174794321751791 0 -0.02345087553795689 0.044794196301688183 0 -0.027511467414372541 0.03001296694831072 0 -0.02345087553795689 0.044794196301688183 0 -0.014695186475719159 0.0359408453649432 0 -0.027511467414372541 0.03001296694831072 0 -0.014695186475719159 0.0359408453649432 0 -0.0023331541944977092 0.045311556235899067 0 0.00074240361007229996 0.028778475488121531 0 -0.014695186475719159 0.0359408453649432 0 -0.0023331541944977092 0.045311556235899067 0 -0.012175026131353321 0.050402421608982242 0 -0.0023331541944977092 0.045311556235899067 0 -0.012175026131353321 0.050402421608982242 0 0.00079413703044923156 0.058803151297745167 0 -0.012175026131353321 0.050402421608982242 0 -0.0089029190745683329 0.062319161291970238 0 0.00079413703044923156 0.058803151297745167 0 -0.01963881101933795 0.057650575484614511 0 -0.012175026131353321 0.050402421608982242 0 -0.0089029190745683329 0.062319161291970238 0 -0.021996997598287969 0.010981086364913869 0 -0.02112675760807068 0.0030512678310729521 0 -0.0083058662928979787 0.012079608812324741 0 -0.021996997598287969 0.010981086364913869 0 -0.01661374249992489 0.02103319015209278 0 -0.0083058662928979787 0.012079608812324741 0 -0.021996997598287969 0.010981086364913869 0 -0.02112675760807068 0.0030512678310729521 0 -0.02631380729169577 0.0053104208567875946 0 -0.029539197120254941 -0.00051038393964639519 0 -0.02112675760807068 0.0030512678310729521 0 -0.02631380729169577 0.0053104208567875946 0 -0.029539197120254941 -0.00051038393964639519 0 -0.032770024037711037 0.0084985419153508525 0 -0.02631380729169577 0.0053104208567875946 0 -0.032770024037711037 0.0084985419153508525 0 -0.021996997598287969 0.010981086364913869 0 -0.02631380729169577 0.0053104208567875946 0 -0.032770024037711037 0.0084985419153508525 0 -0.021996997598287969 0.010981086364913869 0 -0.028180513839983729 0.018098474401369 0 -0.028180513839983729 0.018098474401369 0 -0.027511467414372541 0.03001296694831072 0 -0.01661374249992489 0.02103319015209278 0 -0.014695186475719159 0.0359408453649432 0 -0.027511467414372541 0.03001296694831072 0 -0.01661374249992489 0.02103319015209278 0 -0.021996997598287969 0.010981086364913869 0 -0.028180513839983729 0.018098474401369 0 -0.01661374249992489 0.02103319015209278 0 -0.01661374249992489 0.02103319015209278 0 0.00074240361007229996 0.028778475488121531 0 -0.0083058662928979787 0.012079608812324741 0 0.0060294939382754481 0.01286563290641534 0 0.00074240361007229996 0.028778475488121531 0 -0.014695186475719159 0.0359408453649432 0 -0.01661374249992489 0.02103319015209278 0 0.00074240361007229996 0.028778475488121531 0 -0.0083058662928979787 0.012079608812324741 0 0.00074240361007229996 0.028778475488121531 0 -0.01661374249992489 0.02103319015209278 0 -0.0083058662928979787 0.012079608812324741 0 0.00074240361007229996 0.028778475488121531 0 -0.0072764121498596901 -0.0036325873431357339 0 -0.0083058662928979787 0.012079608812324741 0 0.0012074066645448821 -0.00065723147797176382 0 -0.0072764121498596901 -0.0036325873431357339 0 -0.013607688627124061 -0.00178224205395049 0 -0.0083058662928979787 0.012079608812324741 0 -0.017354136195868258 -0.0046192578634720229 0 -0.0083058662928979787 0.012079608812324741 0 -0.017354136195868258 -0.0046192578634720229 0 -0.013607688627124061 -0.00178224205395049 0 -0.0083058662928979787 0.012079608812324741 0 -0.0083058662928979787 0.012079608812324741 0 0.0060294939382754481 0.01286563290641534 0 0.0012074066645448821 -0.00065723147797176382 0 -0.017354136195868258 -0.0046192578634720229 0 -0.02112675760807068 0.0030512678310729521 0 -0.0083058662928979787 0.012079608812324741 0 0.0060294939382754481 0.01286563290641534 0 0.0012074066645448821 -0.00065723147797176382 0 0.01265631079038235 -0.01012693536007268 0 0.0060294939382754481 0.01286563290641534 0 0.020311547060899309 0.014329649790385431 0 0.01265631079038235 -0.01012693536007268 0 0.00074240361007229996 0.028778475488121531 0 0.015746539320639769 0.024046632949657649 0 0.022626785018342459 0.038544513255683338 0 0.0060294939382754481 0.01286563290641534 0 0.00074240361007229996 0.028778475488121531 0 0.015746539320639769 0.024046632949657649 0 0.0060294939382754481 0.01286563290641534 0 0.015746539320639769 0.024046632949657649 0 0.020311547060899309 0.014329649790385431 0 0.015746539320639769 0.024046632949657649 0 0.029022466975609298 0.02571489330768258 0 0.020311547060899309 0.014329649790385431 0 0.015746539320639769 0.024046632949657649 0 0.029022466975609298 0.02571489330768258 0 0.022626785018342459 0.038544513255683338 0 0.020311547060899309 0.014329649790385431 0 0.034885408484197772 0.0062912350017927032 0 0.01265631079038235 -0.01012693536007268 0 0.029022466975609298 0.02571489330768258 0 0.020311547060899309 0.014329649790385431 0 0.034885408484197772 0.0062912350017927032 0 0.00079413703044923156 0.058803151297745167 0 0.01366790099406239 0.052632887419703241 0 0.0065236609159091173 0.071671444604676282 0 -0.0023331541944977092 0.045311556235899067 0 0.00079413703044923156 0.058803151297745167 0 0.01366790099406239 0.052632887419703241 0 0.00074240361007229996 0.028778475488121531 0 0.01366790099406239 0.052632887419703241 0 0.022626785018342459 0.038544513255683338 0 0.00074240361007229996 0.028778475488121531 0 0.022626785018342459 0.038544513255683338 0 -0.0023331541944977092 0.045311556235899067 0 0.00074240361007229996 0.028778475488121531 0 0.01366790099406239 0.052632887419703241 0 0.00074240361007229996 0.028778475488121531 0 0.01366790099406239 0.052632887419703241 0 0.029022466975609298 0.02571489330768258 0 0.022626785018342459 0.038544513255683338 0 0.037630953216902623 0.033668105561091018 0 0.01366790099406239 0.052632887419703241 0 0.022626785018342459 0.038544513255683338 0 0.025434983742737761 0.055249644843112657 0 0.022626785018342459 0.038544513255683338 0 0.025434983742737761 0.055249644843112657 0 0.034616451435572633 0.051242168749322393 0 0.025434983742737761 0.055249644843112657 0 0.034062632092931817 0.061255223706808547 0 0.02703491536905472 0.067401080742933134 0 0.01366790099406239 0.052632887419703241 0 0.025434983742737761 0.055249644843112657 0 0.02703491536905472 0.067401080742933134 0 0.034616451435572633 0.051242168749322393 0 0.044511166426612833 0.04831055102324476 0 0.060132464308973767 0.062986029428160187 0 0.034616451435572633 0.051242168749322393 0 0.060132464308973767 0.062986029428160187 0 0.044258496001147778 0.063884183083345675 0 0.034062632092931817 0.061255223706808547 0 0.034616451435572633 0.051242168749322393 0 0.044258496001147778 0.063884183083345675 0 0.025434983742737761 0.055249644843112657 0 0.034062632092931817 0.061255223706808547 0 0.034616451435572633 0.051242168749322393 0 0.022626785018342459 0.038544513255683338 0 0.044511166426612833 0.04831055102324476 0 0.022626785018342459 0.038544513255683338 0 0.034616451435572633 0.051242168749322393 0 0.044511166426612833 0.04831055102324476 0 0.022626785018342459 0.038544513255683338 0 0.044511166426612833 0.04831055102324476 0 0.037630953216902623 0.033668105561091018 0 0.044511166426612833 0.04831055102324476 0 0.037630953216902623 0.033668105561091018 0 0.0484135161167236 0.034205204957136963 0 0.0484135161167236 0.034205204957136963 0 0.060669767880595721 0.038134724015348051 0 0.0518117103670514 0.042737821036878322 0 0.0484135161167236 0.034205204957136963 0 0.060669767880595721 0.038134724015348051 0 0.057623658326613529 0.02352368721002385 0 0.060669767880595721 0.038134724015348051 0 0.0518117103670514 0.042737821036878322 0 0.059559274975242667 0.047504887075434543 0 0.044511166426612833 0.04831055102324476 0 0.0518117103670514 0.042737821036878322 0 0.059559274975242667 0.047504887075434543 0 0.044511166426612833 0.04831055102324476 0 0.0484135161167236 0.034205204957136963 0 0.0518117103670514 0.042737821036878322 0 0.044511166426612833 0.04831055102324476 0 0.066395547834883203 0.05807658879080619 0 0.060132464308973767 0.062986029428160187 0 0.034616451435572633 0.051242168749322393 0 0.060132464308973767 0.062986029428160187 0 0.044511166426612833 0.04831055102324476 0 0.066395547834883203 0.05807658879080619 0 0.044511166426612833 0.04831055102324476 0 0.059559274975242667 0.047504887075434543 0 0.066395547834883203 0.05807658879080619 0 0.034885408484197772 0.0062912350017927032 0 0.052968053050369737 0.0090809173488315582 0 0.042517259973231587 -0.011683923625132649 0 0.034885408484197772 0.0062912350017927032 0 0.043580831547224863 0.021565365261707499 0 0.052968053050369737 0.0090809173488315582 0 0.029022466975609298 0.02571489330768258 0 0.034885408484197772 0.0062912350017927032 0 0.043580831547224863 0.021565365261707499 0 0.029022466975609298 0.02571489330768258 0 0.037630953216902623 0.033668105561091018 0 0.043580831547224863 0.021565365261707499 0 0.037630953216902623 0.033668105561091018 0 0.0484135161167236 0.034205204957136963 0 0.043580831547224863 0.021565365261707499 0 0.057623658326613529 0.02352368721002385 0 0.052968053050369737 0.0090809173488315582 0 0.071708216805815503 0.016768608491387289 0 0.043580831547224863 0.021565365261707499 0 0.057623658326613529 0.02352368721002385 0 0.052968053050369737 0.0090809173488315582 0 0.0484135161167236 0.034205204957136963 0 0.043580831547224863 0.021565365261707499 0 0.057623658326613529 0.02352368721002385 0 0.052968053050369737 0.0090809173488315582 0 0.071708216805815503 0.016768608491387289 0 0.067492943165135169 -0.0019794682467893379 0 0.083930998993742512 0.0059737405228527038 0 0.071708216805815503 0.016768608491387289 0 0.067492943165135169 -0.0019794682467893379 0 0.083930998993742512 0.0059737405228527038 0 0.098495163759696414 0.0029673617968291321 0 0.094917995650245529 0.021722354499223519 0 0.083930998993742512 0.0059737405228527038 0 0.071708216805815503 0.016768608491387289 0 0.094917995650245529 0.021722354499223519 0 0.071708216805815503 0.016768608491387289 0 0.07449934060461412 0.03258063005354956 0 0.094917995650245529 0.021722354499223519 0 0.07449934060461412 0.03258063005354956 0 0.087237150257314613 0.037926204838731957 0 0.094917995650245529 0.021722354499223519 0 0.057623658326613529 0.02352368721002385 0 0.071708216805815503 0.016768608491387289 0 0.07449934060461412 0.03258063005354956 0 0.060669767880595721 0.038134724015348051 0 0.057623658326613529 0.02352368721002385 0 0.07449934060461412 0.03258063005354956 0 0.060669767880595721 0.038134724015348051 0 0.069155187538762042 0.045022305850501279 0 0.07449934060461412 0.03258063005354956 0 0.060669767880595721 0.038134724015348051 0 0.059559274975242667 0.047504887075434543 0 0.069155187538762042 0.045022305850501279 0 0.069155187538762042 0.045022305850501279 0 0.07449934060461412 0.03258063005354956 0 0.079692196512252927 0.044953406994506007 0 0.059559274975242667 0.047504887075434543 0 0.069155187538762042 0.045022305850501279 0 0.067326156772233525 0.050603546620565112 0 0.059559274975242667 0.047504887075434543 0 0.066395547834883203 0.05807658879080619 0 0.067326156772233525 0.050603546620565112 0 0.066395547834883203 0.05807658879080619 0 0.067326156772233525 0.050603546620565112 0 0.074194616740046182 0.051810404765518438 0 0.069155187538762042 0.045022305850501279 0 0.067326156772233525 0.050603546620565112 0 0.074194616740046182 0.051810404765518438 0 0.069155187538762042 0.045022305850501279 0 0.074194616740046182 0.051810404765518438 0 0.079692196512252927 0.044953406994506007 0 0.066395547834883203 0.05807658879080619 0 0.074194616740046182 0.051810404765518438 0 0.080343143758095259 0.058335218209008277 0 0.066395547834883203 0.05807658879080619 0 0.080343143758095259 0.058335218209008277 0 0.08827992924315356 0.067842626558367619 0 0.080343143758095259 0.058335218209008277 0 0.083306510346727383 0.05351440315152866 0 0.090416084875221875 0.058235299142909973 0 0.074194616740046182 0.051810404765518438 0 0.083306510346727383 0.05351440315152866 0 0.079692196512252927 0.044953406994506007 0 0.083306510346727383 0.05351440315152866 0 0.089760373586053266 0.048866493307206167 0 0.079692196512252927 0.044953406994506007 0 0.074194616740046182 0.051810404765518438 0 0.080343143758095259 0.058335218209008277 0 0.083306510346727383 0.05351440315152866 0 0.083306510346727383 0.05351440315152866 0 0.089760373586053266 0.048866493307206167 0 0.090416084875221875 0.058235299142909973 0 0.089760373586053266 0.048866493307206167 0 0.090416084875221875 0.058235299142909973 0 0.099395501669828634 0.055681054702382278 0 0.080343143758095259 0.058335218209008277 0 0.090416084875221875 0.058235299142909973 0 0.08827992924315356 0.067842626558367619 0 0.087237150257314613 0.037926204838731957 0 0.098930039005792711 0.04227996871225087 0 0.094917995650245529 0.021722354499223519 0 0.07449934060461412 0.03258063005354956 0 0.079692196512252927 0.044953406994506007 0 0.087237150257314613 0.037926204838731957 0 0.089760373586053266 0.048866493307206167 0 0.079692196512252927 0.044953406994506007 0 0.087237150257314613 0.037926204838731957 0 0.089760373586053266 0.048866493307206167 0 0.087237150257314613 0.037926204838731957 0 0.098930039005792711 0.04227996871225087 0 0.10894092886672049 0.033503019923715648 0 0.098930039005792711 0.04227996871225087 0 0.11550376979223601 0.054551475820320147 0 0.10894092886672049 0.033503019923715648 0 0.098930039005792711 0.04227996871225087 0 0.094917995650245529 0.021722354499223519 0 0.098930039005792711 0.04227996871225087 0 0.099395501669828634 0.055681054702382278 0 0.11550376979223601 0.054551475820320147 0 0.099395501669828634 0.055681054702382278 0 0.11550376979223601 0.054551475820320147 0 0.10561354398445311 0.069921878226714862 0 0.090416084875221875 0.058235299142909973 0 0.099395501669828634 0.055681054702382278 0 0.095618088847860577 0.065038419849084594 0 0.089760373586053266 0.048866493307206167 0 0.098930039005792711 0.04227996871225087 0 0.099395501669828634 0.055681054702382278 0 0.10894092886672049 0.033503019923715648 0 0.11961069471150609 0.02296590295220987 0 0.12977361784467401 0.039215218793308727 0 0.10894092886672049 0.033503019923715648 0 0.11550376979223601 0.054551475820320147 0 0.12977361784467401 0.039215218793308727 0 0.11961069471150609 0.02296590295220987 0 0.1158546052028349 0.0064685721448778594 0 0.094917995650245529 0.021722354499223519 0 0.11961069471150609 0.02296590295220987 0 0.1158546052028349 0.0064685721448778594 0 0.13894824890776639 0.02136224913872127 0 0.1158546052028349 0.0064685721448778594 0 0.098495163759696414 0.0029673617968291321 0 0.094917995650245529 0.021722354499223519 0 0.10894092886672049 0.033503019923715648 0 0.11961069471150609 0.02296590295220987 0 0.094917995650245529 0.021722354499223519 0 0.097728221435088053 0.099184528615223033 0 0.110275064223293 0.10236359857942121 0 0.11116449005577619 0.086473750785835857 0 0.099894961061174667 0.1104201015940532 0 0.11150799601301251 0.1117412241471519 0 0.110275064223293 0.10236359857942121 0 0.097728221435088053 0.099184528615223033 0 0.099894961061174667 0.1104201015940532 0 0.110275064223293 0.10236359857942121 0 0.097728221435088053 0.099184528615223033 0 0.099894961061174667 0.1104201015940532 0 0.084925795867796111 0.1103515185161017 0 0.099894961061174667 0.1104201015940532 0 0.096984900528893664 0.1212489081817222 0 0.084925795867796111 0.1103515185161017 0 0.099894961061174667 0.1104201015940532 0 0.096984900528893664 0.1212489081817222 0 0.10712684862241641 0.1210429748963526 0 0.096984900528893664 0.1212489081817222 0 0.10712684862241641 0.1210429748963526 0 0.10589272808503949 0.13156516273042271 0 0.099894961061174667 0.1104201015940532 0 0.10712684862241641 0.1210429748963526 0 0.11150799601301251 0.1117412241471519 0 0.10712684862241641 0.1210429748963526 0 0.11150799601301251 0.1117412241471519 0 0.1187293914863337 0.1182846474287873 0 0.11150799601301251 0.1117412241471519 0 0.1187293914863337 0.1182846474287873 0 0.1197878353292403 0.1092484053650479 0 0.10712684862241641 0.1210429748963526 0 0.1187293914863337 0.1182846474287873 0 0.114987521205969 0.1268010028982309 0 0.1187293914863337 0.1182846474287873 0 0.12813823657366311 0.12049833089676459 0 0.12624189261331301 0.1140678077034443 0 0.1187293914863337 0.1182846474287873 0 0.12212988809696081 0.1249307776834532 0 0.12813823657366311 0.12049833089676459 0 0.1187293914863337 0.1182846474287873 0 0.12212988809696081 0.1249307776834532 0 0.114987521205969 0.1268010028982309 0 0.1187293914863337 0.1182846474287873 0 0.1197878353292403 0.1092484053650479 0 0.12624189261331301 0.1140678077034443 0 0.1216961693062274 0.1020981758197984 0 0.110275064223293 0.10236359857942121 0 0.11116449005577619 0.086473750785835857 0 0.1197878353292403 0.1092484053650479 0 0.1216961693062274 0.1020981758197984 0 0.1302764983332621 0.10693497851168419 0 0.1216961693062274 0.1020981758197984 0 0.11116449005577619 0.086473750785835857 0 0.13668050292917741 0.098217611464673699 0 0.1197878353292403 0.1092484053650479 0 0.1216961693062274 0.1020981758197984 0 0.110275064223293 0.10236359857942121 0 0.11150799601301251 0.1117412241471519 0 0.1197878353292403 0.1092484053650479 0 0.110275064223293 0.10236359857942121 0 0.11116449005577619 0.086473750785835857 0 0.1207366242219714 0.074251990558816788 0 0.1300820653953097 0.084166932106396392 0 0.11116449005577619 0.086473750785835857 0 0.13668050292917741 0.098217611464673699 0 0.11116449005577619 0.086473750785835857 0 0.1207366242219714 0.074251990558816788 0 0.10561354398445311 0.069921878226714862 0 0.11550376979223601 0.054551475820320147 0 0.1207366242219714 0.074251990558816788 0 0.13255022158949201 0.068763676371196639 0 0.11550376979223601 0.054551475820320147 0 0.1207366242219714 0.074251990558816788 0 0.10561354398445311 0.069921878226714862 0 0.11116449005577619 0.086473750785835857 0 0.10561354398445311 0.069921878226714862 0 0.085648477182374977 0.074729890106998029 0 0.10561354398445311 0.069921878226714862 0 0.095618088847860577 0.065038419849084594 0 0.085648477182374977 0.074729890106998029 0 0.099395501669828634 0.055681054702382278 0 0.10561354398445311 0.069921878226714862 0 0.095618088847860577 0.065038419849084594 0 0.11116449005577619 0.086473750785835857 0 0.085648477182374977 0.074729890106998029 0 0.11116449005577619 0.086473750785835857 0 0.090808031879269946 0.087622927320568048 0 0.085648477182374977 0.074729890106998029 0 0.097728221435088053 0.099184528615223033 0 0.11116449005577619 0.086473750785835857 0 0.090808031879269946 0.087622927320568048 0 0.097728221435088053 0.099184528615223033 0 0.090808031879269946 0.087622927320568048 0 0.080235742217082393 0.093435287859391092 0 0.090808031879269946 0.087622927320568048 0 0.078675001300488379 0.083882301042573534 0 0.085648477182374977 0.074729890106998029 0 0.090808031879269946 0.087622927320568048 0 0.078675001300488379 0.083882301042573534 0 0.080235742217082393 0.093435287859391092 0 0.066395547834883203 0.05807658879080619 0 0.08827992924315356 0.067842626558367619 0 0.085648477182374977 0.074729890106998029 0 0.095618088847860577 0.065038419849084594 0 0.08827992924315356 0.067842626558367619 0 0.085648477182374977 0.074729890106998029 0 0.090416084875221875 0.058235299142909973 0 0.095618088847860577 0.065038419849084594 0 0.08827992924315356 0.067842626558367619 0 0.066395547834883203 0.05807658879080619 0 0.085648477182374977 0.074729890106998029 0 0.060132464308973767 0.062986029428160187 0 0.066395547834883203 0.05807658879080619 0 0.08827992924315356 0.067842626558367619 0 0.085648477182374977 0.074729890106998029 0 0.068637102026180674 0.07792917868559901 0 0.060132464308973767 0.062986029428160187 0 0.085648477182374977 0.074729890106998029 0 0.060132464308973767 0.062986029428160187 0 0.078675001300488379 0.083882301042573534 0 0.085648477182374977 0.074729890106998029 0 0.068637102026180674 0.07792917868559901 0 0.080235742217082393 0.093435287859391092 0 0.069503799956795384 0.087722797055870286 0 0.068523875558259784 0.095111972458496966 0 0.078675001300488379 0.083882301042573534 0 0.080235742217082393 0.093435287859391092 0 0.069503799956795384 0.087722797055870286 0 0.078675001300488379 0.083882301042573534 0 0.068637102026180674 0.07792917868559901 0 0.069503799956795384 0.087722797055870286 0 0.068637102026180674 0.07792917868559901 0 0.069503799956795384 0.087722797055870286 0 0.060111091978902922 0.083782113849914977 0 0.069503799956795384 0.087722797055870286 0 0.06135777996986308 0.093915161513068182 0 0.060111091978902922 0.083782113849914977 0 0.069503799956795384 0.087722797055870286 0 0.068523875558259784 0.095111972458496966 0 0.06135777996986308 0.093915161513068182 0 0.068523875558259784 0.095111972458496966 0 0.071520258741129425 0.10189571548122769 0 0.062413973273008162 0.1018934272394761 0 0.068523875558259784 0.095111972458496966 0 0.062413973273008162 0.1018934272394761 0 0.06135777996986308 0.093915161513068182 0 0.071520258741129425 0.10189571548122769 0 0.072821304814728441 0.1108529925529516 0 0.063718101814298073 0.11016590081819259 0 0.071520258741129425 0.10189571548122769 0 0.063718101814298073 0.11016590081819259 0 0.062413973273008162 0.1018934272394761 0 0.071520258741129425 0.10189571548122769 0 0.084925795867796111 0.1103515185161017 0 0.072821304814728441 0.1108529925529516 0 0.080235742217082393 0.093435287859391092 0 0.068523875558259784 0.095111972458496966 0 0.071520258741129425 0.10189571548122769 0 0.097728221435088053 0.099184528615223033 0 0.080235742217082393 0.093435287859391092 0 0.084925795867796111 0.1103515185161017 0 0.080235742217082393 0.093435287859391092 0 0.071520258741129425 0.10189571548122769 0 0.084925795867796111 0.1103515185161017 0 0.084925795867796111 0.1103515185161017 0 0.074154959480044275 0.1204842858357125 0 0.087075880893963842 0.12621803440601359 0 0.096984900528893664 0.1212489081817222 0 0.084925795867796111 0.1103515185161017 0 0.087075880893963842 0.12621803440601359 0 0.084925795867796111 0.1103515185161017 0 0.074154959480044275 0.1204842858357125 0 0.072821304814728441 0.1108529925529516 0 0.074154959480044275 0.1204842858357125 0 0.072821304814728441 0.1108529925529516 0 0.063718101814298073 0.11016590081819259 0 0.074154959480044275 0.1204842858357125 0 0.063718101814298073 0.11016590081819259 0 0.060124536552058239 0.11864948812996751 0 0.074154959480044275 0.1204842858357125 0 0.060124536552058239 0.11864948812996751 0 0.061109117960118017 0.12720913792676911 0 0.060124536552058239 0.11864948812996751 0 0.052595679859244633 0.1236025024456274 0 0.054913207086597561 0.11271600588853189 0 0.060124536552058239 0.11864948812996751 0 0.052595679859244633 0.1236025024456274 0 0.061109117960118017 0.12720913792676911 0 0.052595679859244633 0.1236025024456274 0 0.054913207086597561 0.11271600588853189 0 0.046771683079868627 0.1089772416004138 0 0.063718101814298073 0.11016590081819259 0 0.060124536552058239 0.11864948812996751 0 0.054913207086597561 0.11271600588853189 0 0.063718101814298073 0.11016590081819259 0 0.062413973273008162 0.1018934272394761 0 0.053620768430252298 0.1031656988462608 0 0.063718101814298073 0.11016590081819259 0 0.054913207086597561 0.11271600588853189 0 0.053620768430252298 0.1031656988462608 0 0.06135777996986308 0.093915161513068182 0 0.053620768430252298 0.1031656988462608 0 0.051535176025136201 0.090416251810209708 0 0.062413973273008162 0.1018934272394761 0 0.06135777996986308 0.093915161513068182 0 0.053620768430252298 0.1031656988462608 0 0.053620768430252298 0.1031656988462608 0 0.042875633238578528 0.09739353282270094 0 0.051535176025136201 0.090416251810209708 0 0.053620768430252298 0.1031656988462608 0 0.046771683079868627 0.1089772416004138 0 0.042875633238578528 0.09739353282270094 0 0.054913207086597561 0.11271600588853189 0 0.053620768430252298 0.1031656988462608 0 0.046771683079868627 0.1089772416004138 0 0.046771683079868627 0.1089772416004138 0 0.042875633238578528 0.09739353282270094 0 0.034382595390138257 0.1099700727945534 0 0.042875633238578528 0.09739353282270094 0 0.034382595390138257 0.1099700727945534 0 0.030708755379597181 0.088685576768743155 0 0.034382595390138257 0.1099700727945534 0 0.030708755379597181 0.088685576768743155 0 0.052595679859244633 0.1236025024456274 0 0.046771683079868627 0.1089772416004138 0 0.034382595390138257 0.1099700727945534 0 0.034382595390138257 0.1099700727945534 0 0.02520709702204247 0.1232263280856261 0 0.037354296692750887 0.12718670835402709 0 0.052595679859244633 0.1236025024456274 0 0.034382595390138257 0.1099700727945534 0 0.037354296692750887 0.12718670835402709 0 0.034382595390138257 0.1099700727945534 0 0.037354296692750887 0.12718670835402709 0 0.052595679859244633 0.1236025024456274 0 0.034382595390138257 0.1099700727945534 0 0.060132464308973767 0.062986029428160187 0 0.051537231586459821 0.0703604747810012 0 0.044258496001147778 0.063884183083345675 0 0.051537231586459821 0.0703604747810012 0 0.045053238281461433 0.071665999821029613 0 0.044258496001147778 0.063884183083345675 0 0.060132464308973767 0.062986029428160187 0 0.058160070023191839 0.074213970699792686 0 0.051537231586459821 0.0703604747810012 0 0.068637102026180674 0.07792917868559901 0 0.060132464308973767 0.062986029428160187 0 0.058160070023191839 0.074213970699792686 0 0.051537231586459821 0.0703604747810012 0 0.049495561811348857 0.078896267932753172 0 0.045053238281461433 0.071665999821029613 0 0.058160070023191839 0.074213970699792686 0 0.051537231586459821 0.0703604747810012 0 0.049495561811348857 0.078896267932753172 0 0.049495561811348857 0.078896267932753172 0 0.051535176025136201 0.090416251810209708 0 0.041750220721871581 0.085344735896560275 0 0.049495561811348857 0.078896267932753172 0 0.060111091978902922 0.083782113849914977 0 0.051535176025136201 0.090416251810209708 0 0.068637102026180674 0.07792917868559901 0 0.058160070023191839 0.074213970699792686 0 0.060111091978902922 0.083782113849914977 0 0.058160070023191839 0.074213970699792686 0 0.049495561811348857 0.078896267932753172 0 0.060111091978902922 0.083782113849914977 0 0.06135777996986308 0.093915161513068182 0 0.060111091978902922 0.083782113849914977 0 0.051535176025136201 0.090416251810209708 0 0.042875633238578528 0.09739353282270094 0 0.051535176025136201 0.090416251810209708 0 0.041750220721871581 0.085344735896560275 0 0.042875633238578528 0.09739353282270094 0 0.041750220721871581 0.085344735896560275 0 0.030708755379597181 0.088685576768743155 0 0.041750220721871581 0.085344735896560275 0 0.037489048909448763 0.07466528487264068 0 0.030708755379597181 0.088685576768743155 0 0.049495561811348857 0.078896267932753172 0 0.041750220721871581 0.085344735896560275 0 0.037489048909448763 0.07466528487264068 0 0.037489048909448763 0.07466528487264068 0 0.02703491536905472 0.067401080742933134 0 0.030708755379597181 0.088685576768743155 0 0.049495561811348857 0.078896267932753172 0 0.045053238281461433 0.071665999821029613 0 0.037489048909448763 0.07466528487264068 0 0.045053238281461433 0.071665999821029613 0 0.037489048909448763 0.07466528487264068 0 0.037579666130808903 0.067774354445351542 0 0.034062632092931817 0.061255223706808547 0 0.037579666130808903 0.067774354445351542 0 0.02703491536905472 0.067401080742933134 0 0.037489048909448763 0.07466528487264068 0 0.037579666130808903 0.067774354445351542 0 0.02703491536905472 0.067401080742933134 0 0.034062632092931817 0.061255223706808547 0 0.037579666130808903 0.067774354445351542 0 0.044258496001147778 0.063884183083345675 0 0.045053238281461433 0.071665999821029613 0 0.037579666130808903 0.067774354445351542 0 0.044258496001147778 0.063884183083345675 0 0.02703491536905472 0.067401080742933134 0 0.030708755379597181 0.088685576768743155 0 0.01366790099406239 0.052632887419703241 0 0.026593398378051959 0.076487299351285121 0 0.01366790099406239 0.052632887419703241 0 0.02703491536905472 0.067401080742933134 0 0.026593398378051959 0.076487299351285121 0 0.02703491536905472 0.067401080742933134 0 0.026593398378051959 0.076487299351285121 0 0.030708755379597181 0.088685576768743155 0 0.01366790099406239 0.052632887419703241 0 0.026593398378051959 0.076487299351285121 0 0.01611389888654503 0.070322973248010373 0 0.026593398378051959 0.076487299351285121 0 0.01611389888654503 0.070322973248010373 0 0.01767063525815666 0.080500261616376856 0 0.01767063525815666 0.080500261616376856 0 0.030708755379597181 0.088685576768743155 0 0.011643404763696401 0.092949868607662828 0 0.026593398378051959 0.076487299351285121 0 0.01767063525815666 0.080500261616376856 0 0.030708755379597181 0.088685576768743155 0 0.01767063525815666 0.080500261616376856 0 0.011643404763696401 0.092949868607662828 0 0.0065236609159091173 0.071671444604676282 0 -0.01109578586274463 0.07592966442077155 0 0.011643404763696401 0.092949868607662828 0 0.0065236609159091173 0.071671444604676282 0 -0.01109578586274463 0.07592966442077155 0 0.011643404763696401 0.092949868607662828 0 0.01366790099406239 0.052632887419703241 0 0.01611389888654503 0.070322973248010373 0 0.0065236609159091173 0.071671444604676282 0 0.01611389888654503 0.070322973248010373 0 0.01767063525815666 0.080500261616376856 0 0.0065236609159091173 0.071671444604676282 0 -0.0031702267477386531 0.067180855403790804 0 0.00079413703044923156 0.058803151297745167 0 0.0065236609159091173 0.071671444604676282 0 0.034382595390138257 0.1099700727945534 0 0.02520709702204247 0.1232263280856261 0 0.01356063639681436 0.11371506303709419 0 0.02520709702204247 0.1232263280856261 0 0.01356063639681436 0.11371506303709419 0 0.011098566836083609 0.13484946890849181 0 0.034382595390138257 0.1099700727945534 0 0.011643404763696401 0.092949868607662828 0 0.01356063639681436 0.11371506303709419 0 0.034382595390138257 0.1099700727945534 0 0.011643404763696401 0.092949868607662828 0 0.034382595390138257 0.1099700727945534 0 0.030708755379597181 0.088685576768743155 0 0.011643404763696401 0.092949868607662828 0 -0.0040088977147468936 0.097024336429998151 0 0.011643404763696401 0.092949868607662828 0 0.0025937760044158291 0.1064596481343341 0 0.011643404763696401 0.092949868607662828 0 0.0025937760044158291 0.1064596481343341 0 0.01356063639681436 0.11371506303709419 0 -0.007175360702145514 0.1155930690216506 0 0.0025937760044158291 0.1064596481343341 0 0.01356063639681436 0.11371506303709419 0 -0.007175360702145514 0.1155930690216506 0 0.01356063639681436 0.11371506303709419 0 0.011098566836083609 0.13484946890849181 0 -0.007175360702145514 0.1155930690216506 0 0.011098566836083609 0.13484946890849181 0 0.02520709702204247 0.1232263280856261 0 0.011098566836083609 0.13484946890849181 0 0.028759663239593541 0.13617761485890201 0 0.02520709702204247 0.1232263280856261 0 0.028759663239593541 0.13617761485890201 0 0.037354296692750887 0.12718670835402709 0 0.011098566836083609 0.13484946890849181 0 0.029372494374312729 0.15410586879533311 0 0.013538337341477229 0.1636201682865295 0 0.011098566836083609 0.13484946890849181 0 0.028759663239593541 0.13617761485890201 0 0.029372494374312729 0.15410586879533311 0 0.011098566836083609 0.13484946890849181 0 0.029372494374312729 0.15410586879533311 0 -0.0048034666842798916 0.1614245706846468 0 0.011098566836083609 0.13484946890849181 0 0.013538337341477229 0.1636201682865295 0 -0.0057956805663459468 0.1892940575843915 0 -0.0048034666842798916 0.1614245706846468 0 0.013538337341477229 0.1636201682865295 0 -0.0057956805663459468 0.1892940575843915 0 0.013538337341477229 0.1636201682865295 0 0.020045678312652242 0.18090880435863019 0 -0.0057956805663459468 0.1892940575843915 0 0.020045678312652242 0.18090880435863019 0 0.029372494374312729 0.15410586879533311 0 0.013538337341477229 0.1636201682865295 0 0.020045678312652242 0.18090880435863019 0 0.029372494374312729 0.15410586879533311 0 0.045887037191650451 0.17252355113286891 0 0.04813315871709322 0.1541455757588851 0 0.029372494374312729 0.15410586879533311 0 0.020045678312652242 0.18090880435863019 0 0.045887037191650451 0.17252355113286891 0 0.020045678312652242 0.18090880435863019 0 0.045887037191650451 0.17252355113286891 0 0.020045678312652242 0.18090880435863019 0 0.045887037191650451 0.17252355113286891 0 0.041991232206495782 0.1919910870650737 0 0.045887037191650451 0.17252355113286891 0 0.060802696405823108 0.1787365445376432 0 0.041991232206495782 0.1919910870650737 0 0.045887037191650451 0.17252355113286891 0 0.071728396070648653 0.1641382979071076 0 0.045887037191650451 0.17252355113286891 0 0.060802696405823108 0.1787365445376432 0 0.071728396070648653 0.1641382979071076 0 0.045887037191650451 0.17252355113286891 0 0.059657673584757237 0.15824269734654939 0 0.04813315871709322 0.1541455757588851 0 0.045887037191650451 0.17252355113286891 0 0.059657673584757237 0.15824269734654939 0 0.071728396070648653 0.1641382979071076 0 0.059657673584757237 0.15824269734654939 0 0.04813315871709322 0.1541455757588851 0 0.060329678829100349 0.1474246815113264 0 0.04813315871709322 0.1541455757588851 0 0.050215372913412007 0.1458935282758238 0 0.060329678829100349 0.1474246815113264 0 0.050215372913412007 0.1458935282758238 0 0.060329678829100349 0.1474246815113264 0 0.052072656112092337 0.13760051191958289 0 0.050215372913412007 0.1458935282758238 0 0.052072656112092337 0.13760051191958289 0 0.040325997995362128 0.14440334391350099 0 0.060329678829100349 0.1474246815113264 0 0.062159468211553673 0.13737243366585769 0 0.052072656112092337 0.13760051191958289 0 0.062159468211553673 0.13737243366585769 0 0.054733357378362921 0.13083888414419281 0 0.052072656112092337 0.13760051191958289 0 0.052595679859244633 0.1236025024456274 0 0.054733357378362921 0.13083888414419281 0 0.061109117960118017 0.12720913792676911 0 0.062159468211553673 0.13737243366585769 0 0.054733357378362921 0.13083888414419281 0 0.061109117960118017 0.12720913792676911 0 0.052595679859244633 0.1236025024456274 0 0.054733357378362921 0.13083888414419281 0 0.046346625143134958 0.1312929959830558 0 0.054733357378362921 0.13083888414419281 0 0.052072656112092337 0.13760051191958289 0 0.046346625143134958 0.1312929959830558 0 0.037354296692750887 0.12718670835402709 0 0.040325997995362128 0.14440334391350099 0 0.046346625143134958 0.1312929959830558 0 0.037354296692750887 0.12718670835402709 0 0.040325997995362128 0.14440334391350099 0 0.028759663239593541 0.13617761485890201 0 0.037354296692750887 0.12718670835402709 0 0.040325997995362128 0.14440334391350099 0 0.052072656112092337 0.13760051191958289 0 0.046346625143134958 0.1312929959830558 0 0.040325997995362128 0.14440334391350099 0 0.052595679859244633 0.1236025024456274 0 0.046346625143134958 0.1312929959830558 0 0.037354296692750887 0.12718670835402709 0 0.028759663239593541 0.13617761485890201 0 0.029372494374312729 0.15410586879533311 0 0.040325997995362128 0.14440334391350099 0 0.029372494374312729 0.15410586879533311 0 0.04813315871709322 0.1541455757588851 0 0.040325997995362128 0.14440334391350099 0 0.04813315871709322 0.1541455757588851 0 0.050215372913412007 0.1458935282758238 0 0.040325997995362128 0.14440334391350099 0 0.025149977659741599 0.24684982625080901 0 0.00014186162909880781 0.2338185852574263 0 0.02177620002751179 0.22559840920251981 0 0.025149977659741599 0.24684982625080901 0 0.00014186162909880781 0.2338185852574263 0 0.025149977659741599 0.24684982625080901 0 0.00014186162909880781 0.2338185852574263 0 0.0073806355134042019 0.25529449578482938 0 0.00014186162909880781 0.2338185852574263 0 0.02177620002751179 0.22559840920251981 0 0.0090806704795409685 0.20996839310177981 0 0.025149977659741599 0.24684982625080901 0 0.02177620002751179 0.22559840920251981 0 0.039960986899899173 0.22780444499479169 0 0.02177620002751179 0.22559840920251981 0 0.0090806704795409685 0.20996839310177981 0 0.034547503469278373 0.20955079640779209 0 0.0090806704795409685 0.20996839310177981 0 0.02162293693503077 0.1981024475624624 0 0.034547503469278373 0.20955079640779209 0 -0.0057956805663459468 0.1892940575843915 0 0.0090806704795409685 0.20996839310177981 0 0.02162293693503077 0.1981024475624624 0 -0.0057956805663459468 0.1892940575843915 0 0.020045678312652242 0.18090880435863019 0 0.02162293693503077 0.1981024475624624 0 0.020045678312652242 0.18090880435863019 0 0.02162293693503077 0.1981024475624624 0 0.041991232206495782 0.1919910870650737 0 0.02162293693503077 0.1981024475624624 0 0.041991232206495782 0.1919910870650737 0 0.034547503469278373 0.20955079640779209 0 0.041991232206495782 0.1919910870650737 0 0.05849467095877426 0.1965416733816682 0 0.050764695011206777 0.20916964222725651 0 0.060802696405823108 0.1787365445376432 0 0.041991232206495782 0.1919910870650737 0 0.05849467095877426 0.1965416733816682 0 0.050764695011206777 0.20916964222725651 0 0.066981886553135278 0.20878848804672309 0 0.05849467095877426 0.1965416733816682 0 0.050764695011206777 0.20916964222725651 0 0.066981886553135278 0.20878848804672309 0 0.050764695011206777 0.20916964222725651 0 0.061514006406540499 0.23071042489022231 0 0.066981886553135278 0.20878848804672309 0 0.050764695011206777 0.20916964222725651 0 0.034547503469278373 0.20955079640779209 0 0.039960986899899173 0.22780444499479169 0 0.050764695011206777 0.20916964222725651 0 0.034547503469278373 0.20955079640779209 0 0.041991232206495782 0.1919910870650737 0 0.050764695011206777 0.20916964222725651 0 0.034547503469278373 0.20955079640779209 0 0.02177620002751179 0.22559840920251981 0 0.034547503469278373 0.20955079640779209 0 0.039960986899899173 0.22780444499479169 0 0.039960986899899173 0.22780444499479169 0 0.061514006406540499 0.23071042489022231 0 0.045472231705318063 0.24424317023843681 0 0.050764695011206777 0.20916964222725651 0 0.039960986899899173 0.22780444499479169 0 0.061514006406540499 0.23071042489022231 0 0.061514006406540499 0.23071042489022231 0 0.056046126259945157 0.25263236173372139 0 0.061514006406540499 0.23071042489022231 0 0.056046126259945157 0.25263236173372139 0 0.067905867336300579 0.25358800162702 0 0.061514006406540499 0.23071042489022231 0 0.045472231705318063 0.24424317023843681 0 0.056046126259945157 0.25263236173372139 0 0.025149977659741599 0.24684982625080901 0 0.039960986899899173 0.22780444499479169 0 0.045472231705318063 0.24424317023843681 0 0.092857250133516089 0.24175825718487831 0 0.078525547080241467 0.2465942846531784 0 0.093798877441032588 0.2579700649065903 0 0.092857250133516089 0.24175825718487831 0 0.078525547080241467 0.2465942846531784 0 0.081986142109724491 0.22560265144644431 0 0.061514006406540499 0.23071042489022231 0 0.078525547080241467 0.2465942846531784 0 0.067905867336300579 0.25358800162702 0 0.061514006406540499 0.23071042489022231 0 0.078525547080241467 0.2465942846531784 0 0.081986142109724491 0.22560265144644431 0 0.061514006406540499 0.23071042489022231 0 0.081986142109724491 0.22560265144644431 0 0.066981886553135278 0.20878848804672309 0 0.061514006406540499 0.23071042489022231 0 0.066981886553135278 0.20878848804672309 0 0.081986142109724491 0.22560265144644431 0 0.09236794217301933 0.20819183719001669 0 0.066981886553135278 0.20878848804672309 0 0.09236794217301933 0.20819183719001669 0 0.066981886553135278 0.20878848804672309 0 0.09236794217301933 0.20819183719001669 0 0.066981886553135278 0.20878848804672309 0 0.071445073857882777 0.19089458628000441 0 0.060802696405823108 0.1787365445376432 0 0.05849467095877426 0.1965416733816682 0 0.071445073857882777 0.19089458628000441 0 0.066981886553135278 0.20878848804672309 0 0.071445073857882777 0.19089458628000441 0 0.05849467095877426 0.1965416733816682 0 0.066981886553135278 0.20878848804672309 0 0.071445073857882777 0.19089458628000441 0 0.09236794217301933 0.20819183719001669 0 0.071445073857882777 0.19089458628000441 0 0.086464584236575506 0.1862285865309723 0 0.09236794217301933 0.20819183719001669 0 0.086464584236575506 0.1862285865309723 0 0.1023855527362314 0.18749689463882899 0 0.09236794217301933 0.20819183719001669 0 0.11775399779290339 0.20759518633331239 0 0.1023855527362314 0.18749689463882899 0 0.11775399779290339 0.20759518633331239 0 0.1023855527362314 0.18749689463882899 0 0.12550986450034471 0.186594373040398 0 0.09236794217301933 0.20819183719001669 0 0.11775399779290339 0.20759518633331239 0 0.09236794217301933 0.20819183719001669 0 0.11775399779290339 0.20759518633331239 0 0.10906069526472741 0.22998953009969161 0 0.092857250133516089 0.24175825718487831 0 0.081986142109724491 0.22560265144644431 0 0.10906069526472741 0.22998953009969161 0 0.081986142109724491 0.22560265144644431 0 0.09236794217301933 0.20819183719001669 0 0.10906069526472741 0.22998953009969161 0 0.11775399779290339 0.20759518633331239 0 0.10906069526472741 0.22998953009969161 0 0.1382648444377183 0.22719855966067881 0 0.10906069526472741 0.22998953009969161 0 0.12787711237058769 0.24521089126939841 0 0.1100607559553454 0.25396994184181759 0 0.092857250133516089 0.24175825718487831 0 0.10906069526472741 0.22998953009969161 0 0.1100607559553454 0.25396994184181759 0 0.081151633673542972 0.15313158297098389 0 0.083920606388658545 0.14050817004821939 0 0.0975697549496468 0.15575304468134629 0 0.081151633673542972 0.15313158297098389 0 0.083920606388658545 0.14050817004821939 0 0.071387777285217918 0.15212681924726251 0 0.074154959480044275 0.1204842858357125 0 0.087075880893963842 0.12621803440601359 0 0.083920606388658545 0.14050817004821939 0 0.087075880893963842 0.12621803440601359 0 0.083920606388658545 0.14050817004821939 0 0.097906888154765004 0.1362305538396491 0 0.062159468211553673 0.13737243366585769 0 0.061109117960118017 0.12720913792676911 0 0.083920606388658545 0.14050817004821939 0 0.074154959480044275 0.1204842858357125 0 0.061109117960118017 0.12720913792676911 0 0.083920606388658545 0.14050817004821939 0 0.061109117960118017 0.12720913792676911 0 0.083920606388658545 0.14050817004821939 0 0.062159468211553673 0.13737243366585769 0 0.083920606388658545 0.14050817004821939 0 0.069449382678632612 0.1443580261181665 0 0.060329678829100349 0.1474246815113264 0 0.062159468211553673 0.13737243366585769 0 0.069449382678632612 0.1443580261181665 0 0.060329678829100349 0.1474246815113264 0 0.069449382678632612 0.1443580261181665 0 0.071387777285217918 0.15212681924726251 0 0.083920606388658545 0.14050817004821939 0 0.069449382678632612 0.1443580261181665 0 0.071387777285217918 0.15212681924726251 0 0.059657673584757237 0.15824269734654939 0 0.060329678829100349 0.1474246815113264 0 0.071387777285217918 0.15212681924726251 0 0.059657673584757237 0.15824269734654939 0 0.071387777285217918 0.15212681924726251 0 0.071728396070648653 0.1641382979071076 0 0.081151633673542972 0.15313158297098389 0 0.071387777285217918 0.15212681924726251 0 0.071728396070648653 0.1641382979071076 0 0.071445073857882777 0.19089458628000441 0 0.075908261162629706 0.17300068451328551 0 0.086464584236575506 0.1862285865309723 0 0.060802696405823108 0.1787365445376432 0 0.071445073857882777 0.19089458628000441 0 0.075908261162629706 0.17300068451328551 0 0.071445073857882777 0.19089458628000441 0 0.075908261162629706 0.17300068451328551 0 0.060802696405823108 0.1787365445376432 0 0.071728396070648653 0.1641382979071076 0 0.075908261162629706 0.17300068451328551 0 0.086464584236575506 0.1862285865309723 0 0.090216091253114361 0.17155893003272579 0 0.1023855527362314 0.18749689463882899 0 0.075908261162629706 0.17300068451328551 0 0.086464584236575506 0.1862285865309723 0 0.090216091253114361 0.17155893003272579 0 0.081151633673542972 0.15313158297098389 0 0.071728396070648653 0.1641382979071076 0 0.0975697549496468 0.15575304468134629 0 0.071728396070648653 0.1641382979071076 0 0.090216091253114361 0.17155893003272579 0 0.0975697549496468 0.15575304468134629 0 0.071728396070648653 0.1641382979071076 0 0.075908261162629706 0.17300068451328551 0 0.090216091253114361 0.17155893003272579 0 0.071728396070648653 0.1641382979071076 0 0.0975697549496468 0.15575304468134629 0 0.090216091253114361 0.17155893003272579 0 0.1064810698159025 0.16893633516972181 0 0.0975697549496468 0.15575304468134629 0 0.1064810698159025 0.16893633516972181 0 0.1067320948171991 0.1538072021696697 0 0.0975697549496468 0.15575304468134629 0 0.090216091253114361 0.17155893003272579 0 0.1064810698159025 0.16893633516972181 0 0.1023855527362314 0.18749689463882899 0 0.1064810698159025 0.16893633516972181 0 0.12954358324573961 0.16710623429112001 0 0.12550986450034471 0.186594373040398 0 0.1064810698159025 0.16893633516972181 0 0.1023855527362314 0.18749689463882899 0 0.12550986450034471 0.186594373040398 0 0.1064810698159025 0.16893633516972181 0 0.1067320948171991 0.1538072021696697 0 0.12954358324573961 0.16710623429112001 0 0.1067320948171991 0.1538072021696697 0 0.1262856736452258 0.1537478882528979 0 0.12954358324573961 0.16710623429112001 0 0.1067320948171991 0.1538072021696697 0 0.12954358324573961 0.16710623429112001 0 0.1148569119608701 0.14824987142416859 0 0.1067320948171991 0.1538072021696697 0 0.1262856736452258 0.1537478882528979 0 0.118317888191051 0.14254191757659121 0 0.1148569119608701 0.14824987142416859 0 0.1262856736452258 0.1537478882528979 0 0.118317888191051 0.14254191757659121 0 0.12756241452120801 0.13893694775055651 0 0.1262856736452258 0.1537478882528979 0 0.1148569119608701 0.14824987142416859 0 0.1067320948171991 0.1538072021696697 0 0.1080919911900045 0.14290247769751591 0 0.118317888191051 0.14254191757659121 0 0.1148569119608701 0.14824987142416859 0 0.1080919911900045 0.14290247769751591 0 0.083920606388658545 0.14050817004821939 0 0.1067320948171991 0.1538072021696697 0 0.1067320948171991 0.1538072021696697 0 0.1080919911900045 0.14290247769751591 0 0.097906888154765004 0.1362305538396491 0 0.083920606388658545 0.14050817004821939 0 0.1067320948171991 0.1538072021696697 0 0.097906888154765004 0.1362305538396491 0 0.083920606388658545 0.14050817004821939 0 0.1067320948171991 0.1538072021696697 0 0.0975697549496468 0.15575304468134629 0 0.096984900528893664 0.1212489081817222 0 0.097906888154765004 0.1362305538396491 0 0.10589272808503949 0.13156516273042271 0 0.096984900528893664 0.1212489081817222 0 0.087075880893963842 0.12621803440601359 0 0.097906888154765004 0.1362305538396491 0 0.1080919911900045 0.14290247769751591 0 0.097906888154765004 0.1362305538396491 0 0.10589272808503949 0.13156516273042271 0 0.1080919911900045 0.14290247769751591 0 0.10589272808503949 0.13156516273042271 0 0.11327312463209829 0.13597294690712769 0 0.10712684862241641 0.1210429748963526 0 0.10589272808503949 0.13156516273042271 0 0.114987521205969 0.1268010028982309 0 0.10589272808503949 0.13156516273042271 0 0.114987521205969 0.1268010028982309 0 0.11327312463209829 0.13597294690712769 0 0.114987521205969 0.1268010028982309 0 0.11327312463209829 0.13597294690712769 0 0.1203000125167645 0.13336293759413789 0 0.118317888191051 0.14254191757659121 0 0.1080919911900045 0.14290247769751591 0 0.11327312463209829 0.13597294690712769 0 0.118317888191051 0.14254191757659121 0 0.1203000125167645 0.13336293759413789 0 0.12756241452120801 0.13893694775055651 0 0.118317888191051 0.14254191757659121 0 0.11327312463209829 0.13597294690712769 0 0.1203000125167645 0.13336293759413789 0 0.12212988809696081 0.1249307776834532 0 0.114987521205969 0.1268010028982309 0 0.1203000125167645 0.13336293759413789 0 0.12212988809696081 0.1249307776834532 0 0.1203000125167645 0.13336293759413789 0 0.12788127083107459 0.1291064789800366 0 0.12788127083107459 0.1291064789800366 0 0.13409394305489639 0.1257339851238449 0 0.12813823657366311 0.12049833089676459 0 0.12788127083107459 0.1291064789800366 0 0.13410827310584911 0.13282331674432049 0 0.13409394305489639 0.1257339851238449 0 0.12788127083107459 0.1291064789800366 0 0.12756241452120801 0.13893694775055651 0 0.13410827310584911 0.13282331674432049 0 0.1203000125167645 0.13336293759413789 0 0.12788127083107459 0.1291064789800366 0 0.12756241452120801 0.13893694775055651 0 0.13410827310584911 0.13282331674432049 0 0.14295710802469111 0.12768772724150559 0 0.13848136883728299 0.14203914735535511 0 0.12756241452120801 0.13893694775055651 0 0.13410827310584911 0.13282331674432049 0 0.13848136883728299 0.14203914735535511 0 0.13410827310584911 0.13282331674432049 0 0.13409394305489639 0.1257339851238449 0 0.14295710802469111 0.12768772724150559 0 0.14295710802469111 0.12768772724150559 0 0.15698787762036359 0.14007723406829989 0 0.15364605026385231 0.1227496740475859 0 0.14295710802469111 0.12768772724150559 0 0.13848136883728299 0.14203914735535511 0 0.15698787762036359 0.14007723406829989 0 0.13848136883728299 0.14203914735535511 0 0.1441447949138806 0.1573716891147208 0 0.15698787762036359 0.14007723406829989 0 0.1441447949138806 0.1573716891147208 0 0.1598153361361678 0.15982657838785511 0 0.15698787762036359 0.14007723406829989 0 0.13848136883728299 0.14203914735535511 0 0.1262856736452258 0.1537478882528979 0 0.1441447949138806 0.1573716891147208 0 0.12756241452120801 0.13893694775055651 0 0.13848136883728299 0.14203914735535511 0 0.1262856736452258 0.1537478882528979 0 0.1262856736452258 0.1537478882528979 0 0.12954358324573961 0.16710623429112001 0 0.1441447949138806 0.1573716891147208 0 0.12954358324573961 0.16710623429112001 0 0.12550986450034471 0.186594373040398 0 0.15375492999850379 0.1814330523327968 0 0.12954358324573961 0.16710623429112001 0 0.15375492999850379 0.1814330523327968 0 0.1441447949138806 0.1573716891147208 0 0.15375492999850379 0.1814330523327968 0 0.1441447949138806 0.1573716891147208 0 0.1598153361361678 0.15982657838785511 0 0.1598153361361678 0.15982657838785511 0 0.17205847002769489 0.1711246398383999 0 0.17247097746626519 0.1464629757798975 0 0.15375492999850379 0.1814330523327968 0 0.1598153361361678 0.15982657838785511 0 0.17205847002769489 0.1711246398383999 0 0.15375492999850379 0.1814330523327968 0 0.17205847002769489 0.1711246398383999 0 0.18411838942066619 0.18828130780555291 0 0.17205847002769489 0.1711246398383999 0 0.18411838942066619 0.18828130780555291 0 0.19050902449260759 0.164433536692701 0 0.17205847002769489 0.1711246398383999 0 0.17247097746626519 0.1464629757798975 0 0.19050902449260759 0.164433536692701 0 0.17247097746626519 0.1464629757798975 0 0.1903693880120208 0.14015559280000461 0 0.19050902449260759 0.164433536692701 0 0.17247097746626519 0.1464629757798975 0 0.18002451345814399 0.12716596121819479 0 0.1903693880120208 0.14015559280000461 0 0.17247097746626519 0.1464629757798975 0 0.18002451345814399 0.12716596121819479 0 0.16417220099380411 0.12505127510387981 0 0.15698787762036359 0.14007723406829989 0 0.16417220099380411 0.12505127510387981 0 0.15364605026385231 0.1227496740475859 0 0.17247097746626519 0.1464629757798975 0 0.15698787762036359 0.14007723406829989 0 0.16417220099380411 0.12505127510387981 0 0.1598153361361678 0.15982657838785511 0 0.17247097746626519 0.1464629757798975 0 0.15698787762036359 0.14007723406829989 0 0.14702044576598061 0.2478904659134552 0 0.1382648444377183 0.22719855966067881 0 0.15828943790025421 0.22969507774947781 0 0.14702044576598061 0.2478904659134552 0 0.12787711237058769 0.24521089126939841 0 0.1382648444377183 0.22719855966067881 0 0.10906069526472741 0.22998953009969161 0 0.12787711237058769 0.24521089126939841 0 0.1382648444377183 0.22719855966067881 0 0.1382648444377183 0.22719855966067881 0 0.14314005341278749 0.20699853547660821 0 0.15828943790025421 0.22969507774947781 0 0.14314005341278749 0.20699853547660821 0 0.16852610903267151 0.206401884619904 0 0.11775399779290339 0.20759518633331239 0 0.1382648444377183 0.22719855966067881 0 0.14314005341278749 0.20699853547660821 0 0.11775399779290339 0.20759518633331239 0 0.14314005341278749 0.20699853547660821 0 0.11775399779290339 0.20759518633331239 0 0.12550986450034471 0.186594373040398 0 0.14314005341278749 0.20699853547660821 0 0.15375492999850379 0.1814330523327968 0 0.14314005341278749 0.20699853547660821 0 0.16852610903267151 0.206401884619904 0 0.12550986450034471 0.186594373040398 0 0.15375492999850379 0.1814330523327968 0 0.14314005341278749 0.20699853547660821 0 0.15375492999850379 0.1814330523327968 0 0.18411838942066619 0.18828130780555291 0 0.16852610903267151 0.206401884619904 0 0.18411838942066619 0.18828130780555291 0 0.16852610903267151 0.206401884619904 0 0.1878214256448299 0.20672411698152671 0 0.16852610903267151 0.206401884619904 0 0.17766068788986381 0.23020170431202469 0 0.1878214256448299 0.20672411698152671 0 0.14314005341278749 0.20699853547660821 0 0.16852610903267151 0.206401884619904 0 0.15828943790025421 0.22969507774947781 0 0.16852610903267151 0.206401884619904 0 0.15828943790025421 0.22969507774947781 0 0.17766068788986381 0.23020170431202469 0 0.17766068788986381 0.23020170431202469 0 0.19353513124668931 0.22246748781277501 0 0.1878214256448299 0.20672411698152671 0 0.17766068788986381 0.23020170431202469 0 0.18692125413578081 0.24552837502103991 0 0.19379669244916639 0.23440003217329089 0 0.17766068788986381 0.23020170431202469 0 0.18692125413578081 0.24552837502103991 0 0.16774616909827719 0.2460930353984315 0 0.15828943790025421 0.22969507774947781 0 0.17766068788986381 0.23020170431202469 0 0.16774616909827719 0.2460930353984315 0 0.14702044576598061 0.2478904659134552 0 0.15828943790025421 0.22969507774947781 0 0.16774616909827719 0.2460930353984315 0 0.21557305570370441 0.24515722135805329 0 0.2029257889591993 0.24295866219667439 0 0.23007231546290949 0.2334513308517342 0 0.2029257889591993 0.24295866219667439 0 0.23007231546290949 0.2334513308517342 0 0.21557305570370441 0.24515722135805329 0 0.2029257889591993 0.24295866219667439 0 0.20107379594449931 0.25686311186437227 0 0.18692125413578081 0.24552837502103991 0 0.2029257889591993 0.24295866219667439 0 0.20107379594449931 0.25686311186437227 0 0.18692125413578081 0.24552837502103991 0 0.19379669244916639 0.23440003217329089 0 0.2029257889591993 0.24295866219667439 0 0.17766068788986381 0.23020170431202469 0 0.19379669244916639 0.23440003217329089 0 0.19353513124668931 0.22246748781277501 0 0.19379669244916639 0.23440003217329089 0 0.2029257889591993 0.24295866219667439 0 0.20920449219815451 0.22515354045629349 0 0.19379669244916639 0.23440003217329089 0 0.19353513124668931 0.22246748781277501 0 0.20920449219815451 0.22515354045629349 0 0.2029257889591993 0.24295866219667439 0 0.20920449219815451 0.22515354045629349 0 0.23007231546290949 0.2334513308517342 0 0.19353513124668931 0.22246748781277501 0 0.20920449219815451 0.22515354045629349 0 0.20732414099141369 0.20672295990195361 0 0.20920449219815451 0.22515354045629349 0 0.20732414099141369 0.20672295990195361 0 0.22783619495118521 0.20973527166224001 0 0.19353513124668931 0.22246748781277501 0 0.20732414099141369 0.20672295990195361 0 0.1878214256448299 0.20672411698152671 0 0.18411838942066619 0.18828130780555291 0 0.1878214256448299 0.20672411698152671 0 0.20343121377691101 0.18825927067945539 0 0.20732414099141369 0.20672295990195361 0 0.1878214256448299 0.20672411698152671 0 0.20343121377691101 0.18825927067945539 0 0.20732414099141369 0.20672295990195361 0 0.20343121377691101 0.18825927067945539 0 0.2219787971027708 0.18678942035429349 0 0.20732414099141369 0.20672295990195361 0 0.22783619495118521 0.20973527166224001 0 0.2219787971027708 0.18678942035429349 0 0.24528107816237801 0.1907036486386274 0 0.22783619495118521 0.20973527166224001 0 0.2219787971027708 0.18678942035429349 0 0.24528107816237801 0.1907036486386274 0 0.25242827713160498 0.21540237912569379 0 0.24528107816237801 0.1907036486386274 0 0.22783619495118521 0.20973527166224001 0 0.25242827713160498 0.21540237912569379 0 0.20920449219815451 0.22515354045629349 0 0.22783619495118521 0.20973527166224001 0 0.23007231546290949 0.2334513308517342 0 0.23007231546290949 0.2334513308517342 0 0.25242827713160498 0.21540237912569379 0 0.23007231546290949 0.2334513308517342 0 0.25511338863332461 0.22468137717712711 0 0.25242827713160498 0.21540237912569379 0 0.23007231546290949 0.2334513308517342 0 0.25511338863332461 0.22468137717712711 0 0.23007231546290949 0.2334513308517342 0 0.2457442494512444 0.24022391879071339 0 0.25511338863332461 0.22468137717712711 0 0.22783619495118521 0.20973527166224001 0 0.23007231546290949 0.2334513308517342 0 0.25242827713160498 0.21540237912569379 0 0.2457442494512444 0.24022391879071339 0 0.23628031136540401 0.25597328662156199 0 0.26221447651104962 0.2479993693513689 0 0.23007231546290949 0.2334513308517342 0 0.2457442494512444 0.24022391879071339 0 0.23628031136540401 0.25597328662156199 0 0.21557305570370441 0.24515722135805329 0 0.23007231546290949 0.2334513308517342 0 0.23628031136540401 0.25597328662156199 0 0.21557305570370441 0.24515722135805329 0 0.23007231546290949 0.2334513308517342 0 0.21023583046185859 0.14706018503428281 0 0.22521494488481819 0.12557893006429149 0 0.2001236667938262 0.1180422718546187 0 0.18002451345814399 0.12716596121819479 0 0.1903693880120208 0.14015559280000461 0 0.2001236667938262 0.1180422718546187 0 0.21023583046185859 0.14706018503428281 0 0.1903693880120208 0.14015559280000461 0 0.2001236667938262 0.1180422718546187 0 0.21023583046185859 0.14706018503428281 0 0.1903693880120208 0.14015559280000461 0 0.19050902449260759 0.164433536692701 0 0.18411838942066619 0.18828130780555291 0 0.20343121377691101 0.18825927067945539 0 0.19050902449260759 0.164433536692701 0 0.20343121377691101 0.18825927067945539 0 0.19050902449260759 0.164433536692701 0 0.20962662881846919 0.1707346457134423 0 0.20343121377691101 0.18825927067945539 0 0.20962662881846919 0.1707346457134423 0 0.2219787971027708 0.18678942035429349 0 0.21023583046185859 0.14706018503428281 0 0.20962662881846919 0.1707346457134423 0 0.2254160648188453 0.164078398330023 0 0.21023583046185859 0.14706018503428281 0 0.19050902449260759 0.164433536692701 0 0.20962662881846919 0.1707346457134423 0 0.20962662881846919 0.1707346457134423 0 0.2254160648188453 0.164078398330023 0 0.2219787971027708 0.18678942035429349 0 0.2254160648188453 0.164078398330023 0 0.2219787971027708 0.18678942035429349 0 0.23714843650665229 0.1758398884969993 0 0.24528107816237801 0.1907036486386274 0 0.2219787971027708 0.18678942035429349 0 0.23714843650665229 0.1758398884969993 0 0.24528107816237801 0.1907036486386274 0 0.23714843650665229 0.1758398884969993 0 0.25292738168467233 0.17649485219682931 0 0.2254160648188453 0.164078398330023 0 0.24653130607993951 0.16237692388552691 0 0.23688534306575301 0.1458043597726891 0 0.23714843650665229 0.1758398884969993 0 0.24653130607993951 0.16237692388552691 0 0.25292738168467233 0.17649485219682931 0 0.2254160648188453 0.164078398330023 0 0.23714843650665229 0.1758398884969993 0 0.24653130607993951 0.16237692388552691 0 0.24653130607993951 0.16237692388552691 0 0.2496536413094039 0.15044712256699261 0 0.23688534306575301 0.1458043597726891 0 0.2496536413094039 0.15044712256699261 0 0.23688534306575301 0.1458043597726891 0 0.25004344172447263 0.14019424959050239 0 0.21023583046185859 0.14706018503428281 0 0.2254160648188453 0.164078398330023 0 0.23688534306575301 0.1458043597726891 0 0.21023583046185859 0.14706018503428281 0 0.23688534306575301 0.1458043597726891 0 0.22521494488481819 0.12557893006429149 0 0.22521494488481819 0.12557893006429149 0 0.25030622297580962 0.13311558827396619 0 0.23688534306575301 0.1458043597726891 0 0.22521494488481819 0.12557893006429149 0 0.25030622297580962 0.13311558827396619 0 0.23688534306575301 0.1458043597726891 0 0.25004344172447263 0.14019424959050239 0 0.25030622297580962 0.13311558827396619 0 0.22521494488481819 0.12557893006429149 0 0.2369469616243938 0.1144798656387125 0 0.25030622297580962 0.13311558827396619 0 0.2369469616243938 0.1144798656387125 0 0.25094552198087999 0.11589449234768209 0 0.25030622297580962 0.13311558827396619 0 0.2369469616243938 0.1144798656387125 0 0.25158482098595109 0.098673396421397969 0 0.25094552198087999 0.11589449234768209 0 0.2369469616243938 0.1144798656387125 0 0.2308580048349978 0.09939168424622695 0 0.25158482098595109 0.098673396421397969 0 0.2308580048349978 0.09939168424622695 0 0.2177667053289645 0.10879872465146249 0 0.21723881235993189 0.092441087960636145 0 0.2369469616243938 0.1144798656387125 0 0.2308580048349978 0.09939168424622695 0 0.2177667053289645 0.10879872465146249 0 0.22521494488481819 0.12557893006429149 0 0.2369469616243938 0.1144798656387125 0 0.2177667053289645 0.10879872465146249 0 0.2177667053289645 0.10879872465146249 0 0.1970849337058638 0.1019164286603922 0 0.2001236667938262 0.1180422718546187 0 0.22521494488481819 0.12557893006429149 0 0.2177667053289645 0.10879872465146249 0 0.2001236667938262 0.1180422718546187 0 0.22521494488481819 0.12557893006429149 0 0.2001236667938262 0.1180422718546187 0 0.1970849337058638 0.1019164286603922 0 0.20420713705815571 0.090978010823124941 0 0.21723881235993189 0.092441087960636145 0 0.1970849337058638 0.1019164286603922 0 0.21723881235993189 0.092441087960636145 0 0.2177667053289645 0.10879872465146249 0 0.1970849337058638 0.1019164286603922 0 0.21723881235993189 0.092441087960636145 0 0.1970849337058638 0.1019164286603922 0 0.1916307843626972 0.08827444688259839 0 0.17503238870283441 0.11050561364494491 0 0.2001236667938262 0.1180422718546187 0 0.17503238870283441 0.11050561364494491 0 0.1970849337058638 0.1019164286603922 0 0.2001236667938262 0.1180422718546187 0 0.17503238870283441 0.11050561364494491 0 0.1916307843626972 0.08827444688259839 0 0.2082291800225603 0.066043280120252124 0 0.19067723801237901 0.065525043857756982 0 0.1916307843626972 0.08827444688259839 0 0.2082291800225603 0.066043280120252124 0 0.1916307843626972 0.08827444688259839 0 0.21087401780412959 0.081280079788873041 0 0.20420713705815571 0.090978010823124941 0 0.1970849337058638 0.1019164286603922 0 0.1916307843626972 0.08827444688259839 0 0.20420713705815571 0.090978010823124941 0 0.1916307843626972 0.08827444688259839 0 0.21087401780412959 0.081280079788873041 0 0.2082291800225603 0.066043280120252124 0 0.21087401780412959 0.081280079788873041 0 0.20420713705815571 0.090978010823124941 0 0.21723881235993189 0.092441087960636145 0 0.21087401780412959 0.081280079788873041 0 0.21723881235993189 0.092441087960636145 0 0.22613356481757629 0.0775902723280468 0 0.21087401780412959 0.081280079788873041 0 0.2082291800225603 0.066043280120252124 0 0.22613356481757629 0.0775902723280468 0 0.2082291800225603 0.066043280120252124 0 0.22613356481757629 0.0775902723280468 0 0.2082291800225603 0.066043280120252124 0 0.2259496113806885 0.070300708218039992 0 0.21450653174737461 0.057635669175196122 0 0.2259496113806885 0.070300708218039992 0 0.21450653174737461 0.057635669175196122 0 0.2082291800225603 0.066043280120252124 0 0.2259496113806885 0.070300708218039992 0 0.22613356481757629 0.0775902723280468 0 0.2259496113806885 0.070300708218039992 0 0.2248665156508784 0.061611733455129589 0 0.21450653174737461 0.057635669175196122 0 0.2259496113806885 0.070300708218039992 0 0.22613356481757629 0.0775902723280468 0 0.23739269101400209 0.082965747260884265 0 0.2259496113806885 0.070300708218039992 0 0.23739269101400209 0.082965747260884265 0 0.237967452106535 0.070105640596903412 0 0.2259496113806885 0.070300708218039992 0 0.23739269101400209 0.082965747260884265 0 0.2259496113806885 0.070300708218039992 0 0.2330718446673557 0.064441819436705627 0 0.2248665156508784 0.061611733455129589 0 0.2259496113806885 0.070300708218039992 0 0.2330718446673557 0.064441819436705627 0 0.237967452106535 0.070105640596903412 0 0.2308580048349978 0.09939168424622695 0 0.21723881235993189 0.092441087960636145 0 0.23739269101400209 0.082965747260884265 0 0.21723881235993189 0.092441087960636145 0 0.22613356481757629 0.0775902723280468 0 0.23739269101400209 0.082965747260884265 0 0.21723881235993189 0.092441087960636145 0 0.23739269101400209 0.082965747260884265 0 0.23739269101400209 0.082965747260884265 0 0.25158482098595109 0.098673396421397969 0 0.23739269101400209 0.082965747260884265 0 0.25243039498113262 0.075895774732197205 0 0.25158482098595109 0.098673396421397969 0 0.2308580048349978 0.09939168424622695 0 0.23739269101400209 0.082965747260884265 0 0.25158482098595109 0.098673396421397969 0 0.23739269101400209 0.082965747260884265 0 0.25243039498113262 0.075895774732197205 0 0.23934469018649959 0.064583282500140851 0 0.237967452106535 0.070105640596903412 0 0.24496427956833819 0.066036472520138348 0 0.2330718446673557 0.064441819436705627 0 0.23934469018649959 0.064583282500140851 0 0.2376257901407148 0.059976102198904507 0 0.2330718446673557 0.064441819436705627 0 0.23934469018649959 0.064583282500140851 0 0.237967452106535 0.070105640596903412 0 0.23739269101400209 0.082965747260884265 0 0.237967452106535 0.070105640596903412 0 0.24429048066179679 0.072622021298478806 0 0.24429048066179679 0.072622021298478806 0 0.24842415088314279 0.069033451464499671 0 0.25243039498113262 0.075895774732197205 0 0.23739269101400209 0.082965747260884265 0 0.24429048066179679 0.072622021298478806 0 0.25243039498113262 0.075895774732197205 0 0.24842415088314279 0.069033451464499671 0 0.24853219730195361 0.063845178725116872 0 0.25274476311700622 0.067427493409812952 0 0.237967452106535 0.070105640596903412 0 0.24429048066179679 0.072622021298478806 0 0.24496427956833819 0.066036472520138348 0 0.24429048066179679 0.072622021298478806 0 0.24842415088314279 0.069033451464499671 0 0.24496427956833819 0.066036472520138348 0 0.23934469018649959 0.064583282500140851 0 0.24496427956833819 0.066036472520138348 0 0.24309408444955441 0.062356377748052388 0 0.24496427956833819 0.066036472520138348 0 0.24602681454492631 0.062964227281045088 0 0.24309408444955441 0.062356377748052388 0 0.24496427956833819 0.066036472520138348 0 0.24602681454492631 0.062964227281045088 0 0.24853219730195361 0.063845178725116872 0 0.24842415088314279 0.069033451464499671 0 0.24496427956833819 0.066036472520138348 0 0.24853219730195361 0.063845178725116872 0 0.24751669685985911 0.059618880130872708 0 0.24309408444955441 0.062356377748052388 0 0.2376257901407148 0.059976102198904507 0 0.24751669685985911 0.059618880130872708 0 0.24426241142214139 0.049994713685017962 0 0.2310385276818335 0.053106641608170198 0 0.24751669685985911 0.059618880130872708 0 0.2376257901407148 0.059976102198904507 0 0.2310385276818335 0.053106641608170198 0 0.24751669685985911 0.059618880130872708 0 0.2310385276818335 0.053106641608170198 0 0.24853219730195361 0.063845178725116872 0 0.24751669685985911 0.059618880130872708 0 0.2530174900015254 0.0600809219264858 0 0.24602681454492631 0.062964227281045088 0 0.24853219730195361 0.063845178725116872 0 0.24751669685985911 0.059618880130872708 0 0.24602681454492631 0.062964227281045088 0 0.24751669685985911 0.059618880130872708 0 0.24309408444955441 0.062356377748052388 0 0.23934469018649959 0.064583282500140851 0 0.24309408444955441 0.062356377748052388 0 0.2376257901407148 0.059976102198904507 0 0.24426241142214139 0.049994713685017962 0 0.23928634064401511 0.040096757013566242 0 0.2310385276818335 0.053106641608170198 0 0.24751669685985911 0.059618880130872708 0 0.24426241142214139 0.049994713685017962 0 0.25102243244437311 0.053297338652025752 0 0.24426241142214139 0.049994713685017962 0 0.25174039047255609 0.044464402284776217 0 0.25102243244437311 0.053297338652025752 0 0.23928634064401511 0.040096757013566242 0 0.2320502206633881 0.021165953515508481 0 0.25044211127373811 0.032849993626191502 0 0.23928634064401511 0.040096757013566242 0 0.25044211127373811 0.032849993626191502 0 0.25174039047255609 0.044464402284776217 0 0.24426241142214139 0.049994713685017962 0 0.23928634064401511 0.040096757013566242 0 0.25174039047255609 0.044464402284776217 0 0.22618438235043381 0.038998837361733103 0 0.2320502206633881 0.021165953515508481 0 0.20963369093729961 0.03941564640516447 0 0.23928634064401511 0.040096757013566242 0 0.22618438235043381 0.038998837361733103 0 0.2320502206633881 0.021165953515508481 0 0.22618438235043381 0.038998837361733103 0 0.2310385276818335 0.053106641608170198 0 0.21456035850380811 0.046594403085467223 0 0.23928634064401511 0.040096757013566242 0 0.22618438235043381 0.038998837361733103 0 0.2310385276818335 0.053106641608170198 0 0.2310385276818335 0.053106641608170198 0 0.21456035850380811 0.046594403085467223 0 0.2248665156508784 0.061611733455129589 0 0.2310385276818335 0.053106641608170198 0 0.21456035850380811 0.046594403085467223 0 0.2248665156508784 0.061611733455129589 0 0.21456035850380811 0.046594403085467223 0 0.2330718446673557 0.064441819436705627 0 0.2248665156508784 0.061611733455129589 0 0.23150027442910881 0.059501590197602497 0 0.2248665156508784 0.061611733455129589 0 0.23150027442910881 0.059501590197602497 0 0.2310385276818335 0.053106641608170198 0 0.2330718446673557 0.064441819436705627 0 0.2376257901407148 0.059976102198904507 0 0.23150027442910881 0.059501590197602497 0 0.2376257901407148 0.059976102198904507 0 0.23150027442910881 0.059501590197602497 0 0.2310385276818335 0.053106641608170198 0 0.2320502206633881 0.021165953515508481 0 0.22999165343287109 0.0038227322559807589 0 0.25446675038947358 0.0029162606258486688 0 0.2320502206633881 0.021165953515508481 0 0.2600935707136679 0.019574361616358959 0 0.25446675038947358 0.0029162606258486688 0 0.22999165343287109 0.0038227322559807589 0 0.25446675038947358 0.0029162606258486688 0 0.24138147174972829 -0.0061427828714447699 0 0.2320502206633881 0.021165953515508481 0 0.25446675038947358 0.0029162606258486688 0 0.2320502206633881 0.021165953515508481 0 0.2600935707136679 0.019574361616358959 0 0.25044211127373811 0.032849993626191502 0 0.2320502206633881 0.021165953515508481 0 0.20963369093729961 0.03941564640516447 0 0.22999165343287109 0.0038227322559807589 0 0.21340461703840111 0.0096506044731711187 0 0.21351355446813719 -0.0021103410187178909 0 0.2320502206633881 0.021165953515508481 0 0.22999165343287109 0.0038227322559807589 0 0.21340461703840111 0.0096506044731711187 0 0.21340461703840111 0.0096506044731711187 0 0.1998105265397013 0.00335350757378736 0 0.21351355446813719 -0.0021103410187178909 0 0.21340461703840111 0.0096506044731711187 0 0.20371525389429951 0.01279949030761077 0 0.2082588668535221 0.02245160931237615 0 0.21340461703840111 0.0096506044731711187 0 0.20371525389429951 0.01279949030761077 0 0.1998105265397013 0.00335350757378736 0 0.2320502206633881 0.021165953515508481 0 0.2082588668535221 0.02245160931237615 0 0.20963369093729961 0.03941564640516447 0 0.2320502206633881 0.021165953515508481 0 0.21340461703840111 0.0096506044731711187 0 0.2082588668535221 0.02245160931237615 0 0.2082588668535221 0.02245160931237615 0 0.19338700514557339 0.015742239871108451 0 0.20963369093729961 0.03941564640516447 0 0.19338700514557339 0.015742239871108451 0 0.1989601287501698 0.040429129743079398 0 0.18048502430789731 0.01998114488410483 0 0.1989601287501698 0.040429129743079398 0 0.18048502430789731 0.01998114488410483 0 0.19338700514557339 0.015742239871108451 0 0.20963369093729961 0.03941564640516447 0 0.20371525389429951 0.01279949030761077 0 0.2082588668535221 0.02245160931237615 0 0.19338700514557339 0.015742239871108451 0 0.19338700514557339 0.015742239871108451 0 0.1998105265397013 0.00335350757378736 0 0.17714031935384769 -0.0079311666629475405 0 0.20371525389429951 0.01279949030761077 0 0.19338700514557339 0.015742239871108451 0 0.1998105265397013 0.00335350757378736 0 0.21450653174737461 0.057635669175196122 0 0.2029561920580818 0.044851916216142339 0 0.21450653174737461 0.057635669175196122 0 0.2029561920580818 0.044851916216142339 0 0.2021088015620611 0.053433964061651712 0 0.21450653174737461 0.057635669175196122 0 0.21456035850380811 0.046594403085467223 0 0.2029561920580818 0.044851916216142339 0 0.2082291800225603 0.066043280120252124 0 0.21450653174737461 0.057635669175196122 0 0.2021088015620611 0.053433964061651712 0 0.2248665156508784 0.061611733455129589 0 0.21450653174737461 0.057635669175196122 0 0.21456035850380811 0.046594403085467223 0 0.2082291800225603 0.066043280120252124 0 0.21450653174737461 0.057635669175196122 0 0.22618438235043381 0.038998837361733103 0 0.21456035850380811 0.046594403085467223 0 0.20963369093729961 0.03941564640516447 0 0.21456035850380811 0.046594403085467223 0 0.20963369093729961 0.03941564640516447 0 0.21456035850380811 0.046594403085467223 0 0.20530753189452691 0.042937648913457381 0 0.2029561920580818 0.044851916216142339 0 0.20963369093729961 0.03941564640516447 0 0.20530753189452691 0.042937648913457381 0 0.1989601287501698 0.040429129743079398 0 0.21456035850380811 0.046594403085467223 0 0.20530753189452691 0.042937648913457381 0 0.21456035850380811 0.046594403085467223 0 0.20963369093729961 0.03941564640516447 0 0.20530753189452691 0.042937648913457381 0 0.20963369093729961 0.03941564640516447 0 0.20530753189452691 0.042937648913457381 0 0.20530753189452691 0.042937648913457381 0 0.2029561920580818 0.044851916216142339 0 0.1989601287501698 0.040429129743079398 0 0.1774654858828027 0.031934360706524292 0 0.2029561920580818 0.044851916216142339 0 0.1989601287501698 0.040429129743079398 0 0.19971656766465989 0.047489351670260083 0 0.1989601287501698 0.040429129743079398 0 0.19133087755196571 0.045131483978966998 0 0.19971656766465989 0.047489351670260083 0 0.2029561920580818 0.044851916216142339 0 0.19971656766465989 0.047489351670260083 0 0.19338700514557339 0.015742239871108451 0 0.20963369093729961 0.03941564640516447 0 0.1989601287501698 0.040429129743079398 0 0.1989601287501698 0.040429129743079398 0 0.19133087755196571 0.045131483978966998 0 0.18298678422305309 0.040980100737508622 0 0.20530753189452691 0.042937648913457381 0 0.2029561920580818 0.044851916216142339 0 0.1989601287501698 0.040429129743079398 0 0.20530753189452691 0.042937648913457381 0 0.1989601287501698 0.040429129743079398 0 0.2029561920580818 0.044851916216142339 0 0.1989601287501698 0.040429129743079398 0 0.2082291800225603 0.066043280120252124 0 0.18513553631762919 0.051149603126408108 0 0.2021088015620611 0.053433964061651712 0 0.19971656766465989 0.047489351670260083 0 0.18513553631762919 0.051149603126408108 0 0.2082291800225603 0.066043280120252124 0 0.2021088015620611 0.053433964061651712 0 0.18513553631762919 0.051149603126408108 0 0.19067723801237901 0.065525043857756982 0 0.2082291800225603 0.066043280120252124 0 0.18513553631762919 0.051149603126408108 0 0.19133087755196571 0.045131483978966998 0 0.19971656766465989 0.047489351670260083 0 0.18513553631762919 0.051149603126408108 0 0.2029561920580818 0.044851916216142339 0 0.2021088015620611 0.053433964061651712 0 0.19971656766465989 0.047489351670260083 0 0.17734631865053521 0.060730067185729229 0 0.18513553631762919 0.051149603126408108 0 0.16725106424272049 0.052894846580172288 0 0.19067723801237901 0.065525043857756982 0 0.17734631865053521 0.060730067185729229 0 0.18513553631762919 0.051149603126408108 0 0.18298678422305309 0.040980100737508622 0 0.1774654858828027 0.031934360706524292 0 0.1620418926126978 0.036255926132564682 0 0.19133087755196571 0.045131483978966998 0 0.18513553631762919 0.051149603126408108 0 0.18298678422305309 0.040980100737508622 0 0.18513553631762919 0.051149603126408108 0 0.18298678422305309 0.040980100737508622 0 0.1620418926126978 0.036255926132564682 0 0.1989601287501698 0.040429129743079398 0 0.18298678422305309 0.040980100737508622 0 0.1774654858828027 0.031934360706524292 0 0.18513553631762919 0.051149603126408108 0 0.1620418926126978 0.036255926132564682 0 0.1620418926126978 0.036255926132564682 0 0.16725106424272049 0.052894846580172288 0 0.15541952745182569 0.04677658384696623 0 0.18513553631762919 0.051149603126408108 0 0.1620418926126978 0.036255926132564682 0 0.16725106424272049 0.052894846580172288 0 0.16725106424272049 0.052894846580172288 0 0.15507694825043991 0.057889849327421902 0 0.15541952745182569 0.04677658384696623 0 0.16725106424272049 0.052894846580172288 0 0.15507694825043991 0.057889849327421902 0 0.1653937448538241 0.067538194789913991 0 0.17734631865053521 0.060730067185729229 0 0.16725106424272049 0.052894846580172288 0 0.1653937448538241 0.067538194789913991 0 0.18048502430789731 0.01998114488410483 0 0.1657030786406338 0.0084270166623369204 0 0.17714031935384769 -0.0079311666629475405 0 0.19338700514557339 0.015742239871108451 0 0.17714031935384769 -0.0079311666629475405 0 0.19338700514557339 0.015742239871108451 0 0.18048502430789731 0.01998114488410483 0 0.17714031935384769 -0.0079311666629475405 0 0.1989601287501698 0.040429129743079398 0 0.1774654858828027 0.031934360706524292 0 0.18048502430789731 0.01998114488410483 0 0.1774654858828027 0.031934360706524292 0 0.18048502430789731 0.01998114488410483 0 0.16935520337559401 0.020657770454092759 0 0.1774654858828027 0.031934360706524292 0 0.15597084301543529 0.02343959166996953 0 0.1774654858828027 0.031934360706524292 0 0.1620418926126978 0.036255926132564682 0 0.15597084301543529 0.02343959166996953 0 0.1774654858828027 0.031934360706524292 0 0.16935520337559401 0.020657770454092759 0 0.15597084301543529 0.02343959166996953 0 0.16935520337559401 0.020657770454092759 0 0.1657030786406338 0.0084270166623369204 0 0.15597084301543529 0.02343959166996953 0 0.18048502430789731 0.01998114488410483 0 0.16935520337559401 0.020657770454092759 0 0.1657030786406338 0.0084270166623369204 0 0.1657030786406338 0.0084270166623369204 0 0.14883794818754281 0.01110572894874149 0 0.15480995508657039 -0.001084596553268768 0 0.1657030786406338 0.0084270166623369204 0 0.14883794818754281 0.01110572894874149 0 0.15597084301543529 0.02343959166996953 0 0.14883794818754281 0.01110572894874149 0 0.13464870039648349 0.00080453217212592717 0 0.15480995508657039 -0.001084596553268768 0 0.14883794818754281 0.01110572894874149 0 0.13894824890776639 0.02136224913872127 0 0.13464870039648349 0.00080453217212592717 0 0.1620418926126978 0.036255926132564682 0 0.13894824890776639 0.02136224913872127 0 0.14883794818754281 0.01110572894874149 0 0.15597084301543529 0.02343959166996953 0 0.13894824890776639 0.02136224913872127 0 0.1620418926126978 0.036255926132564682 0 0.15597084301543529 0.02343959166996953 0 0.13894824890776639 0.02136224913872127 0 0.11961069471150609 0.02296590295220987 0 0.13894824890776639 0.02136224913872127 0 0.12977361784467401 0.039215218793308727 0 0.1158546052028349 0.0064685721448778594 0 0.13894824890776639 0.02136224913872127 0 0.1158546052028349 0.0064685721448778594 0 0.13894824890776639 0.02136224913872127 0 0.13464870039648349 0.00080453217212592717 0 0.14278372382386809 0.048416123664777412 0 0.1428601767931531 0.062084067640591357 0 0.15507694825043991 0.057889849327421902 0 0.14278372382386809 0.048416123664777412 0 0.15507694825043991 0.057889849327421902 0 0.15541952745182569 0.04677658384696623 0 0.1620418926126978 0.036255926132564682 0 0.13894824890776639 0.02136224913872127 0 0.14579340212816641 0.038405220315267663 0 0.1620418926126978 0.036255926132564682 0 0.15541952745182569 0.04677658384696623 0 0.14579340212816641 0.038405220315267663 0 0.14278372382386809 0.048416123664777412 0 0.15541952745182569 0.04677658384696623 0 0.14579340212816641 0.038405220315267663 0 0.14278372382386809 0.048416123664777412 0 0.14579340212816641 0.038405220315267663 0 0.12977361784467401 0.039215218793308727 0 0.13894824890776639 0.02136224913872127 0 0.14579340212816641 0.038405220315267663 0 0.12977361784467401 0.039215218793308727 0 0.11550376979223601 0.054551475820320147 0 0.12977361784467401 0.039215218793308727 0 0.1326943019686847 0.054606112458038862 0 0.11550376979223601 0.054551475820320147 0 0.1326943019686847 0.054606112458038862 0 0.13255022158949201 0.068763676371196639 0 0.14278372382386809 0.048416123664777412 0 0.12977361784467401 0.039215218793308727 0 0.1326943019686847 0.054606112458038862 0 0.14278372382386809 0.048416123664777412 0 0.1428601767931531 0.062084067640591357 0 0.1326943019686847 0.054606112458038862 0 0.1428601767931531 0.062084067640591357 0 0.1326943019686847 0.054606112458038862 0 0.13255022158949201 0.068763676371196639 0 0.1207366242219714 0.074251990558816788 0 0.13255022158949201 0.068763676371196639 0 0.13578085374332971 0.077614708003019631 0 0.13255022158949201 0.068763676371196639 0 0.13578085374332971 0.077614708003019631 0 0.1430759120552613 0.073085192731263071 0 0.1428601767931531 0.062084067640591357 0 0.13255022158949201 0.068763676371196639 0 0.1430759120552613 0.073085192731263071 0 0.1428601767931531 0.062084067640591357 0 0.1430759120552613 0.073085192731263071 0 0.15260580868734391 0.069203578475014266 0 0.1430759120552613 0.073085192731263071 0 0.14969883640752091 0.076610515579137797 0 0.14563192422462459 0.083183778073064013 0 0.13578085374332971 0.077614708003019631 0 0.1430759120552613 0.073085192731263071 0 0.14563192422462459 0.083183778073064013 0 0.1430759120552613 0.073085192731263071 0 0.14969883640752091 0.076610515579137797 0 0.15260580868734391 0.069203578475014266 0 0.14969883640752091 0.076610515579137797 0 0.15260580868734391 0.069203578475014266 0 0.15677919641446331 0.080277826610221981 0 0.1428601767931531 0.062084067640591357 0 0.15507694825043991 0.057889849327421902 0 0.15260580868734391 0.069203578475014266 0 0.1506819444987289 0.088437751930635633 0 0.14868901735932749 0.09586058707093438 0 0.157853861938485 0.092527754269896317 0 0.1506819444987289 0.088437751930635633 0 0.15677919641446331 0.080277826610221981 0 0.157853861938485 0.092527754269896317 0 0.14969883640752091 0.076610515579137797 0 0.14563192422462459 0.083183778073064013 0 0.15677919641446331 0.080277826610221981 0 0.1506819444987289 0.088437751930635633 0 0.14563192422462459 0.083183778073064013 0 0.15677919641446331 0.080277826610221981 0 0.14563192422462459 0.083183778073064013 0 0.1444557225567443 0.090338813629061501 0 0.13888671887288589 0.088270852986767859 0 0.1506819444987289 0.088437751930635633 0 0.14563192422462459 0.083183778073064013 0 0.1444557225567443 0.090338813629061501 0 0.1444557225567443 0.090338813629061501 0 0.14209274384079601 0.094639397504520467 0 0.14868901735932749 0.09586058707093438 0 0.1506819444987289 0.088437751930635633 0 0.1444557225567443 0.090338813629061501 0 0.14868901735932749 0.09586058707093438 0 0.1444557225567443 0.090338813629061501 0 0.13888671887288589 0.088270852986767859 0 0.14209274384079601 0.094639397504520467 0 0.13888671887288589 0.088270852986767859 0 0.13668050292917741 0.098217611464673699 0 0.14209274384079601 0.094639397504520467 0 0.13888671887288589 0.088270852986767859 0 0.1300820653953097 0.084166932106396392 0 0.13668050292917741 0.098217611464673699 0 0.11116449005577619 0.086473750785835857 0 0.1300820653953097 0.084166932106396392 0 0.13668050292917741 0.098217611464673699 0 0.13578085374332971 0.077614708003019631 0 0.13888671887288589 0.088270852986767859 0 0.1300820653953097 0.084166932106396392 0 0.13578085374332971 0.077614708003019631 0 0.14563192422462459 0.083183778073064013 0 0.13888671887288589 0.088270852986767859 0 0.1207366242219714 0.074251990558816788 0 0.13578085374332971 0.077614708003019631 0 0.1300820653953097 0.084166932106396392 0 0.1216961693062274 0.1020981758197984 0 0.1302764983332621 0.10693497851168419 0 0.13668050292917741 0.098217611464673699 0 0.1302764983332621 0.10693497851168419 0 0.13758713408363871 0.1043360441680015 0 0.13668050292917741 0.098217611464673699 0 0.1302764983332621 0.10693497851168419 0 0.1360833458267342 0.1084620534226548 0 0.13758713408363871 0.1043360441680015 0 0.1360833458267342 0.1084620534226548 0 0.13758713408363871 0.1043360441680015 0 0.14314356584317489 0.10755645506983 0 0.13758713408363871 0.1043360441680015 0 0.13668050292917741 0.098217611464673699 0 0.14175175748584509 0.1005091223711649 0 0.13668050292917741 0.098217611464673699 0 0.14209274384079601 0.094639397504520467 0 0.14175175748584509 0.1005091223711649 0 0.12813823657366311 0.12049833089676459 0 0.13246275659848361 0.1130811342378658 0 0.13708322035591489 0.118794437000363 0 0.12212988809696081 0.1249307776834532 0 0.12788127083107459 0.1291064789800366 0 0.12813823657366311 0.12049833089676459 0 0.1197878353292403 0.1092484053650479 0 0.1302764983332621 0.10693497851168419 0 0.12624189261331301 0.1140678077034443 0 0.12813823657366311 0.12049833089676459 0 0.12624189261331301 0.1140678077034443 0 0.13246275659848361 0.1130811342378658 0 0.1302764983332621 0.10693497851168419 0 0.12624189261331301 0.1140678077034443 0 0.13246275659848361 0.1130811342378658 0 0.138866780176991 0.11235807520418389 0 0.13708322035591489 0.118794437000363 0 0.14572099158606311 0.1154247658161887 0 0.1360833458267342 0.1084620534226548 0 0.13246275659848361 0.1130811342378658 0 0.138866780176991 0.11235807520418389 0 0.1302764983332621 0.10693497851168419 0 0.1360833458267342 0.1084620534226548 0 0.13246275659848361 0.1130811342378658 0 0.1360833458267342 0.1084620534226548 0 0.138866780176991 0.11235807520418389 0 0.14314356584317489 0.10755645506983 0 0.13246275659848361 0.1130811342378658 0 0.138866780176991 0.11235807520418389 0 0.13708322035591489 0.118794437000363 0 0.13409394305489639 0.1257339851238449 0 0.14295710802469111 0.12768772724150559 0 0.13708322035591489 0.118794437000363 0 0.13409394305489639 0.1257339851238449 0 0.12813823657366311 0.12049833089676459 0 0.13708322035591489 0.118794437000363 0 0.14572099158606311 0.1154247658161887 0 0.15364605026385231 0.1227496740475859 0 0.15839207309433961 0.10550736800805539 0 0.14295710802469111 0.12768772724150559 0 0.13708322035591489 0.118794437000363 0 0.14572099158606311 0.1154247658161887 0 0.14295710802469111 0.12768772724150559 0 0.14572099158606311 0.1154247658161887 0 0.15364605026385231 0.1227496740475859 0 0.138866780176991 0.11235807520418389 0 0.14572099158606311 0.1154247658161887 0 0.14314356584317489 0.10755645506983 0 0.14572099158606311 0.1154247658161887 0 0.14314356584317489 0.10755645506983 0 0.15839207309433961 0.10550736800805539 0 0.14175175748584509 0.1005091223711649 0 0.15839207309433961 0.10550736800805539 0 0.14175175748584509 0.1005091223711649 0 0.14314356584317489 0.10755645506983 0 0.15839207309433961 0.10550736800805539 0 0.14175175748584509 0.1005091223711649 0 0.14868901735932749 0.09586058707093438 0 0.15839207309433961 0.10550736800805539 0 0.14209274384079601 0.094639397504520467 0 0.14175175748584509 0.1005091223711649 0 0.14868901735932749 0.09586058707093438 0 0.13758713408363871 0.1043360441680015 0 0.14175175748584509 0.1005091223711649 0 0.14314356584317489 0.10755645506983 0 0.14868901735932749 0.09586058707093438 0 0.15839207309433961 0.10550736800805539 0 0.157853861938485 0.092527754269896317 0 0.15839207309433961 0.10550736800805539 0 0.17503238870283441 0.11050561364494491 0 0.15839207309433961 0.10550736800805539 0 0.1705578526620479 0.095927182961129481 0 0.157853861938485 0.092527754269896317 0 0.15839207309433961 0.10550736800805539 0 0.1705578526620479 0.095927182961129481 0 0.17503238870283441 0.11050561364494491 0 0.16417220099380411 0.12505127510387981 0 0.15839207309433961 0.10550736800805539 0 0.17503238870283441 0.11050561364494491 0 0.16417220099380411 0.12505127510387981 0 0.15364605026385231 0.1227496740475859 0 0.15839207309433961 0.10550736800805539 0 0.16417220099380411 0.12505127510387981 0 0.17503238870283441 0.11050561364494491 0 0.18002451345814399 0.12716596121819479 0 0.16417220099380411 0.12505127510387981 0 0.17503238870283441 0.11050561364494491 0 0.18002451345814399 0.12716596121819479 0 0.2001236667938262 0.1180422718546187 0 0.17503238870283441 0.11050561364494491 0 0.1916307843626972 0.08827444688259839 0 0.1705578526620479 0.095927182961129481 0 0.17503238870283441 0.11050561364494491 0 0.1916307843626972 0.08827444688259839 0 0.17503238870283441 0.11050561364494491 0 0.1916307843626972 0.08827444688259839 0 0.17935943521264269 0.07135827912697662 0 0.16988015521188329 0.08282073200015258 0 0.1916307843626972 0.08827444688259839 0 0.1705578526620479 0.095927182961129481 0 0.16988015521188329 0.08282073200015258 0 0.19067723801237901 0.065525043857756982 0 0.1916307843626972 0.08827444688259839 0 0.17935943521264269 0.07135827912697662 0 0.19067723801237901 0.065525043857756982 0 0.17734631865053521 0.060730067185729229 0 0.17935943521264269 0.07135827912697662 0 0.17734631865053521 0.060730067185729229 0 0.17935943521264269 0.07135827912697662 0 0.1653937448538241 0.067538194789913991 0 0.17935943521264269 0.07135827912697662 0 0.1653937448538241 0.067538194789913991 0 0.16988015521188329 0.08282073200015258 0 0.15507694825043991 0.057889849327421902 0 0.15260580868734391 0.069203578475014266 0 0.1653937448538241 0.067538194789913991 0 0.15260580868734391 0.069203578475014266 0 0.1653937448538241 0.067538194789913991 0 0.15677919641446331 0.080277826610221981 0 0.1653937448538241 0.067538194789913991 0 0.15677919641446331 0.080277826610221981 0 0.16988015521188329 0.08282073200015258 0 0.15677919641446331 0.080277826610221981 0 0.157853861938485 0.092527754269896317 0 0.16988015521188329 0.08282073200015258 0 0.1705578526620479 0.095927182961129481 0 0.157853861938485 0.092527754269896317 0 0.16988015521188329 0.08282073200015258 0 0.099456207782380623 0.4822659283708195 0 0.1141892196830592 0.48396198267476093 0 0.11304725129434449 0.46767028325629811 0 0.099456207782380623 0.4822659283708195 0 0.11304725129434449 0.46767028325629811 0 0.096803680563272876 0.46646214520586099 0 0.099456207782380623 0.4822659283708195 0 0.10782601469385079 0.5 0 0.078267650747156567 0.50000000000000133 0 0.099456207782380623 0.4822659283708195 0 0.10782601469385079 0.5 0 0.1141892196830592 0.48396198267476093 0 0.10782601469385079 0.5 0 0.1249193769550877 0.49369376296818718 0 0.1141892196830592 0.48396198267476093 0 0.1249193769550877 0.49369376296818718 0 0.1141892196830592 0.48396198267476093 0 0.12569724768963239 0.47617993877849962 0 0.10782601469385079 0.5 0 0.1249193769550877 0.49369376296818718 0 0.13738437864054501 0.5 0 0.1141892196830592 0.48396198267476093 0 0.11304725129434449 0.46767028325629811 0 0.12569724768963239 0.47617993877849962 0 0.11304725129434449 0.46767028325629811 0 0.1267882431275838 0.46370707134437261 0 0.12569724768963239 0.47617993877849962 0 0.11304725129434449 0.46767028325629811 0 0.1221607865463437 0.4507156547582637 0 0.1004821270038239 0.44949914822431608 0 0.11304725129434449 0.46767028325629811 0 0.1221607865463437 0.4507156547582637 0 0.1267882431275838 0.46370707134437261 0 0.1221607865463437 0.4507156547582637 0 0.1004821270038239 0.44949914822431608 0 0.12259086230274099 0.42947812748907283 0 0.1004821270038239 0.44949914822431608 0 0.096803680563272876 0.46646214520586099 0 0.084307548883437972 0.45862843933572522 0 0.11304725129434449 0.46767028325629811 0 0.1004821270038239 0.44949914822431608 0 0.096803680563272876 0.46646214520586099 0 0.084307548883437972 0.45862843933572522 0 0.070120974899159305 0.46867166915081548 0 0.08254081050968877 0.47642281665818748 0 0.096803680563272876 0.46646214520586099 0 0.084307548883437972 0.45862843933572522 0 0.08254081050968877 0.47642281665818748 0 0.084307548883437972 0.45862843933572522 0 0.083205653112744402 0.44008551456546158 0 0.070599818540594342 0.45171728711773013 0 0.1004821270038239 0.44949914822431608 0 0.084307548883437972 0.45862843933572522 0 0.083205653112744402 0.44008551456546158 0 0.1004821270038239 0.44949914822431608 0 0.083205653112744402 0.44008551456546158 0 0.095892719888732866 0.42453745382262881 0 0.070599818540594342 0.45171728711773013 0 0.057347956450285731 0.44480695268810438 0 0.068330088192809502 0.43602814955066621 0 0.083205653112744402 0.44008551456546158 0 0.070599818540594342 0.45171728711773013 0 0.068330088192809502 0.43602814955066621 0 0.070599818540594342 0.45171728711773013 0 0.070120974899159305 0.46867166915081548 0 0.05832870883015126 0.45973880463956351 0 0.084307548883437972 0.45862843933572522 0 0.070599818540594342 0.45171728711773013 0 0.070120974899159305 0.46867166915081548 0 0.070120974899159305 0.46867166915081548 0 0.08254081050968877 0.47642281665818748 0 0.061557047466102868 0.48310025102256282 0 0.070120974899159305 0.46867166915081548 0 0.061557047466102868 0.48310025102256282 0 0.05832870883015126 0.45973880463956351 0 0.099456207782380623 0.4822659283708195 0 0.096803680563272876 0.46646214520586099 0 0.08254081050968877 0.47642281665818748 0 0.099456207782380623 0.4822659283708195 0 0.08254081050968877 0.47642281665818748 0 0.078267650747156567 0.50000000000000133 0 0.078267650747156567 0.50000000000000133 0 0.049166882519808157 0.5 0 0.061557047466102868 0.48310025102256282 0 0.08254081050968877 0.47642281665818748 0 0.078267650747156567 0.50000000000000133 0 0.061557047466102868 0.48310025102256282 0 0.078267650747156567 0.50000000000000133 0 0.061557047466102868 0.48310025102256282 0 0.049166882519808157 0.5 0 0.061557047466102868 0.48310025102256282 0 0.038208171894904559 0.48286056860770488 0 0.061557047466102868 0.48310025102256282 0 0.044846444185049857 0.46620050204512359 0 0.05832870883015126 0.45973880463956351 0 0.061557047466102868 0.48310025102256282 0 0.044846444185049857 0.46620050204512359 0 0.061557047466102868 0.48310025102256282 0 0.038208171894904559 0.48286056860770488 0 0.044846444185049857 0.46620050204512359 0 0.038208171894904559 0.48286056860770488 0 0.029572045059576241 0.469060477695939 0 0.044846444185049857 0.46620050204512359 0 0.049166882519808157 0.5 0 0.038208171894904559 0.48286056860770488 0 0.020066114292459799 0.5 0 0.038208171894904559 0.48286056860770488 0 0.020066114292459799 0.5 0 0.021055159894441029 0.48095839664786189 0 0.038208171894904559 0.48286056860770488 0 0.029572045059576241 0.469060477695939 0 0.021055159894441029 0.48095839664786189 0 0.029572045059576241 0.469060477695939 0 0.021055159894441029 0.48095839664786189 0 0.01561460841948897 0.46598216811131982 0 0.021055159894441029 0.48095839664786189 0 0.0030933759349822849 0.48266358315495572 0 0.01561460841948897 0.46598216811131982 0 0.0030933759349822849 0.48266358315495572 0 0.01561460841948897 0.46598216811131982 0 0.0036787250480955699 0.47408322248379448 0 0.0030933759349822849 0.48266358315495572 0 0.01561460841948897 0.46598216811131982 0 -0.0016340076521478781 0.48633642657919801 0 0.0036787250480955699 0.47408322248379448 0 0.0030933759349822849 0.48266358315495572 0 0.020066114292459799 0.5 0 0.021055159894441029 0.48095839664786189 0 0.0030933759349822849 0.48266358315495572 0 -0.0090346539348886701 0.5 0 -0.0016340076521478781 0.48633642657919801 0 0.020066114292459799 0.5 0 -0.0016340076521478781 0.48633642657919801 0 0.020066114292459799 0.5 0 0.0030933759349822849 0.48266358315495572 0 -0.0030841453677343121 0.43636499760021141 0 -0.002359076509941094 0.46135071208970457 0 0.010470448459028871 0.45111158928184719 0 -0.0030841453677343121 0.43636499760021141 0 0.010470448459028871 0.45111158928184719 0 0.017893296784651399 0.43894227458572882 0 -0.002359076509941094 0.46135071208970457 0 0.010470448459028871 0.45111158928184719 0 0.01561460841948897 0.46598216811131982 0 -0.002359076509941094 0.46135071208970457 0 0.0036787250480955699 0.47408322248379448 0 0.01561460841948897 0.46598216811131982 0 0.010470448459028871 0.45111158928184719 0 0.01561460841948897 0.46598216811131982 0 0.0281358409039968 0.44930075306768458 0 0.029572045059576241 0.469060477695939 0 0.01561460841948897 0.46598216811131982 0 0.0281358409039968 0.44930075306768458 0 0.01561460841948897 0.46598216811131982 0 0.0281358409039968 0.44930075306768458 0 0.010470448459028871 0.45111158928184719 0 0.0281358409039968 0.44930075306768458 0 0.017893296784651399 0.43894227458572882 0 0.0281358409039968 0.44930075306768458 0 0.017893296784651399 0.43894227458572882 0 0.03800042812263172 0.43615865433005307 0 0.0281358409039968 0.44930075306768458 0 0.017893296784651399 0.43894227458572882 0 0.0281358409039968 0.44930075306768458 0 0.04587361322417214 0.448769157871174 0 0.03800042812263172 0.43615865433005307 0 0.0281358409039968 0.44930075306768458 0 0.03800042812263172 0.43615865433005307 0 0.04587361322417214 0.448769157871174 0 0.049411209704934803 0.43621283219101809 0 0.03800042812263172 0.43615865433005307 0 0.029572045059576241 0.469060477695939 0 0.0281358409039968 0.44930075306768458 0 0.044846444185049857 0.46620050204512359 0 0.0281358409039968 0.44930075306768458 0 0.04587361322417214 0.448769157871174 0 0.044846444185049857 0.46620050204512359 0 0.0281358409039968 0.44930075306768458 0 0.044846444185049857 0.46620050204512359 0 0.04587361322417214 0.448769157871174 0 0.044846444185049857 0.46620050204512359 0 0.05832870883015126 0.45973880463956351 0 0.04587361322417214 0.448769157871174 0 0.057347956450285731 0.44480695268810438 0 0.049411209704934803 0.43621283219101809 0 0.04587361322417214 0.448769157871174 0 0.05832870883015126 0.45973880463956351 0 0.057347956450285731 0.44480695268810438 0 0.070599818540594342 0.45171728711773013 0 0.05832870883015126 0.45973880463956351 0 0.057347956450285731 0.44480695268810438 0 0.057347956450285731 0.44480695268810438 0 0.058238482531349368 0.43512174465279091 0 0.068330088192809502 0.43602814955066621 0 0.057347956450285731 0.44480695268810438 0 0.058238482531349368 0.43512174465279091 0 0.049411209704934803 0.43621283219101809 0 0.058238482531349368 0.43512174465279091 0 0.05412352915042095 0.42739076434297479 0 0.063786863135573219 0.4234822836218442 0 0.05412352915042095 0.42739076434297479 0 0.047865015341267358 0.42301655559242213 0 0.049411209704934803 0.43621283219101809 0 0.05412352915042095 0.42739076434297479 0 0.047865015341267358 0.42301655559242213 0 0.058238482531349368 0.43512174465279091 0 0.05412352915042095 0.42739076434297479 0 0.049411209704934803 0.43621283219101809 0 0.047865015341267358 0.42301655559242213 0 0.055388731832649349 0.41299308245440008 0 0.044385004541519633 0.40583709082877739 0 0.055388731832649349 0.41299308245440008 0 0.057103340742871267 0.4006394318358022 0 0.0691327228978319 0.40699071288372829 0 0.05412352915042095 0.42739076434297479 0 0.055388731832649349 0.41299308245440008 0 0.063786863135573219 0.4234822836218442 0 0.047865015341267358 0.42301655559242213 0 0.055388731832649349 0.41299308245440008 0 0.05412352915042095 0.42739076434297479 0 0.047865015341267358 0.42301655559242213 0 0.055388731832649349 0.41299308245440008 0 0.055388731832649349 0.41299308245440008 0 0.044385004541519633 0.40583709082877739 0 0.057103340742871267 0.4006394318358022 0 0.047865015341267358 0.42301655559242213 0 0.030398582533070099 0.41080889326869052 0 0.044385004541519633 0.40583709082877739 0 0.047865015341267358 0.42301655559242213 0 0.035686717363660143 0.42423985257235269 0 0.030398582533070099 0.41080889326869052 0 0.047865015341267358 0.42301655559242213 0 0.030398582533070099 0.41080889326869052 0 0.047865015341267358 0.42301655559242213 0 0.049411209704934803 0.43621283219101809 0 0.03800042812263172 0.43615865433005307 0 0.047865015341267358 0.42301655559242213 0 0.03800042812263172 0.43615865433005307 0 0.047865015341267358 0.42301655559242213 0 0.035686717363660143 0.42423985257235269 0 0.03800042812263172 0.43615865433005307 0 0.035686717363660143 0.42423985257235269 0 0.03800042812263172 0.43615865433005307 0 0.0264828434576714 0.42697530709824522 0 0.017893296784651399 0.43894227458572882 0 0.0264828434576714 0.42697530709824522 0 0.013451351612083251 0.42022136891186163 0 0.017893296784651399 0.43894227458572882 0 0.03800042812263172 0.43615865433005307 0 0.0264828434576714 0.42697530709824522 0 0.030398582533070099 0.41080889326869052 0 0.013451351612083251 0.42022136891186163 0 0.012932149724872831 0.39860123094495892 0 0.0264828434576714 0.42697530709824522 0 0.030398582533070099 0.41080889326869052 0 0.013451351612083251 0.42022136891186163 0 0.035686717363660143 0.42423985257235269 0 0.0264828434576714 0.42697530709824522 0 0.030398582533070099 0.41080889326869052 0 -0.0038092142255275289 0.41137928311071797 0 0.013451351612083251 0.42022136891186163 0 0.012932149724872831 0.39860123094495892 0 -0.0030841453677343121 0.43636499760021141 0 0.017893296784651399 0.43894227458572882 0 0.013451351612083251 0.42022136891186163 0 -0.0030841453677343121 0.43636499760021141 0 -0.0038092142255275289 0.41137928311071797 0 0.013451351612083251 0.42022136891186163 0 -0.0045342830833226501 0.3863935686212247 0 0.012932149724872831 0.39860123094495892 0 0.0079023355216259559 0.37348921158265391 0 0.012932149724872831 0.39860123094495892 0 0.025375843575522711 0.38021681034322929 0 0.0079023355216259559 0.37348921158265391 0 -0.0045342830833226501 0.3863935686212247 0 0.012932149724872831 0.39860123094495892 0 -0.0045342830833226501 0.3863935686212247 0 -0.0038092142255275289 0.41137928311071797 0 0.012932149724872831 0.39860123094495892 0 0.030398582533070099 0.41080889326869052 0 0.012932149724872831 0.39860123094495892 0 0.030398582533070099 0.41080889326869052 0 0.012932149724872831 0.39860123094495892 0 0.030218872497922818 0.39559608178221078 0 0.012932149724872831 0.39860123094495892 0 0.030218872497922818 0.39559608178221078 0 0.025375843575522711 0.38021681034322929 0 0.025375843575522711 0.38021681034322929 0 0.045236422390978262 0.39339421550307069 0 0.045418656597819553 0.37354288132317159 0 0.030218872497922818 0.39559608178221078 0 0.025375843575522711 0.38021681034322929 0 0.045236422390978262 0.39339421550307069 0 0.030398582533070099 0.41080889326869052 0 0.030218872497922818 0.39559608178221078 0 0.044385004541519633 0.40583709082877739 0 0.030218872497922818 0.39559608178221078 0 0.045236422390978262 0.39339421550307069 0 0.044385004541519633 0.40583709082877739 0 0.045236422390978262 0.39339421550307069 0 0.057103340742871267 0.4006394318358022 0 0.06607043693335328 0.38973814947632979 0 0.045236422390978262 0.39339421550307069 0 0.044385004541519633 0.40583709082877739 0 0.057103340742871267 0.4006394318358022 0 0.045236422390978262 0.39339421550307069 0 0.06607043693335328 0.38973814947632979 0 0.045418656597819553 0.37354288132317159 0 0.06607043693335328 0.38973814947632979 0 0.066778362586220691 0.36264744131756171 0 0.045418656597819553 0.37354288132317159 0 0.06607043693335328 0.38973814947632979 0 0.086713905658550791 0.37461406501925459 0 0.066778362586220691 0.36264744131756171 0 0.091303312773641829 0.3995757594209417 0 0.1025776524751303 0.38486691706586951 0 0.086713905658550791 0.37461406501925459 0 0.06607043693335328 0.38973814947632979 0 0.091303312773641829 0.3995757594209417 0 0.086713905658550791 0.37461406501925459 0 0.091303312773641829 0.3995757594209417 0 0.086713905658550791 0.37461406501925459 0 0.06607043693335328 0.38973814947632979 0 0.091303312773641829 0.3995757594209417 0 0.0691327228978319 0.40699071288372829 0 0.057103340742871267 0.4006394318358022 0 0.06607043693335328 0.38973814947632979 0 0.0691327228978319 0.40699071288372829 0 0.055388731832649349 0.41299308245440008 0 0.0691327228978319 0.40699071288372829 0 0.063786863135573219 0.4234822836218442 0 0.0691327228978319 0.40699071288372829 0 0.077714875811277062 0.4214876261871765 0 0.063786863135573219 0.4234822836218442 0 0.083205653112744402 0.44008551456546158 0 0.077714875811277062 0.4214876261871765 0 0.068330088192809502 0.43602814955066621 0 0.058238482531349368 0.43512174465279091 0 0.068330088192809502 0.43602814955066621 0 0.063786863135573219 0.4234822836218442 0 0.077714875811277062 0.4214876261871765 0 0.068330088192809502 0.43602814955066621 0 0.063786863135573219 0.4234822836218442 0 0.083205653112744402 0.44008551456546158 0 0.077714875811277062 0.4214876261871765 0 0.095892719888732866 0.42453745382262881 0 0.091303312773641829 0.3995757594209417 0 0.0691327228978319 0.40699071288372829 0 0.077714875811277062 0.4214876261871765 0 0.091303312773641829 0.3995757594209417 0 0.095892719888732866 0.42453745382262881 0 0.091303312773641829 0.3995757594209417 0 0.077714875811277062 0.4214876261871765 0 0.095892719888732866 0.42453745382262881 0 0.091303312773641829 0.3995757594209417 0 0.095892719888732866 0.42453745382262881 0 0.115428724103706 0.40267530492779557 0 0.1004821270038239 0.44949914822431608 0 0.095892719888732866 0.42453745382262881 0 0.12259086230274099 0.42947812748907283 0 0.1004821270038239 0.44949914822431608 0 0.095892719888732866 0.42453745382262881 0 0.095892719888732866 0.42453745382262881 0 0.12259086230274099 0.42947812748907283 0 0.115428724103706 0.40267530492779557 0 0.115428724103706 0.40267530492779557 0 0.119448870245615 0.38256434187866972 0 0.13692284990477191 0.38930777957628943 0 0.119448870245615 0.38256434187866972 0 0.1025776524751303 0.38486691706586951 0 0.1087205780393706 0.3656269003386084 0 0.115428724103706 0.40267530492779557 0 0.119448870245615 0.38256434187866972 0 0.1025776524751303 0.38486691706586951 0 0.1025776524751303 0.38486691706586951 0 0.1087205780393706 0.3656269003386084 0 0.086713905658550791 0.37461406501925459 0 0.091303312773641829 0.3995757594209417 0 0.115428724103706 0.40267530492779557 0 0.1025776524751303 0.38486691706586951 0 0.1087205780393706 0.3656269003386084 0 0.1202868522871179 0.34060046584014031 0 0.0915497208986496 0.34709204532757532 0 0.1087205780393706 0.3656269003386084 0 0.0915497208986496 0.34709204532757532 0 0.086713905658550791 0.37461406501925459 0 0.119448870245615 0.38256434187866972 0 0.1087205780393706 0.3656269003386084 0 0.13274728415341139 0.36410634055334368 0 0.1087205780393706 0.3656269003386084 0 0.1202868522871179 0.34060046584014031 0 0.13274728415341139 0.36410634055334368 0 0.1202868522871179 0.34060046584014031 0 0.1104734498024164 0.31171603628350752 0 0.14183880654046921 0.32250528078568202 0 0.1202868522871179 0.34060046584014031 0 0.1016552612267161 0.33013161519950079 0 0.1104734498024164 0.31171603628350752 0 0.1016552612267161 0.33013161519950079 0 0.081254576285268804 0.3210829637434266 0 0.1104734498024164 0.31171603628350752 0 0.1202868522871179 0.34060046584014031 0 0.1016552612267161 0.33013161519950079 0 0.0915497208986496 0.34709204532757532 0 0.081254576285268804 0.3210829637434266 0 0.072654821413094289 0.33942743407960763 0 0.0915497208986496 0.34709204532757532 0 0.1016552612267161 0.33013161519950079 0 0.081254576285268804 0.3210829637434266 0 0.0915497208986496 0.34709204532757532 0 0.081254576285268804 0.3210829637434266 0 0.06358813508901956 0.32234581427363851 0 0.071244474661197085 0.3036312559279935 0 0.081254576285268804 0.3210829637434266 0 0.06358813508901956 0.32234581427363851 0 0.072654821413094289 0.33942743407960763 0 0.06358813508901956 0.32234581427363851 0 0.072654821413094289 0.33942743407960763 0 0.055199983679349987 0.34246375673151652 0 0.072654821413094289 0.33942743407960763 0 0.066778362586220691 0.36264744131756171 0 0.055199983679349987 0.34246375673151652 0 0.072654821413094289 0.33942743407960763 0 0.0915497208986496 0.34709204532757532 0 0.066778362586220691 0.36264744131756171 0 0.0915497208986496 0.34709204532757532 0 0.086713905658550791 0.37461406501925459 0 0.066778362586220691 0.36264744131756171 0 0.066778362586220691 0.36264744131756171 0 0.044951457965310811 0.3555124197003488 0 0.045418656597819553 0.37354288132317159 0 0.066778362586220691 0.36264744131756171 0 0.044951457965310811 0.3555124197003488 0 0.055199983679349987 0.34246375673151652 0 0.044951457965310811 0.3555124197003488 0 0.021903196078839001 0.35746348141110651 0 0.035457090884324839 0.34144453771838768 0 0.044951457965310811 0.3555124197003488 0 0.035457090884324839 0.34144453771838768 0 0.055199983679349987 0.34246375673151652 0 0.044951457965310811 0.3555124197003488 0 0.045418656597819553 0.37354288132317159 0 0.021903196078839001 0.35746348141110651 0 0.025375843575522711 0.38021681034322929 0 0.021903196078839001 0.35746348141110651 0 0.0079023355216259559 0.37348921158265391 0 0.025375843575522711 0.38021681034322929 0 0.045418656597819553 0.37354288132317159 0 0.021903196078839001 0.35746348141110651 0 0.021903196078839001 0.35746348141110651 0 0.017151683724365509 0.3376665205351736 0 0.035457090884324839 0.34144453771838768 0 0.021903196078839001 0.35746348141110651 0 0.0095650341834115256 0.34490192427506011 0 0.017151683724365509 0.3376665205351736 0 0.021903196078839001 0.35746348141110651 0 0.0095650341834115256 0.34490192427506011 0 0.0061318462344260851 0.35417601161121459 0 -0.0050552824635438226 0.34569829691311771 0 0.0095650341834115256 0.34490192427506011 0 0.0061318462344260851 0.35417601161121459 0 0.021903196078839001 0.35746348141110651 0 0.0061318462344260851 0.35417601161121459 0 0.0079023355216259559 0.37348921158265391 0 -0.0052616759920083916 0.36132776784546622 0 0.0061318462344260851 0.35417601161121459 0 0.0079023355216259559 0.37348921158265391 0 0.0087281755863181168 0.33049580891976171 0 0.020410497070949891 0.30832150289807031 0 0.0056044744337335906 0.31412092038659428 0 0.0087281755863181168 0.33049580891976171 0 0.020410497070949891 0.30832150289807031 0 -0.003280447873963227 0.32161399115684158 0 0.0056044744337335906 0.31412092038659428 0 0.0087281755863181168 0.33049580891976171 0 0.0064742168078369342 0.3347740657525386 0 0.0087281755863181168 0.33049580891976171 0 -0.0050552824635438226 0.34569829691311771 0 0.0095650341834115256 0.34490192427506011 0 0.0064742168078369342 0.3347740657525386 0 0.0095650341834115256 0.34490192427506011 0 0.0064742168078369342 0.3347740657525386 0 0.017151683724365509 0.3376665205351736 0 0.0064742168078369342 0.3347740657525386 0 0.0087281755863181168 0.33049580891976171 0 0.017151683724365509 0.3376665205351736 0 0.0087281755863181168 0.33049580891976171 0 0.025353163704189718 0.33024288796319817 0 0.017151683724365509 0.3376665205351736 0 0.0087281755863181168 0.33049580891976171 0 0.025353163704189718 0.33024288796319817 0 0.025353163704189718 0.33024288796319817 0 0.017151683724365509 0.3376665205351736 0 0.035457090884324839 0.34144453771838768 0 0.0087281755863181168 0.33049580891976171 0 0.025353163704189718 0.33024288796319817 0 0.020410497070949891 0.30832150289807031 0 0.025353163704189718 0.33024288796319817 0 0.038017806832533571 0.30672300381527179 0 0.020410497070949891 0.30832150289807031 0 0.025353163704189718 0.33024288796319817 0 0.045812945845809312 0.32351293560108041 0 0.038017806832533571 0.30672300381527179 0 0.025353163704189718 0.33024288796319817 0 0.045812945845809312 0.32351293560108041 0 0.035457090884324839 0.34144453771838768 0 0.045812945845809312 0.32351293560108041 0 0.035457090884324839 0.34144453771838768 0 0.055199983679349987 0.34246375673151652 0 0.06358813508901956 0.32234581427363851 0 0.045812945845809312 0.32351293560108041 0 0.055199983679349987 0.34246375673151652 0 0.06358813508901956 0.32234581427363851 0 0.045812945845809312 0.32351293560108041 0 0.055148108477292443 0.3057593846019967 0 0.055148108477292443 0.3057593846019967 0 0.047586914097201803 0.29032131063477928 0 0.038017806832533571 0.30672300381527179 0 0.055148108477292443 0.3057593846019967 0 0.047586914097201803 0.29032131063477928 0 0.066935962560195753 0.28615893812798288 0 0.047586914097201803 0.29032131063477928 0 0.050578246113349837 0.27455429857722041 0 0.066935962560195753 0.28615893812798288 0 0.047586914097201803 0.29032131063477928 0 0.032092818555581597 0.28614719687637868 0 0.038017806832533571 0.30672300381527179 0 0.047586914097201803 0.29032131063477928 0 0.032092818555581597 0.28614719687637868 0 0.050578246113349837 0.27455429857722041 0 0.045812945845809312 0.32351293560108041 0 0.055148108477292443 0.3057593846019967 0 0.038017806832533571 0.30672300381527179 0 0.032092818555581597 0.28614719687637868 0 0.038017806832533571 0.30672300381527179 0 0.020410497070949891 0.30832150289807031 0 0.032092818555581597 0.28614719687637868 0 0.020410497070949891 0.30832150289807031 0 0.032092818555581597 0.28614719687637868 0 0.020410497070949891 0.30832150289807031 0 0.0083336089875100904 0.29343585490586271 0 0.032092818555581597 0.28614719687637868 0 0.0083336089875100904 0.29343585490586271 0 0.021382191810826279 0.2686960609189637 0 -0.0088759444352828343 0.31092800175718183 0 0.0056044744337335906 0.31412092038659428 0 0.0083336089875100904 0.29343585490586271 0 0.0056044744337335906 0.31412092038659428 0 0.020410497070949891 0.30832150289807031 0 0.0083336089875100904 0.29343585490586271 0 0.0073806355134042019 0.25529449578482938 0 3.3590645499582607e-05 0.27236849017123349 0 0.021382191810826279 0.2686960609189637 0 0.0083336089875100904 0.29343585490586271 0 3.3590645499582607e-05 0.27236849017123349 0 0.021382191810826279 0.2686960609189637 0 0.025149977659741599 0.24684982625080901 0 0.0073806355134042019 0.25529449578482938 0 0.021382191810826279 0.2686960609189637 0 0.025149977659741599 0.24684982625080901 0 0.021382191810826279 0.2686960609189637 0 0.043775140040213267 0.26397289085468728 0 0.025149977659741599 0.24684982625080901 0 0.045472231705318063 0.24424317023843681 0 0.050158093690384618 0.2598810672441918 0 0.025149977659741599 0.24684982625080901 0 0.050158093690384618 0.2598810672441918 0 0.025149977659741599 0.24684982625080901 0 0.043775140040213267 0.26397289085468728 0 0.050158093690384618 0.2598810672441918 0 0.032092818555581597 0.28614719687637868 0 0.043775140040213267 0.26397289085468728 0 0.032092818555581597 0.28614719687637868 0 0.021382191810826279 0.2686960609189637 0 0.043775140040213267 0.26397289085468728 0 0.032092818555581597 0.28614719687637868 0 0.043775140040213267 0.26397289085468728 0 0.050578246113349837 0.27455429857722041 0 0.050578246113349837 0.27455429857722041 0 0.063875668081316214 0.2678607518654692 0 0.066935962560195753 0.28615893812798288 0 0.043775140040213267 0.26397289085468728 0 0.050578246113349837 0.27455429857722041 0 0.050158093690384618 0.2598810672441918 0 0.050578246113349837 0.27455429857722041 0 0.056046126259945157 0.25263236173372139 0 0.063875668081316214 0.2678607518654692 0 0.050578246113349837 0.27455429857722041 0 0.050158093690384618 0.2598810672441918 0 0.056046126259945157 0.25263236173372139 0 0.045472231705318063 0.24424317023843681 0 0.050158093690384618 0.2598810672441918 0 0.056046126259945157 0.25263236173372139 0 0.050578246113349837 0.27455429857722041 0 0.056046126259945157 0.25263236173372139 0 0.078525547080241467 0.2465942846531784 0 0.067905867336300579 0.25358800162702 0 0.079567988853459573 0.27014218499250892 0 0.067905867336300579 0.25358800162702 0 0.079567988853459573 0.27014218499250892 0 0.063875668081316214 0.2678607518654692 0 0.056046126259945157 0.25263236173372139 0 0.067905867336300579 0.25358800162702 0 0.063875668081316214 0.2678607518654692 0 0.078525547080241467 0.2465942846531784 0 0.079567988853459573 0.27014218499250892 0 0.093798877441032588 0.2579700649065903 0 0.079567988853459573 0.27014218499250892 0 0.063875668081316214 0.2678607518654692 0 0.066935962560195753 0.28615893812798288 0 0.079567988853459573 0.27014218499250892 0 0.066935962560195753 0.28615893812798288 0 0.087430381393448858 0.29852998767476718 0 0.066935962560195753 0.28615893812798288 0 0.071244474661197085 0.3036312559279935 0 0.087430381393448858 0.29852998767476718 0 0.055148108477292443 0.3057593846019967 0 0.066935962560195753 0.28615893812798288 0 0.071244474661197085 0.3036312559279935 0 0.06358813508901956 0.32234581427363851 0 0.055148108477292443 0.3057593846019967 0 0.071244474661197085 0.3036312559279935 0 0.081254576285268804 0.3210829637434266 0 0.087430381393448858 0.29852998767476718 0 0.1104734498024164 0.31171603628350752 0 0.081254576285268804 0.3210829637434266 0 0.071244474661197085 0.3036312559279935 0 0.087430381393448858 0.29852998767476718 0 0.079567988853459573 0.27014218499250892 0 0.087430381393448858 0.29852998767476718 0 0.1079828451826004 0.27738565586056829 0 0.087430381393448858 0.29852998767476718 0 0.1104734498024164 0.31171603628350752 0 0.1079828451826004 0.27738565586056829 0 0.1104734498024164 0.31171603628350752 0 0.1079828451826004 0.27738565586056829 0 0.13401849175413849 0.29214957311260448 0 0.1079828451826004 0.27738565586056829 0 0.13401849175413849 0.29214957311260448 0 0.1100607559553454 0.25396994184181759 0 0.1079828451826004 0.27738565586056829 0 0.13366986361514199 0.26692500362740812 0 0.12787711237058769 0.24521089126939841 0 0.1100607559553454 0.25396994184181759 0 0.13366986361514199 0.26692500362740812 0 0.092857250133516089 0.24175825718487831 0 0.1100607559553454 0.25396994184181759 0 0.093798877441032588 0.2579700649065903 0 0.1100607559553454 0.25396994184181759 0 0.093798877441032588 0.2579700649065903 0 0.1079828451826004 0.27738565586056829 0 0.079567988853459573 0.27014218499250892 0 0.093798877441032588 0.2579700649065903 0 0.1079828451826004 0.27738565586056829 0 0.13366986361514199 0.26692500362740812 0 0.1558685034792309 0.28595093384994291 0 0.15959452244756481 0.26367036214955358 0 0.14702044576598061 0.2478904659134552 0 0.13366986361514199 0.26692500362740812 0 0.15959452244756481 0.26367036214955358 0 0.14702044576598061 0.2478904659134552 0 0.12787711237058769 0.24521089126939841 0 0.13366986361514199 0.26692500362740812 0 0.1079828451826004 0.27738565586056829 0 0.13366986361514199 0.26692500362740812 0 0.13401849175413849 0.29214957311260448 0 0.1104734498024164 0.31171603628350752 0 0.13401849175413849 0.29214957311260448 0 0.14183880654046921 0.32250528078568202 0 0.13401849175413849 0.29214957311260448 0 0.16005413832567669 0.30691349036464077 0 0.14183880654046921 0.32250528078568202 0 0.13401849175413849 0.29214957311260448 0 0.16005413832567669 0.30691349036464077 0 0.13401849175413849 0.29214957311260448 0 0.1558685034792309 0.28595093384994291 0 0.16005413832567669 0.30691349036464077 0 0.13366986361514199 0.26692500362740812 0 0.13401849175413849 0.29214957311260448 0 0.1558685034792309 0.28595093384994291 0 0.1558685034792309 0.28595093384994291 0 0.1700220001876428 0.28782965529906401 0 0.16005413832567669 0.30691349036464077 0 0.1558685034792309 0.28595093384994291 0 0.1700220001876428 0.28782965529906401 0 0.17370236977615991 0.27502287964280692 0 0.1700220001876428 0.28782965529906401 0 0.16005413832567669 0.30691349036464077 0 0.1764196225356903 0.29880027385689728 0 0.16005413832567669 0.30691349036464077 0 0.1764196225356903 0.29880027385689728 0 0.18686192329242929 0.31378732528256248 0 0.1764196225356903 0.29880027385689728 0 0.18674031124236579 0.30201460306836742 0 0.19086383386244751 0.2907864273273883 0 0.1764196225356903 0.29880027385689728 0 0.18674031124236579 0.30201460306836742 0 0.18686192329242929 0.31378732528256248 0 0.1700220001876428 0.28782965529906401 0 0.18013512871176271 0.28566990799825959 0 0.17370236977615991 0.27502287964280692 0 0.1700220001876428 0.28782965529906401 0 0.1764196225356903 0.29880027385689728 0 0.18013512871176271 0.28566990799825959 0 0.1764196225356903 0.29880027385689728 0 0.18013512871176271 0.28566990799825959 0 0.19086383386244751 0.2907864273273883 0 0.18013512871176271 0.28566990799825959 0 0.1896678171968729 0.27591030386514148 0 0.19086383386244751 0.2907864273273883 0 0.18251379545819379 0.26835647973838378 0 0.17370236977615991 0.27502287964280692 0 0.1896678171968729 0.27591030386514148 0 0.18013512871176271 0.28566990799825959 0 0.17370236977615991 0.27502287964280692 0 0.1896678171968729 0.27591030386514148 0 0.18251379545819379 0.26835647973838378 0 0.17370236977615991 0.27502287964280692 0 0.17699066645021869 0.2595722272450377 0 0.17370236977615991 0.27502287964280692 0 0.15959452244756481 0.26367036214955358 0 0.17699066645021869 0.2595722272450377 0 0.1558685034792309 0.28595093384994291 0 0.17370236977615991 0.27502287964280692 0 0.15959452244756481 0.26367036214955358 0 0.16774616909827719 0.2460930353984315 0 0.15959452244756481 0.26367036214955358 0 0.17699066645021869 0.2595722272450377 0 0.14702044576598061 0.2478904659134552 0 0.16774616909827719 0.2460930353984315 0 0.15959452244756481 0.26367036214955358 0 0.18692125413578081 0.24552837502103991 0 0.16774616909827719 0.2460930353984315 0 0.17699066645021869 0.2595722272450377 0 0.18692125413578081 0.24552837502103991 0 0.17699066645021869 0.2595722272450377 0 0.19242781921148469 0.26384338938458129 0 0.18251379545819379 0.26835647973838378 0 0.17699066645021869 0.2595722272450377 0 0.19242781921148469 0.26384338938458129 0 0.18692125413578081 0.24552837502103991 0 0.19242781921148469 0.26384338938458129 0 0.20107379594449931 0.25686311186437227 0 0.18692125413578081 0.24552837502103991 0 0.20107379594449931 0.25686311186437227 0 0.19242781921148469 0.26384338938458129 0 0.20107379594449931 0.25686311186437227 0 0.2008998280478862 0.26959186196165702 0 0.19242781921148469 0.26384338938458129 0 0.20107379594449931 0.25686311186437227 0 0.19242781921148469 0.26384338938458129 0 0.1896678171968729 0.27591030386514148 0 0.2008998280478862 0.26959186196165702 0 0.18251379545819379 0.26835647973838378 0 0.19242781921148469 0.26384338938458129 0 0.1896678171968729 0.27591030386514148 0 0.1896678171968729 0.27591030386514148 0 0.2008998280478862 0.26959186196165702 0 0.20354188417430641 0.281093168015905 0 0.2008998280478862 0.26959186196165702 0 0.2177878237122676 0.27024933667828532 0 0.20354188417430641 0.281093168015905 0 0.2177878237122676 0.27024933667828532 0 0.20354188417430641 0.281093168015905 0 0.2166033006779626 0.28924568688104418 0 0.21557305570370441 0.24515722135805329 0 0.20107379594449931 0.25686311186437227 0 0.2177878237122676 0.27024933667828532 0 0.20107379594449931 0.25686311186437227 0 0.2177878237122676 0.27024933667828532 0 0.20107379594449931 0.25686311186437227 0 0.2008998280478862 0.26959186196165702 0 0.2177878237122676 0.27024933667828532 0 0.21557305570370441 0.24515722135805329 0 0.20107379594449931 0.25686311186437227 0 0.21557305570370441 0.24515722135805329 0 0.2177878237122676 0.27024933667828532 0 0.23628031136540401 0.25597328662156199 0 0.2177878237122676 0.27024933667828532 0 0.23628031136540401 0.25597328662156199 0 0.23450185148003599 0.28363556149219821 0 0.2177878237122676 0.27024933667828532 0 0.23450185148003599 0.28363556149219821 0 0.2166033006779626 0.28924568688104418 0 0.2177878237122676 0.27024933667828532 0 0.23450185148003599 0.28363556149219821 0 0.23628031136540401 0.25597328662156199 0 0.23450185148003599 0.28363556149219821 0 0.25102838231212438 0.26850893423506528 0 0.23450185148003599 0.28363556149219821 0 0.25953152444998728 0.28294166139542631 0 0.25102838231212438 0.26850893423506528 0 0.23628031136540401 0.25597328662156199 0 0.25102838231212438 0.26850893423506528 0 0.26221447651104962 0.2479993693513689 0 0.2297645605960125 0.30261029929826411 0 0.25121587924780342 0.29702178630611242 0 0.2484846271056145 0.31037308609574782 0 0.2297645605960125 0.30261029929826411 0 0.23798581837376781 0.31938142953188831 0 0.2484846271056145 0.31037308609574782 0 0.2297645605960125 0.30261029929826411 0 0.25121587924780342 0.29702178630611242 0 0.23450185148003599 0.28363556149219821 0 0.2297645605960125 0.30261029929826411 0 0.25121587924780342 0.29702178630611242 0 0.23450185148003599 0.28363556149219821 0 0.25121587924780342 0.29702178630611242 0 0.23450185148003599 0.28363556149219821 0 0.25953152444998728 0.28294166139542631 0 0.25121587924780342 0.29702178630611242 0 0.23450185148003599 0.28363556149219821 0 0.2297645605960125 0.30261029929826411 0 0.2166033006779626 0.28924568688104418 0 0.2297645605960125 0.30261029929826411 0 0.20831324194422091 0.30819881229041318 0 0.2297645605960125 0.30261029929826411 0 0.20831324194422091 0.30819881229041318 0 0.21977364325038071 0.31928170538083578 0 0.20831324194422091 0.30819881229041318 0 0.2166033006779626 0.28924568688104418 0 0.20288664267638859 0.29424953150154581 0 0.2297645605960125 0.30261029929826411 0 0.20831324194422091 0.30819881229041318 0 0.2166033006779626 0.28924568688104418 0 0.20354188417430641 0.281093168015905 0 0.2166033006779626 0.28924568688104418 0 0.20288664267638859 0.29424953150154581 0 0.20354188417430641 0.281093168015905 0 0.20288664267638859 0.29424953150154581 0 0.19086383386244751 0.2907864273273883 0 0.20288664267638859 0.29424953150154581 0 0.19086383386244751 0.2907864273273883 0 0.19511095272300569 0.3019235629929784 0 0.1896678171968729 0.27591030386514148 0 0.20354188417430641 0.281093168015905 0 0.19086383386244751 0.2907864273273883 0 0.20831324194422091 0.30819881229041318 0 0.18686192329242929 0.31378732528256248 0 0.20831324194422091 0.30819881229041318 0 0.19511095272300569 0.3019235629929784 0 0.18686192329242929 0.31378732528256248 0 0.20831324194422091 0.30819881229041318 0 0.20288664267638859 0.29424953150154581 0 0.19511095272300569 0.3019235629929784 0 0.18674031124236579 0.30201460306836742 0 0.19086383386244751 0.2907864273273883 0 0.19511095272300569 0.3019235629929784 0 0.18674031124236579 0.30201460306836742 0 0.19511095272300569 0.3019235629929784 0 0.18686192329242929 0.31378732528256248 0 0.20141288137377081 0.31920030670374799 0 0.18686192329242929 0.31378732528256248 0 0.18608978489721489 0.32167740761667712 0 0.20831324194422091 0.30819881229041318 0 0.20141288137377081 0.31920030670374799 0 0.18686192329242929 0.31378732528256248 0 0.20141288137377081 0.31920030670374799 0 0.21212543146875301 0.33644132486871342 0 0.18608978489721489 0.32167740761667712 0 0.21212543146875301 0.33644132486871342 0 0.18608978489721489 0.32167740761667712 0 0.19231113454718349 0.34165597013868199 0 0.21212543146875301 0.33644132486871342 0 0.18608978489721489 0.32167740761667712 0 0.20831324194422091 0.30819881229041318 0 0.20141288137377081 0.31920030670374799 0 0.21977364325038071 0.31928170538083578 0 0.20141288137377081 0.31920030670374799 0 0.21212543146875301 0.33644132486871342 0 0.21977364325038071 0.31928170538083578 0 0.21977364325038071 0.31928170538083578 0 0.2290399257457596 0.32985805959198788 0 0.23798581837376781 0.31938142953188831 0 0.2297645605960125 0.30261029929826411 0 0.21977364325038071 0.31928170538083578 0 0.23798581837376781 0.31938142953188831 0 0.21212543146875301 0.33644132486871342 0 0.21977364325038071 0.31928170538083578 0 0.2290399257457596 0.32985805959198788 0 0.21212543146875301 0.33644132486871342 0 0.23060518033342339 0.33807106122714048 0 0.2290399257457596 0.32985805959198788 0 0.21212543146875301 0.33644132486871342 0 0.23060518033342339 0.33807106122714048 0 0.23816107804029091 0.35120524212074949 0 0.23060518033342339 0.33807106122714048 0 0.2290399257457596 0.32985805959198788 0 0.2430942860788903 0.33477961832711151 0 0.23060518033342339 0.33807106122714048 0 0.2430942860788903 0.33477961832711151 0 0.23816107804029091 0.35120524212074949 0 0.2484846271056145 0.31037308609574782 0 0.23798581837376781 0.31938142953188831 0 0.25508783524565293 0.32209220201309929 0 0.2430942860788903 0.33477961832711151 0 0.23798581837376781 0.31938142953188831 0 0.25508783524565293 0.32209220201309929 0 0.2290399257457596 0.32985805959198788 0 0.2430942860788903 0.33477961832711151 0 0.23798581837376781 0.31938142953188831 0 0.23439037865920059 0.35560025357312369 0 0.2386764282036242 0.37725286527910618 0 0.24311907173897271 0.36013203008567057 0 0.23439037865920059 0.35560025357312369 0 0.2386764282036242 0.37725286527910618 0 0.2492643002430574 0.365916522193315 0 0.24311907173897271 0.36013203008567057 0 0.2386764282036242 0.37725286527910618 0 0.2492643002430574 0.365916522193315 0 0.2386764282036242 0.37725286527910618 0 0.25383912625151372 0.37755129754335942 0 0.24311907173897271 0.36013203008567057 0 0.23816107804029091 0.35120524212074949 0 0.2641967246118288 0.36596915937278562 0 0.2430942860788903 0.33477961832711151 0 0.23816107804029091 0.35120524212074949 0 0.26173146881309822 0.35734024057335978 0 0.24311907173897271 0.36013203008567057 0 0.23816107804029091 0.35120524212074949 0 0.23439037865920059 0.35560025357312369 0 0.21212543146875301 0.33644132486871342 0 0.23816107804029091 0.35120524212074949 0 0.21848510057545151 0.35453686872473111 0 0.23816107804029091 0.35120524212074949 0 0.23439037865920059 0.35560025357312369 0 0.21848510057545151 0.35453686872473111 0 0.21212543146875301 0.33644132486871342 0 0.23816107804029091 0.35120524212074949 0 0.23439037865920059 0.35560025357312369 0 0.22513916990612379 0.36868200325308897 0 0.2386764282036242 0.37725286527910618 0 0.23439037865920059 0.35560025357312369 0 0.22513916990612379 0.36868200325308897 0 0.21848510057545151 0.35453686872473111 0 0.22513916990612379 0.36868200325308897 0 0.20931495008602691 0.36890180222237801 0 0.21961872799640589 0.38146559318592133 0 0.22513916990612379 0.36868200325308897 0 0.20931495008602691 0.36890180222237801 0 0.21848510057545151 0.35453686872473111 0 0.20931495008602691 0.36890180222237801 0 0.21848510057545151 0.35453686872473111 0 0.2018014651714847 0.35413555731190122 0 0.21212543146875301 0.33644132486871342 0 0.21848510057545151 0.35453686872473111 0 0.2018014651714847 0.35413555731190122 0 0.19231113454718349 0.34165597013868199 0 0.2018014651714847 0.35413555731190122 0 0.1832131523033072 0.3569188224833833 0 0.19231113454718349 0.34165597013868199 0 0.21212543146875301 0.33644132486871342 0 0.2018014651714847 0.35413555731190122 0 0.20931495008602691 0.36890180222237801 0 0.2018014651714847 0.35413555731190122 0 0.19217836357317111 0.36996972767433872 0 0.20931495008602691 0.36890180222237801 0 0.19217836357317111 0.36996972767433872 0 0.20289108470775991 0.38370682355227331 0 0.2018014651714847 0.35413555731190122 0 0.19217836357317111 0.36996972767433872 0 0.1832131523033072 0.3569188224833833 0 0.19217836357317111 0.36996972767433872 0 0.17197644233242751 0.37002706837148541 0 0.1832131523033072 0.3569188224833833 0 0.17197644233242751 0.37002706837148541 0 0.16866852787741549 0.35230522619665788 0 0.1832131523033072 0.3569188224833833 0 0.17197644233242751 0.37002706837148541 0 0.16866852787741549 0.35230522619665788 0 0.15186920095361911 0.35620033980905319 0 0.17197644233242751 0.37002706837148541 0 0.15186920095361911 0.35620033980905319 0 0.15185568245476189 0.37707061606136422 0 0.16866852787741549 0.35230522619665788 0 0.1579580049025659 0.33927316190663209 0 0.15186920095361911 0.35620033980905319 0 0.16866852787741549 0.35230522619665788 0 0.1832131523033072 0.3569188224833833 0 0.17832583889515771 0.33910673841273542 0 0.19231113454718349 0.34165597013868199 0 0.1832131523033072 0.3569188224833833 0 0.17832583889515771 0.33910673841273542 0 0.17832583889515771 0.33910673841273542 0 0.18608978489721489 0.32167740761667712 0 0.16647560889869609 0.32578562508456149 0 0.19231113454718349 0.34165597013868199 0 0.17832583889515771 0.33910673841273542 0 0.18608978489721489 0.32167740761667712 0 0.16005413832567669 0.30691349036464077 0 0.18608978489721489 0.32167740761667712 0 0.16005413832567669 0.30691349036464077 0 0.18686192329242929 0.31378732528256248 0 0.18608978489721489 0.32167740761667712 0 0.16005413832567669 0.30691349036464077 0 0.18608978489721489 0.32167740761667712 0 0.16647560889869609 0.32578562508456149 0 0.17832583889515771 0.33910673841273542 0 0.16647560889869609 0.32578562508456149 0 0.1579580049025659 0.33927316190663209 0 0.16866852787741549 0.35230522619665788 0 0.17832583889515771 0.33910673841273542 0 0.1579580049025659 0.33927316190663209 0 0.16647560889869609 0.32578562508456149 0 0.1579580049025659 0.33927316190663209 0 0.14183880654046921 0.32250528078568202 0 0.1579580049025659 0.33927316190663209 0 0.14183880654046921 0.32250528078568202 0 0.14054269679001921 0.34363296691054102 0 0.16005413832567669 0.30691349036464077 0 0.16647560889869609 0.32578562508456149 0 0.14183880654046921 0.32250528078568202 0 0.1202868522871179 0.34060046584014031 0 0.14183880654046921 0.32250528078568202 0 0.14054269679001921 0.34363296691054102 0 0.1202868522871179 0.34060046584014031 0 0.14054269679001921 0.34363296691054102 0 0.13274728415341139 0.36410634055334368 0 0.13274728415341139 0.36410634055334368 0 0.15186920095361911 0.35620033980905319 0 0.15185568245476189 0.37707061606136422 0 0.14054269679001921 0.34363296691054102 0 0.13274728415341139 0.36410634055334368 0 0.15186920095361911 0.35620033980905319 0 0.1579580049025659 0.33927316190663209 0 0.14054269679001921 0.34363296691054102 0 0.15186920095361911 0.35620033980905319 0 0.15352992747694119 0.40026604784697911 0 0.13692284990477191 0.38930777957628943 0 0.1397509022148696 0.40843688002483958 0 0.15352992747694119 0.40026604784697911 0 0.15185568245476189 0.37707061606136422 0 0.13692284990477191 0.38930777957628943 0 0.13274728415341139 0.36410634055334368 0 0.15185568245476189 0.37707061606136422 0 0.13692284990477191 0.38930777957628943 0 0.119448870245615 0.38256434187866972 0 0.13274728415341139 0.36410634055334368 0 0.13692284990477191 0.38930777957628943 0 0.115428724103706 0.40267530492779557 0 0.13692284990477191 0.38930777957628943 0 0.1397509022148696 0.40843688002483958 0 0.12259086230274099 0.42947812748907283 0 0.1397509022148696 0.40843688002483958 0 0.14363603346764281 0.42707530835579988 0 0.12259086230274099 0.42947812748907283 0 0.115428724103706 0.40267530492779557 0 0.1397509022148696 0.40843688002483958 0 0.12259086230274099 0.42947812748907283 0 0.14363603346764281 0.42707530835579988 0 0.13510526379757609 0.44116740875256688 0 0.14363603346764281 0.42707530835579988 0 0.16526304614212209 0.42908608809292892 0 0.1507341445198021 0.44370602134863157 0 0.14363603346764281 0.42707530835579988 0 0.15527295380072001 0.4153931176925994 0 0.16526304614212209 0.42908608809292892 0 0.14363603346764281 0.42707530835579988 0 0.1507341445198021 0.44370602134863157 0 0.13510526379757609 0.44116740875256688 0 0.1397509022148696 0.40843688002483958 0 0.14363603346764281 0.42707530835579988 0 0.15527295380072001 0.4153931176925994 0 0.15352992747694119 0.40026604784697911 0 0.1397509022148696 0.40843688002483958 0 0.15527295380072001 0.4153931176925994 0 0.15527295380072001 0.4153931176925994 0 0.1711416470664554 0.41062619466687539 0 0.16526304614212209 0.42908608809292892 0 0.15352992747694119 0.40026604784697911 0 0.15527295380072001 0.4153931176925994 0 0.1711416470664554 0.41062619466687539 0 0.16526304614212209 0.42908608809292892 0 0.1809560021812836 0.43814832633623357 0 0.16598328874466911 0.44273574664910909 0 0.16526304614212209 0.42908608809292892 0 0.18469425222239219 0.42125941149134333 0 0.1809560021812836 0.43814832633623357 0 0.1711416470664554 0.41062619466687539 0 0.16526304614212209 0.42908608809292892 0 0.18469425222239219 0.42125941149134333 0 0.1711416470664554 0.41062619466687539 0 0.18469425222239219 0.42125941149134333 0 0.1843100454414533 0.40126956181167389 0 0.1711416470664554 0.41062619466687539 0 0.1843100454414533 0.40126956181167389 0 0.16952276405911931 0.3912061138884545 0 0.1843100454414533 0.40126956181167389 0 0.16952276405911931 0.3912061138884545 0 0.18589276442329861 0.38606835492789338 0 0.15352992747694119 0.40026604784697911 0 0.1711416470664554 0.41062619466687539 0 0.16952276405911931 0.3912061138884545 0 0.15352992747694119 0.40026604784697911 0 0.15185568245476189 0.37707061606136422 0 0.16952276405911931 0.3912061138884545 0 0.17197644233242751 0.37002706837148541 0 0.15185568245476189 0.37707061606136422 0 0.16952276405911931 0.3912061138884545 0 0.17197644233242751 0.37002706837148541 0 0.16952276405911931 0.3912061138884545 0 0.18589276442329861 0.38606835492789338 0 0.19217836357317111 0.36996972767433872 0 0.17197644233242751 0.37002706837148541 0 0.18589276442329861 0.38606835492789338 0 0.18589276442329861 0.38606835492789338 0 0.20289108470775991 0.38370682355227331 0 0.19700705340585539 0.39579078134538831 0 0.19217836357317111 0.36996972767433872 0 0.18589276442329861 0.38606835492789338 0 0.20289108470775991 0.38370682355227331 0 0.19700705340585539 0.39579078134538831 0 0.21316338490038089 0.39704202397260657 0 0.19877798755638451 0.41086714246249401 0 0.1843100454414533 0.40126956181167389 0 0.19700705340585539 0.39579078134538831 0 0.19877798755638451 0.41086714246249401 0 0.1843100454414533 0.40126956181167389 0 0.18589276442329861 0.38606835492789338 0 0.19700705340585539 0.39579078134538831 0 0.20289108470775991 0.38370682355227331 0 0.19700705340585539 0.39579078134538831 0 0.21316338490038089 0.39704202397260657 0 0.20931495008602691 0.36890180222237801 0 0.20289108470775991 0.38370682355227331 0 0.21961872799640589 0.38146559318592133 0 0.20289108470775991 0.38370682355227331 0 0.21316338490038089 0.39704202397260657 0 0.21961872799640589 0.38146559318592133 0 0.22513916990612379 0.36868200325308897 0 0.21961872799640589 0.38146559318592133 0 0.2386764282036242 0.37725286527910618 0 0.21961872799640589 0.38146559318592133 0 0.22852735017452019 0.39320804083607441 0 0.2386764282036242 0.37725286527910618 0 0.21316338490038089 0.39704202397260657 0 0.21961872799640589 0.38146559318592133 0 0.22852735017452019 0.39320804083607441 0 0.21316338490038089 0.39704202397260657 0 0.22852735017452019 0.39320804083607441 0 0.22983145469658259 0.40925978250573319 0 0.21316338490038089 0.39704202397260657 0 0.22983145469658259 0.40925978250573319 0 0.22852735017452019 0.39320804083607441 0 0.2429624777480478 0.39890547698508871 0 0.22983145469658259 0.40925978250573319 0 0.2429624777480478 0.39890547698508871 0 0.2386764282036242 0.37725286527910618 0 0.22852735017452019 0.39320804083607441 0 0.2429624777480478 0.39890547698508871 0 0.2386764282036242 0.37725286527910618 0 0.2429624777480478 0.39890547698508871 0 0.2386764282036242 0.37725286527910618 0 0.25341304662754638 0.38974012394171498 0 0.2386764282036242 0.37725286527910618 0 0.25383912625151372 0.37755129754335942 0 0.25341304662754638 0.38974012394171498 0 0.24649952449278431 0.42147754103885982 0 0.22996656543308741 0.44177288309861867 0 0.24946733303660301 0.43176723098649622 0 0.24649952449278431 0.42147754103885982 0 0.22996656543308741 0.44177288309861867 0 0.24649952449278431 0.42147754103885982 0 0.22738899126970491 0.42458926785457718 0 0.22996656543308741 0.44177288309861867 0 0.24946733303660301 0.43176723098649622 0 0.24649952449278431 0.42147754103885982 0 0.2429624777480478 0.39890547698508871 0 0.24649952449278431 0.42147754103885982 0 0.24649952449278431 0.42147754103885982 0 0.22983145469658259 0.40925978250573319 0 0.22738899126970491 0.42458926785457718 0 0.24649952449278431 0.42147754103885982 0 0.22983145469658259 0.40925978250573319 0 0.2429624777480478 0.39890547698508871 0 0.24649952449278431 0.42147754103885982 0 0.22983145469658259 0.40925978250573319 0 0.21316338490038089 0.39704202397260657 0 0.22983145469658259 0.40925978250573319 0 0.21370806227123909 0.41789950377956148 0 0.22983145469658259 0.40925978250573319 0 0.22738899126970491 0.42458926785457718 0 0.21370806227123909 0.41789950377956148 0 0.22738899126970491 0.42458926785457718 0 0.21739304288862979 0.43200563017257382 0 0.22996656543308741 0.44177288309861867 0 0.22738899126970491 0.42458926785457718 0 0.21739304288862979 0.43200563017257382 0 0.21370806227123909 0.41789950377956148 0 0.21739304288862979 0.43200563017257382 0 0.1999317510848099 0.43097584272053618 0 0.2111195299095035 0.44359306409302351 0 0.21739304288862979 0.43200563017257382 0 0.21370806227123909 0.41789950377956148 0 0.1999317510848099 0.43097584272053618 0 0.21370806227123909 0.41789950377956148 0 0.19877798755638451 0.41086714246249401 0 0.1999317510848099 0.43097584272053618 0 0.21316338490038089 0.39704202397260657 0 0.21370806227123909 0.41789950377956148 0 0.19877798755638451 0.41086714246249401 0 0.18469425222239219 0.42125941149134333 0 0.19877798755638451 0.41086714246249401 0 0.1999317510848099 0.43097584272053618 0 0.18469425222239219 0.42125941149134333 0 0.1843100454414533 0.40126956181167389 0 0.19877798755638451 0.41086714246249401 0 0.18469425222239219 0.42125941149134333 0 0.1999317510848099 0.43097584272053618 0 0.1809560021812836 0.43814832633623357 0 0.1999317510848099 0.43097584272053618 0 0.19479511809318301 0.4526549487178691 0 0.2111195299095035 0.44359306409302351 0 0.1999317510848099 0.43097584272053618 0 0.19479511809318301 0.4526549487178691 0 0.1809560021812836 0.43814832633623357 0 0.19479511809318301 0.4526549487178691 0 0.213169792932182 0.46047172596691099 0 0.19211155850092579 0.47790980627879082 0 0.19479511809318301 0.4526549487178691 0 0.19211155850092579 0.47790980627879082 0 0.18348770279874721 0.46143911161818069 0 0.213169792932182 0.46047172596691099 0 0.2111195299095035 0.44359306409302351 0 0.22996656543308741 0.44177288309861867 0 0.19479511809318301 0.4526549487178691 0 0.213169792932182 0.46047172596691099 0 0.2111195299095035 0.44359306409302351 0 0.21739304288862979 0.43200563017257382 0 0.2111195299095035 0.44359306409302351 0 0.22996656543308741 0.44177288309861867 0 0.22996656543308741 0.44177288309861867 0 0.22854105436186559 0.46372788353366717 0 0.24141841662185301 0.45603819576859073 0 0.213169792932182 0.46047172596691099 0 0.22854105436186559 0.46372788353366717 0 0.221321310837439 0.47674074212904899 0 0.213169792932182 0.46047172596691099 0 0.22996656543308741 0.44177288309861867 0 0.22854105436186559 0.46372788353366717 0 0.24141841662185301 0.45603819576859073 0 0.23645949407781469 0.47608243786178739 0 0.25047151807745072 0.47036873115219768 0 0.22854105436186559 0.46372788353366717 0 0.24141841662185301 0.45603819576859073 0 0.23645949407781469 0.47608243786178739 0 0.24141841662185301 0.45603819576859073 0 0.25047151807745072 0.47036873115219768 0 0.25477099823403621 0.45804476415031298 0 0.24141841662185301 0.45603819576859073 0 0.25282491994113748 0.44831200937164878 0 0.25477099823403621 0.45804476415031298 0 0.22996656543308741 0.44177288309861867 0 0.24141841662185301 0.45603819576859073 0 0.24583280085865111 0.44361242472787987 0 0.24946733303660301 0.43176723098649622 0 0.22996656543308741 0.44177288309861867 0 0.24583280085865111 0.44361242472787987 0 0.24141841662185301 0.45603819576859073 0 0.24583280085865111 0.44361242472787987 0 0.25282491994113748 0.44831200937164878 0 0.24904418528453851 0.48634810883828161 0 0.23645949407781469 0.47608243786178739 0 0.23352830384551029 0.49999999999999978 0 0.24904418528453851 0.48634810883828161 0 0.23352830384551029 0.49999999999999978 0 0.25181722630913472 0.5 0 0.24904418528453851 0.48634810883828161 0 0.23645949407781469 0.47608243786178739 0 0.25047151807745072 0.47036873115219768 0 0.23645949407781469 0.47608243786178739 0 0.221321310837439 0.47674074212904899 0 0.23352830384551029 0.49999999999999978 0 0.22854105436186559 0.46372788353366717 0 0.23645949407781469 0.47608243786178739 0 0.221321310837439 0.47674074212904899 0 0.23352830384551029 0.49999999999999978 0 0.2128199311732181 0.48895490313939532 0 0.21702906166474581 0.5 0 0.23352830384551029 0.49999999999999978 0 0.2128199311732181 0.48895490313939532 0 0.221321310837439 0.47674074212904899 0 0.23352830384551029 0.49999999999999978 0 0.2128199311732181 0.48895490313939532 0 0.2128199311732181 0.48895490313939532 0 0.21702906166474581 0.5 0 0.20052981948398141 0.49999999999999989 0 0.213169792932182 0.46047172596691099 0 0.221321310837439 0.47674074212904899 0 0.19211155850092579 0.47790980627879082 0 0.221321310837439 0.47674074212904899 0 0.2128199311732181 0.48895490313939532 0 0.19211155850092579 0.47790980627879082 0 0.2128199311732181 0.48895490313939532 0 0.19211155850092579 0.47790980627879082 0 0.2128199311732181 0.48895490313939532 0 0.20052981948398141 0.49999999999999989 0 0.19295831529489699 0.4905304616351287 0 0.2128199311732181 0.48895490313939532 0 0.19211155850092579 0.47790980627879082 0 0.19295831529489699 0.4905304616351287 0 0.20052981948398141 0.49999999999999989 0 0.1839227339461352 0.49861489743603538 0 0.20052981948398141 0.49999999999999989 0 0.19295831529489699 0.4905304616351287 0 0.1839227339461352 0.49861489743603538 0 0.19211155850092579 0.47790980627879082 0 0.19295831529489699 0.4905304616351287 0 0.1809625144841838 0.48570342190566712 0 0.1839227339461352 0.49861489743603538 0 0.1809625144841838 0.48570342190566712 0 0.16731564840828889 0.49722979487207219 0 0.1839227339461352 0.49861489743603538 0 0.16731564840828889 0.49722979487207219 0 0.1839227339461352 0.49861489743603538 0 0.1669427425872391 0.49999999999999922 0 0.16731564840828889 0.49722979487207219 0 0.19295831529489699 0.4905304616351287 0 0.1839227339461352 0.49861489743603538 0 0.1809625144841838 0.48570342190566712 0 0.1809625144841838 0.48570342190566712 0 0.16731564840828889 0.49722979487207219 0 0.16935941711846161 0.48204725214512889 0 0.16731564840828889 0.49722979487207219 0 0.157708884996551 0.48584061526662409 0 0.14611751268168829 0.49546177892012921 0 0.16731564840828889 0.49722979487207219 0 0.14611751268168829 0.49546177892012921 0 0.1669427425872391 0.49999999999999922 0 0.16731564840828889 0.49722979487207219 0 0.14611751268168829 0.49546177892012921 0 0.1669427425872391 0.49999999999999922 0 0.16731564840828889 0.49722979487207219 0 0.16731564840828889 0.49722979487207219 0 0.16935941711846161 0.48204725214512889 0 0.16731564840828889 0.49722979487207219 0 0.157708884996551 0.48584061526662409 0 0.16935941711846161 0.48204725214512889 0 0.16382575626869561 0.4735735187060508 0 0.15802571703479451 0.46684670821381258 0 0.1531189490294651 0.47544631339495541 0 0.157708884996551 0.48584061526662409 0 0.16382575626869561 0.4735735187060508 0 0.1531189490294651 0.47544631339495541 0 0.157708884996551 0.48584061526662409 0 0.16382575626869561 0.4735735187060508 0 0.16935941711846161 0.48204725214512889 0 0.16935941711846161 0.48204725214512889 0 0.17140318582863401 0.46686470941818559 0 0.16382575626869561 0.4735735187060508 0 0.16935941711846161 0.48204725214512889 0 0.17140318582863401 0.46686470941818559 0 0.1809625144841838 0.48570342190566712 0 0.16935941711846161 0.48204725214512889 0 0.17140318582863401 0.46686470941818559 0 0.19211155850092579 0.47790980627879082 0 0.1809625144841838 0.48570342190566712 0 0.17140318582863401 0.46686470941818559 0 0.19211155850092579 0.47790980627879082 0 0.17140318582863401 0.46686470941818559 0 0.19479511809318301 0.4526549487178691 0 0.18348770279874721 0.46143911161818069 0 0.17341546959919829 0.45191605883299152 0 0.19211155850092579 0.47790980627879082 0 0.18348770279874721 0.46143911161818069 0 0.17140318582863401 0.46686470941818559 0 0.18348770279874721 0.46143911161818069 0 0.17341546959919829 0.45191605883299152 0 0.17140318582863401 0.46686470941818559 0 0.17341546959919829 0.45191605883299152 0 0.17140318582863401 0.46686470941818559 0 0.19479511809318301 0.4526549487178691 0 0.1809560021812836 0.43814832633623357 0 0.17341546959919829 0.45191605883299152 0 0.1809560021812836 0.43814832633623357 0 0.17341546959919829 0.45191605883299152 0 0.16598328874466911 0.44273574664910909 0 0.17341546959919829 0.45191605883299152 0 0.16598328874466911 0.44273574664910909 0 0.15954778128093949 0.4508222386347599 0 0.16598328874466911 0.44273574664910909 0 0.15954778128093949 0.4508222386347599 0 0.1507341445198021 0.44370602134863157 0 0.16526304614212209 0.42908608809292892 0 0.16598328874466911 0.44273574664910909 0 0.1507341445198021 0.44370602134863157 0 0.16382575626869561 0.4735735187060508 0 0.1651762257979181 0.46354347419730452 0 0.17140318582863401 0.46686470941818559 0 0.1651762257979181 0.46354347419730452 0 0.17140318582863401 0.46686470941818559 0 0.17341546959919829 0.45191605883299152 0 0.1651762257979181 0.46354347419730452 0 0.17140318582863401 0.46686470941818559 0 0.17341546959919829 0.45191605883299152 0 0.15954778128093949 0.4508222386347599 0 0.1651762257979181 0.46354347419730452 0 0.15954778128093949 0.4508222386347599 0 0.1651762257979181 0.46354347419730452 0 0.1582471669695637 0.45974252444074731 0 0.16382575626869561 0.4735735187060508 0 0.1651762257979181 0.46354347419730452 0 0.15802571703479451 0.46684670821381258 0 0.1651762257979181 0.46354347419730452 0 0.1582471669695637 0.45974252444074731 0 0.15802571703479451 0.46684670821381258 0 0.14976048710833001 0.46192771033000529 0 0.1507341445198021 0.44370602134863157 0 0.136404492151351 0.45486193181106682 0 0.1582471669695637 0.45974252444074731 0 0.15802571703479451 0.46684670821381258 0 0.14976048710833001 0.46192771033000529 0 0.15802571703479451 0.46684670821381258 0 0.14976048710833001 0.46192771033000529 0 0.1531189490294651 0.47544631339495541 0 0.15954778128093949 0.4508222386347599 0 0.1582471669695637 0.45974252444074731 0 0.14976048710833001 0.46192771033000529 0 0.14976048710833001 0.46192771033000529 0 0.136404492151351 0.45486193181106682 0 0.13663143795624749 0.46910754811773492 0 0.15954778128093949 0.4508222386347599 0 0.14976048710833001 0.46192771033000529 0 0.1507341445198021 0.44370602134863157 0 0.1507341445198021 0.44370602134863157 0 0.13510526379757609 0.44116740875256688 0 0.136404492151351 0.45486193181106682 0 0.1221607865463437 0.4507156547582637 0 0.12259086230274099 0.42947812748907283 0 0.13510526379757609 0.44116740875256688 0 0.1221607865463437 0.4507156547582637 0 0.13510526379757609 0.44116740875256688 0 0.136404492151351 0.45486193181106682 0 0.136404492151351 0.45486193181106682 0 0.1267882431275838 0.46370707134437261 0 0.13663143795624749 0.46910754811773492 0 0.1221607865463437 0.4507156547582637 0 0.136404492151351 0.45486193181106682 0 0.1267882431275838 0.46370707134437261 0 0.1267882431275838 0.46370707134437261 0 0.12569724768963239 0.47617993877849962 0 0.13663143795624749 0.46910754811773492 0 0.12569724768963239 0.47617993877849962 0 0.13663143795624749 0.46910754811773492 0 0.1364132019148096 0.48384982340983701 0 0.13663143795624749 0.46910754811773492 0 0.1364132019148096 0.48384982340983701 0 0.14361111091913481 0.47574478002545789 0 0.1249193769550877 0.49369376296818718 0 0.1364132019148096 0.48384982340983701 0 0.14611751268168829 0.49546177892012921 0 0.1249193769550877 0.49369376296818718 0 0.14611751268168829 0.49546177892012921 0 0.1249193769550877 0.49369376296818718 0 0.12569724768963239 0.47617993877849962 0 0.1364132019148096 0.48384982340983701 0 0.1249193769550877 0.49369376296818718 0 0.13738437864054501 0.5 0 0.14611751268168829 0.49546177892012921 0 0.1364132019148096 0.48384982340983701 0 0.14611751268168829 0.49546177892012921 0 0.14718343377546941 0.48347361591025501 0 0.1669427425872391 0.49999999999999922 0 0.13738437864054501 0.5 0 0.14611751268168829 0.49546177892012921 0 0.157708884996551 0.48584061526662409 0 0.14611751268168829 0.49546177892012921 0 0.14718343377546941 0.48347361591025501 0 0.157708884996551 0.48584061526662409 0 0.1531189490294651 0.47544631339495541 0 0.14718343377546941 0.48347361591025501 0 0.14976048710833001 0.46192771033000529 0 0.1531189490294651 0.47544631339495541 0 0.14361111091913481 0.47574478002545789 0 0.14976048710833001 0.46192771033000529 0 0.13663143795624749 0.46910754811773492 0 0.14361111091913481 0.47574478002545789 0 0.1364132019148096 0.48384982340983701 0 0.14361111091913481 0.47574478002545789 0 0.14718343377546941 0.48347361591025501 0 0.1531189490294651 0.47544631339495541 0 0.14361111091913481 0.47574478002545789 0 0.14718343377546941 0.48347361591025501 0 0.35832214194920592 0.47929915408112939 0 0.34611268429232461 0.46591887339206078 0 0.3375369348076922 0.4829399206954248 0 0.35832214194920592 0.47929915408112939 0 0.35850557312216419 0.5 0 0.3375369348076922 0.4829399206954248 0 0.35850557312216419 0.5 0 0.37801407526051067 0.48065415083330842 0 0.38797204790529932 0.5 0 0.35832214194920592 0.47929915408112939 0 0.35850557312216419 0.5 0 0.37801407526051067 0.48065415083330842 0 0.35832214194920592 0.47929915408112939 0 0.36980735363827261 0.46050290225189661 0 0.37801407526051067 0.48065415083330842 0 0.36980735363827261 0.46050290225189661 0 0.34502769605759259 0.44546544446971242 0 0.36959298495063608 0.43610817863788948 0 0.35832214194920592 0.47929915408112939 0 0.36980735363827261 0.46050290225189661 0 0.34611268429232461 0.46591887339206078 0 0.36980735363827261 0.46050290225189661 0 0.34502769605759259 0.44546544446971242 0 0.34611268429232461 0.46591887339206078 0 0.36980735363827261 0.46050290225189661 0 0.34611268429232461 0.46591887339206078 0 0.34611268429232461 0.46591887339206078 0 0.3317687487832644 0.45597005559148451 0 0.32241801494637662 0.47133484453222518 0 0.34502769605759259 0.44546544446971242 0 0.34611268429232461 0.46591887339206078 0 0.3317687487832644 0.45597005559148451 0 0.34611268429232461 0.46591887339206078 0 0.32241801494637662 0.47133484453222518 0 0.34502769605759259 0.44546544446971242 0 0.3317687487832644 0.45597005559148451 0 0.32480939915707069 0.44218818576869201 0 0.34502769605759259 0.44546544446971242 0 0.32480939915707069 0.44218818576869201 0 0.33523501366627878 0.43221560569608392 0 0.3107318966111981 0.4514989769174147 0 0.3227404476219688 0.42624713816244092 0 0.3317687487832644 0.45597005559148451 0 0.32480939915707069 0.44218818576869201 0 0.3107318966111981 0.4514989769174147 0 0.32480939915707069 0.44218818576869201 0 0.3107318966111981 0.4514989769174147 0 0.3227404476219688 0.42624713816244092 0 0.3317687487832644 0.45597005559148451 0 0.32241801494637662 0.47133484453222518 0 0.3107318966111981 0.4514989769174147 0 0.32241801494637662 0.47133484453222518 0 0.3375369348076922 0.4829399206954248 0 0.31372501333874958 0.48784291822244708 0 0.34611268429232461 0.46591887339206078 0 0.32241801494637662 0.47133484453222518 0 0.3375369348076922 0.4829399206954248 0 0.35850557312216419 0.5 0 0.3375369348076922 0.4829399206954248 0 0.32903909833902928 0.5 0 0.32903909833902928 0.5 0 0.31372501333874958 0.48784291822244708 0 0.29957262355589431 0.5 0 0.3375369348076922 0.4829399206954248 0 0.32903909833902928 0.5 0 0.31372501333874958 0.48784291822244708 0 0.31372501333874958 0.48784291822244708 0 0.30130976803097798 0.48891801032572652 0 0.29957262355589431 0.5 0 0.31372501333874958 0.48784291822244708 0 0.30130976803097798 0.48891801032572652 0 0.29872334560042851 0.47675081567238892 0 0.30130976803097798 0.48891801032572652 0 0.29957262355589431 0.5 0 0.28978827390519868 0.49553967616935518 0 0.32241801494637662 0.47133484453222518 0 0.29872334560042851 0.47675081567238892 0 0.32241801494637662 0.47133484453222518 0 0.31372501333874958 0.48784291822244708 0 0.29872334560042851 0.47675081567238892 0 0.29872334560042851 0.47675081567238892 0 0.28397488520641462 0.48012192141307769 0 0.28978827390519868 0.49553967616935518 0 0.29872334560042851 0.47675081567238892 0 0.28929399795500932 0.47058792179259418 0 0.29703527816799058 0.46117092995693892 0 0.29872334560042851 0.47675081567238892 0 0.28929399795500932 0.47058792179259418 0 0.28397488520641462 0.48012192141307769 0 0.29872334560042851 0.47675081567238892 0 0.28397488520641462 0.48012192141307769 0 0.28929399795500932 0.47058792179259418 0 0.28397488520641462 0.48012192141307769 0 0.27920072977811172 0.47805830749059319 0 0.28397488520641462 0.48012192141307769 0 0.28978827390519868 0.49553967616935518 0 0.27010614877275918 0.50000000000000067 0 0.29957262355589431 0.5 0 0.28978827390519868 0.49553967616935518 0 0.27010614877275918 0.50000000000000067 0 0.30130976803097798 0.48891801032572652 0 0.29872334560042851 0.47675081567238892 0 0.28978827390519868 0.49553967616935518 0 0.29872334560042851 0.47675081567238892 0 0.28978827390519868 0.49553967616935518 0 0.28397488520641462 0.48012192141307769 0 0.27010614877275918 0.50000000000000067 0 0.27920072977811172 0.47805830749059319 0 0.27010614877275918 0.50000000000000067 0 0.26909437115437917 0.48384867389528768 0 0.26130641782501518 0.49139676135406141 0 0.27010614877275918 0.50000000000000067 0 0.27920072977811172 0.47805830749059319 0 0.26909437115437917 0.48384867389528768 0 0.27010614877275918 0.50000000000000067 0 0.27920072977811172 0.47805830749059319 0 0.27920072977811172 0.47805830749059319 0 0.27306774476234302 0.47644699960251641 0 0.26909437115437917 0.48384867389528768 0 0.27920072977811172 0.47805830749059319 0 0.27306774476234302 0.47644699960251641 0 0.27643472525740193 0.46726539210963169 0 0.26824582816420722 0.47348896141386071 0 0.27306774476234302 0.47644699960251641 0 0.27643472525740193 0.46726539210963169 0 0.26824582816420722 0.47348896141386071 0 0.26909437115437917 0.48384867389528768 0 0.25993240985832161 0.47939275616227872 0 0.26824582816420722 0.47348896141386071 0 0.27306774476234302 0.47644699960251641 0 0.26909437115437917 0.48384867389528768 0 0.24904418528453851 0.48634810883828161 0 0.25993240985832161 0.47939275616227872 0 0.25047151807745072 0.47036873115219768 0 0.26824582816420722 0.47348896141386071 0 0.25993240985832161 0.47939275616227872 0 0.26165523792153211 0.46576309323832682 0 0.25993240985832161 0.47939275616227872 0 0.25047151807745072 0.47036873115219768 0 0.26165523792153211 0.46576309323832682 0 0.27010614877275918 0.50000000000000067 0 0.25181722630913472 0.5 0 0.26130641782501518 0.49139676135406141 0 0.24904418528453851 0.48634810883828161 0 0.25993240985832161 0.47939275616227872 0 0.26130641782501518 0.49139676135406141 0 0.24904418528453851 0.48634810883828161 0 0.25181722630913472 0.5 0 0.26130641782501518 0.49139676135406141 0 0.26909437115437917 0.48384867389528768 0 0.25993240985832161 0.47939275616227872 0 0.26130641782501518 0.49139676135406141 0 0.26490489917960358 0.45079530358348557 0 0.25548676926057468 0.44017180441404491 0 0.26331147225899149 0.43380076267102891 0 0.24946733303660301 0.43176723098649622 0 0.24583280085865111 0.44361242472787987 0 0.25548676926057468 0.44017180441404491 0 0.24583280085865111 0.44361242472787987 0 0.25548676926057468 0.44017180441404491 0 0.25282491994113748 0.44831200937164878 0 0.26490489917960358 0.45079530358348557 0 0.25548676926057468 0.44017180441404491 0 0.25282491994113748 0.44831200937164878 0 0.26490489917960358 0.45079530358348557 0 0.25282491994113748 0.44831200937164878 0 0.25477099823403621 0.45804476415031298 0 0.25047151807745072 0.47036873115219768 0 0.25477099823403621 0.45804476415031298 0 0.26165523792153211 0.46576309323832682 0 0.26490489917960358 0.45079530358348557 0 0.25477099823403621 0.45804476415031298 0 0.26165523792153211 0.46576309323832682 0 0.26490489917960358 0.45079530358348557 0 0.27160577401557351 0.46248804296782559 0 0.27679169795675967 0.45600994403837303 0 0.26490489917960358 0.45079530358348557 0 0.26165523792153211 0.46576309323832682 0 0.27160577401557351 0.46248804296782559 0 0.26824582816420722 0.47348896141386071 0 0.27160577401557351 0.46248804296782559 0 0.27643472525740193 0.46726539210963169 0 0.26824582816420722 0.47348896141386071 0 0.26165523792153211 0.46576309323832682 0 0.27160577401557351 0.46248804296782559 0 0.27160577401557351 0.46248804296782559 0 0.27643472525740193 0.46726539210963169 0 0.27679169795675967 0.45600994403837303 0 0.27643472525740193 0.46726539210963169 0 0.27679169795675967 0.45600994403837303 0 0.28829531078346382 0.45611661498118572 0 0.27903440424894049 0.4453257315987294 0 0.26331147225899149 0.43380076267102891 0 0.26490489917960358 0.45079530358348557 0 0.27903440424894049 0.4453257315987294 0 0.26331147225899149 0.43380076267102891 0 0.26490489917960358 0.45079530358348557 0 0.27679169795675967 0.45600994403837303 0 0.27903440424894049 0.4453257315987294 0 0.27903440424894049 0.4453257315987294 0 0.2917470315179379 0.44281751567604499 0 0.28179675760275558 0.42932557237874241 0 0.27679169795675967 0.45600994403837303 0 0.27903440424894049 0.4453257315987294 0 0.28829531078346382 0.45611661498118572 0 0.27903440424894049 0.4453257315987294 0 0.2917470315179379 0.44281751567604499 0 0.28829531078346382 0.45611661498118572 0 0.2917470315179379 0.44281751567604499 0 0.28829531078346382 0.45611661498118572 0 0.29813183988985342 0.45090032042111128 0 0.27920072977811172 0.47805830749059319 0 0.27643472525740193 0.46726539210963169 0 0.28829531078346382 0.45611661498118572 0 0.28929399795500932 0.47058792179259418 0 0.27920072977811172 0.47805830749059319 0 0.28829531078346382 0.45611661498118572 0 0.27920072977811172 0.47805830749059319 0 0.28829531078346382 0.45611661498118572 0 0.28829531078346382 0.45611661498118572 0 0.29703527816799058 0.46117092995693892 0 0.29813183988985342 0.45090032042111128 0 0.28929399795500932 0.47058792179259418 0 0.28829531078346382 0.45611661498118572 0 0.29703527816799058 0.46117092995693892 0 0.29872334560042851 0.47675081567238892 0 0.29703527816799058 0.46117092995693892 0 0.3107318966111981 0.4514989769174147 0 0.29872334560042851 0.47675081567238892 0 0.3107318966111981 0.4514989769174147 0 0.32241801494637662 0.47133484453222518 0 0.29872334560042851 0.47675081567238892 0 0.3107318966111981 0.4514989769174147 0 0.29703527816799058 0.46117092995693892 0 0.29813183988985342 0.45090032042111128 0 0.3107318966111981 0.4514989769174147 0 0.30159082278473881 0.44219288247638061 0 0.3107318966111981 0.4514989769174147 0 0.30884109342504262 0.43428586920116352 0 0.2917470315179379 0.44281751567604499 0 0.30159082278473881 0.44219288247638061 0 0.29850225247966211 0.43146173016616862 0 0.2917470315179379 0.44281751567604499 0 0.30159082278473881 0.44219288247638061 0 0.29813183988985342 0.45090032042111128 0 0.30159082278473881 0.44219288247638061 0 0.29813183988985342 0.45090032042111128 0 0.3107318966111981 0.4514989769174147 0 0.30884109342504262 0.43428586920116352 0 0.29850225247966211 0.43146173016616862 0 0.30862162828234507 0.42004495563460759 0 0.29850225247966211 0.43146173016616862 0 0.30862162828234507 0.42004495563460759 0 0.29547148538100448 0.41817397575591742 0 0.30159082278473881 0.44219288247638061 0 0.30884109342504262 0.43428586920116352 0 0.29850225247966211 0.43146173016616862 0 0.30862162828234507 0.42004495563460759 0 0.30304430461131138 0.40735012112542651 0 0.3196782615082488 0.40265332564926309 0 0.30862162828234507 0.42004495563460759 0 0.30304430461131138 0.40735012112542651 0 0.29547148538100448 0.41817397575591742 0 0.30304430461131138 0.40735012112542651 0 0.29062365375375682 0.40708788978866228 0 0.29547148538100448 0.41817397575591742 0 0.29062365375375682 0.40708788978866228 0 0.29547148538100448 0.41817397575591742 0 0.28288479604298378 0.41446876034122271 0 0.29547148538100448 0.41817397575591742 0 0.28288479604298378 0.41446876034122271 0 0.28179675760275558 0.42932557237874241 0 0.29062365375375682 0.40708788978866228 0 0.28288479604298378 0.41446876034122271 0 0.28001120465417539 0.40182109974822727 0 0.29850225247966211 0.43146173016616862 0 0.29547148538100448 0.41817397575591742 0 0.28179675760275558 0.42932557237874241 0 0.2917470315179379 0.44281751567604499 0 0.29850225247966211 0.43146173016616862 0 0.28179675760275558 0.42932557237874241 0 0.28179675760275558 0.42932557237874241 0 0.27042562322166658 0.41684269204638819 0 0.26331147225899149 0.43380076267102891 0 0.27903440424894049 0.4453257315987294 0 0.28179675760275558 0.42932557237874241 0 0.26331147225899149 0.43380076267102891 0 0.27042562322166658 0.41684269204638819 0 0.26380858941988822 0.4002294757553399 0 0.28001120465417539 0.40182109974822727 0 0.28288479604298378 0.41446876034122271 0 0.28179675760275558 0.42932557237874241 0 0.27042562322166658 0.41684269204638819 0 0.28288479604298378 0.41446876034122271 0 0.27042562322166658 0.41684269204638819 0 0.28001120465417539 0.40182109974822727 0 0.24649952449278431 0.42147754103885982 0 0.25492995388566009 0.41993008507457552 0 0.26380858941988822 0.4002294757553399 0 0.27042562322166658 0.41684269204638819 0 0.25492995388566009 0.41993008507457552 0 0.26380858941988822 0.4002294757553399 0 0.24649952449278431 0.42147754103885982 0 0.26380858941988822 0.4002294757553399 0 0.2429624777480478 0.39890547698508871 0 0.24649952449278431 0.42147754103885982 0 0.26380858941988822 0.4002294757553399 0 0.24946733303660301 0.43176723098649622 0 0.24649952449278431 0.42147754103885982 0 0.26331147225899149 0.43380076267102891 0 0.24649952449278431 0.42147754103885982 0 0.25492995388566009 0.41993008507457552 0 0.26331147225899149 0.43380076267102891 0 0.24649952449278431 0.42147754103885982 0 0.26331147225899149 0.43380076267102891 0 0.27042562322166658 0.41684269204638819 0 0.25492995388566009 0.41993008507457552 0 0.26331147225899149 0.43380076267102891 0 0.24946733303660301 0.43176723098649622 0 0.25548676926057468 0.44017180441404491 0 0.26331147225899149 0.43380076267102891 0 0.26350653962281989 0.38010735630523079 0 0.25341304662754638 0.38974012394171498 0 0.26380858941988822 0.4002294757553399 0 0.26350653962281989 0.38010735630523079 0 0.25383912625151372 0.37755129754335942 0 0.25710864090743918 0.37145542319719338 0 0.26350653962281989 0.38010735630523079 0 0.25383912625151372 0.37755129754335942 0 0.25341304662754638 0.38974012394171498 0 0.2429624777480478 0.39890547698508871 0 0.25341304662754638 0.38974012394171498 0 0.26380858941988822 0.4002294757553399 0 0.26380858941988822 0.4002294757553399 0 0.28001120465417539 0.40182109974822727 0 0.28036865154730628 0.37990086281960789 0 0.26350653962281989 0.38010735630523079 0 0.28036865154730628 0.37990086281960789 0 0.2641967246118288 0.36596915937278562 0 0.26380858941988822 0.4002294757553399 0 0.28036865154730628 0.37990086281960789 0 0.26350653962281989 0.38010735630523079 0 0.26380858941988822 0.4002294757553399 0 0.28036865154730628 0.37990086281960789 0 0.28036865154730628 0.37990086281960789 0 0.29170647807930872 0.39362549197251728 0 0.2987730087010142 0.37934426936791982 0 0.28036865154730628 0.37990086281960789 0 0.29170647807930872 0.39362549197251728 0 0.28001120465417539 0.40182109974822727 0 0.28036865154730628 0.37990086281960789 0 0.29170647807930872 0.39362549197251728 0 0.29062365375375682 0.40708788978866228 0 0.28001120465417539 0.40182109974822727 0 0.29170647807930872 0.39362549197251728 0 0.30304430461131138 0.40735012112542651 0 0.29062365375375682 0.40708788978866228 0 0.29170647807930872 0.39362549197251728 0 0.30304430461131138 0.40735012112542651 0 0.30637452063024528 0.39219955594670219 0 0.3196782615082488 0.40265332564926309 0 0.30304430461131138 0.40735012112542651 0 0.29170647807930872 0.39362549197251728 0 0.30304430461131138 0.40735012112542651 0 0.29170647807930872 0.39362549197251728 0 0.30637452063024528 0.39219955594670219 0 0.30637452063024528 0.39219955594670219 0 0.2987730087010142 0.37934426936791982 0 0.31661607539452802 0.37905951313608538 0 0.29170647807930872 0.39362549197251728 0 0.30637452063024528 0.39219955594670219 0 0.2987730087010142 0.37934426936791982 0 0.31661607539452802 0.37905951313608538 0 0.32905198958534931 0.38831461949406398 0 0.3196782615082488 0.40265332564926309 0 0.31661607539452802 0.37905951313608538 0 0.32905198958534931 0.38831461949406398 0 0.33389487655237682 0.3658352592629312 0 0.32905198958534931 0.38831461949406398 0 0.34270248502322931 0.38427053755298168 0 0.33389487655237682 0.3658352592629312 0 0.32905198958534931 0.38831461949406398 0 0.34270248502322931 0.38427053755298168 0 0.33272146632259869 0.40525883785771122 0 0.34270248502322931 0.38427053755298168 0 0.33272146632259869 0.40525883785771122 0 0.34270248502322931 0.38427053755298168 0 0.33272146632259869 0.40525883785771122 0 0.34670895149724801 0.40816004440777182 0 0.31661607539452802 0.37905951313608538 0 0.3196782615082488 0.40265332564926309 0 0.32905198958534931 0.38831461949406398 0 0.33272146632259869 0.40525883785771122 0 0.3196782615082488 0.40265332564926309 0 0.30637452063024528 0.39219955594670219 0 0.31661607539452802 0.37905951313608538 0 0.3196782615082488 0.40265332564926309 0 0.3196782615082488 0.40265332564926309 0 0.3227404476219688 0.42624713816244092 0 0.30862162828234507 0.42004495563460759 0 0.3196782615082488 0.40265332564926309 0 0.3227404476219688 0.42624713816244092 0 0.33272146632259869 0.40525883785771122 0 0.3196782615082488 0.40265332564926309 0 0.3227404476219688 0.42624713816244092 0 0.33272146632259869 0.40525883785771122 0 0.3227404476219688 0.42624713816244092 0 0.32480939915707069 0.44218818576869201 0 0.3227404476219688 0.42624713816244092 0 0.3107318966111981 0.4514989769174147 0 0.30884109342504262 0.43428586920116352 0 0.3227404476219688 0.42624713816244092 0 0.32480939915707069 0.44218818576869201 0 0.3227404476219688 0.42624713816244092 0 0.33523501366627878 0.43221560569608392 0 0.30884109342504262 0.43428586920116352 0 0.30862162828234507 0.42004495563460759 0 0.3227404476219688 0.42624713816244092 0 0.34502769605759259 0.44546544446971242 0 0.33523501366627878 0.43221560569608392 0 0.34795858503051302 0.425881111768525 0 0.3227404476219688 0.42624713816244092 0 0.33523501366627878 0.43221560569608392 0 0.33659904832278342 0.4201421825902541 0 0.33523501366627878 0.43221560569608392 0 0.33659904832278342 0.4201421825902541 0 0.34795858503051302 0.425881111768525 0 0.33272146632259869 0.40525883785771122 0 0.3227404476219688 0.42624713816244092 0 0.33659904832278342 0.4201421825902541 0 0.33272146632259869 0.40525883785771122 0 0.33659904832278342 0.4201421825902541 0 0.34670895149724801 0.40816004440777182 0 0.33659904832278342 0.4201421825902541 0 0.34670895149724801 0.40816004440777182 0 0.34795858503051302 0.425881111768525 0 0.34670895149724801 0.40816004440777182 0 0.34795858503051302 0.425881111768525 0 0.36336601300371613 0.41450991002864218 0 0.34670895149724801 0.40816004440777182 0 0.36336601300371613 0.41450991002864218 0 0.35690611128064731 0.3988976866485166 0 0.34502769605759259 0.44546544446971242 0 0.34795858503051302 0.425881111768525 0 0.36959298495063608 0.43610817863788948 0 0.34795858503051302 0.425881111768525 0 0.36959298495063608 0.43610817863788948 0 0.36336601300371613 0.41450991002864218 0 0.36959298495063608 0.43610817863788948 0 0.36336601300371613 0.41450991002864218 0 0.38530342098431941 0.41064856824057122 0 0.36336601300371613 0.41450991002864218 0 0.3736470799201031 0.39378130610698531 0 0.38530342098431941 0.41064856824057122 0 0.3736470799201031 0.39378130610698531 0 0.3601059063978746 0.38125551426405008 0 0.35690611128064731 0.3988976866485166 0 0.36336601300371613 0.41450991002864218 0 0.3736470799201031 0.39378130610698531 0 0.35690611128064731 0.3988976866485166 0 0.3736470799201031 0.39378130610698531 0 0.3601059063978746 0.38125551426405008 0 0.37414389550204002 0.36898578533419818 0 0.34270248502322931 0.38427053755298168 0 0.3601059063978746 0.38125551426405008 0 0.35690611128064731 0.3988976866485166 0 0.34270248502322931 0.38427053755298168 0 0.3601059063978746 0.38125551426405008 0 0.35268350372385993 0.36328223724825232 0 0.34270248502322931 0.38427053755298168 0 0.34670895149724801 0.40816004440777182 0 0.35690611128064731 0.3988976866485166 0 0.35268350372385993 0.36328223724825232 0 0.36266452242448938 0.34229393694352239 0 0.35030182712711511 0.35130594720886232 0 0.35268350372385993 0.36328223724825232 0 0.36266452242448938 0.34229393694352239 0 0.35030182712711511 0.35130594720886232 0 0.35146565257524442 0.34420791440797271 0 0.36266452242448938 0.34229393694352239 0 0.35030182712711511 0.35130594720886232 0 0.35146565257524442 0.34420791440797271 0 0.34269927497721508 0.34493512072036142 0 0.35030182712711511 0.35130594720886232 0 0.35268350372385993 0.36328223724825232 0 0.33389487655237682 0.3658352592629312 0 0.34270248502322931 0.38427053755298168 0 0.35268350372385993 0.36328223724825232 0 0.3601059063978746 0.38125551426405008 0 0.35268350372385993 0.36328223724825232 0 0.37414389550204002 0.36898578533419818 0 0.35268350372385993 0.36328223724825232 0 0.37414389550204002 0.36898578533419818 0 0.36300645299402812 0.35604351837507042 0 0.37414389550204002 0.36898578533419818 0 0.37228166628853332 0.35471301169251829 0 0.36300645299402812 0.35604351837507042 0 0.35268350372385993 0.36328223724825232 0 0.36300645299402812 0.35604351837507042 0 0.36266452242448938 0.34229393694352239 0 0.37228166628853332 0.35471301169251829 0 0.36300645299402812 0.35604351837507042 0 0.36840829020790361 0.34668560051738673 0 0.36300645299402812 0.35604351837507042 0 0.36840829020790361 0.34668560051738673 0 0.36266452242448938 0.34229393694352239 0 0.36840829020790361 0.34668560051738673 0 0.36266452242448938 0.34229393694352239 0 0.36587418437400321 0.34278907974668538 0 0.37228166628853332 0.35471301169251829 0 0.36840829020790361 0.34668560051738673 0 0.37486749369974542 0.34694596905823039 0 0.37486749369974542 0.34694596905823039 0 0.37256750073976291 0.34304532959464751 0 0.37670219357667811 0.34177383067972761 0 0.36840829020790361 0.34668560051738673 0 0.37486749369974542 0.34694596905823039 0 0.37256750073976291 0.34304532959464751 0 0.36124897776362869 0.33531944770056321 0 0.36266452242448938 0.34229393694352239 0 0.36411885078159001 0.32644375487552563 0 0.37256750073976291 0.34304532959464751 0 0.36916640720496519 0.34145859007673351 0 0.37369311900952262 0.33836265764115908 0 0.37256750073976291 0.34304532959464751 0 0.37369311900952262 0.33836265764115908 0 0.37670219357667811 0.34177383067972761 0 0.36266452242448938 0.34229393694352239 0 0.37014896644917339 0.316543878568457 0 0.36770298492566261 0.33637877995368609 0 0.36266452242448938 0.34229393694352239 0 0.37368960646642962 0.31911015363466272 0 0.36770298492566261 0.33637877995368609 0 0.36985494237623989 0.33311962493185521 0 0.37368960646642962 0.31911015363466272 0 0.36266452242448938 0.34229393694352239 0 0.37368960646642962 0.31911015363466272 0 0.36266452242448938 0.34229393694352239 0 0.37014896644917339 0.316543878568457 0 0.36411885078159001 0.32644375487552563 0 0.36840829020790361 0.34668560051738673 0 0.36916640720496519 0.34145859007673351 0 0.36587418437400321 0.34278907974668538 0 0.36840829020790361 0.34668560051738673 0 0.37256750073976291 0.34304532959464751 0 0.36916640720496519 0.34145859007673351 0 0.36916640720496519 0.34145859007673351 0 0.36587418437400321 0.34278907974668538 0 0.36708394454210669 0.33994961910346172 0 0.36916640720496519 0.34145859007673351 0 0.37010024416019238 0.33739894816112592 0 0.36708394454210669 0.33994961910346172 0 0.36916640720496519 0.34145859007673351 0 0.37010024416019238 0.33739894816112592 0 0.37369311900952262 0.33836265764115908 0 0.36770298492566261 0.33637877995368609 0 0.37010024416019238 0.33739894816112592 0 0.36708394454210669 0.33994961910346172 0 0.37010024416019238 0.33739894816112592 0 0.37369311900952262 0.33836265764115908 0 0.3722735272100694 0.33425106354392481 0 0.3722735272100694 0.33425106354392481 0 0.37245621682226088 0.32924087979990557 0 0.375263113682131 0.33313320718557798 0 0.37369311900952262 0.33836265764115908 0 0.3722735272100694 0.33425106354392481 0 0.375263113682131 0.33313320718557798 0 0.3722735272100694 0.33425106354392481 0 0.37245621682226088 0.32924087979990557 0 0.36985494237623989 0.33311962493185521 0 0.37245621682226088 0.32924087979990557 0 0.37577016905582622 0.32787937856968757 0 0.375263113682131 0.33313320718557798 0 0.37010024416019238 0.33739894816112592 0 0.3722735272100694 0.33425106354392481 0 0.36985494237623989 0.33311962493185521 0 0.36770298492566261 0.33637877995368609 0 0.37010024416019238 0.33739894816112592 0 0.36985494237623989 0.33311962493185521 0 0.36128237795215928 0.33126347269122047 0 0.36124897776362869 0.33531944770056321 0 0.36411885078159001 0.32644375487552563 0 0.36150631125237548 0.32912422255951068 0 0.36128237795215928 0.33126347269122047 0 0.36411885078159001 0.32644375487552563 0 0.36150631125237548 0.32912422255951068 0 0.35994194411877378 0.32646204206530971 0 0.35835984371964152 0.33045614064968309 0 0.36128237795215928 0.33126347269122047 0 0.35899626180536931 0.33430086833413269 0 0.35835984371964152 0.33045614064968309 0 0.36150631125237548 0.32912422255951068 0 0.36128237795215928 0.33126347269122047 0 0.35835984371964152 0.33045614064968309 0 0.36128237795215928 0.33126347269122047 0 0.36124897776362869 0.33531944770056321 0 0.35899626180536931 0.33430086833413269 0 0.36124897776362869 0.33531944770056321 0 0.36001134864139028 0.33778823672905661 0 0.35899626180536931 0.33430086833413269 0 0.36124897776362869 0.33531944770056321 0 0.36001134864139028 0.33778823672905661 0 0.36266452242448938 0.34229393694352239 0 0.36001134864139028 0.33778823672905661 0 0.36266452242448938 0.34229393694352239 0 0.3582225103283424 0.33883319475427592 0 0.36266452242448938 0.34229393694352239 0 0.36587418437400321 0.34278907974668538 0 0.36708394454210669 0.33994961910346172 0 0.36770298492566261 0.33637877995368609 0 0.36266452242448938 0.34229393694352239 0 0.36708394454210669 0.33994961910346172 0 0.36266452242448938 0.34229393694352239 0 0.37368960646642962 0.31911015363466272 0 0.37014896644917339 0.316543878568457 0 0.37014896644917339 0.316543878568457 0 0.36604953812300478 0.31497278055865852 0 0.36630954626425261 0.31087512405144152 0 0.37499251130121058 0.31593455150060828 0 0.37014896644917339 0.316543878568457 0 0.37695808612291098 0.31120865645681561 0 0.37499251130121058 0.31593455150060828 0 0.37368960646642962 0.31911015363466272 0 0.37014896644917339 0.316543878568457 0 0.37014896644917339 0.316543878568457 0 0.36646072203027302 0.32009490443849897 0 0.3659238024377004 0.31770243144255911 0 0.37014896644917339 0.316543878568457 0 0.3659238024377004 0.31770243144255911 0 0.36604953812300478 0.31497278055865852 0 0.37245621682226088 0.32924087979990557 0 0.36985494237623989 0.33311962493185521 0 0.37368960646642962 0.31911015363466272 0 0.37245621682226088 0.32924087979990557 0 0.37368960646642962 0.31911015363466272 0 0.37506056064123422 0.32471797871916308 0 0.37245621682226088 0.32924087979990557 0 0.37577016905582622 0.32787937856968757 0 0.37506056064123422 0.32471797871916308 0 0.37014896644917339 0.316543878568457 0 0.36411885078159001 0.32644375487552563 0 0.36646072203027302 0.32009490443849897 0 0.36411885078159001 0.32644375487552563 0 0.35994194411877378 0.32646204206530971 0 0.36132202517978662 0.32303080634539388 0 0.36150631125237548 0.32912422255951068 0 0.36411885078159001 0.32644375487552563 0 0.35994194411877378 0.32646204206530971 0 0.36132202517978662 0.32303080634539388 0 0.36348301458407639 0.32047903077872458 0 0.35962675317161102 0.31893041505789499 0 0.36411885078159001 0.32644375487552563 0 0.36132202517978662 0.32303080634539388 0 0.36348301458407639 0.32047903077872458 0 0.36411885078159001 0.32644375487552563 0 0.36348301458407639 0.32047903077872458 0 0.36646072203027302 0.32009490443849897 0 0.36348301458407639 0.32047903077872458 0 0.36646072203027302 0.32009490443849897 0 0.3659238024377004 0.31770243144255911 0 0.3659238024377004 0.31770243144255911 0 0.36344593390349789 0.31667187251247519 0 0.36604953812300478 0.31497278055865852 0 0.36348301458407639 0.32047903077872458 0 0.3659238024377004 0.31770243144255911 0 0.36344593390349789 0.31667187251247519 0 0.36348301458407639 0.32047903077872458 0 0.36344593390349789 0.31667187251247519 0 0.35962675317161102 0.31893041505789499 0 0.36344593390349789 0.31667187251247519 0 0.35962675317161102 0.31893041505789499 0 0.35878641637012221 0.31305233625990619 0 0.36344593390349789 0.31667187251247519 0 0.36331333565659901 0.31283202127524651 0 0.35878641637012221 0.31305233625990619 0 0.36331333565659901 0.31283202127524651 0 0.36604953812300478 0.31497278055865852 0 0.36630954626425261 0.31087512405144152 0 0.36344593390349789 0.31667187251247519 0 0.36331333565659901 0.31283202127524651 0 0.36604953812300478 0.31497278055865852 0 0.35878641637012221 0.31305233625990619 0 0.35512602374864599 0.31718053618965047 0 0.35090510471213721 0.31152713165908658 0 0.35512602374864599 0.31718053618965047 0 0.34983435518440159 0.31943204998396652 0 0.35090510471213721 0.31152713165908658 0 0.35962675317161102 0.31893041505789499 0 0.35878641637012221 0.31305233625990619 0 0.35512602374864599 0.31718053618965047 0 0.35962675317161102 0.31893041505789499 0 0.35512602374864599 0.31718053618965047 0 0.35673455485560862 0.32229528426682241 0 0.35512602374864599 0.31718053618965047 0 0.35673455485560862 0.32229528426682241 0 0.34983435518440159 0.31943204998396652 0 0.35673455485560862 0.32229528426682241 0 0.35060422568955008 0.32587015674736058 0 0.34983435518440159 0.31943204998396652 0 0.35994194411877378 0.32646204206530971 0 0.36132202517978662 0.32303080634539388 0 0.35673455485560862 0.32229528426682241 0 0.36132202517978662 0.32303080634539388 0 0.35962675317161102 0.31893041505789499 0 0.35673455485560862 0.32229528426682241 0 0.35994194411877378 0.32646204206530971 0 0.35673455485560862 0.32229528426682241 0 0.35627338036128769 0.32705738058013539 0 0.35994194411877378 0.32646204206530971 0 0.35627338036128769 0.32705738058013539 0 0.35835984371964152 0.33045614064968309 0 0.35627338036128769 0.32705738058013539 0 0.35060422568955008 0.32587015674736058 0 0.35398721241228231 0.33095327650953749 0 0.35673455485560862 0.32229528426682241 0 0.35627338036128769 0.32705738058013539 0 0.35060422568955008 0.32587015674736058 0 0.35060422568955008 0.32587015674736058 0 0.34514221143703899 0.32919058107390442 0 0.34284551192874652 0.32364904383841531 0 0.35060422568955008 0.32587015674736058 0 0.34983435518440159 0.31943204998396652 0 0.34284551192874652 0.32364904383841531 0 0.34983435518440159 0.31943204998396652 0 0.34480088275632298 0.31606258733578418 0 0.35090510471213721 0.31152713165908658 0 0.34983435518440159 0.31943204998396652 0 0.34480088275632298 0.31606258733578418 0 0.34284551192874652 0.32364904383841531 0 0.35146565257524442 0.34420791440797271 0 0.36266452242448938 0.34229393694352239 0 0.35562031764263757 0.34031424282986023 0 0.35302683950207769 0.33602013814058929 0 0.35562031764263757 0.34031424282986023 0 0.35672120529774148 0.33684362974708199 0 0.35202203774268331 0.33965573310897551 0 0.35302683950207769 0.33602013814058929 0 0.35562031764263757 0.34031424282986023 0 0.35146565257524442 0.34420791440797271 0 0.35202203774268331 0.33965573310897551 0 0.35562031764263757 0.34031424282986023 0 0.36266452242448938 0.34229393694352239 0 0.35562031764263757 0.34031424282986023 0 0.3582225103283424 0.33883319475427592 0 0.35562031764263757 0.34031424282986023 0 0.3582225103283424 0.33883319475427592 0 0.35672120529774148 0.33684362974708199 0 0.36001134864139028 0.33778823672905661 0 0.3582225103283424 0.33883319475427592 0 0.35672120529774148 0.33684362974708199 0 0.36001134864139028 0.33778823672905661 0 0.35672120529774148 0.33684362974708199 0 0.35899626180536931 0.33430086833413269 0 0.35899626180536931 0.33430086833413269 0 0.35641212776078268 0.33381706902087938 0 0.35835984371964152 0.33045614064968309 0 0.35672120529774148 0.33684362974708199 0 0.35899626180536931 0.33430086833413269 0 0.35641212776078268 0.33381706902087938 0 0.35627338036128769 0.32705738058013539 0 0.35835984371964152 0.33045614064968309 0 0.35398721241228231 0.33095327650953749 0 0.35641212776078268 0.33381706902087938 0 0.35835984371964152 0.33045614064968309 0 0.35398721241228231 0.33095327650953749 0 0.35302683950207769 0.33602013814058929 0 0.35641212776078268 0.33381706902087938 0 0.35398721241228231 0.33095327650953749 0 0.35302683950207769 0.33602013814058929 0 0.35398721241228231 0.33095327650953749 0 0.34924685744035389 0.33249877391857741 0 0.35302683950207769 0.33602013814058929 0 0.35672120529774148 0.33684362974708199 0 0.35641212776078268 0.33381706902087938 0 0.35302683950207769 0.33602013814058929 0 0.34924685744035389 0.33249877391857741 0 0.34788509595764172 0.33882226599831611 0 0.35060422568955008 0.32587015674736058 0 0.34924685744035389 0.33249877391857741 0 0.34514221143703899 0.32919058107390442 0 0.35060422568955008 0.32587015674736058 0 0.35398721241228231 0.33095327650953749 0 0.34924685744035389 0.33249877391857741 0 0.34924685744035389 0.33249877391857741 0 0.34514221143703899 0.32919058107390442 0 0.34474234507332802 0.33433591834825649 0 0.34924685744035389 0.33249877391857741 0 0.34474234507332802 0.33433591834825649 0 0.34788509595764172 0.33882226599831611 0 0.34474234507332802 0.33433591834825649 0 0.34788509595764172 0.33882226599831611 0 0.34057592936449049 0.33809639891542392 0 0.35146565257524442 0.34420791440797271 0 0.34788509595764172 0.33882226599831611 0 0.34269927497721508 0.34493512072036142 0 0.35202203774268331 0.33965573310897551 0 0.35302683950207769 0.33602013814058929 0 0.34788509595764172 0.33882226599831611 0 0.35146565257524442 0.34420791440797271 0 0.35202203774268331 0.33965573310897551 0 0.34788509595764172 0.33882226599831611 0 0.34057592936449049 0.33809639891542392 0 0.33318390910610529 0.34358855052096038 0 0.34269927497721508 0.34493512072036142 0 0.34788509595764172 0.33882226599831611 0 0.34057592936449049 0.33809639891542392 0 0.34269927497721508 0.34493512072036142 0 0.34474234507332802 0.33433591834825649 0 0.34057592936449049 0.33809639891542392 0 0.33946855119551672 0.33096103471374028 0 0.34514221143703899 0.32919058107390442 0 0.34474234507332802 0.33433591834825649 0 0.33946855119551672 0.33096103471374028 0 0.34057592936449049 0.33809639891542392 0 0.33946855119551672 0.33096103471374028 0 0.33283637980140879 0.33469331179832718 0 0.33946855119551672 0.33096103471374028 0 0.33283637980140879 0.33469331179832718 0 0.33464693517381472 0.32630086361949601 0 0.33283637980140879 0.33469331179832718 0 0.33464693517381472 0.32630086361949601 0 0.3250964778074269 0.32978689602061512 0 0.34057592936449049 0.33809639891542392 0 0.33283637980140879 0.33469331179832718 0 0.33318390910610529 0.34358855052096038 0 0.33283637980140879 0.33469331179832718 0 0.33318390910610529 0.34358855052096038 0 0.32611481079287369 0.33974729713420021 0 0.34480088275632298 0.31606258733578418 0 0.33769186663180051 0.31814262317354819 0 0.34192449374142192 0.30753297203612773 0 0.34480088275632298 0.31606258733578418 0 0.33769186663180051 0.31814262317354819 0 0.34284551192874652 0.32364904383841531 0 0.33946855119551672 0.33096103471374028 0 0.34284551192874652 0.32364904383841531 0 0.33464693517381472 0.32630086361949601 0 0.33769186663180051 0.31814262317354819 0 0.34284551192874652 0.32364904383841531 0 0.33464693517381472 0.32630086361949601 0 0.34514221143703899 0.32919058107390442 0 0.33946855119551672 0.33096103471374028 0 0.34284551192874652 0.32364904383841531 0 0.33769186663180051 0.31814262317354819 0 0.33464693517381472 0.32630086361949601 0 0.32994282367798861 0.32057227217232959 0 0.33464693517381472 0.32630086361949601 0 0.32994282367798861 0.32057227217232959 0 0.3250964778074269 0.32978689602061512 0 0.33769186663180051 0.31814262317354819 0 0.32994282367798861 0.32057227217232959 0 0.32867162081685902 0.31028670060733149 0 0.32176892132522322 0.32006025561378759 0 0.31440941436971798 0.31242774502049953 0 0.32867162081685902 0.31028670060733149 0 0.32994282367798861 0.32057227217232959 0 0.32176892132522322 0.32006025561378759 0 0.32867162081685902 0.31028670060733149 0 0.32176892132522322 0.32006025561378759 0 0.31484893044661 0.32778579360563193 0 0.3250964778074269 0.32978689602061512 0 0.32994282367798861 0.32057227217232959 0 0.32176892132522322 0.32006025561378759 0 0.3250964778074269 0.32978689602061512 0 0.32176892132522322 0.32006025561378759 0 0.31484893044661 0.32778579360563193 0 0.31440941436971798 0.31242774502049953 0 0.32611481079287369 0.33974729713420021 0 0.3250964778074269 0.32978689602061512 0 0.31767498628904178 0.33862919533695518 0 0.32611481079287369 0.33974729713420021 0 0.31767498628904178 0.33862919533695518 0 0.32336406622478242 0.34852958887145069 0 0.33283637980140879 0.33469331179832718 0 0.32611481079287369 0.33974729713420021 0 0.3250964778074269 0.32978689602061512 0 0.31484893044661 0.32778579360563193 0 0.31767498628904178 0.33862919533695518 0 0.30654896287530792 0.34033791233229299 0 0.31484893044661 0.32778579360563193 0 0.3250964778074269 0.32978689602061512 0 0.31767498628904178 0.33862919533695518 0 0.31767498628904178 0.33862919533695518 0 0.31315570067328902 0.3464643712977632 0 0.32336406622478242 0.34852958887145069 0 0.31315570067328902 0.3464643712977632 0 0.31355388928080707 0.35546570062290778 0 0.32336406622478242 0.34852958887145069 0 0.32336406622478242 0.34852958887145069 0 0.33442175170730049 0.35218858713626039 0 0.32437013183195901 0.3602157298059272 0 0.31355388928080707 0.35546570062290778 0 0.32336406622478242 0.34852958887145069 0 0.32437013183195901 0.3602157298059272 0 0.33318390910610529 0.34358855052096038 0 0.32611481079287369 0.33974729713420021 0 0.32336406622478242 0.34852958887145069 0 0.35030182712711511 0.35130594720886232 0 0.33442175170730049 0.35218858713626039 0 0.33389487655237682 0.3658352592629312 0 0.33318390910610529 0.34358855052096038 0 0.32336406622478242 0.34852958887145069 0 0.33442175170730049 0.35218858713626039 0 0.35030182712711511 0.35130594720886232 0 0.33442175170730049 0.35218858713626039 0 0.34269927497721508 0.34493512072036142 0 0.33318390910610529 0.34358855052096038 0 0.33442175170730049 0.35218858713626039 0 0.34269927497721508 0.34493512072036142 0 0.34270248502322931 0.38427053755298168 0 0.35268350372385993 0.36328223724825232 0 0.33389487655237682 0.3658352592629312 0 0.33442175170730049 0.35218858713626039 0 0.33389487655237682 0.3658352592629312 0 0.32437013183195901 0.3602157298059272 0 0.31661607539452802 0.37905951313608538 0 0.33389487655237682 0.3658352592629312 0 0.32437013183195901 0.3602157298059272 0 0.31661607539452802 0.37905951313608538 0 0.31355388928080707 0.35546570062290778 0 0.32437013183195901 0.3602157298059272 0 0.31661607539452802 0.37905951313608538 0 0.31355388928080707 0.35546570062290778 0 0.31661607539452802 0.37905951313608538 0 0.31355388928080707 0.35546570062290778 0 0.30541822204374358 0.36584678197342768 0 0.2987730087010142 0.37934426936791982 0 0.31661607539452802 0.37905951313608538 0 0.30541822204374358 0.36584678197342768 0 0.30541822204374358 0.36584678197342768 0 0.30393955747459928 0.35096595789874813 0 0.29215410451095353 0.36543341035917859 0 0.2987730087010142 0.37934426936791982 0 0.30541822204374358 0.36584678197342768 0 0.29215410451095353 0.36543341035917859 0 0.31315570067328902 0.3464643712977632 0 0.30393955747459928 0.35096595789874813 0 0.30654896287530792 0.34033791233229299 0 0.31315570067328902 0.3464643712977632 0 0.31355388928080707 0.35546570062290778 0 0.30393955747459928 0.35096595789874813 0 0.31355388928080707 0.35546570062290778 0 0.30541822204374358 0.36584678197342768 0 0.30393955747459928 0.35096595789874813 0 0.30393955747459928 0.35096595789874813 0 0.29215410451095353 0.36543341035917859 0 0.30393955747459928 0.35096595789874813 0 0.29720735802849829 0.34424744790442102 0 0.29027641861796738 0.35164951467646482 0 0.30393955747459928 0.35096595789874813 0 0.29720735802849829 0.34424744790442102 0 0.30654896287530792 0.34033791233229299 0 0.29720735802849829 0.34424744790442102 0 0.29027641861796738 0.35164951467646482 0 0.28998304713239348 0.34105976447064218 0 0.30393955747459928 0.35096595789874813 0 0.29027641861796738 0.35164951467646482 0 0.29215410451095353 0.36543341035917859 0 0.29027641861796738 0.35164951467646482 0 0.29215410451095353 0.36543341035917859 0 0.27920137084664282 0.3573603676334649 0 0.29027641861796738 0.35164951467646482 0 0.27920137084664282 0.3573603676334649 0 0.28068773357058369 0.34198453751068081 0 0.29027641861796738 0.35164951467646482 0 0.28068773357058369 0.34198453751068081 0 0.28998304713239348 0.34105976447064218 0 0.28036865154730628 0.37990086281960789 0 0.29215410451095353 0.36543341035917859 0 0.27920137084664282 0.3573603676334649 0 0.28036865154730628 0.37990086281960789 0 0.2987730087010142 0.37934426936791982 0 0.29215410451095353 0.36543341035917859 0 0.28036865154730628 0.37990086281960789 0 0.29215410451095353 0.36543341035917859 0 0.28036865154730628 0.37990086281960789 0 0.27920137084664282 0.3573603676334649 0 0.26173146881309822 0.35734024057335978 0 0.28036865154730628 0.37990086281960789 0 0.26173146881309822 0.35734024057335978 0 0.28036865154730628 0.37990086281960789 0 0.26173146881309822 0.35734024057335978 0 0.2641967246118288 0.36596915937278562 0 0.27920137084664282 0.3573603676334649 0 0.27030047393074008 0.3474963096498429 0 0.26173146881309822 0.35734024057335978 0 0.27920137084664282 0.3573603676334649 0 0.27030047393074008 0.3474963096498429 0 0.28068773357058369 0.34198453751068081 0 0.2430942860788903 0.33477961832711151 0 0.26173146881309822 0.35734024057335978 0 0.27030047393074008 0.3474963096498429 0 0.26173146881309822 0.35734024057335978 0 0.26240083601839698 0.33727672217147331 0 0.23816107804029091 0.35120524212074949 0 0.26173146881309822 0.35734024057335978 0 0.2641967246118288 0.36596915937278562 0 0.23816107804029091 0.35120524212074949 0 0.2641967246118288 0.36596915937278562 0 0.2492643002430574 0.365916522193315 0 0.24311907173897271 0.36013203008567057 0 0.2641967246118288 0.36596915937278562 0 0.2492643002430574 0.365916522193315 0 0.25710864090743918 0.37145542319719338 0 0.2641967246118288 0.36596915937278562 0 0.2492643002430574 0.365916522193315 0 0.25383912625151372 0.37755129754335942 0 0.25710864090743918 0.37145542319719338 0 0.26350653962281989 0.38010735630523079 0 0.25710864090743918 0.37145542319719338 0 0.2641967246118288 0.36596915937278562 0 0.2484846271056145 0.31037308609574782 0 0.25508783524565293 0.32209220201309929 0 0.26836904206483531 0.31075971332937607 0 0.25508783524565293 0.32209220201309929 0 0.26240083601839698 0.33727672217147331 0 0.26677092012209491 0.32204036282613252 0 0.25508783524565293 0.32209220201309929 0 0.26677092012209491 0.32204036282613252 0 0.26836904206483531 0.31075971332937607 0 0.2430942860788903 0.33477961832711151 0 0.25508783524565293 0.32209220201309929 0 0.26240083601839698 0.33727672217147331 0 0.2430942860788903 0.33477961832711151 0 0.26173146881309822 0.35734024057335978 0 0.26240083601839698 0.33727672217147331 0 0.26240083601839698 0.33727672217147331 0 0.27184092000699639 0.33891315949469752 0 0.27388917516664008 0.32964775149744319 0 0.26240083601839698 0.33727672217147331 0 0.27388917516664008 0.32964775149744319 0 0.26677092012209491 0.32204036282613252 0 0.27030047393074008 0.3474963096498429 0 0.26240083601839698 0.33727672217147331 0 0.27184092000699639 0.33891315949469752 0 0.27030047393074008 0.3474963096498429 0 0.27184092000699639 0.33891315949469752 0 0.28068773357058369 0.34198453751068081 0 0.27184092000699639 0.33891315949469752 0 0.28068773357058369 0.34198453751068081 0 0.27388917516664008 0.32964775149744319 0 0.28068773357058369 0.34198453751068081 0 0.27388917516664008 0.32964775149744319 0 0.28570907475377572 0.33188311037056872 0 0.27388917516664008 0.32964775149744319 0 0.26677092012209491 0.32204036282613252 0 0.28178409254690689 0.31684790712797722 0 0.27388917516664008 0.32964775149744319 0 0.28178409254690689 0.31684790712797722 0 0.28570907475377572 0.33188311037056872 0 0.26677092012209491 0.32204036282613252 0 0.28178409254690689 0.31684790712797722 0 0.26836904206483531 0.31075971332937607 0 0.28178409254690689 0.31684790712797722 0 0.29262159606390598 0.32453461147271162 0 0.29660332646403359 0.30785121346786842 0 0.28178409254690689 0.31684790712797722 0 0.29262159606390598 0.32453461147271162 0 0.28570907475377572 0.33188311037056872 0 0.28068773357058369 0.34198453751068081 0 0.28570907475377572 0.33188311037056872 0 0.28998304713239348 0.34105976447064218 0 0.29262159606390598 0.32453461147271162 0 0.28570907475377572 0.33188311037056872 0 0.29603465069114282 0.33553421189107618 0 0.29720735802849829 0.34424744790442102 0 0.29603465069114282 0.33553421189107618 0 0.28998304713239348 0.34105976447064218 0 0.28570907475377572 0.33188311037056872 0 0.29603465069114282 0.33553421189107618 0 0.28998304713239348 0.34105976447064218 0 0.29720735802849829 0.34424744790442102 0 0.29603465069114282 0.33553421189107618 0 0.30654896287530792 0.34033791233229299 0 0.29603465069114282 0.33553421189107618 0 0.30654896287530792 0.34033791233229299 0 0.30445412428221041 0.32558903425911379 0 0.29262159606390598 0.32453461147271162 0 0.29603465069114282 0.33553421189107618 0 0.30445412428221041 0.32558903425911379 0 0.31484893044661 0.32778579360563193 0 0.30654896287530792 0.34033791233229299 0 0.30445412428221041 0.32558903425911379 0 0.31767498628904178 0.33862919533695518 0 0.31315570067328902 0.3464643712977632 0 0.30654896287530792 0.34033791233229299 0 0.30445412428221041 0.32558903425911379 0 0.29660332646403359 0.30785121346786842 0 0.31440941436971798 0.31242774502049953 0 0.29262159606390598 0.32453461147271162 0 0.30445412428221041 0.32558903425911379 0 0.29660332646403359 0.30785121346786842 0 0.31484893044661 0.32778579360563193 0 0.30445412428221041 0.32558903425911379 0 0.31440941436971798 0.31242774502049953 0 0.30822946874662033 0.29998271616579031 0 0.29660332646403359 0.30785121346786842 0 0.31440941436971798 0.31242774502049953 0 0.30822946874662033 0.29998271616579031 0 0.30055108247350393 0.28416894361273021 0 0.29660332646403359 0.30785121346786842 0 0.30822946874662033 0.29998271616579031 0 0.30055108247350393 0.28416894361273021 0 0.32109763140443309 0.29547610107375327 0 0.30055108247350393 0.28416894361273021 0 0.29660332646403359 0.30785121346786842 0 0.27430616976337108 0.29100628718303567 0 0.30055108247350393 0.28416894361273021 0 0.27430616976337108 0.29100628718303567 0 0.28443506245096839 0.27205148705280008 0 0.30055108247350393 0.28416894361273021 0 0.27430616976337108 0.29100628718303567 0 0.28178409254690689 0.31684790712797722 0 0.29660332646403359 0.30785121346786842 0 0.27430616976337108 0.29100628718303567 0 0.28178409254690689 0.31684790712797722 0 0.26836904206483531 0.31075971332937607 0 0.27430616976337108 0.29100628718303567 0 0.28178409254690689 0.31684790712797722 0 0.27430616976337108 0.29100628718303567 0 0.27430616976337108 0.29100628718303567 0 0.25121587924780342 0.29702178630611242 0 0.27430616976337108 0.29100628718303567 0 0.25953152444998728 0.28294166139542631 0 0.25121587924780342 0.29702178630611242 0 0.26836904206483531 0.31075971332937607 0 0.27430616976337108 0.29100628718303567 0 0.25121587924780342 0.29702178630611242 0 0.26836904206483531 0.31075971332937607 0 0.25121587924780342 0.29702178630611242 0 0.2484846271056145 0.31037308609574782 0 0.26836904206483531 0.31075971332937607 0 0.25121587924780342 0.29702178630611242 0 0.25102838231212438 0.26850893423506528 0 0.26790857605335527 0.26889798384773289 0 0.26221447651104962 0.2479993693513689 0 0.26790857605335527 0.26889798384773289 0 0.26221447651104962 0.2479993693513689 0 0.25953152444998728 0.28294166139542631 0 0.25102838231212438 0.26850893423506528 0 0.26790857605335527 0.26889798384773289 0 0.27430616976337108 0.29100628718303567 0 0.26790857605335527 0.26889798384773289 0 0.28443506245096839 0.27205148705280008 0 0.27430616976337108 0.29100628718303567 0 0.25953152444998728 0.28294166139542631 0 0.26790857605335527 0.26889798384773289 0 0.27430616976337108 0.29100628718303567 0 0.26790857605335527 0.26889798384773289 0 0.26790857605335527 0.26889798384773289 0 0.28119448123381058 0.25405304303149878 0 0.26221447651104962 0.2479993693513689 0 0.26790857605335527 0.26889798384773289 0 0.28119448123381058 0.25405304303149878 0 0.28443506245096839 0.27205148705280008 0 0.28119448123381058 0.25405304303149878 0 0.28443506245096839 0.27205148705280008 0 0.2982150027308012 0.26213117758900317 0 0.28119448123381058 0.25405304303149878 0 0.2982150027308012 0.26213117758900317 0 0.30328699804120918 0.24394477185791469 0 0.30055108247350393 0.28416894361273021 0 0.28443506245096839 0.27205148705280008 0 0.2982150027308012 0.26213117758900317 0 0.30055108247350393 0.28416894361273021 0 0.2982150027308012 0.26213117758900317 0 0.31879452400631653 0.25919465198291952 0 0.2982150027308012 0.26213117758900317 0 0.31879452400631653 0.25919465198291952 0 0.30328699804120918 0.24394477185791469 0 0.31879452400631653 0.25919465198291952 0 0.33092809789354199 0.24744869965648561 0 0.31845456220733243 0.24449663650262579 0 0.31879452400631653 0.25919465198291952 0 0.33565265393095528 0.25675142138279861 0 0.33982225619875311 0.26765994074234428 0 0.31879452400631653 0.25919465198291952 0 0.33982225619875311 0.26765994074234428 0 0.31879452400631653 0.25919465198291952 0 0.33565265393095528 0.25675142138279861 0 0.33092809789354199 0.24744869965648561 0 0.33565265393095528 0.25675142138279861 0 0.33982225619875311 0.26765994074234428 0 0.34536281311255052 0.25941060478944128 0 0.33565265393095528 0.25675142138279861 0 0.3433555784436142 0.25004320974280247 0 0.33092809789354199 0.24744869965648561 0 0.33565265393095528 0.25675142138279861 0 0.3433555784436142 0.25004320974280247 0 0.34536281311255052 0.25941060478944128 0 0.31879452400631653 0.25919465198291952 0 0.33982225619875311 0.26765994074234428 0 0.32679599518363661 0.27733160004242491 0 0.33982225619875311 0.26765994074234428 0 0.32679599518363661 0.27733160004242491 0 0.34056182851336592 0.28206143899133118 0 0.30055108247350393 0.28416894361273021 0 0.32679599518363661 0.27733160004242491 0 0.30055108247350393 0.28416894361273021 0 0.31879452400631653 0.25919465198291952 0 0.32679599518363661 0.27733160004242491 0 0.32679599518363661 0.27733160004242491 0 0.32109763140443309 0.29547610107375327 0 0.33248404658197278 0.28876668272462419 0 0.30055108247350393 0.28416894361273021 0 0.32679599518363661 0.27733160004242491 0 0.32109763140443309 0.29547610107375327 0 0.32109763140443309 0.29547610107375327 0 0.31440941436971798 0.31242774502049953 0 0.32867162081685902 0.31028670060733149 0 0.30822946874662033 0.29998271616579031 0 0.32109763140443309 0.29547610107375327 0 0.31440941436971798 0.31242774502049953 0 0.32867162081685902 0.31028670060733149 0 0.33472549883669622 0.29791121211074773 0 0.34192449374142192 0.30753297203612773 0 0.32109763140443309 0.29547610107375327 0 0.32867162081685902 0.31028670060733149 0 0.33472549883669622 0.29791121211074773 0 0.33472549883669622 0.29791121211074773 0 0.34281583705185747 0.29966479619329672 0 0.34192449374142192 0.30753297203612773 0 0.33769186663180051 0.31814262317354819 0 0.32867162081685902 0.31028670060733149 0 0.34192449374142192 0.30753297203612773 0 0.32679599518363661 0.27733160004242491 0 0.33248404658197278 0.28876668272462419 0 0.34056182851336592 0.28206143899133118 0 0.32109763140443309 0.29547610107375327 0 0.33472549883669622 0.29791121211074773 0 0.33248404658197278 0.28876668272462419 0 0.33472549883669622 0.29791121211074773 0 0.33248404658197278 0.28876668272462419 0 0.34417327957572558 0.29277050597204329 0 0.33472549883669622 0.29791121211074773 0 0.34281583705185747 0.29966479619329672 0 0.34417327957572558 0.29277050597204329 0 0.33248404658197278 0.28876668272462419 0 0.34056182851336592 0.28206143899133118 0 0.34417327957572558 0.29277050597204329 0 0.34056182851336592 0.28206143899133118 0 0.34979868535227071 0.28728326233729501 0 0.34417327957572558 0.29277050597204329 0 0.34056182851336592 0.28206143899133118 0 0.34979868535227071 0.28728326233729501 0 0.35183199075491411 0.27966461044832719 0 0.34417327957572558 0.29277050597204329 0 0.35334053836337709 0.29410458558147129 0 0.34972900846361488 0.30172704795696642 0 0.34979868535227071 0.28728326233729501 0 0.34417327957572558 0.29277050597204329 0 0.35334053836337709 0.29410458558147129 0 0.34979868535227071 0.28728326233729501 0 0.35334053836337709 0.29410458558147129 0 0.35722235408413222 0.28831366276426512 0 0.35334053836337709 0.29410458558147129 0 0.35826071325737319 0.3003277240158499 0 0.36091512844171192 0.29433704443458902 0 0.35334053836337709 0.29410458558147129 0 0.35722235408413222 0.28831366276426512 0 0.36091512844171192 0.29433704443458902 0 0.34979868535227071 0.28728326233729501 0 0.35722235408413222 0.28831366276426512 0 0.35183199075491411 0.27966461044832719 0 0.35722235408413222 0.28831366276426512 0 0.36152496379752869 0.28359539021876212 0 0.35183199075491411 0.27966461044832719 0 0.34480088275632298 0.31606258733578418 0 0.34192449374142192 0.30753297203612773 0 0.35090510471213721 0.31152713165908658 0 0.34192449374142192 0.30753297203612773 0 0.35090510471213721 0.31152713165908658 0 0.34972900846361488 0.30172704795696642 0 0.34281583705185747 0.29966479619329672 0 0.34417327957572558 0.29277050597204329 0 0.34972900846361488 0.30172704795696642 0 0.34281583705185747 0.29966479619329672 0 0.34192449374142192 0.30753297203612773 0 0.34972900846361488 0.30172704795696642 0 0.34972900846361488 0.30172704795696642 0 0.35826071325737319 0.3003277240158499 0 0.35721607615581658 0.30656573559573969 0 0.35334053836337709 0.29410458558147129 0 0.34972900846361488 0.30172704795696642 0 0.35826071325737319 0.3003277240158499 0 0.35090510471213721 0.31152713165908658 0 0.34972900846361488 0.30172704795696642 0 0.35721607615581658 0.30656573559573969 0 0.35878641637012221 0.31305233625990619 0 0.35090510471213721 0.31152713165908658 0 0.35721607615581658 0.30656573559573969 0 0.37014896644917339 0.316543878568457 0 0.37763341047385651 0.29079382019339128 0 0.37014896644917339 0.316543878568457 0 0.37108481648816682 0.30013899891886681 0 0.36845835323010317 0.30596496181531441 0 0.37014896644917339 0.316543878568457 0 0.37763341047385651 0.29079382019339128 0 0.37695808612291098 0.31120865645681561 0 0.37014896644917339 0.316543878568457 0 0.37108481648816682 0.30013899891886681 0 0.37763341047385651 0.29079382019339128 0 0.36630954626425261 0.31087512405144152 0 0.36228941999803421 0.30896529616435242 0 0.36543096483439103 0.3064802843427199 0 0.36331333565659901 0.31283202127524651 0 0.36630954626425261 0.31087512405144152 0 0.36228941999803421 0.30896529616435242 0 0.36331333565659901 0.31283202127524651 0 0.35878641637012221 0.31305233625990619 0 0.36228941999803421 0.30896529616435242 0 0.35878641637012221 0.31305233625990619 0 0.35721607615581658 0.30656573559573969 0 0.36228941999803421 0.30896529616435242 0 0.35721607615581658 0.30656573559573969 0 0.36228941999803421 0.30896529616435242 0 0.36268018070702418 0.30398627546106088 0 0.36630954626425261 0.31087512405144152 0 0.36543096483439103 0.3064802843427199 0 0.36845835323010317 0.30596496181531441 0 0.36228941999803421 0.30896529616435242 0 0.36543096483439103 0.3064802843427199 0 0.36268018070702418 0.30398627546106088 0 0.36543096483439103 0.3064802843427199 0 0.36607900901995372 0.30349396637540749 0 0.36845835323010317 0.30596496181531441 0 0.36607900901995372 0.30349396637540749 0 0.36268018070702418 0.30398627546106088 0 0.36558719123160882 0.29969948119116269 0 0.36607900901995372 0.30349396637540749 0 0.36558719123160882 0.29969948119116269 0 0.36823835509664099 0.30133882906677939 0 0.36543096483439103 0.3064802843427199 0 0.36607900901995372 0.30349396637540749 0 0.36268018070702418 0.30398627546106088 0 0.35826071325737319 0.3003277240158499 0 0.35721607615581658 0.30656573559573969 0 0.36268018070702418 0.30398627546106088 0 0.35826071325737319 0.3003277240158499 0 0.36268018070702418 0.30398627546106088 0 0.36558719123160882 0.29969948119116269 0 0.35826071325737319 0.3003277240158499 0 0.36558719123160882 0.29969948119116269 0 0.36091512844171192 0.29433704443458902 0 0.36871223371641282 0.29817542324200702 0 0.37108481648816682 0.30013899891886681 0 0.37014933742706652 0.29575476169949788 0 0.36558719123160882 0.29969948119116269 0 0.36871223371641282 0.29817542324200702 0 0.36734652779664789 0.29411680932906442 0 0.36558719123160882 0.29969948119116269 0 0.36871223371641282 0.29817542324200702 0 0.36823835509664099 0.30133882906677939 0 0.36871223371641282 0.29817542324200702 0 0.37108481648816682 0.30013899891886681 0 0.36823835509664099 0.30133882906677939 0 0.37108481648816682 0.30013899891886681 0 0.36823835509664099 0.30133882906677939 0 0.36845835323010317 0.30596496181531441 0 0.36607900901995372 0.30349396637540749 0 0.36823835509664099 0.30133882906677939 0 0.36845835323010317 0.30596496181531441 0 0.37014896644917339 0.316543878568457 0 0.36630954626425261 0.31087512405144152 0 0.36845835323010317 0.30596496181531441 0 0.36812955944888692 0.28419813691800921 0 0.36084998839118931 0.2761252295017701 0 0.37969218042614078 0.28371066929036243 0 0.36152496379752869 0.28359539021876212 0 0.36812955944888692 0.28419813691800921 0 0.36084998839118931 0.2761252295017701 0 0.36414496955441777 0.28941104037434479 0 0.36911771796651938 0.28986917351547109 0 0.36812955944888692 0.28419813691800921 0 0.36152496379752869 0.28359539021876212 0 0.36414496955441777 0.28941104037434479 0 0.36812955944888692 0.28419813691800921 0 0.35722235408413222 0.28831366276426512 0 0.36152496379752869 0.28359539021876212 0 0.36414496955441777 0.28941104037434479 0 0.35722235408413222 0.28831366276426512 0 0.36091512844171192 0.29433704443458902 0 0.36414496955441777 0.28941104037434479 0 0.36558719123160882 0.29969948119116269 0 0.36091512844171192 0.29433704443458902 0 0.36734652779664789 0.29411680932906442 0 0.36091512844171192 0.29433704443458902 0 0.36414496955441777 0.28941104037434479 0 0.36734652779664789 0.29411680932906442 0 0.36414496955441777 0.28941104037434479 0 0.36911771796651938 0.28986917351547109 0 0.36734652779664789 0.29411680932906442 0 0.36911771796651938 0.28986917351547109 0 0.37026464520563152 0.29279186409727531 0 0.36734652779664789 0.29411680932906442 0 0.37108481648816682 0.30013899891886681 0 0.37306860395079622 0.29341917559567809 0 0.37763341047385651 0.29079382019339128 0 0.36911771796651938 0.28986917351547109 0 0.37026464520563152 0.29279186409727531 0 0.37237913536365119 0.29056320862162688 0 0.36871223371641282 0.29817542324200702 0 0.36734652779664789 0.29411680932906442 0 0.37014933742706652 0.29575476169949788 0 0.37026464520563152 0.29279186409727531 0 0.36734652779664789 0.29411680932906442 0 0.37014933742706652 0.29575476169949788 0 0.37108481648816682 0.30013899891886681 0 0.37014933742706652 0.29575476169949788 0 0.37306860395079622 0.29341917559567809 0 0.37026464520563152 0.29279186409727531 0 0.37014933742706652 0.29575476169949788 0 0.37306860395079622 0.29341917559567809 0 0.36911771796651938 0.28986917351547109 0 0.37237913536365119 0.29056320862162688 0 0.37333201972158658 0.2878654242033048 0 0.37306860395079622 0.29341917559567809 0 0.37237913536365119 0.29056320862162688 0 0.37763341047385651 0.29079382019339128 0 0.37237913536365119 0.29056320862162688 0 0.37333201972158658 0.2878654242033048 0 0.37763341047385651 0.29079382019339128 0 0.37026464520563152 0.29279186409727531 0 0.37306860395079622 0.29341917559567809 0 0.37237913536365119 0.29056320862162688 0 0.37333201972158658 0.2878654242033048 0 0.36812955944888692 0.28419813691800921 0 0.37969218042614078 0.28371066929036243 0 0.36911771796651938 0.28986917351547109 0 0.37333201972158658 0.2878654242033048 0 0.36812955944888692 0.28419813691800921 0 0.36084998839118931 0.2761252295017701 0 0.37969218042614078 0.28371066929036243 0 0.36084998839118931 0.2761252295017701 0 0.37017340450925651 0.266060206293324 0 0.3539366042426153 0.26554047293381039 0 0.36084998839118931 0.2761252295017701 0 0.38460708535355081 0.26680105137204091 0 0.36084998839118931 0.2761252295017701 0 0.37017340450925651 0.266060206293324 0 0.38460708535355081 0.26680105137204091 0 0.3539366042426153 0.26554047293381039 0 0.38129994004966872 0.25577407136566988 0 0.37169426656027921 0.24972740256563611 0 0.37017340450925651 0.266060206293324 0 0.3539366042426153 0.26554047293381039 0 0.38129994004966872 0.25577407136566988 0 0.3539366042426153 0.26554047293381039 0 0.37169426656027921 0.24972740256563611 0 0.36205361842742478 0.24882498742118489 0 0.3539366042426153 0.26554047293381039 0 0.38129994004966872 0.25577407136566988 0 0.3539366042426153 0.26554047293381039 0 0.35175757775775729 0.2532797976346674 0 0.36205361842742478 0.24882498742118489 0 0.3433555784436142 0.25004320974280247 0 0.35175757775775729 0.2532797976346674 0 0.34536281311255052 0.25941060478944128 0 0.33982225619875311 0.26765994074234428 0 0.3539366042426153 0.26554047293381039 0 0.34536281311255052 0.25941060478944128 0 0.3539366042426153 0.26554047293381039 0 0.35175757775775729 0.2532797976346674 0 0.34536281311255052 0.25941060478944128 0 0.33982225619875311 0.26765994074234428 0 0.36084998839118931 0.2761252295017701 0 0.33982225619875311 0.26765994074234428 0 0.36084998839118931 0.2761252295017701 0 0.3539366042426153 0.26554047293381039 0 0.33982225619875311 0.26765994074234428 0 0.36084998839118931 0.2761252295017701 0 0.35183199075491411 0.27966461044832719 0 0.33982225619875311 0.26765994074234428 0 0.34056182851336592 0.28206143899133118 0 0.35183199075491411 0.27966461044832719 0 0.36152496379752869 0.28359539021876212 0 0.36084998839118931 0.2761252295017701 0 0.35183199075491411 0.27966461044832719 0 0.36084998839118931 0.2761252295017701 0 0.35183199075491411 0.27966461044832719 0 0.39945440726228237 0.27350419034528239 0 0.38460708535355081 0.26680105137204091 0 0.40768566828284042 0.25774317622192677 0 0.39945440726228237 0.27350419034528239 0 0.4092682188351508 0.26816031590002881 0 0.40768566828284042 0.25774317622192677 0 0.39945440726228237 0.27350419034528239 0 0.38460708535355081 0.26680105137204091 0 0.3904751567012596 0.27530993325585928 0 0.39945440726228237 0.27350419034528239 0 0.3904751567012596 0.27530993325585928 0 0.39488150240831521 0.28173053148540511 0 0.39945440726228237 0.27350419034528239 0 0.40366985246608472 0.28285995447659418 0 0.40929088926209078 0.279020096056181 0 0.39945440726228237 0.27350419034528239 0 0.4092682188351508 0.26816031590002881 0 0.40929088926209078 0.279020096056181 0 0.39945440726228237 0.27350419034528239 0 0.39488150240831521 0.28173053148540511 0 0.40366985246608472 0.28285995447659418 0 0.38783836144724232 0.2556839199238965 0 0.38129994004966872 0.25577407136566988 0 0.40866327585672191 0.24600766979752939 0 0.38460708535355081 0.26680105137204091 0 0.40768566828284042 0.25774317622192677 0 0.38783836144724232 0.2556839199238965 0 0.40768566828284042 0.25774317622192677 0 0.40866327585672191 0.24600766979752939 0 0.38783836144724232 0.2556839199238965 0 0.38460708535355081 0.26680105137204091 0 0.40768566828284042 0.25774317622192677 0 0.38129994004966872 0.25577407136566988 0 0.40866327585672191 0.24600766979752939 0 0.38783836144724232 0.2556839199238965 0 0.38129994004966872 0.25577407136566988 0 0.38460708535355081 0.26680105137204091 0 0.38783836144724232 0.2556839199238965 0 0.38460708535355081 0.26680105137204091 0 0.38129994004966872 0.25577407136566988 0 0.37169426656027921 0.24972740256563611 0 0.38106847269238292 0.24536179082341181 0 0.37017340450925651 0.266060206293324 0 0.38129994004966872 0.25577407136566988 0 0.38460708535355081 0.26680105137204091 0 0.36084998839118931 0.2761252295017701 0 0.38460708535355081 0.26680105137204091 0 0.37969218042614078 0.28371066929036243 0 0.38460708535355081 0.26680105137204091 0 0.3904751567012596 0.27530993325585928 0 0.37969218042614078 0.28371066929036243 0 0.38460708535355081 0.26680105137204091 0 0.37969218042614078 0.28371066929036243 0 0.3904751567012596 0.27530993325585928 0 0.37969218042614078 0.28371066929036243 0 0.39488150240831521 0.28173053148540511 0 0.37969218042614078 0.28371066929036243 0 0.37763341047385651 0.29079382019339128 0 0.40259214502479168 0.29292967641552992 0 0.37763341047385651 0.29079382019339128 0 0.4027243230010164 0.30147339632314252 0 0.37969218042614078 0.28371066929036243 0 0.37763341047385651 0.29079382019339128 0 0.37333201972158658 0.2878654242033048 0 0.37969218042614078 0.28371066929036243 0 0.37763341047385651 0.29079382019339128 0 0.37763341047385651 0.29079382019339128 0 0.37695808612291098 0.31120865645681561 0 0.38599374742651271 0.30414296713942529 0 0.37763341047385651 0.29079382019339128 0 0.38599374742651271 0.30414296713942529 0 0.4027243230010164 0.30147339632314252 0 0.37695808612291098 0.31120865645681561 0 0.38599374742651271 0.30414296713942529 0 0.38754735899376969 0.31282171123814728 0 0.38599374742651271 0.30414296713942529 0 0.4027243230010164 0.30147339632314252 0 0.38754735899376969 0.31282171123814728 0 0.4027243230010164 0.30147339632314252 0 0.3956366020903157 0.32248231082130752 0 0.38754735899376969 0.31282171123814728 0 0.37969218042614078 0.28371066929036243 0 0.40259214502479168 0.29292967641552992 0 0.37969218042614078 0.28371066929036243 0 0.39488150240831521 0.28173053148540511 0 0.40259214502479168 0.29292967641552992 0 0.37763341047385651 0.29079382019339128 0 0.4027243230010164 0.30147339632314252 0 0.40259214502479168 0.29292967641552992 0 0.4027243230010164 0.30147339632314252 0 0.40259214502479168 0.29292967641552992 0 0.41139710839419091 0.29189735433941028 0 0.40259214502479168 0.29292967641552992 0 0.40366985246608472 0.28285995447659418 0 0.41139710839419091 0.29189735433941028 0 0.39488150240831521 0.28173053148540511 0 0.40259214502479168 0.29292967641552992 0 0.40366985246608472 0.28285995447659418 0 0.40366985246608472 0.28285995447659418 0 0.41139710839419091 0.29189735433941028 0 0.40929088926209078 0.279020096056181 0 0.41139710839419091 0.29189735433941028 0 0.42781523552817591 0.31215297245289481 0 0.42226183937510081 0.28327127115801121 0 0.41139710839419091 0.29189735433941028 0 0.42226183937510081 0.28327127115801121 0 0.40929088926209078 0.279020096056181 0 0.4027243230010164 0.30147339632314252 0 0.41139710839419091 0.29189735433941028 0 0.42781523552817591 0.31215297245289481 0 0.4027243230010164 0.30147339632314252 0 0.42781523552817591 0.31215297245289481 0 0.41357021602424721 0.32279281759874212 0 0.4027243230010164 0.30147339632314252 0 0.42781523552817591 0.31215297245289481 0 0.42781523552817591 0.31215297245289481 0 0.42226183937510081 0.28327127115801121 0 0.42781523552817591 0.31215297245289481 0 0.42226183937510081 0.28327127115801121 0 0.44120727567718632 0.28746005308771089 0 0.42226183937510081 0.28327127115801121 0 0.43023391716603732 0.27040224467912161 0 0.44120727567718632 0.28746005308771089 0 0.42226183937510081 0.28327127115801121 0 0.43023391716603732 0.27040224467912161 0 0.41664462513020523 0.25422696758609492 0 0.43023391716603732 0.27040224467912161 0 0.43692075095235122 0.26433370861442979 0 0.44373838257505849 0.27050131303512348 0 0.42226183937510081 0.28327127115801121 0 0.4092682188351508 0.26816031590002881 0 0.41664462513020523 0.25422696758609492 0 0.42226183937510081 0.28327127115801121 0 0.41664462513020523 0.25422696758609492 0 0.42226183937510081 0.28327127115801121 0 0.4092682188351508 0.26816031590002881 0 0.40929088926209078 0.279020096056181 0 0.40768566828284042 0.25774317622192677 0 0.41664462513020523 0.25422696758609492 0 0.40866327585672191 0.24600766979752939 0 0.40768566828284042 0.25774317622192677 0 0.41664462513020523 0.25422696758609492 0 0.4092682188351508 0.26816031590002881 0 0.40768566828284042 0.25774317622192677 0 0.41664462513020523 0.25422696758609492 0 0.42749544465446981 0.25699566217507153 0 0.45166362976964691 0.25106894999712381 0 0.43076425121212841 0.2486853010718087 0 0.41664462513020523 0.25422696758609492 0 0.42749544465446981 0.25699566217507153 0 0.43076425121212841 0.2486853010718087 0 0.43023391716603732 0.27040224467912161 0 0.41664462513020523 0.25422696758609492 0 0.42749544465446981 0.25699566217507153 0 0.41664462513020523 0.25422696758609492 0 0.43076425121212841 0.2486853010718087 0 0.42749544465446981 0.25699566217507153 0 0.43692075095235122 0.26433370861442979 0 0.44456450099631911 0.26043047377218492 0 0.43023391716603732 0.27040224467912161 0 0.42749544465446981 0.25699566217507153 0 0.43692075095235122 0.26433370861442979 0 0.42749544465446981 0.25699566217507153 0 0.45166362976964691 0.25106894999712381 0 0.42749544465446981 0.25699566217507153 0 0.44456450099631911 0.26043047377218492 0 0.45166362976964691 0.25106894999712381 0 0.43692075095235122 0.26433370861442979 0 0.44456450099631911 0.26043047377218492 0 0.44373838257505849 0.27050131303512348 0 0.44456450099631911 0.26043047377218492 0 0.44373838257505849 0.27050131303512348 0 0.45508065662597141 0.26402805921732958 0 0.44456450099631911 0.26043047377218492 0 0.45166362976964691 0.25106894999712381 0 0.45508065662597141 0.26402805921732958 0 0.44373838257505849 0.27050131303512348 0 0.45472874274978531 0.27586911806656422 0 0.44120727567718632 0.28746005308771089 0 0.43023391716603732 0.27040224467912161 0 0.44373838257505849 0.27050131303512348 0 0.44120727567718632 0.28746005308771089 0 0.44373838257505849 0.27050131303512348 0 0.45472874274978531 0.27586911806656422 0 0.45508065662597141 0.26402805921732958 0 0.45472874274978531 0.27586911806656422 0 0.46665275363318931 0.27127710252775639 0 0.46192346945889701 0.28817835066990299 0 0.45472874274978531 0.27586911806656422 0 0.46665275363318931 0.27127710252775639 0 0.45508065662597141 0.26402805921732958 0 0.45166362976964691 0.25106894999712381 0 0.46652816171208539 0.25830808769848879 0 0.47583181488482379 0.2451422378191761 0 0.45166362976964691 0.25106894999712381 0 0.45508065662597141 0.26402805921732958 0 0.46652816171208539 0.25830808769848879 0 0.46665275363318931 0.27127710252775639 0 0.45508065662597141 0.26402805921732958 0 0.46652816171208539 0.25830808769848879 0 0.46665275363318931 0.27127710252775639 0 0.46652816171208539 0.25830808769848879 0 0.48341195364679568 0.26002408893105827 0 0.46652816171208539 0.25830808769848879 0 0.48341195364679568 0.26002408893105827 0 0.47583181488482379 0.2451422378191761 0 0.46665275363318931 0.27127710252775639 0 0.48341195364679568 0.26002408893105827 0 0.48138518434246891 0.28130646820503019 0 0.46665275363318931 0.27127710252775639 0 0.48138518434246891 0.28130646820503019 0 0.46192346945889701 0.28817835066990299 0 0.5 0.26671351767664991 0 0.5 0.29421150971207138 0 0.48138518434246891 0.28130646820503019 0 0.48341195364679568 0.26002408893105827 0 0.5 0.26671351767664991 0 0.48138518434246891 0.28130646820503019 0 0.48341195364679568 0.26002408893105827 0 0.5 0.26671351767664991 0 0.50000000000000067 0.2392155256412283 0 0.5 0.29421150971207138 0 0.47556093647901088 0.30733800586058863 0 0.5 0.32170950174749302 0 0.5 0.29421150971207138 0 0.48138518434246891 0.28130646820503019 0 0.47556093647901088 0.30733800586058863 0 0.48138518434246891 0.28130646820503019 0 0.47556093647901088 0.30733800586058863 0 0.46192346945889701 0.28817835066990299 0 0.47556093647901088 0.30733800586058863 0 0.45214514511688908 0.30370412902975941 0 0.45421880844117613 0.32339126307769928 0 0.47556093647901088 0.30733800586058863 0 0.46192346945889701 0.28817835066990299 0 0.45214514511688908 0.30370412902975941 0 0.46192346945889701 0.28817835066990299 0 0.44120727567718632 0.28746005308771089 0 0.45214514511688908 0.30370412902975941 0 0.45472874274978531 0.27586911806656422 0 0.46192346945889701 0.28817835066990299 0 0.44120727567718632 0.28746005308771089 0 0.42781523552817591 0.31215297245289481 0 0.44120727567718632 0.28746005308771089 0 0.45214514511688908 0.30370412902975941 0 0.42781523552817591 0.31215297245289481 0 0.45421880844117613 0.32339126307769928 0 0.43298436918619881 0.33903622913929549 0 0.42781523552817591 0.31215297245289481 0 0.45214514511688908 0.30370412902975941 0 0.45421880844117613 0.32339126307769928 0 0.42781523552817591 0.31215297245289481 0 0.45421880844117613 0.32339126307769928 0 0.45421880844117613 0.32339126307769928 0 0.45970761232660212 0.34692044601787542 0 0.43298436918619881 0.33903622913929549 0 0.45421880844117613 0.32339126307769928 0 0.48062238135417568 0.33462955370250519 0 0.45421880844117613 0.32339126307769928 0 0.48062238135417568 0.33462955370250519 0 0.45970761232660212 0.34692044601787542 0 0.47556093647901088 0.30733800586058863 0 0.45421880844117613 0.32339126307769928 0 0.48062238135417568 0.33462955370250519 0 0.48062238135417568 0.33462955370250519 0 0.5 0.32170950174749302 0 0.5 0.34920749378291471 0 0.47556093647901088 0.30733800586058863 0 0.48062238135417568 0.33462955370250519 0 0.5 0.32170950174749302 0 0.5 0.34920749378291471 0 0.48254603458521478 0.3522402998402685 0 0.5 0.37670548581833618 0 0.48062238135417568 0.33462955370250519 0 0.5 0.34920749378291471 0 0.48254603458521478 0.3522402998402685 0 0.48254603458521478 0.3522402998402685 0 0.46972057754862501 0.36630584452178799 0 0.45970761232660212 0.34692044601787542 0 0.48062238135417568 0.33462955370250519 0 0.48254603458521478 0.3522402998402685 0 0.45970761232660212 0.34692044601787542 0 0.48254603458521478 0.3522402998402685 0 0.46972057754862501 0.36630584452178799 0 0.5 0.37670548581833618 0 0.46972057754862501 0.36630584452178799 0 0.43815350284422228 0.36591948582569622 0 0.45848938469160699 0.38276388730883248 0 0.46972057754862501 0.36630584452178799 0 0.45970761232660212 0.34692044601787542 0 0.43815350284422228 0.36591948582569622 0 0.45970761232660212 0.34692044601787542 0 0.43815350284422228 0.36591948582569622 0 0.43298436918619881 0.33903622913929549 0 0.43815350284422228 0.36591948582569622 0 0.4167242930516859 0.35972934744593471 0 0.42344095457037051 0.38268701701273461 0 0.4167242930516859 0.35972934744593471 0 0.40101385701800268 0.38518895784325291 0 0.4167242930516859 0.35972934744593471 0 0.40181680918128981 0.35947395412181382 0 0.40101385701800268 0.38518895784325291 0 0.4167242930516859 0.35972934744593471 0 0.40869055031553031 0.33881917925707022 0 0.40181680918128981 0.35947395412181382 0 0.4167242930516859 0.35972934744593471 0 0.43298436918619881 0.33903622913929549 0 0.40869055031553031 0.33881917925707022 0 0.43815350284422228 0.36591948582569622 0 0.4167242930516859 0.35972934744593471 0 0.43298436918619881 0.33903622913929549 0 0.43815350284422228 0.36591948582569622 0 0.43298436918619881 0.33903622913929549 0 0.42781523552817591 0.31215297245289481 0 0.43298436918619881 0.33903622913929549 0 0.42781523552817591 0.31215297245289481 0 0.43298436918619881 0.33903622913929549 0 0.41357021602424721 0.32279281759874212 0 0.43298436918619881 0.33903622913929549 0 0.41357021602424721 0.32279281759874212 0 0.40869055031553031 0.33881917925707022 0 0.40869055031553031 0.33881917925707022 0 0.39369601167170543 0.33564153172070438 0 0.39209274976778918 0.34814598654190299 0 0.40869055031553031 0.33881917925707022 0 0.39369601167170543 0.33564153172070438 0 0.3956366020903157 0.32248231082130752 0 0.39369601167170543 0.33564153172070438 0 0.3956366020903157 0.32248231082130752 0 0.38362385659697051 0.32926172455430031 0 0.39369601167170543 0.33564153172070438 0 0.38635485741833753 0.33883185827426582 0 0.39209274976778918 0.34814598654190299 0 0.41357021602424721 0.32279281759874212 0 0.40869055031553031 0.33881917925707022 0 0.3956366020903157 0.32248231082130752 0 0.4027243230010164 0.30147339632314252 0 0.41357021602424721 0.32279281759874212 0 0.3956366020903157 0.32248231082130752 0 0.3956366020903157 0.32248231082130752 0 0.38754735899376969 0.31282171123814728 0 0.38479800915553353 0.32074741934569512 0 0.38754735899376969 0.31282171123814728 0 0.38479800915553353 0.32074741934569512 0 0.37917338616632867 0.3168755173424983 0 0.3956366020903157 0.32248231082130752 0 0.38479800915553353 0.32074741934569512 0 0.38362385659697051 0.32926172455430031 0 0.38479800915553353 0.32074741934569512 0 0.37832625022041982 0.32264150287239662 0 0.38362385659697051 0.32926172455430031 0 0.37577016905582622 0.32787937856968757 0 0.37832625022041982 0.32264150287239662 0 0.38362385659697051 0.32926172455430031 0 0.37577016905582622 0.32787937856968757 0 0.37506056064123422 0.32471797871916308 0 0.37832625022041982 0.32264150287239662 0 0.37368960646642962 0.31911015363466272 0 0.37506056064123422 0.32471797871916308 0 0.37832625022041982 0.32264150287239662 0 0.37695808612291098 0.31120865645681561 0 0.38754735899376969 0.31282171123814728 0 0.37917338616632867 0.3168755173424983 0 0.38479800915553353 0.32074741934569512 0 0.37832625022041982 0.32264150287239662 0 0.37917338616632867 0.3168755173424983 0 0.37368960646642962 0.31911015363466272 0 0.37832625022041982 0.32264150287239662 0 0.37917338616632867 0.3168755173424983 0 0.37499251130121058 0.31593455150060828 0 0.37368960646642962 0.31911015363466272 0 0.37917338616632867 0.3168755173424983 0 0.37499251130121058 0.31593455150060828 0 0.37695808612291098 0.31120865645681561 0 0.37917338616632867 0.3168755173424983 0 0.38635485741833753 0.33883185827426582 0 0.3795813787571668 0.3363772241379393 0 0.38278029029805521 0.34473282441648212 0 0.39369601167170543 0.33564153172070438 0 0.38635485741833753 0.33883185827426582 0 0.38362385659697051 0.32926172455430031 0 0.38635485741833753 0.33883185827426582 0 0.38362385659697051 0.32926172455430031 0 0.3795813787571668 0.3363772241379393 0 0.37577016905582622 0.32787937856968757 0 0.38362385659697051 0.32926172455430031 0 0.37868435463470768 0.3315773541462857 0 0.38362385659697051 0.32926172455430031 0 0.37868435463470768 0.3315773541462857 0 0.3795813787571668 0.3363772241379393 0 0.37577016905582622 0.32787937856968757 0 0.37868435463470768 0.3315773541462857 0 0.375263113682131 0.33313320718557798 0 0.37868435463470768 0.3315773541462857 0 0.375263113682131 0.33313320718557798 0 0.3795813787571668 0.3363772241379393 0 0.37369311900952262 0.33836265764115908 0 0.3795813787571668 0.3363772241379393 0 0.37670219357667811 0.34177383067972761 0 0.3795813787571668 0.3363772241379393 0 0.37670219357667811 0.34177383067972761 0 0.38278029029805521 0.34473282441648212 0 0.37369311900952262 0.33836265764115908 0 0.375263113682131 0.33313320718557798 0 0.3795813787571668 0.3363772241379393 0 0.3809821990389497 0.35490418517770578 0 0.39056259575344082 0.36548629952090861 0 0.39209274976778918 0.34814598654190299 0 0.37486749369974542 0.34694596905823039 0 0.37670219357667811 0.34177383067972761 0 0.38278029029805521 0.34473282441648212 0 0.37486749369974542 0.34694596905823039 0 0.38278029029805521 0.34473282441648212 0 0.3809821990389497 0.35490418517770578 0 0.38278029029805521 0.34473282441648212 0 0.3809821990389497 0.35490418517770578 0 0.39209274976778918 0.34814598654190299 0 0.38635485741833753 0.33883185827426582 0 0.38278029029805521 0.34473282441648212 0 0.39209274976778918 0.34814598654190299 0 0.37228166628853332 0.35471301169251829 0 0.37486749369974542 0.34694596905823039 0 0.3809821990389497 0.35490418517770578 0 0.37414389550204002 0.36898578533419818 0 0.3809821990389497 0.35490418517770578 0 0.39056259575344082 0.36548629952090861 0 0.37414389550204002 0.36898578533419818 0 0.39056259575344082 0.36548629952090861 0 0.40101385701800268 0.38518895784325291 0 0.37414389550204002 0.36898578533419818 0 0.37228166628853332 0.35471301169251829 0 0.3809821990389497 0.35490418517770578 0 0.39056259575344082 0.36548629952090861 0 0.40181680918128981 0.35947395412181382 0 0.40101385701800268 0.38518895784325291 0 0.39056259575344082 0.36548629952090861 0 0.40181680918128981 0.35947395412181382 0 0.39209274976778918 0.34814598654190299 0 0.40869055031553031 0.33881917925707022 0 0.40181680918128981 0.35947395412181382 0 0.39209274976778918 0.34814598654190299 0 0.40101385701800268 0.38518895784325291 0 0.38530342098431941 0.41064856824057122 0 0.40101385701800268 0.38518895784325291 0 0.38530342098431941 0.41064856824057122 0 0.41521715527738928 0.40390661881175682 0 0.3736470799201031 0.39378130610698531 0 0.37414389550204002 0.36898578533419818 0 0.40101385701800268 0.38518895784325291 0 0.3736470799201031 0.39378130610698531 0 0.40101385701800268 0.38518895784325291 0 0.38530342098431941 0.41064856824057122 0 0.36959298495063608 0.43610817863788948 0 0.38530342098431941 0.41064856824057122 0 0.36959298495063608 0.43610817863788948 0 0.38530342098431941 0.41064856824057122 0 0.3889231515195431 0.43141286456833011 0 0.3889231515195431 0.43141286456833011 0 0.40362265567455102 0.42304679086704539 0 0.39942544658573009 0.43872588670818857 0 0.40362265567455102 0.42304679086704539 0 0.41248490446316177 0.43293377153942381 0 0.39942544658573009 0.43872588670818857 0 0.38530342098431941 0.41064856824057122 0 0.3889231515195431 0.43141286456833011 0 0.40362265567455102 0.42304679086704539 0 0.38530342098431941 0.41064856824057122 0 0.40362265567455102 0.42304679086704539 0 0.41521715527738928 0.40390661881175682 0 0.40362265567455102 0.42304679086704539 0 0.42233359500988371 0.42307221464191669 0 0.41521715527738928 0.40390661881175682 0 0.40362265567455102 0.42304679086704539 0 0.41248490446316177 0.43293377153942381 0 0.42233359500988371 0.42307221464191669 0 0.41248490446316177 0.43293377153942381 0 0.42233359500988371 0.42307221464191669 0 0.42326813014219627 0.43909650749986368 0 0.42233359500988371 0.42307221464191669 0 0.43681876433844857 0.43497208046478802 0 0.42326813014219627 0.43909650749986368 0 0.42233359500988371 0.42307221464191669 0 0.43681876433844857 0.43497208046478802 0 0.43655617137350622 0.42038510460191503 0 0.42233359500988371 0.42307221464191669 0 0.42830887421762198 0.41018013153495869 0 0.41521715527738928 0.40390661881175682 0 0.42233359500988371 0.42307221464191669 0 0.42830887421762198 0.41018013153495869 0 0.43655617137350622 0.42038510460191503 0 0.42830887421762198 0.41018013153495869 0 0.43655617137350622 0.42038510460191503 0 0.439625884597032 0.40642404903869822 0 0.42978568865087441 0.39901034440009059 0 0.42344095457037051 0.38268701701273461 0 0.4433226365022459 0.39280274251209668 0 0.42978568865087441 0.39901034440009059 0 0.41521715527738928 0.40390661881175682 0 0.42344095457037051 0.38268701701273461 0 0.42830887421762198 0.41018013153495869 0 0.42978568865087441 0.39901034440009059 0 0.439625884597032 0.40642404903869822 0 0.42830887421762198 0.41018013153495869 0 0.42978568865087441 0.39901034440009059 0 0.41521715527738928 0.40390661881175682 0 0.4167242930516859 0.35972934744593471 0 0.40101385701800268 0.38518895784325291 0 0.42344095457037051 0.38268701701273461 0 0.40101385701800268 0.38518895784325291 0 0.41521715527738928 0.40390661881175682 0 0.42344095457037051 0.38268701701273461 0 0.43815350284422228 0.36591948582569622 0 0.42344095457037051 0.38268701701273461 0 0.4433226365022459 0.39280274251209668 0 0.43815350284422228 0.36591948582569622 0 0.4433226365022459 0.39280274251209668 0 0.43815350284422228 0.36591948582569622 0 0.4433226365022459 0.39280274251209668 0 0.45848938469160699 0.38276388730883248 0 0.4433226365022459 0.39280274251209668 0 0.4587292321942566 0.40377894109977869 0 0.44849177016026981 0.41968599919849731 0 0.4433226365022459 0.39280274251209668 0 0.44849177016026981 0.41968599919849731 0 0.42978568865087441 0.39901034440009059 0 0.4433226365022459 0.39280274251209668 0 0.439625884597032 0.40642404903869822 0 0.4433226365022459 0.39280274251209668 0 0.4587292321942566 0.40377894109977869 0 0.45848938469160699 0.38276388730883248 0 0.4587292321942566 0.40377894109977869 0 0.45848938469160699 0.38276388730883248 0 0.47720201034463561 0.39055994944820821 0 0.46972057754862501 0.36630584452178799 0 0.45848938469160699 0.38276388730883248 0 0.47720201034463561 0.39055994944820821 0 0.46972057754862501 0.36630584452178799 0 0.47720201034463561 0.39055994944820821 0 0.5 0.37670548581833618 0 0.47720201034463561 0.39055994944820821 0 0.5 0.40420347785375749 0 0.47329291580914951 0.41490179660840648 0 0.4587292321942566 0.40377894109977869 0 0.47720201034463561 0.39055994944820821 0 0.47329291580914951 0.41490179660840648 0 0.47720201034463561 0.39055994944820821 0 0.5 0.40420347785375749 0 0.5 0.37670548581833618 0 0.48546521128148462 0.42572005307568972 0 0.49999999999999828 0.43170146988917901 0 0.48502495584706629 0.44181750450007778 0 0.49999999999999828 0.43170146988917901 0 0.48502495584706629 0.44181750450007778 0 0.5 0.40420347785375749 0 0.48546521128148462 0.42572005307568972 0 0.47329291580914951 0.41490179660840648 0 0.5 0.40420347785375749 0 0.48546521128148462 0.42572005307568972 0 0.49999999999999828 0.43170146988917901 0 0.48546521128148462 0.42572005307568972 0 0.47462076711180717 0.43403653248997731 0 0.48502495584706629 0.44181750450007778 0 0.47329291580914951 0.41490179660840648 0 0.47462076711180717 0.43403653248997731 0 0.45927084092720188 0.43580976915473651 0 0.48546521128148462 0.42572005307568972 0 0.47329291580914951 0.41490179660840648 0 0.47462076711180717 0.43403653248997731 0 0.45927084092720188 0.43580976915473651 0 0.44849177016026981 0.41968599919849731 0 0.47329291580914951 0.41490179660840648 0 0.45927084092720188 0.43580976915473651 0 0.44849177016026981 0.41968599919849731 0 0.45927084092720188 0.43580976915473651 0 0.44849177016026981 0.41968599919849731 0 0.45165089640657707 0.43611575462809582 0 0.4587292321942566 0.40377894109977869 0 0.47329291580914951 0.41490179660840648 0 0.44849177016026981 0.41968599919849731 0 0.4433226365022459 0.39280274251209668 0 0.44849177016026981 0.41968599919849731 0 0.439625884597032 0.40642404903869822 0 0.43655617137350622 0.42038510460191503 0 0.44849177016026981 0.41968599919849731 0 0.439625884597032 0.40642404903869822 0 0.44849177016026981 0.41968599919849731 0 0.439625884597032 0.40642404903869822 0 0.44849177016026981 0.41968599919849731 0 0.45165089640657707 0.43611575462809582 0 0.44386952542921521 0.4295111469185629 0 0.44849177016026981 0.41968599919849731 0 0.45165089640657707 0.43611575462809582 0 0.45165089640657707 0.43611575462809582 0 0.44386952542921521 0.4295111469185629 0 0.44519082659473158 0.43782150968735878 0 0.43655617137350622 0.42038510460191503 0 0.44849177016026981 0.41968599919849731 0 0.44386952542921521 0.4295111469185629 0 0.43681876433844857 0.43497208046478802 0 0.43655617137350622 0.42038510460191503 0 0.44386952542921521 0.4295111469185629 0 0.43681876433844857 0.43497208046478802 0 0.44386952542921521 0.4295111469185629 0 0.44519082659473158 0.43782150968735878 0 0.43681876433844857 0.43497208046478802 0 0.44519082659473158 0.43782150968735878 0 0.44362096681603608 0.44566090358066651 0 0.43681876433844857 0.43497208046478802 0 0.44362096681603608 0.44566090358066651 0 0.43343701099378978 0.44857281610427868 0 0.44362096681603608 0.44566090358066651 0 0.44110505044236059 0.45564825146568327 0 0.43343701099378978 0.44857281610427868 0 0.44362096681603608 0.44566090358066651 0 0.45255374853073171 0.45216262504332899 0 0.45221828903371142 0.44335246171580328 0 0.44362096681603608 0.44566090358066651 0 0.45255374853073171 0.45216262504332899 0 0.44110505044236059 0.45564825146568327 0 0.44519082659473158 0.43782150968735878 0 0.44362096681603608 0.44566090358066651 0 0.45221828903371142 0.44335246171580328 0 0.45165089640657707 0.43611575462809582 0 0.44519082659473158 0.43782150968735878 0 0.45221828903371142 0.44335246171580328 0 0.45255374853073171 0.45216262504332899 0 0.44518446721829791 0.46873079822848901 0 0.44110505044236059 0.45564825146568327 0 0.44518446721829791 0.46873079822848901 0 0.44110505044236059 0.45564825146568327 0 0.43072905865294731 0.46311411437165317 0 0.47284597636140308 0.45611600571247141 0 0.46302896313844299 0.47272331085799019 0 0.45255374853073171 0.45216262504332899 0 0.44518446721829791 0.46873079822848901 0 0.47004991169413368 0.45193353911097589 0 0.47004991169413368 0.45193353911097589 0 0.47284597636140308 0.45611600571247141 0 0.46302896313844299 0.47272331085799019 0 0.44518446721829791 0.46873079822848901 0 0.47004991169413368 0.45193353911097589 0 0.46302896313844299 0.47272331085799019 0 0.44518446721829791 0.46873079822848901 0 0.47004991169413368 0.45193353911097589 0 0.45927084092720188 0.43580976915473651 0 0.47004991169413368 0.45193353911097589 0 0.45927084092720188 0.43580976915473651 0 0.45930684530103161 0.44617181272829648 0 0.47004991169413368 0.45193353911097589 0 0.47462076711180717 0.43403653248997731 0 0.45927084092720188 0.43580976915473651 0 0.47004991169413368 0.45193353911097589 0 0.45255374853073171 0.45216262504332899 0 0.45930684530103161 0.44617181272829648 0 0.47004991169413368 0.45193353911097589 0 0.45927084092720188 0.43580976915473651 0 0.45221828903371142 0.44335246171580328 0 0.45930684530103161 0.44617181272829648 0 0.45927084092720188 0.43580976915473651 0 0.45165089640657707 0.43611575462809582 0 0.45221828903371142 0.44335246171580328 0 0.45255374853073171 0.45216262504332899 0 0.45221828903371142 0.44335246171580328 0 0.45930684530103161 0.44617181272829648 0 0.47462076711180717 0.43403653248997731 0 0.47004991169413368 0.45193353911097589 0 0.48502495584706629 0.44181750450007778 0 0.48189680466807888 0.45106209462173341 0 0.47450081081676521 0.45331654521044668 0 0.48502495584706629 0.44181750450007778 0 0.47004991169413368 0.45193353911097589 0 0.48502495584706629 0.44181750450007778 0 0.47004991169413368 0.45193353911097589 0 0.47450081081676521 0.45331654521044668 0 0.48502495584706629 0.44181750450007778 0 0.47284597636140308 0.45611600571247141 0 0.48050552008400071 0.46757346096286262 0 0.46302896313844299 0.47272331085799019 0 0.47004991169413368 0.45193353911097589 0 0.47284597636140308 0.45611600571247141 0 0.47004991169413368 0.45193353911097589 0 0.47450081081676521 0.45331654521044668 0 0.47284597636140308 0.45611600571247141 0 0.47450081081676521 0.45331654521044668 0 0.47284597636140308 0.45611600571247141 0 0.47951191807974908 0.45654698881850991 0 0.47450081081676521 0.45331654521044668 0 0.47284597636140308 0.45611600571247141 0 0.47284597636140308 0.45611600571247141 0 0.48050552008400071 0.46757346096286262 0 0.47284597636140308 0.45611600571247141 0 0.48050552008400071 0.46757346096286262 0 0.47951191807974908 0.45654698881850991 0 0.48189680466807888 0.45106209462173341 0 0.47951191807974908 0.45654698881850991 0 0.4878104784684959 0.4546668375850359 0 0.48050552008400071 0.46757346096286262 0 0.47951191807974908 0.45654698881850991 0 0.4878104784684959 0.4546668375850359 0 0.48189680466807888 0.45106209462173341 0 0.47450081081676521 0.45331654521044668 0 0.47951191807974908 0.45654698881850991 0 0.48050552008400071 0.46757346096286262 0 0.4878104784684959 0.4546668375850359 0 0.49999999999999928 0.46182898591187349 0 0.48050552008400071 0.46757346096286262 0 0.49999999999999928 0.46182898591187349 0 0.49999999999999828 0.43170146988917901 0 0.4878104784684959 0.4546668375850359 0 0.49999999999999928 0.46182898591187349 0 0.49999999999999828 0.43170146988917901 0 0.4878104784684959 0.4546668375850359 0 0.48502495584706629 0.44181750450007778 0 0.48189680466807888 0.45106209462173341 0 0.4878104784684959 0.4546668375850359 0 0.48502495584706629 0.44181750450007778 0 0.49999999999999928 0.46182898591187349 0 0.5 0.5 0 0.49753071700976492 0.4930404390193398 0 0.5 0.5 0 0.47501141284236448 0.48698608464618232 0 0.44690499747156931 0.4999999999999995 0 0.5 0.5 0 0.49753071700976492 0.4930404390193398 0 0.47501141284236448 0.48698608464618232 0 0.49753071700976492 0.4930404390193398 0 0.48901811854688337 0.4803069499911008 0 0.47501141284236448 0.48698608464618232 0 0.49753071700976492 0.4930404390193398 0 0.48901811854688337 0.4803069499911008 0 0.48050552008400071 0.46757346096286262 0 0.49999999999999928 0.46182898591187349 0 0.48901811854688337 0.4803069499911008 0 0.49999999999999928 0.46182898591187349 0 0.49753071700976492 0.4930404390193398 0 0.48901811854688337 0.4803069499911008 0 0.48050552008400071 0.46757346096286262 0 0.48901811854688337 0.4803069499911008 0 0.48050552008400071 0.46757346096286262 0 0.46302896313844299 0.47272331085799019 0 0.48901811854688337 0.4803069499911008 0 0.47689100365292297 0.47689745161453417 0 0.47501141284236448 0.48698608464618232 0 0.48050552008400071 0.46757346096286262 0 0.47689100365292297 0.47689745161453417 0 0.46302896313844299 0.47272331085799019 0 0.48050552008400071 0.46757346096286262 0 0.48901811854688337 0.4803069499911008 0 0.47689100365292297 0.47689745161453417 0 0.47689100365292297 0.47689745161453417 0 0.47501141284236448 0.48698608464618232 0 0.46302896313844299 0.47272331085799019 0 0.47501141284236448 0.48698608464618232 0 0.45496698030500621 0.48636165542899479 0 0.44690499747156931 0.4999999999999995 0 0.47501141284236448 0.48698608464618232 0 0.45496698030500621 0.48636165542899479 0 0.46302896313844299 0.47272331085799019 0 0.45496698030500621 0.48636165542899479 0 0.46302896313844299 0.47272331085799019 0 0.46302896313844299 0.47272331085799019 0 0.43620850627812668 0.48062654530969717 0 0.44518446721829791 0.46873079822848901 0 0.46302896313844299 0.47272331085799019 0 0.43620850627812668 0.48062654530969717 0 0.45496698030500621 0.48636165542899479 0 0.46302896313844299 0.47272331085799019 0 0.43620850627812668 0.48062654530969717 0 0.45496698030500621 0.48636165542899479 0 0.44690499747156931 0.4999999999999995 0 0.43620850627812668 0.48062654530969717 0 0.45496698030500621 0.48636165542899479 0 0.44690499747156931 0.4999999999999995 0 0.42031902274246069 0.48552805734600057 0 0.41743852268843429 0.5 0 0.43620850627812668 0.48062654530969717 0 0.44690499747156931 0.4999999999999995 0 0.41743852268843429 0.5 0 0.43620850627812668 0.48062654530969717 0 0.42031902274246069 0.48552805734600057 0 0.41743852268843429 0.5 0 0.40134209412993838 0.48520307466421098 0 0.42031902274246069 0.48552805734600057 0 0.40973563488985532 0.47579104778557152 0 0.40134209412993838 0.48520307466421098 0 0.42031902274246069 0.48552805734600057 0 0.40973563488985532 0.47579104778557152 0 0.41789473538963601 0.46705380048502582 0 0.44518446721829791 0.46873079822848901 0 0.42031902274246069 0.48552805734600057 0 0.43072905865294731 0.46311411437165317 0 0.44518446721829791 0.46873079822848901 0 0.42031902274246069 0.48552805734600057 0 0.43620850627812668 0.48062654530969717 0 0.44518446721829791 0.46873079822848901 0 0.42031902274246069 0.48552805734600057 0 0.42031902274246069 0.48552805734600057 0 0.43072905865294731 0.46311411437165317 0 0.41789473538963601 0.46705380048502582 0 0.44110505044236059 0.45564825146568327 0 0.43072905865294731 0.46311411437165317 0 0.43343701099378978 0.44857281610427868 0 0.43072905865294731 0.46311411437165317 0 0.43343701099378978 0.44857281610427868 0 0.42053980660522761 0.45341513910658388 0 0.43072905865294731 0.46311411437165317 0 0.41789473538963601 0.46705380048502582 0 0.42053980660522761 0.45341513910658388 0 0.43681876433844857 0.43497208046478802 0 0.43343701099378978 0.44857281610427868 0 0.42326813014219627 0.43909650749986368 0 0.43343701099378978 0.44857281610427868 0 0.42326813014219627 0.43909650749986368 0 0.42053980660522761 0.45341513910658388 0 0.41248490446316177 0.43293377153942381 0 0.42326813014219627 0.43909650749986368 0 0.41215324011006321 0.44426916471351768 0 0.42326813014219627 0.43909650749986368 0 0.41215324011006321 0.44426916471351768 0 0.42053980660522761 0.45341513910658388 0 0.41215324011006321 0.44426916471351768 0 0.42053980660522761 0.45341513910658388 0 0.40575666434273311 0.45838443146516472 0 0.41248490446316177 0.43293377153942381 0 0.41215324011006321 0.44426916471351768 0 0.39942544658573009 0.43872588670818857 0 0.40973563488985532 0.47579104778557152 0 0.41789473538963601 0.46705380048502582 0 0.40575666434273311 0.45838443146516472 0 0.41789473538963601 0.46705380048502582 0 0.42053980660522761 0.45341513910658388 0 0.40575666434273311 0.45838443146516472 0 0.40973563488985532 0.47579104778557152 0 0.40575666434273311 0.45838443146516472 0 0.39457326129307041 0.46924519202038539 0 0.40575666434273311 0.45838443146516472 0 0.38748492612950952 0.44892285829301931 0 0.39457326129307041 0.46924519202038539 0 0.40575666434273311 0.45838443146516472 0 0.39942544658573009 0.43872588670818857 0 0.38748492612950952 0.44892285829301931 0 0.3889231515195431 0.43141286456833011 0 0.39942544658573009 0.43872588670818857 0 0.38748492612950952 0.44892285829301931 0 0.41215324011006321 0.44426916471351768 0 0.40575666434273311 0.45838443146516472 0 0.39942544658573009 0.43872588670818857 0 0.36980735363827261 0.46050290225189661 0 0.36959298495063608 0.43610817863788948 0 0.38748492612950952 0.44892285829301931 0 0.36959298495063608 0.43610817863788948 0 0.3889231515195431 0.43141286456833011 0 0.38748492612950952 0.44892285829301931 0 0.36980735363827261 0.46050290225189661 0 0.38748492612950952 0.44892285829301931 0 0.39457326129307041 0.46924519202038539 0 0.36980735363827261 0.46050290225189661 0 0.37801407526051067 0.48065415083330842 0 0.39457326129307041 0.46924519202038539 0 0.37801407526051067 0.48065415083330842 0 0.38797204790529932 0.5 0 0.40134209412993838 0.48520307466421098 0 0.41743852268843429 0.5 0 0.38797204790529932 0.5 0 0.40134209412993838 0.48520307466421098 0 0.40973563488985532 0.47579104778557152 0 0.40134209412993838 0.48520307466421098 0 0.39457326129307041 0.46924519202038539 0 0.37801407526051067 0.48065415083330842 0 0.40134209412993838 0.48520307466421098 0 0.39457326129307041 0.46924519202038539 0 0.33471388977496319 0.083869725553476451 0 0.32003772732572838 0.080925826065863432 0 0.34163206045391592 0.099703108374672819 0 0.32003772732572838 0.080925826065863432 0 0.34163206045391592 0.099703108374672819 0 0.33471388977496319 0.083869725553476451 0 0.34163206045391592 0.099703108374672819 0 0.35085433501378249 0.086695181415402722 0 0.33471388977496319 0.083869725553476451 0 0.34209731100959018 0.06531632876058778 0 0.3490795063897344 0.076610282135673974 0 0.33471388977496319 0.083869725553476451 0 0.34209731100959018 0.06531632876058778 0 0.32721969837032222 0.069259436753723466 0 0.33471388977496319 0.083869725553476451 0 0.32721969837032222 0.069259436753723466 0 0.32003772732572838 0.080925826065863432 0 0.31518448171420999 0.065085558788002928 0 0.32721969837032222 0.069259436753723466 0 0.32003772732572838 0.080925826065863432 0 0.32003772732572838 0.080925826065863432 0 0.31657863646219547 0.093324099257994786 0 0.34163206045391592 0.099703108374672819 0 0.32003772732572838 0.080925826065863432 0 0.31657863646219547 0.093324099257994786 0 0.30227411453462139 0.089652133027170247 0 0.33471388977496319 0.083869725553476451 0 0.32003772732572838 0.080925826065863432 0 0.31657863646219547 0.093324099257994786 0 0.32025759602694659 0.1047776340902011 0 0.34163206045391592 0.099703108374672819 0 0.31657863646219547 0.093324099257994786 0 0.32025759602694659 0.1047776340902011 0 0.30640852481201453 0.1024735992044304 0 0.32025759602694659 0.1047776340902011 0 0.31114536757858358 0.11742006929579971 0 0.30640852481201453 0.1024735992044304 0 0.32606950933900308 0.1158177097477945 0 0.31114536757858358 0.11742006929579971 0 0.3195478300457561 0.1332621056988223 0 0.32025759602694659 0.1047776340902011 0 0.32606950933900308 0.1158177097477945 0 0.31114536757858358 0.11742006929579971 0 0.33761965874988609 0.1186889285033586 0 0.34163206045391592 0.099703108374672819 0 0.34956654336434939 0.1234914401014125 0 0.32606950933900308 0.1158177097477945 0 0.33761965874988609 0.1186889285033586 0 0.34163206045391592 0.099703108374672819 0 0.32606950933900308 0.1158177097477945 0 0.33761965874988609 0.1186889285033586 0 0.33436770153514289 0.13112975471366969 0 0.33761965874988609 0.1186889285033586 0 0.34956654336434939 0.1234914401014125 0 0.33436770153514289 0.13112975471366969 0 0.32025759602694659 0.1047776340902011 0 0.32606950933900308 0.1158177097477945 0 0.34163206045391592 0.099703108374672819 0 0.34163206045391592 0.099703108374672819 0 0.35755874922647762 0.098360434014750309 0 0.36322639358210312 0.11848039068348271 0 0.34163206045391592 0.099703108374672819 0 0.36322639358210312 0.11848039068348271 0 0.34163206045391592 0.099703108374672819 0 0.35755874922647762 0.098360434014750309 0 0.35085433501378249 0.086695181415402722 0 0.34163206045391592 0.099703108374672819 0 0.34956654336434939 0.1234914401014125 0 0.36322639358210312 0.11848039068348271 0 0.36322639358210312 0.11848039068348271 0 0.37045299287494049 0.09679375479102828 0 0.38005682511468147 0.12140739343396729 0 0.35755874922647762 0.098360434014750309 0 0.36322639358210312 0.11848039068348271 0 0.37045299287494049 0.09679375479102828 0 0.35755874922647762 0.098360434014750309 0 0.37045299287494049 0.09679375479102828 0 0.35979627253246887 0.087956112087811941 0 0.37045299287494049 0.09679375479102828 0 0.36986657419494789 0.075759843690150083 0 0.37682589963749002 0.081332762740894418 0 0.37045299287494049 0.09679375479102828 0 0.35979627253246887 0.087956112087811941 0 0.36084916063519962 0.072180116148089279 0 0.37045299287494049 0.09679375479102828 0 0.36084916063519962 0.072180116148089279 0 0.36986657419494789 0.075759843690150083 0 0.37045299287494049 0.09679375479102828 0 0.36084916063519962 0.072180116148089279 0 0.35755874922647762 0.098360434014750309 0 0.35979627253246887 0.087956112087811941 0 0.35085433501378249 0.086695181415402722 0 0.35979627253246887 0.087956112087811941 0 0.35560274156159061 0.081403828627082772 0 0.36084916063519962 0.072180116148089279 0 0.33471388977496319 0.083869725553476451 0 0.35085433501378249 0.086695181415402722 0 0.3490795063897344 0.076610282135673974 0 0.35979627253246887 0.087956112087811941 0 0.35560274156159061 0.081403828627082772 0 0.35085433501378249 0.086695181415402722 0 0.35560274156159061 0.081403828627082772 0 0.35085433501378249 0.086695181415402722 0 0.3490795063897344 0.076610282135673974 0 0.34209731100959018 0.06531632876058778 0 0.3490795063897344 0.076610282135673974 0 0.36084916063519962 0.072180116148089279 0 0.36448270712015302 0.068442951443566186 0 0.36084916063519962 0.072180116148089279 0 0.35124532839545858 0.047566477505150237 0 0.35560274156159061 0.081403828627082772 0 0.3490795063897344 0.076610282135673974 0 0.36084916063519962 0.072180116148089279 0 0.36448270712015302 0.068442951443566186 0 0.36084916063519962 0.072180116148089279 0 0.36986657419494789 0.075759843690150083 0 0.36986657419494789 0.075759843690150083 0 0.37596532967213542 0.069868995675824025 0 0.37682589963749002 0.081332762740894418 0 0.36448270712015302 0.068442951443566186 0 0.36986657419494789 0.075759843690150083 0 0.37084641292541748 0.06878424193773866 0 0.36986657419494789 0.075759843690150083 0 0.37084641292541748 0.06878424193773866 0 0.37596532967213542 0.069868995675824025 0 0.36448270712015302 0.068442951443566186 0 0.37084641292541748 0.06878424193773866 0 0.37307104071443398 0.061065176941414383 0 0.37084641292541748 0.06878424193773866 0 0.37307104071443398 0.061065176941414383 0 0.37596532967213542 0.069868995675824025 0 0.36448270712015302 0.068442951443566186 0 0.37307104071443398 0.061065176941414383 0 0.37146335928247548 0.04052602251159599 0 0.36448270712015302 0.068442951443566186 0 0.37146335928247548 0.04052602251159599 0 0.35124532839545858 0.047566477505150237 0 0.36448270712015302 0.068442951443566186 0 0.37146335928247548 0.04052602251159599 0 0.37146335928247548 0.04052602251159599 0 0.35572529983931911 0.032753521421585163 0 0.36312657459820519 0.022962182453169309 0 0.37146335928247548 0.04052602251159599 0 0.35572529983931911 0.032753521421585163 0 0.35124532839545858 0.047566477505150237 0 0.35572529983931911 0.032753521421585163 0 0.35124532839545858 0.047566477505150237 0 0.3321968515854315 0.028027004478648001 0 0.36084916063519962 0.072180116148089279 0 0.35124532839545858 0.047566477505150237 0 0.34209731100959018 0.06531632876058778 0 0.36084916063519962 0.072180116148089279 0 0.35124532839545858 0.047566477505150237 0 0.36312657459820519 0.022962182453169309 0 0.35936362748920009 0.0091271431172253586 0 0.37844401144479839 0.012609093579625891 0 0.35936362748920009 0.0091271431172253586 0 0.37844401144479839 0.012609093579625891 0 0.36665723294200347 -0.001883505129568449 0 0.35936362748920009 0.0091271431172253586 0 0.36665723294200347 -0.001883505129568449 0 0.35531676971978082 -0.0033532784323768001 0 0.37146335928247548 0.04052602251159599 0 0.36312657459820519 0.022962182453169309 0 0.37844401144479839 0.012609093579625891 0 0.37146335928247548 0.04052602251159599 0 0.37844401144479839 0.012609093579625891 0 0.35572529983931911 0.032753521421585163 0 0.35063657493523293 0.0197951316358141 0 0.3321968515854315 0.028027004478648001 0 0.35572529983931911 0.032753521421585163 0 0.36312657459820519 0.022962182453169309 0 0.35063657493523293 0.0197951316358141 0 0.36312657459820519 0.022962182453169309 0 0.35063657493523293 0.0197951316358141 0 0.35936362748920009 0.0091271431172253586 0 0.35936362748920009 0.0091271431172253586 0 0.33689267375143878 0.0039255003288513873 0 0.35531676971978082 -0.0033532784323768001 0 0.35063657493523293 0.0197951316358141 0 0.35936362748920009 0.0091271431172253586 0 0.33689267375143878 0.0039255003288513873 0 0.33689267375143878 0.0039255003288513873 0 0.3321968515854315 0.028027004478648001 0 0.30352242257352219 0.0039185454548519476 0 0.35063657493523293 0.0197951316358141 0 0.33689267375143878 0.0039255003288513873 0 0.3321968515854315 0.028027004478648001 0 0.3321968515854315 0.028027004478648001 0 0.32406508202711942 0.05109974460068676 0 0.30086563814790429 0.035038583275740692 0 0.34209731100959018 0.06531632876058778 0 0.32721969837032222 0.069259436753723466 0 0.32406508202711942 0.05109974460068676 0 0.34209731100959018 0.06531632876058778 0 0.35124532839545858 0.047566477505150237 0 0.32406508202711942 0.05109974460068676 0 0.35124532839545858 0.047566477505150237 0 0.3321968515854315 0.028027004478648001 0 0.32406508202711942 0.05109974460068676 0 0.31518448171420999 0.065085558788002928 0 0.32721969837032222 0.069259436753723466 0 0.32406508202711942 0.05109974460068676 0 0.31518448171420999 0.065085558788002928 0 0.32406508202711942 0.05109974460068676 0 0.29882370077581188 0.062479238108283437 0 0.32406508202711942 0.05109974460068676 0 0.29882370077581188 0.062479238108283437 0 0.30086563814790429 0.035038583275740692 0 0.32406508202711942 0.05109974460068676 0 0.30086563814790429 0.035038583275740692 0 0.30086563814790429 0.035038583275740692 0 0.28350496565293731 0.043820562147367653 0 0.27766619426868899 0.018977421950794569 0 0.29882370077581188 0.062479238108283437 0 0.30086563814790429 0.035038583275740692 0 0.28350496565293731 0.043820562147367653 0 0.29882370077581188 0.062479238108283437 0 0.28350496565293731 0.043820562147367653 0 0.28339325744793759 0.061338593161917712 0 0.3321968515854315 0.028027004478648001 0 0.30086563814790429 0.035038583275740692 0 0.30352242257352219 0.0039185454548519476 0 0.30086563814790429 0.035038583275740692 0 0.27766619426868899 0.018977421950794569 0 0.30086563814790429 0.035038583275740692 0 0.30352242257352219 0.0039185454548519476 0 0.27766619426868899 0.018977421950794569 0 0.30352242257352219 0.0039185454548519476 0 0.27766619426868899 0.018977421950794569 0 0.27708695819087842 -0.0025378708656911609 0 0.27766619426868899 0.018977421950794569 0 0.25446675038947358 0.0029162606258486688 0 0.27766619426868899 0.018977421950794569 0 0.26047117107291767 -0.0019720443344692288 0 0.27708695819087842 -0.0025378708656911609 0 0.27766619426868899 0.018977421950794569 0 0.2600935707136679 0.019574361616358959 0 0.26464981823601458 0.038183209123269009 0 0.2600935707136679 0.019574361616358959 0 0.26464981823601458 0.038183209123269009 0 0.25044211127373811 0.032849993626191502 0 0.27766619426868899 0.018977421950794569 0 0.2600935707136679 0.019574361616358959 0 0.25446675038947358 0.0029162606258486688 0 0.27766619426868899 0.018977421950794569 0 0.25446675038947358 0.0029162606258486688 0 0.26047117107291767 -0.0019720443344692288 0 0.25446675038947358 0.0029162606258486688 0 0.26047117107291767 -0.0019720443344692288 0 0.28339325744793759 0.061338593161917712 0 0.2699795556074106 0.054659435659755229 0 0.26514968559830832 0.069915803624621298 0 0.28350496565293731 0.043820562147367653 0 0.28339325744793759 0.061338593161917712 0 0.2699795556074106 0.054659435659755229 0 0.28350496565293731 0.043820562147367653 0 0.27766619426868899 0.018977421950794569 0 0.26464981823601458 0.038183209123269009 0 0.28350496565293731 0.043820562147367653 0 0.2699795556074106 0.054659435659755229 0 0.26464981823601458 0.038183209123269009 0 0.26464981823601458 0.038183209123269009 0 0.25174039047255609 0.044464402284776217 0 0.2585751734657834 0.052327775232976027 0 0.26464981823601458 0.038183209123269009 0 0.25044211127373811 0.032849993626191502 0 0.25174039047255609 0.044464402284776217 0 0.25174039047255609 0.044464402284776217 0 0.25102243244437311 0.053297338652025752 0 0.2585751734657834 0.052327775232976027 0 0.2699795556074106 0.054659435659755229 0 0.26464981823601458 0.038183209123269009 0 0.2585751734657834 0.052327775232976027 0 0.2699795556074106 0.054659435659755229 0 0.2585751734657834 0.052327775232976027 0 0.26000268679747079 0.061003988239662958 0 0.2699795556074106 0.054659435659755229 0 0.26000268679747079 0.061003988239662958 0 0.26514968559830832 0.069915803624621298 0 0.2585751734657834 0.052327775232976027 0 0.26000268679747079 0.061003988239662958 0 0.2530174900015254 0.0600809219264858 0 0.25102243244437311 0.053297338652025752 0 0.2585751734657834 0.052327775232976027 0 0.2530174900015254 0.0600809219264858 0 0.24751669685985911 0.059618880130872708 0 0.25102243244437311 0.053297338652025752 0 0.2530174900015254 0.0600809219264858 0 0.24853219730195361 0.063845178725116872 0 0.2530174900015254 0.0600809219264858 0 0.25274476311700622 0.067427493409812952 0 0.2530174900015254 0.0600809219264858 0 0.25274476311700622 0.067427493409812952 0 0.26000268679747079 0.061003988239662958 0 0.2530174900015254 0.0600809219264858 0 0.25274476311700622 0.067427493409812952 0 0.25274476311700622 0.067427493409812952 0 0.25243039498113262 0.075895774732197205 0 0.24842415088314279 0.069033451464499671 0 0.25274476311700622 0.067427493409812952 0 0.25243039498113262 0.075895774732197205 0 0.25274476311700622 0.067427493409812952 0 0.25243039498113262 0.075895774732197205 0 0.26514968559830832 0.069915803624621298 0 0.25243039498113262 0.075895774732197205 0 0.26514968559830832 0.069915803624621298 0 0.26417250328098718 0.085299079350852347 0 0.25243039498113262 0.075895774732197205 0 0.26514968559830832 0.069915803624621298 0 0.26000268679747079 0.061003988239662958 0 0.25274476311700622 0.067427493409812952 0 0.26514968559830832 0.069915803624621298 0 0.25274476311700622 0.067427493409812952 0 0.26514968559830832 0.069915803624621298 0 0.25243039498113262 0.075895774732197205 0 0.26417250328098718 0.085299079350852347 0 0.25158482098595109 0.098673396421397969 0 0.25243039498113262 0.075895774732197205 0 0.25158482098595109 0.098673396421397969 0 0.26417250328098718 0.085299079350852347 0 0.27563544099652842 0.091217529053328833 0 0.26597619666038957 0.098681263799979324 0 0.26417250328098718 0.085299079350852347 0 0.27658940398852799 0.081360569412953818 0 0.27563544099652842 0.091217529053328833 0 0.26514968559830832 0.069915803624621298 0 0.26417250328098718 0.085299079350852347 0 0.27658940398852799 0.081360569412953818 0 0.27658940398852799 0.081360569412953818 0 0.27563544099652842 0.091217529053328833 0 0.28742128170162778 0.087331448045782731 0 0.28339325744793759 0.061338593161917712 0 0.26514968559830832 0.069915803624621298 0 0.29259370646201821 0.075420814845242989 0 0.26514968559830832 0.069915803624621298 0 0.27658940398852799 0.081360569412953818 0 0.29259370646201821 0.075420814845242989 0 0.28339325744793759 0.061338593161917712 0 0.26514968559830832 0.069915803624621298 0 0.26514968559830832 0.069915803624621298 0 0.29259370646201821 0.075420814845242989 0 0.29882370077581188 0.062479238108283437 0 0.28339325744793759 0.061338593161917712 0 0.29259370646201821 0.075420814845242989 0 0.27658940398852799 0.081360569412953818 0 0.29259370646201821 0.075420814845242989 0 0.28742128170162778 0.087331448045782731 0 0.27563544099652842 0.091217529053328833 0 0.28742128170162778 0.087331448045782731 0 0.29001374252644291 0.099006193890217781 0 0.28742128170162778 0.087331448045782731 0 0.30227411453462139 0.089652133027170247 0 0.29001374252644291 0.099006193890217781 0 0.29259370646201821 0.075420814845242989 0 0.28742128170162778 0.087331448045782731 0 0.30227411453462139 0.089652133027170247 0 0.32003772732572838 0.080925826065863432 0 0.29259370646201821 0.075420814845242989 0 0.30227411453462139 0.089652133027170247 0 0.32003772732572838 0.080925826065863432 0 0.29259370646201821 0.075420814845242989 0 0.32003772732572838 0.080925826065863432 0 0.29882370077581188 0.062479238108283437 0 0.29259370646201821 0.075420814845242989 0 0.32003772732572838 0.080925826065863432 0 0.29882370077581188 0.062479238108283437 0 0.31518448171420999 0.065085558788002928 0 0.32003772732572838 0.080925826065863432 0 0.29882370077581188 0.062479238108283437 0 0.29818169174329712 0.11066146566519899 0 0.31114536757858358 0.11742006929579971 0 0.294250496481684 0.12267566802032639 0 0.31114536757858358 0.11742006929579971 0 0.294250496481684 0.12267566802032639 0 0.30313841955192899 0.13260249050964579 0 0.29818169174329712 0.11066146566519899 0 0.31114536757858358 0.11742006929579971 0 0.30640852481201453 0.1024735992044304 0 0.30227411453462139 0.089652133027170247 0 0.30640852481201453 0.1024735992044304 0 0.29001374252644291 0.099006193890217781 0 0.29818169174329712 0.11066146566519899 0 0.30640852481201453 0.1024735992044304 0 0.29001374252644291 0.099006193890217781 0 0.31657863646219547 0.093324099257994786 0 0.30227411453462139 0.089652133027170247 0 0.30640852481201453 0.1024735992044304 0 0.29818169174329712 0.11066146566519899 0 0.29001374252644291 0.099006193890217781 0 0.28729541733308872 0.1128284558108848 0 0.29001374252644291 0.099006193890217781 0 0.28729541733308872 0.1128284558108848 0 0.27577858748266387 0.1072301355245756 0 0.29818169174329712 0.11066146566519899 0 0.28729541733308872 0.1128284558108848 0 0.294250496481684 0.12267566802032639 0 0.28729541733308872 0.1128284558108848 0 0.294250496481684 0.12267566802032639 0 0.28067449336876182 0.1220521091494646 0 0.28067449336876182 0.1220521091494646 0 0.26956705708048567 0.1198361090660386 0 0.27577858748266387 0.1072301355245756 0 0.28729541733308872 0.1128284558108848 0 0.28067449336876182 0.1220521091494646 0 0.27577858748266387 0.1072301355245756 0 0.26956705708048567 0.1198361090660386 0 0.27577858748266387 0.1072301355245756 0 0.26270963055581759 0.11098617864974181 0 0.27563544099652842 0.091217529053328833 0 0.27577858748266387 0.1072301355245756 0 0.26597619666038957 0.098681263799979324 0 0.27563544099652842 0.091217529053328833 0 0.29001374252644291 0.099006193890217781 0 0.27577858748266387 0.1072301355245756 0 0.27577858748266387 0.1072301355245756 0 0.26597619666038957 0.098681263799979324 0 0.26270963055581759 0.11098617864974181 0 0.25158482098595109 0.098673396421397969 0 0.25094552198087999 0.11589449234768209 0 0.25158482098595109 0.098673396421397969 0 0.26270963055581759 0.11098617864974181 0 0.25094552198087999 0.11589449234768209 0 0.26417250328098718 0.085299079350852347 0 0.26597619666038957 0.098681263799979324 0 0.25158482098595109 0.098673396421397969 0 0.26597619666038957 0.098681263799979324 0 0.25158482098595109 0.098673396421397969 0 0.26270963055581759 0.11098617864974181 0 0.25158482098595109 0.098673396421397969 0 0.26270963055581759 0.11098617864974181 0 0.25094552198087999 0.11589449234768209 0 0.25030622297580962 0.13311558827396619 0 0.26022612795132161 0.12333036834530881 0 0.25094552198087999 0.11589449234768209 0 0.25030622297580962 0.13311558827396619 0 0.26956705708048567 0.1198361090660386 0 0.26022612795132161 0.12333036834530881 0 0.26270963055581759 0.11098617864974181 0 0.26022612795132161 0.12333036834530881 0 0.26270963055581759 0.11098617864974181 0 0.25094552198087999 0.11589449234768209 0 0.26956705708048567 0.1198361090660386 0 0.26022612795132161 0.12333036834530881 0 0.26675796828336718 0.1380571931171293 0 0.26022612795132161 0.12333036834530881 0 0.25030622297580962 0.13311558827396619 0 0.26675796828336718 0.1380571931171293 0 0.25030622297580962 0.13311558827396619 0 0.26675796828336718 0.1380571931171293 0 0.25030622297580962 0.13311558827396619 0 0.26675796828336718 0.1380571931171293 0 0.25638724149227848 0.14295410589973731 0 0.25004344172447263 0.14019424959050239 0 0.25030622297580962 0.13311558827396619 0 0.25638724149227848 0.14295410589973731 0 0.25004344172447263 0.14019424959050239 0 0.25030622297580962 0.13311558827396619 0 0.26675796828336718 0.1380571931171293 0 0.28320971359092417 0.1429987979602943 0 0.26675796828336718 0.1380571931171293 0 0.28666270206708028 0.1324408374186071 0 0.28320971359092417 0.1429987979602943 0 0.28067449336876182 0.1220521091494646 0 0.26956705708048567 0.1198361090660386 0 0.26675796828336718 0.1380571931171293 0 0.28067449336876182 0.1220521091494646 0 0.26675796828336718 0.1380571931171293 0 0.28666270206708028 0.1324408374186071 0 0.26675796828336718 0.1380571931171293 0 0.27436529468354132 0.15433220537778311 0 0.26010861073109098 0.15248373785575309 0 0.26675796828336718 0.1380571931171293 0 0.27436529468354132 0.15433220537778311 0 0.28320971359092417 0.1429987979602943 0 0.26675796828336718 0.1380571931171293 0 0.26010861073109098 0.15248373785575309 0 0.25638724149227848 0.14295410589973731 0 0.2496536413094039 0.15044712256699261 0 0.25004344172447263 0.14019424959050239 0 0.25638724149227848 0.14295410589973731 0 0.24653130607993951 0.16237692388552691 0 0.2496536413094039 0.15044712256699261 0 0.26010861073109098 0.15248373785575309 0 0.2496536413094039 0.15044712256699261 0 0.26010861073109098 0.15248373785575309 0 0.25638724149227848 0.14295410589973731 0 0.24653130607993951 0.16237692388552691 0 0.25292738168467233 0.17649485219682931 0 0.26638423851283249 0.16867758561061549 0 0.24653130607993951 0.16237692388552691 0 0.26010861073109098 0.15248373785575309 0 0.26638423851283249 0.16867758561061549 0 0.24528107816237801 0.1907036486386274 0 0.25292738168467233 0.17649485219682931 0 0.26633433714882182 0.18577592949096661 0 0.25292738168467233 0.17649485219682931 0 0.26633433714882182 0.18577592949096661 0 0.26638423851283249 0.16867758561061549 0 0.27723266788850742 0.181048228772968 0 0.26638423851283249 0.16867758561061549 0 0.28391425324491287 0.17071999404263091 0 0.26633433714882182 0.18577592949096661 0 0.27723266788850742 0.181048228772968 0 0.26638423851283249 0.16867758561061549 0 0.27436529468354132 0.15433220537778311 0 0.26010861073109098 0.15248373785575309 0 0.26638423851283249 0.16867758561061549 0 0.27436529468354132 0.15433220537778311 0 0.26638423851283249 0.16867758561061549 0 0.28391425324491287 0.17071999404263091 0 0.27436529468354132 0.15433220537778311 0 0.28391425324491287 0.17071999404263091 0 0.29097703849613438 0.15773848939083679 0 0.28391425324491287 0.17071999404263091 0 0.2931647794093819 0.16879209887591959 0 0.29097703849613438 0.15773848939083679 0 0.2931647794093819 0.16879209887591959 0 0.29097703849613438 0.15773848939083679 0 0.30040947706207388 0.16512632217721829 0 0.28391425324491287 0.17071999404263091 0 0.28743664533084129 0.187357279865842 0 0.29743995151898561 0.17866098634217961 0 0.27723266788850742 0.181048228772968 0 0.28391425324491287 0.17071999404263091 0 0.28743664533084129 0.187357279865842 0 0.28391425324491287 0.17071999404263091 0 0.2931647794093819 0.16879209887591959 0 0.29743995151898561 0.17866098634217961 0 0.28743664533084129 0.187357279865842 0 0.29743995151898561 0.17866098634217961 0 0.29971043857951379 0.19298806906372529 0 0.29743995151898561 0.17866098634217961 0 0.30929675685570829 0.1858318568065235 0 0.29971043857951379 0.19298806906372529 0 0.29743995151898561 0.17866098634217961 0 0.3101655001798202 0.17563615506282959 0 0.30040947706207388 0.16512632217721829 0 0.29743995151898561 0.17866098634217961 0 0.3101655001798202 0.17563615506282959 0 0.30929675685570829 0.1858318568065235 0 0.30040947706207388 0.16512632217721829 0 0.30453528129870422 0.15487579661148021 0 0.32848741365188411 0.1727716232507491 0 0.29097703849613438 0.15773848939083679 0 0.30040947706207388 0.16512632217721829 0 0.30453528129870422 0.15487579661148021 0 0.2931647794093819 0.16879209887591959 0 0.29743995151898561 0.17866098634217961 0 0.30040947706207388 0.16512632217721829 0 0.29097703849613438 0.15773848939083679 0 0.30453528129870422 0.15487579661148021 0 0.29618567382365713 0.14404403195872001 0 0.30453528129870422 0.15487579661148021 0 0.30873747279203018 0.14281046260302349 0 0.29618567382365713 0.14404403195872001 0 0.30453528129870422 0.15487579661148021 0 0.30873747279203018 0.14281046260302349 0 0.32007589174333823 0.14676000458717811 0 0.30873747279203018 0.14281046260302349 0 0.30313841955192899 0.13260249050964579 0 0.3195478300457561 0.1332621056988223 0 0.31114536757858358 0.11742006929579971 0 0.30313841955192899 0.13260249050964579 0 0.3195478300457561 0.1332621056988223 0 0.30873747279203018 0.14281046260302349 0 0.30313841955192899 0.13260249050964579 0 0.29618567382365713 0.14404403195872001 0 0.294250496481684 0.12267566802032639 0 0.30313841955192899 0.13260249050964579 0 0.28666270206708028 0.1324408374186071 0 0.30313841955192899 0.13260249050964579 0 0.28666270206708028 0.1324408374186071 0 0.29618567382365713 0.14404403195872001 0 0.294250496481684 0.12267566802032639 0 0.28067449336876182 0.1220521091494646 0 0.28666270206708028 0.1324408374186071 0 0.28666270206708028 0.1324408374186071 0 0.28320971359092417 0.1429987979602943 0 0.29618567382365713 0.14404403195872001 0 0.27436529468354132 0.15433220537778311 0 0.29097703849613438 0.15773848939083679 0 0.28320971359092417 0.1429987979602943 0 0.29097703849613438 0.15773848939083679 0 0.28320971359092417 0.1429987979602943 0 0.29618567382365713 0.14404403195872001 0 0.28119448123381058 0.25405304303149878 0 0.26221447651104962 0.2479993693513689 0 0.28440499104296979 0.23439140090611099 0 0.26221447651104962 0.2479993693513689 0 0.26853130556434218 0.23400660741274959 0 0.28440499104296979 0.23439140090611099 0 0.26221447651104962 0.2479993693513689 0 0.28440499104296979 0.23439140090611099 0 0.2457442494512444 0.24022391879071339 0 0.26221447651104962 0.2479993693513689 0 0.25511338863332461 0.22468137717712711 0 0.26221447651104962 0.2479993693513689 0 0.25511338863332461 0.22468137717712711 0 0.26853130556434218 0.23400660741274959 0 0.26221447651104962 0.2479993693513689 0 0.25511338863332461 0.22468137717712711 0 0.25511338863332461 0.22468137717712711 0 0.25242827713160498 0.21540237912569379 0 0.25511338863332461 0.22468137717712711 0 0.2794126892910288 0.21617120911671081 0 0.25511338863332461 0.22468137717712711 0 0.26853130556434218 0.23400660741274959 0 0.2794126892910288 0.21617120911671081 0 0.26853130556434218 0.23400660741274959 0 0.2794126892910288 0.21617120911671081 0 0.28440499104296979 0.23439140090611099 0 0.25511338863332461 0.22468137717712711 0 0.2794126892910288 0.21617120911671081 0 0.26644318031571418 0.20408753099865831 0 0.2794126892910288 0.21617120911671081 0 0.26644318031571418 0.20408753099865831 0 0.27722953884408802 0.19656269719262509 0 0.24528107816237801 0.1907036486386274 0 0.26644318031571418 0.20408753099865831 0 0.25242827713160498 0.21540237912569379 0 0.25511338863332461 0.22468137717712711 0 0.26644318031571418 0.20408753099865831 0 0.25242827713160498 0.21540237912569379 0 0.26644318031571418 0.20408753099865831 0 0.25242827713160498 0.21540237912569379 0 0.24528107816237801 0.1907036486386274 0 0.26633433714882182 0.18577592949096661 0 0.26644318031571418 0.20408753099865831 0 0.26633433714882182 0.18577592949096661 0 0.26644318031571418 0.20408753099865831 0 0.27722953884408802 0.19656269719262509 0 0.27723266788850742 0.181048228772968 0 0.28743664533084129 0.187357279865842 0 0.27722953884408802 0.19656269719262509 0 0.26633433714882182 0.18577592949096661 0 0.27723266788850742 0.181048228772968 0 0.27722953884408802 0.19656269719262509 0 0.28743664533084129 0.187357279865842 0 0.27722953884408802 0.19656269719262509 0 0.28939512316467059 0.2005252056429343 0 0.28743664533084129 0.187357279865842 0 0.28939512316467059 0.2005252056429343 0 0.29971043857951379 0.19298806906372529 0 0.30929675685570829 0.1858318568065235 0 0.29971043857951379 0.19298806906372529 0 0.31162694501442678 0.19735313208654229 0 0.29971043857951379 0.19298806906372529 0 0.31162694501442678 0.19735313208654229 0 0.30371198994873311 0.20766104105629449 0 0.28939512316467059 0.2005252056429343 0 0.29971043857951379 0.19298806906372529 0 0.30371198994873311 0.20766104105629449 0 0.2794126892910288 0.21617120911671081 0 0.30371198994873311 0.20766104105629449 0 0.2794126892910288 0.21617120911671081 0 0.30371198994873311 0.20766104105629449 0 0.30659550557489001 0.220783432460853 0 0.2794126892910288 0.21617120911671081 0 0.27722953884408802 0.19656269719262509 0 0.28939512316467059 0.2005252056429343 0 0.2794126892910288 0.21617120911671081 0 0.28939512316467059 0.2005252056429343 0 0.30371198994873311 0.20766104105629449 0 0.30659550557489001 0.220783432460853 0 0.28440499104296979 0.23439140090611099 0 0.2794126892910288 0.21617120911671081 0 0.30659550557489001 0.220783432460853 0 0.28440499104296979 0.23439140090611099 0 0.30659550557489001 0.220783432460853 0 0.30328699804120918 0.24394477185791469 0 0.28440499104296979 0.23439140090611099 0 0.30659550557489001 0.220783432460853 0 0.30328699804120918 0.24394477185791469 0 0.31607427666693672 0.2331905299380852 0 0.28119448123381058 0.25405304303149878 0 0.30328699804120918 0.24394477185791469 0 0.28440499104296979 0.23439140090611099 0 0.3433555784436142 0.25004320974280247 0 0.34183468199228573 0.23727684870966961 0 0.33092809789354199 0.24744869965648561 0 0.34183468199228573 0.23727684870966961 0 0.3288410404878227 0.2348757256337824 0 0.33092809789354199 0.24744869965648561 0 0.3288410404878227 0.2348757256337824 0 0.33092809789354199 0.24744869965648561 0 0.31845456220733243 0.24449663650262579 0 0.31879452400631653 0.25919465198291952 0 0.30328699804120918 0.24394477185791469 0 0.31845456220733243 0.24449663650262579 0 0.30328699804120918 0.24394477185791469 0 0.31845456220733243 0.24449663650262579 0 0.31607427666693672 0.2331905299380852 0 0.3288410404878227 0.2348757256337824 0 0.31845456220733243 0.24449663650262579 0 0.31607427666693672 0.2331905299380852 0 0.3288410404878227 0.2348757256337824 0 0.31607427666693672 0.2331905299380852 0 0.32372534117020862 0.22390137225637691 0 0.30659550557489001 0.220783432460853 0 0.31607427666693672 0.2331905299380852 0 0.32372534117020862 0.22390137225637691 0 0.3288410404878227 0.2348757256337824 0 0.32372534117020862 0.22390137225637691 0 0.33832986301458301 0.22348170923356889 0 0.34183468199228573 0.23727684870966961 0 0.3288410404878227 0.2348757256337824 0 0.33832986301458301 0.22348170923356889 0 0.32372534117020862 0.22390137225637691 0 0.33832986301458301 0.22348170923356889 0 0.32878602010681029 0.20717546401559489 0 0.33832986301458301 0.22348170923356889 0 0.32878602010681029 0.20717546401559489 0 0.35089693608391498 0.21212819010674691 0 0.32878602010681029 0.20717546401559489 0 0.35097653463873058 0.19356749557033681 0 0.35089693608391498 0.21212819010674691 0 0.30659550557489001 0.220783432460853 0 0.32372534117020862 0.22390137225637691 0 0.32878602010681029 0.20717546401559489 0 0.31162694501442678 0.19735313208654229 0 0.30371198994873311 0.20766104105629449 0 0.32878602010681029 0.20717546401559489 0 0.30371198994873311 0.20766104105629449 0 0.30659550557489001 0.220783432460853 0 0.32878602010681029 0.20717546401559489 0 0.30659550557489001 0.220783432460853 0 0.32878602010681029 0.20717546401559489 0 0.32878602010681029 0.20717546401559489 0 0.31972446529152482 0.19052244909679969 0 0.3336272658304279 0.18895925974375941 0 0.31162694501442678 0.19735313208654229 0 0.32878602010681029 0.20717546401559489 0 0.31972446529152482 0.19052244909679969 0 0.30929675685570829 0.1858318568065235 0 0.31162694501442678 0.19735313208654229 0 0.31972446529152482 0.19052244909679969 0 0.32878602010681029 0.20717546401559489 0 0.3336272658304279 0.18895925974375941 0 0.35097653463873058 0.19356749557033681 0 0.32878602010681029 0.20717546401559489 0 0.35097653463873058 0.19356749557033681 0 0.3336272658304279 0.18895925974375941 0 0.35097653463873058 0.19356749557033681 0 0.35656535024169428 0.1804169243242798 0 0.35097653463873058 0.19356749557033681 0 0.35896651107905142 0.20360726904620211 0 0.35089693608391498 0.21212819010674691 0 0.35097653463873058 0.19356749557033681 0 0.36405518175537521 0.19484170215684679 0 0.35896651107905142 0.20360726904620211 0 0.35097653463873058 0.19356749557033681 0 0.36405518175537521 0.19484170215684679 0 0.35656535024169428 0.1804169243242798 0 0.36405518175537521 0.19484170215684679 0 0.35656535024169428 0.1804169243242798 0 0.38464328683150451 0.18806222539781059 0 0.36405518175537521 0.19484170215684679 0 0.36923798170140371 0.20928007436804161 0 0.38464328683150451 0.18806222539781059 0 0.36405518175537521 0.19484170215684679 0 0.36923798170140371 0.20928007436804161 0 0.35896651107905142 0.20360726904620211 0 0.36923798170140371 0.20928007436804161 0 0.36132702422268731 0.21787493872225441 0 0.35896651107905142 0.20360726904620211 0 0.36923798170140371 0.20928007436804161 0 0.36132702422268731 0.21787493872225441 0 0.37292139258550783 0.22672254500020811 0 0.36132702422268731 0.21787493872225441 0 0.35896651107905142 0.20360726904620211 0 0.35089693608391498 0.21212819010674691 0 0.34183468199228573 0.23727684870966961 0 0.33832986301458301 0.22348170923356889 0 0.35524969613090918 0.22837961108452459 0 0.36132702422268731 0.21787493872225441 0 0.35089693608391498 0.21212819010674691 0 0.35524969613090918 0.22837961108452459 0 0.33832986301458301 0.22348170923356889 0 0.35089693608391498 0.21212819010674691 0 0.35524969613090918 0.22837961108452459 0 0.36132702422268731 0.21787493872225441 0 0.35524969613090918 0.22837961108452459 0 0.37292139258550783 0.22672254500020811 0 0.35524969613090918 0.22837961108452459 0 0.37292139258550783 0.22672254500020811 0 0.36587213359177301 0.2378375665458646 0 0.37292139258550783 0.22672254500020811 0 0.36587213359177301 0.2378375665458646 0 0.3757768555661396 0.240133652284411 0 0.36587213359177301 0.2378375665458646 0 0.37169426656027921 0.24972740256563611 0 0.3757768555661396 0.240133652284411 0 0.36587213359177301 0.2378375665458646 0 0.37169426656027921 0.24972740256563611 0 0.36205361842742478 0.24882498742118489 0 0.36587213359177301 0.2378375665458646 0 0.36205361842742478 0.24882498742118489 0 0.35356337405553911 0.24205426642971811 0 0.35175757775775729 0.2532797976346674 0 0.36205361842742478 0.24882498742118489 0 0.35356337405553911 0.24205426642971811 0 0.35524969613090918 0.22837961108452459 0 0.36587213359177301 0.2378375665458646 0 0.35356337405553911 0.24205426642971811 0 0.34183468199228573 0.23727684870966961 0 0.35524969613090918 0.22837961108452459 0 0.35356337405553911 0.24205426642971811 0 0.3433555784436142 0.25004320974280247 0 0.34183468199228573 0.23727684870966961 0 0.35356337405553911 0.24205426642971811 0 0.3433555784436142 0.25004320974280247 0 0.35175757775775729 0.2532797976346674 0 0.35356337405553911 0.24205426642971811 0 0.33379856680907583 0.1437068241164389 0 0.32007589174333823 0.14676000458717811 0 0.33365817402274128 0.15789089208148979 0 0.33379856680907583 0.1437068241164389 0 0.33365817402274128 0.15789089208148979 0 0.34780073530519279 0.14835628742565241 0 0.33379856680907583 0.1437068241164389 0 0.34780073530519279 0.14835628742565241 0 0.34586764947947463 0.1362539899128139 0 0.33379856680907583 0.1437068241164389 0 0.33436770153514289 0.13112975471366969 0 0.34586764947947463 0.1362539899128139 0 0.34956654336434939 0.1234914401014125 0 0.33436770153514289 0.13112975471366969 0 0.34586764947947463 0.1362539899128139 0 0.33379856680907583 0.1437068241164389 0 0.33436770153514289 0.13112975471366969 0 0.3195478300457561 0.1332621056988223 0 0.32606950933900308 0.1158177097477945 0 0.33436770153514289 0.13112975471366969 0 0.3195478300457561 0.1332621056988223 0 0.30873747279203018 0.14281046260302349 0 0.3195478300457561 0.1332621056988223 0 0.32007589174333823 0.14676000458717811 0 0.30453528129870422 0.15487579661148021 0 0.32007589174333823 0.14676000458717811 0 0.33365817402274128 0.15789089208148979 0 0.33379856680907583 0.1437068241164389 0 0.3195478300457561 0.1332621056988223 0 0.32007589174333823 0.14676000458717811 0 0.30453528129870422 0.15487579661148021 0 0.33365817402274128 0.15789089208148979 0 0.30453528129870422 0.15487579661148021 0 0.32848741365188411 0.1727716232507491 0 0.33365817402274128 0.15789089208148979 0 0.30040947706207388 0.16512632217721829 0 0.32848741365188411 0.1727716232507491 0 0.3101655001798202 0.17563615506282959 0 0.30040947706207388 0.16512632217721829 0 0.32848741365188411 0.1727716232507491 0 0.3101655001798202 0.17563615506282959 0 0.31983557186529732 0.18171103000860481 0 0.32848741365188411 0.1727716232507491 0 0.3336272658304279 0.18895925974375941 0 0.31983557186529732 0.18171103000860481 0 0.32848741365188411 0.1727716232507491 0 0.3101655001798202 0.17563615506282959 0 0.30929675685570829 0.1858318568065235 0 0.31983557186529732 0.18171103000860481 0 0.30929675685570829 0.1858318568065235 0 0.31972446529152482 0.19052244909679969 0 0.31983557186529732 0.18171103000860481 0 0.31972446529152482 0.19052244909679969 0 0.3336272658304279 0.18895925974375941 0 0.31983557186529732 0.18171103000860481 0 0.32848741365188411 0.1727716232507491 0 0.34507730906385942 0.16855187839241309 0 0.35656535024169428 0.1804169243242798 0 0.3336272658304279 0.18895925974375941 0 0.32848741365188411 0.1727716232507491 0 0.35656535024169428 0.1804169243242798 0 0.32848741365188411 0.1727716232507491 0 0.35656535024169428 0.1804169243242798 0 0.32848741365188411 0.1727716232507491 0 0.33365817402274128 0.15789089208148979 0 0.34507730906385942 0.16855187839241309 0 0.33365817402274128 0.15789089208148979 0 0.34507730906385942 0.16855187839241309 0 0.36278106674677829 0.1609059875514994 0 0.34507730906385942 0.16855187839241309 0 0.35656535024169428 0.1804169243242798 0 0.36278106674677829 0.1609059875514994 0 0.33365817402274128 0.15789089208148979 0 0.36278106674677829 0.1609059875514994 0 0.35656535024169428 0.1804169243242798 0 0.37356219856206202 0.1741215612114578 0 0.38464328683150451 0.18806222539781059 0 0.35656535024169428 0.1804169243242798 0 0.38464328683150451 0.18806222539781059 0 0.35656535024169428 0.1804169243242798 0 0.37356219856206202 0.1741215612114578 0 0.36278106674677829 0.1609059875514994 0 0.36278106674677829 0.1609059875514994 0 0.36531512046589693 0.1378839500987098 0 0.37680076681991098 0.15092733218095339 0 0.36278106674677829 0.1609059875514994 0 0.34780073530519279 0.14835628742565241 0 0.36531512046589693 0.1378839500987098 0 0.34780073530519279 0.14835628742565241 0 0.34586764947947463 0.1362539899128139 0 0.36531512046589693 0.1378839500987098 0 0.33365817402274128 0.15789089208148979 0 0.36278106674677829 0.1609059875514994 0 0.34780073530519279 0.14835628742565241 0 0.34956654336434939 0.1234914401014125 0 0.34586764947947463 0.1362539899128139 0 0.36531512046589693 0.1378839500987098 0 0.34956654336434939 0.1234914401014125 0 0.36322639358210312 0.11848039068348271 0 0.36531512046589693 0.1378839500987098 0 0.36322639358210312 0.11848039068348271 0 0.36531512046589693 0.1378839500987098 0 0.38482072671029011 0.13725767299229241 0 0.36322639358210312 0.11848039068348271 0 0.38482072671029011 0.13725767299229241 0 0.36322639358210312 0.11848039068348271 0 0.38482072671029011 0.13725767299229241 0 0.38005682511468147 0.12140739343396729 0 0.38482072671029011 0.13725767299229241 0 0.39398634319161102 0.12556361147638159 0 0.38005682511468147 0.12140739343396729 0 0.38482072671029011 0.13725767299229241 0 0.39398634319161102 0.12556361147638159 0 0.40386822996399702 0.1370092008917044 0 0.39398634319161102 0.12556361147638159 0 0.40386822996399702 0.1370092008917044 0 0.40630256149234217 0.12337914253670321 0 0.38482072671029011 0.13725767299229241 0 0.40641505983847698 0.15603495530110209 0 0.38482072671029011 0.13725767299229241 0 0.40386822996399702 0.1370092008917044 0 0.40641505983847698 0.15603495530110209 0 0.38482072671029011 0.13725767299229241 0 0.39190395947081519 0.16392108302150901 0 0.40641505983847698 0.15603495530110209 0 0.36531512046589693 0.1378839500987098 0 0.38482072671029011 0.13725767299229241 0 0.37680076681991098 0.15092733218095339 0 0.38482072671029011 0.13725767299229241 0 0.37680076681991098 0.15092733218095339 0 0.39190395947081519 0.16392108302150901 0 0.36278106674677829 0.1609059875514994 0 0.39190395947081519 0.16392108302150901 0 0.36278106674677829 0.1609059875514994 0 0.37680076681991098 0.15092733218095339 0 0.39190395947081519 0.16392108302150901 0 0.37356219856206202 0.1741215612114578 0 0.36278106674677829 0.1609059875514994 0 0.39190395947081519 0.16392108302150901 0 0.37356219856206202 0.1741215612114578 0 0.39190395947081519 0.16392108302150901 0 0.38464328683150451 0.18806222539781059 0 0.4059128807594603 0.17981630131623391 0 0.39190395947081519 0.16392108302150901 0 0.38464328683150451 0.18806222539781059 0 0.39190395947081519 0.16392108302150901 0 0.42102685219485209 0.16693617849151851 0 0.40641505983847698 0.15603495530110209 0 0.4059128807594603 0.17981630131623391 0 0.39190395947081519 0.16392108302150901 0 0.42102685219485209 0.16693617849151851 0 0.42102685219485209 0.16693617849151851 0 0.40641505983847698 0.15603495530110209 0 0.41490094777653419 0.14712571815411829 0 0.39190395947081519 0.16392108302150901 0 0.42102685219485209 0.16693617849151851 0 0.4059128807594603 0.17981630131623391 0 0.42102685219485209 0.16693617849151851 0 0.42759287120751482 0.1799189573059411 0 0.4059128807594603 0.17981630131623391 0 0.42759287120751482 0.1799189573059411 0 0.42045703890892938 0.19185412915784311 0 0.42102685219485209 0.16693617849151851 0 0.42759287120751482 0.1799189573059411 0 0.45014974491888898 0.16995127396152809 0 0.42759287120751482 0.1799189573059411 0 0.42045703890892938 0.19185412915784311 0 0.43799329450951457 0.1898848624547933 0 0.42102685219485209 0.16693617849151851 0 0.45014974491888898 0.16995127396152809 0 0.42102685219485209 0.16693617849151851 0 0.43641214087317609 0.15776157540708571 0 0.42820809332857229 0.14540676379554701 0 0.42102685219485209 0.16693617849151851 0 0.43641214087317609 0.15776157540708571 0 0.45014974491888898 0.16995127396152809 0 0.43641214087317609 0.15776157540708571 0 0.42820809332857229 0.14540676379554701 0 0.44305345270963392 0.14224085277467549 0 0.42820809332857229 0.14540676379554701 0 0.43267139290449452 0.12562392175117529 0 0.41815906511665779 0.13368892679480551 0 0.42820809332857229 0.14540676379554701 0 0.43267139290449452 0.12562392175117529 0 0.44305345270963392 0.14224085277467549 0 0.43267139290449452 0.12562392175117529 0 0.41815906511665779 0.13368892679480551 0 0.41840244549433692 0.1204435227777134 0 0.41815906511665779 0.13368892679480551 0 0.41840244549433692 0.1204435227777134 0 0.40630256149234217 0.12337914253670321 0 0.40386822996399702 0.1370092008917044 0 0.41815906511665779 0.13368892679480551 0 0.40630256149234217 0.12337914253670321 0 0.40386822996399702 0.1370092008917044 0 0.41815906511665779 0.13368892679480551 0 0.41490094777653419 0.14712571815411829 0 0.42102685219485209 0.16693617849151851 0 0.42820809332857229 0.14540676379554701 0 0.41490094777653419 0.14712571815411829 0 0.40386822996399702 0.1370092008917044 0 0.40641505983847698 0.15603495530110209 0 0.41490094777653419 0.14712571815411829 0 0.42820809332857229 0.14540676379554701 0 0.41815906511665779 0.13368892679480551 0 0.41490094777653419 0.14712571815411829 0 0.39196586341458151 0.242441409442547 0 0.40329821407583749 0.23025496453590971 0 0.40866327585672191 0.24600766979752939 0 0.38129994004966872 0.25577407136566988 0 0.39196586341458151 0.242441409442547 0 0.40866327585672191 0.24600766979752939 0 0.38129994004966872 0.25577407136566988 0 0.39196586341458151 0.242441409442547 0 0.38106847269238292 0.24536179082341181 0 0.37169426656027921 0.24972740256563611 0 0.38106847269238292 0.24536179082341181 0 0.3757768555661396 0.240133652284411 0 0.37292139258550783 0.22672254500020811 0 0.3757768555661396 0.240133652284411 0 0.38460543787124563 0.238732418458795 0 0.38106847269238292 0.24536179082341181 0 0.3757768555661396 0.240133652284411 0 0.38460543787124563 0.238732418458795 0 0.39196586341458151 0.242441409442547 0 0.38106847269238292 0.24536179082341181 0 0.38460543787124563 0.238732418458795 0 0.39196586341458151 0.242441409442547 0 0.38460543787124563 0.238732418458795 0 0.38844350160088592 0.2284985707660753 0 0.37292139258550783 0.22672254500020811 0 0.38460543787124563 0.238732418458795 0 0.38844350160088592 0.2284985707660753 0 0.37292139258550783 0.22672254500020811 0 0.38844350160088592 0.2284985707660753 0 0.38369130631537601 0.21297307403445409 0 0.38844350160088592 0.2284985707660753 0 0.39679964264504158 0.21937630878092959 0 0.38369130631537601 0.21297307403445409 0 0.38844350160088592 0.2284985707660753 0 0.39679964264504158 0.21937630878092959 0 0.40329821407583749 0.23025496453590971 0 0.39196586341458151 0.242441409442547 0 0.38844350160088592 0.2284985707660753 0 0.40329821407583749 0.23025496453590971 0 0.39679964264504158 0.21937630878092959 0 0.40329821407583749 0.23025496453590971 0 0.41066806580544729 0.2160617609406458 0 0.39598296716959969 0.20626700748070109 0 0.40513352984814438 0.19492560706685999 0 0.41066806580544729 0.2160617609406458 0 0.39679964264504158 0.21937630878092959 0 0.39598296716959969 0.20626700748070109 0 0.41066806580544729 0.2160617609406458 0 0.39679964264504158 0.21937630878092959 0 0.39598296716959969 0.20626700748070109 0 0.38369130631537601 0.21297307403445409 0 0.36923798170140371 0.20928007436804161 0 0.37292139258550783 0.22672254500020811 0 0.38369130631537601 0.21297307403445409 0 0.36923798170140371 0.20928007436804161 0 0.38369130631537601 0.21297307403445409 0 0.38464328683150451 0.18806222539781059 0 0.39598296716959969 0.20626700748070109 0 0.38369130631537601 0.21297307403445409 0 0.38464328683150451 0.18806222539781059 0 0.39598296716959969 0.20626700748070109 0 0.38464328683150451 0.18806222539781059 0 0.40513352984814438 0.19492560706685999 0 0.4059128807594603 0.17981630131623391 0 0.38464328683150451 0.18806222539781059 0 0.40513352984814438 0.19492560706685999 0 0.40513352984814438 0.19492560706685999 0 0.42045703890892938 0.19185412915784311 0 0.42444067869502011 0.20693424997503959 0 0.4059128807594603 0.17981630131623391 0 0.40513352984814438 0.19492560706685999 0 0.42045703890892938 0.19185412915784311 0 0.42045703890892938 0.19185412915784311 0 0.42444067869502011 0.20693424997503959 0 0.43799329450951457 0.1898848624547933 0 0.42444067869502011 0.20693424997503959 0 0.44184419378540352 0.2076794424592901 0 0.43799329450951457 0.1898848624547933 0 0.42444067869502011 0.20693424997503959 0 0.4302098735549707 0.2206458244329694 0 0.44184419378540352 0.2076794424592901 0 0.42444067869502011 0.20693424997503959 0 0.41066806580544729 0.2160617609406458 0 0.4302098735549707 0.2206458244329694 0 0.40513352984814438 0.19492560706685999 0 0.42444067869502011 0.20693424997503959 0 0.41066806580544729 0.2160617609406458 0 0.41066806580544729 0.2160617609406458 0 0.41777320819135039 0.22984229758728861 0 0.4302098735549707 0.2206458244329694 0 0.40329821407583749 0.23025496453590971 0 0.41066806580544729 0.2160617609406458 0 0.41777320819135039 0.22984229758728861 0 0.4302098735549707 0.2206458244329694 0 0.43602661166377499 0.2362412682293889 0 0.44584438813649652 0.2203436080528294 0 0.41777320819135039 0.22984229758728861 0 0.4302098735549707 0.2206458244329694 0 0.43602661166377499 0.2362412682293889 0 0.43602661166377499 0.2362412682293889 0 0.43076425121212841 0.2486853010718087 0 0.40866327585672191 0.24600766979752939 0 0.43602661166377499 0.2362412682293889 0 0.40866327585672191 0.24600766979752939 0 0.41777320819135039 0.22984229758728861 0 0.43602661166377499 0.2362412682293889 0 0.40866327585672191 0.24600766979752939 0 0.41664462513020523 0.25422696758609492 0 0.43076425121212841 0.2486853010718087 0 0.40866327585672191 0.24600766979752939 0 0.40329821407583749 0.23025496453590971 0 0.41777320819135039 0.22984229758728861 0 0.40866327585672191 0.24600766979752939 0 0.45166362976964691 0.25106894999712381 0 0.45384283414141641 0.23962742592169059 0 0.47583181488482379 0.2451422378191761 0 0.45166362976964691 0.25106894999712381 0 0.47583181488482379 0.2451422378191761 0 0.45384283414141641 0.23962742592169059 0 0.47692141707070451 0.23056955077157251 0 0.45166362976964691 0.25106894999712381 0 0.43076425121212841 0.2486853010718087 0 0.45384283414141641 0.23962742592169059 0 0.43602661166377499 0.2362412682293889 0 0.43076425121212841 0.2486853010718087 0 0.45384283414141641 0.23962742592169059 0 0.43076425121212841 0.2486853010718087 0 0.45384283414141641 0.23962742592169059 0 0.43602661166377499 0.2362412682293889 0 0.46338994747082818 0.22647486666124839 0 0.43602661166377499 0.2362412682293889 0 0.44584438813649652 0.2203436080528294 0 0.46338994747082818 0.22647486666124839 0 0.43602661166377499 0.2362412682293889 0 0.45384283414141641 0.23962742592169059 0 0.46338994747082818 0.22647486666124839 0 0.44584438813649652 0.2203436080528294 0 0.46338994747082818 0.22647486666124839 0 0.4574246187180494 0.20998202225832771 0 0.45384283414141641 0.23962742592169059 0 0.46338994747082818 0.22647486666124839 0 0.47692141707070451 0.23056955077157251 0 0.46338994747082818 0.22647486666124839 0 0.4574246187180494 0.20998202225832771 0 0.47311107537994651 0.21060674662752529 0 0.4574246187180494 0.20998202225832771 0 0.46861366351278472 0.19789432193598561 0 0.47311107537994651 0.21060674662752529 0 0.44584438813649652 0.2203436080528294 0 0.4574246187180494 0.20998202225832771 0 0.44184419378540352 0.2076794424592901 0 0.4302098735549707 0.2206458244329694 0 0.44584438813649652 0.2203436080528294 0 0.44184419378540352 0.2076794424592901 0 0.4574246187180494 0.20998202225832771 0 0.44184419378540352 0.2076794424592901 0 0.45120510308892831 0.19507838461398491 0 0.44184419378540352 0.2076794424592901 0 0.43799329450951457 0.1898848624547933 0 0.45120510308892831 0.19507838461398491 0 0.4574246187180494 0.20998202225832771 0 0.45120510308892831 0.19507838461398491 0 0.46861366351278472 0.19789432193598561 0 0.45120510308892831 0.19507838461398491 0 0.46861366351278472 0.19789432193598561 0 0.45014974491888898 0.16995127396152809 0 0.46861366351278472 0.19789432193598561 0 0.48377650321145821 0.20030440734603891 0 0.47890777313388699 0.17818810929941131 0 0.46861366351278472 0.19789432193598561 0 0.48377650321145821 0.20030440734603891 0 0.47311107537994651 0.21060674662752529 0 0.48377650321145821 0.20030440734603891 0 0.5 0.19442179120654851 0 0.47890777313388699 0.17818810929941131 0 0.48377650321145821 0.20030440734603891 0 0.5 0.19442179120654851 0 0.49075328327788142 0.2167084650931079 0 0.5 0.19442179120654851 0 0.49075328327788142 0.2167084650931079 0 0.49999999999999339 0.2215116756214566 0 0.48377650321145821 0.20030440734603891 0 0.49075328327788142 0.2167084650931079 0 0.47311107537994651 0.21060674662752529 0 0.46338994747082818 0.22647486666124839 0 0.49075328327788142 0.2167084650931079 0 0.47311107537994651 0.21060674662752529 0 0.46338994747082818 0.22647486666124839 0 0.49075328327788142 0.2167084650931079 0 0.46338994747082818 0.22647486666124839 0 0.49075328327788142 0.2167084650931079 0 0.47692141707070451 0.23056955077157251 0 0.47692141707070451 0.23056955077157251 0 0.49999999999999339 0.2215116756214566 0 0.50000000000000067 0.2392155256412283 0 0.49075328327788142 0.2167084650931079 0 0.47692141707070451 0.23056955077157251 0 0.49999999999999339 0.2215116756214566 0 0.47692141707070451 0.23056955077157251 0 0.49999999999999339 0.2215116756214566 0 0.50000000000000067 0.2392155256412283 0 0.47583181488482379 0.2451422378191761 0 0.48341195364679568 0.26002408893105827 0 0.50000000000000067 0.2392155256412283 0 0.47583181488482379 0.2451422378191761 0 0.47692141707070451 0.23056955077157251 0 0.50000000000000067 0.2392155256412283 0 0.47583181488482379 0.2451422378191761 0 0.45384283414141641 0.23962742592169059 0 0.47692141707070451 0.23056955077157251 0 0.47583181488482379 0.2451422378191761 0 0.46053260521531592 0.14091734283165991 0 0.45014974491888898 0.16995127396152809 0 0.47759274938693741 0.15337993901402261 0 0.46053260521531592 0.14091734283165991 0 0.47596637305353268 0.1236489788231635 0 0.45094723062946279 0.12208098845927939 0 0.46053260521531592 0.14091734283165991 0 0.44305345270963392 0.14224085277467549 0 0.45094723062946279 0.12208098845927939 0 0.43267139290449452 0.12562392175117529 0 0.44305345270963392 0.14224085277467549 0 0.45094723062946279 0.12208098845927939 0 0.46053260521531592 0.14091734283165991 0 0.44305345270963392 0.14224085277467549 0 0.45014974491888898 0.16995127396152809 0 0.43641214087317609 0.15776157540708571 0 0.44305345270963392 0.14224085277467549 0 0.45014974491888898 0.16995127396152809 0 0.42759287120751482 0.1799189573059411 0 0.43799329450951457 0.1898848624547933 0 0.45014974491888898 0.16995127396152809 0 0.43799329450951457 0.1898848624547933 0 0.45120510308892831 0.19507838461398491 0 0.45014974491888898 0.16995127396152809 0 0.46861366351278472 0.19789432193598561 0 0.45014974491888898 0.16995127396152809 0 0.47890777313388699 0.17818810929941131 0 0.45014974491888898 0.16995127396152809 0 0.47890777313388699 0.17818810929941131 0 0.47759274938693741 0.15337993901402261 0 0.5 0.19442179120654851 0 0.47890777313388699 0.17818810929941131 0 0.5 0.16733190679164031 0 0.47890777313388699 0.17818810929941131 0 0.5 0.16733190679164031 0 0.47759274938693741 0.15337993901402261 0 0.5 0.16733190679164031 0 0.47759274938693741 0.15337993901402261 0 0.5 0.14024202237673219 0 0.46053260521531592 0.14091734283165991 0 0.47759274938693741 0.15337993901402261 0 0.47596637305353268 0.1236489788231635 0 0.5 0.14024202237673219 0 0.5 0.11315213796182411 0 0.47596637305353268 0.1236489788231635 0 0.47759274938693741 0.15337993901402261 0 0.5 0.14024202237673219 0 0.47596637305353268 0.1236489788231635 0 0.5 0.11315213796182411 0 0.48146508414057748 0.097867616362435003 0 0.47596637305353268 0.1236489788231635 0 0.5 0.11315213796182411 0 0.48146508414057748 0.097867616362435003 0 0.5 0.08606225354691599 0 0.48146508414057748 0.097867616362435003 0 0.46684480345772023 0.083704774648097419 0 0.46085076100455152 0.1051260388446932 0 0.48146508414057748 0.097867616362435003 0 0.47596637305353268 0.1236489788231635 0 0.46085076100455152 0.1051260388446932 0 0.5 0.08606225354691599 0 0.48297411160829701 0.071419164250366693 0 0.5 0.058972369132007867 0 0.48146508414057748 0.097867616362435003 0 0.5 0.08606225354691599 0 0.48297411160829701 0.071419164250366693 0 0.48146508414057748 0.097867616362435003 0 0.48297411160829701 0.071419164250366693 0 0.46684480345772023 0.083704774648097419 0 0.48297411160829701 0.071419164250366693 0 0.46368779630991369 0.062884433647911922 0 0.46684480345772023 0.083704774648097419 0 0.46368779630991369 0.062884433647911922 0 0.4455316944648699 0.078385408113317706 0 0.46368779630991369 0.062884433647911922 0 0.46684480345772023 0.083704774648097419 0 0.4455316944648699 0.078385408113317706 0 0.46684480345772023 0.083704774648097419 0 0.4455316944648699 0.078385408113317706 0 0.46085076100455152 0.1051260388446932 0 0.4455316944648699 0.078385408113317706 0 0.46085076100455152 0.1051260388446932 0 0.43655847815144871 0.087567909291679069 0 0.4455316944648699 0.078385408113317706 0 0.43655847815144871 0.087567909291679069 0 0.43300293116684879 0.070359854062556224 0 0.4455316944648699 0.078385408113317706 0 0.43300293116684879 0.070359854062556224 0 0.44432728466234178 0.059795406129610977 0 0.46368779630991369 0.062884433647911922 0 0.4455316944648699 0.078385408113317706 0 0.44432728466234178 0.059795406129610977 0 0.47596637305353268 0.1236489788231635 0 0.46085076100455152 0.1051260388446932 0 0.45094723062946279 0.12208098845927939 0 0.46085076100455152 0.1051260388446932 0 0.43655847815144871 0.087567909291679069 0 0.46085076100455152 0.1051260388446932 0 0.43845481143497073 0.110031162788742 0 0.43302597451412722 0.09911942802672713 0 0.46085076100455152 0.1051260388446932 0 0.43302597451412722 0.09911942802672713 0 0.43655847815144871 0.087567909291679069 0 0.43267139290449452 0.12562392175117529 0 0.45094723062946279 0.12208098845927939 0 0.43845481143497073 0.110031162788742 0 0.46085076100455152 0.1051260388446932 0 0.45094723062946279 0.12208098845927939 0 0.43845481143497073 0.110031162788742 0 0.43267139290449452 0.12562392175117529 0 0.43845481143497073 0.110031162788742 0 0.42512360996164289 0.1101942667169049 0 0.43267139290449452 0.12562392175117529 0 0.42512360996164289 0.1101942667169049 0 0.41840244549433692 0.1204435227777134 0 0.42512360996164289 0.1101942667169049 0 0.41840244549433692 0.1204435227777134 0 0.41145911669595331 0.1096997076075869 0 0.41840244549433692 0.1204435227777134 0 0.41145911669595331 0.1096997076075869 0 0.40630256149234217 0.12337914253670321 0 0.41145911669595331 0.1096997076075869 0 0.41782870111656589 0.098086010242617663 0 0.40188519574572068 0.098349840232826835 0 0.41782870111656589 0.098086010242617663 0 0.41132824907511162 0.087668761689670915 0 0.40188519574572068 0.098349840232826835 0 0.42512360996164289 0.1101942667169049 0 0.41145911669595331 0.1096997076075869 0 0.41782870111656589 0.098086010242617663 0 0.41782870111656589 0.098086010242617663 0 0.43302597451412722 0.09911942802672713 0 0.42198136315300161 0.08812274721924529 0 0.42512360996164289 0.1101942667169049 0 0.41782870111656589 0.098086010242617663 0 0.43302597451412722 0.09911942802672713 0 0.43845481143497073 0.110031162788742 0 0.42512360996164289 0.1101942667169049 0 0.43302597451412722 0.09911942802672713 0 0.43655847815144871 0.087567909291679069 0 0.42198136315300161 0.08812274721924529 0 0.41226619529834591 0.070009779738664735 0 0.43655847815144871 0.087567909291679069 0 0.41226619529834591 0.070009779738664735 0 0.43302597451412722 0.09911942802672713 0 0.43655847815144871 0.087567909291679069 0 0.42198136315300161 0.08812274721924529 0 0.43300293116684879 0.070359854062556224 0 0.41226619529834591 0.070009779738664735 0 0.42739758089851382 0.054541393999090262 0 0.43655847815144871 0.087567909291679069 0 0.43300293116684879 0.070359854062556224 0 0.41226619529834591 0.070009779738664735 0 0.42198136315300161 0.08812274721924529 0 0.41226619529834591 0.070009779738664735 0 0.41132824907511162 0.087668761689670915 0 0.41226619529834591 0.070009779738664735 0 0.41132824907511162 0.087668761689670915 0 0.39992923875424519 0.082621500021195282 0 0.41782870111656589 0.098086010242617663 0 0.42198136315300161 0.08812274721924529 0 0.41132824907511162 0.087668761689670915 0 0.41132824907511162 0.087668761689670915 0 0.39992923875424519 0.082621500021195282 0 0.40188519574572068 0.098349840232826835 0 0.39992923875424519 0.082621500021195282 0 0.38759228221014619 0.095233220303727467 0 0.40188519574572068 0.098349840232826835 0 0.39992923875424519 0.082621500021195282 0 0.38759228221014619 0.095233220303727467 0 0.41226619529834591 0.070009779738664735 0 0.39707386889515511 0.070908779594843374 0 0.39683376059791597 0.058855427163935138 0 0.41226619529834591 0.070009779738664735 0 0.39683376059791597 0.058855427163935138 0 0.41226619529834591 0.070009779738664735 0 0.39992923875424519 0.082621500021195282 0 0.41226619529834591 0.070009779738664735 0 0.39992923875424519 0.082621500021195282 0 0.39707386889515511 0.070908779594843374 0 0.39992923875424519 0.082621500021195282 0 0.39707386889515511 0.070908779594843374 0 0.38583977896057609 0.075316135258006081 0 0.39707386889515511 0.070908779594843374 0 0.38282045226763678 0.060547433734587333 0 0.39683376059791597 0.058855427163935138 0 0.39707386889515511 0.070908779594843374 0 0.38583977896057609 0.075316135258006081 0 0.38282045226763678 0.060547433734587333 0 0.38583977896057609 0.075316135258006081 0 0.37596532967213542 0.069868995675824025 0 0.37682589963749002 0.081332762740894418 0 0.37307104071443398 0.061065176941414383 0 0.37596532967213542 0.069868995675824025 0 0.38282045226763678 0.060547433734587333 0 0.38583977896057609 0.075316135258006081 0 0.37596532967213542 0.069868995675824025 0 0.38282045226763678 0.060547433734587333 0 0.39992923875424519 0.082621500021195282 0 0.38412803848747967 0.086259474622970303 0 0.38759228221014619 0.095233220303727467 0 0.39992923875424519 0.082621500021195282 0 0.38583977896057609 0.075316135258006081 0 0.38412803848747967 0.086259474622970303 0 0.37045299287494049 0.09679375479102828 0 0.38412803848747967 0.086259474622970303 0 0.38759228221014619 0.095233220303727467 0 0.38583977896057609 0.075316135258006081 0 0.38412803848747967 0.086259474622970303 0 0.37682589963749002 0.081332762740894418 0 0.37045299287494049 0.09679375479102828 0 0.38412803848747967 0.086259474622970303 0 0.37682589963749002 0.081332762740894418 0 0.37045299287494049 0.09679375479102828 0 0.38005682511468147 0.12140739343396729 0 0.37045299287494049 0.09679375479102828 0 0.38759228221014619 0.095233220303727467 0 0.38890959528695412 0.1083938038889192 0 0.37045299287494049 0.09679375479102828 0 0.38890959528695412 0.1083938038889192 0 0.38005682511468147 0.12140739343396729 0 0.39398634319161102 0.12556361147638159 0 0.38890959528695412 0.1083938038889192 0 0.38005682511468147 0.12140739343396729 0 0.39398634319161102 0.12556361147638159 0 0.38890959528695412 0.1083938038889192 0 0.39948393258462489 0.11301500309558379 0 0.39398634319161102 0.12556361147638159 0 0.40630256149234217 0.12337914253670321 0 0.39948393258462489 0.11301500309558379 0 0.41145911669595331 0.1096997076075869 0 0.40630256149234217 0.12337914253670321 0 0.39948393258462489 0.11301500309558379 0 0.41145911669595331 0.1096997076075869 0 0.39948393258462489 0.11301500309558379 0 0.40188519574572068 0.098349840232826835 0 0.38759228221014619 0.095233220303727467 0 0.38890959528695412 0.1083938038889192 0 0.40188519574572068 0.098349840232826835 0 0.38890959528695412 0.1083938038889192 0 0.39948393258462489 0.11301500309558379 0 0.40188519574572068 0.098349840232826835 0 0.3912475249538237 0.025882868266216091 0 0.40325323122183843 0.024352223252143548 0 0.39536881189699241 0.01378873843063998 0 0.3912475249538237 0.025882868266216091 0 0.40325323122183843 0.024352223252143548 0 0.39805180056669343 0.032772735105760037 0 0.40325323122183843 0.024352223252143548 0 0.39805180056669343 0.032772735105760037 0 0.40655765028286611 0.035582104639029083 0 0.40325323122183843 0.024352223252143548 0 0.39536881189699241 0.01378873843063998 0 0.40720094273855439 0.01372602960598159 0 0.40060323373222451 0.0042547197705496897 0 0.39536881189699241 0.01378873843063998 0 0.40720094273855439 0.01372602960598159 0 0.40060323373222451 0.0042547197705496897 0 0.41081432206005303 0.0037114498956348132 0 0.4046584776842293 -0.0050702490882302163 0 0.40060323373222451 0.0042547197705496897 0 0.41081432206005303 0.0037114498956348132 0 0.40720094273855439 0.01372602960598159 0 0.40060323373222451 0.0042547197705496897 0 0.39025836247721268 0.0036292771787240202 0 0.39531848553630572 -0.0042569273994520467 0 0.40060323373222451 0.0042547197705496897 0 0.39536881189699241 0.01378873843063998 0 0.39025836247721268 0.0036292771787240202 0 0.37844401144479839 0.012609093579625891 0 0.38356146703633898 -0.0078565650350033434 0 0.37844401144479839 0.012609093579625891 0 0.39025836247721268 0.0036292771787240202 0 0.38356146703633898 -0.0078565650350033434 0 0.39536881189699241 0.01378873843063998 0 0.37844401144479839 0.012609093579625891 0 0.39025836247721268 0.0036292771787240202 0 0.3912475249538237 0.025882868266216091 0 0.37844401144479839 0.012609093579625891 0 0.38063223185621792 0.036578263657106522 0 0.37844401144479839 0.012609093579625891 0 0.38063223185621792 0.036578263657106522 0 0.37146335928247548 0.04052602251159599 0 0.37844401144479839 0.012609093579625891 0 0.38063223185621792 0.036578263657106522 0 0.3912475249538237 0.025882868266216091 0 0.39536881189699241 0.01378873843063998 0 0.37844401144479839 0.012609093579625891 0 0.37146335928247548 0.04052602251159599 0 0.38063223185621792 0.036578263657106522 0 0.38282045226763678 0.060547433734587333 0 0.3912475249538237 0.025882868266216091 0 0.38063223185621792 0.036578263657106522 0 0.3908528121234538 0.035995570554822158 0 0.38063223185621792 0.036578263657106522 0 0.38791705742610771 0.044539104287684539 0 0.3908528121234538 0.035995570554822158 0 0.38791705742610771 0.044539104287684539 0 0.38282045226763678 0.060547433734587333 0 0.39079668350586277 0.051215399393808793 0 0.37307104071443398 0.061065176941414383 0 0.37146335928247548 0.04052602251159599 0 0.38282045226763678 0.060547433734587333 0 0.38063223185621792 0.036578263657106522 0 0.38791705742610771 0.044539104287684539 0 0.38282045226763678 0.060547433734587333 0 0.38063223185621792 0.036578263657106522 0 0.38282045226763678 0.060547433734587333 0 0.38282045226763678 0.060547433734587333 0 0.39683376059791597 0.058855427163935138 0 0.39079668350586277 0.051215399393808793 0 0.41226619529834591 0.070009779738664735 0 0.39683376059791597 0.058855427163935138 0 0.40948896714378957 0.05055434744181983 0 0.39683376059791597 0.058855427163935138 0 0.39079668350586277 0.051215399393808793 0 0.39674782008621368 0.04348041067995833 0 0.39683376059791597 0.058855427163935138 0 0.39674782008621368 0.04348041067995833 0 0.40948896714378957 0.05055434744181983 0 0.3908528121234538 0.035995570554822158 0 0.39805180056669343 0.032772735105760037 0 0.39674782008621368 0.04348041067995833 0 0.3912475249538237 0.025882868266216091 0 0.3908528121234538 0.035995570554822158 0 0.39805180056669343 0.032772735105760037 0 0.38791705742610771 0.044539104287684539 0 0.3908528121234538 0.035995570554822158 0 0.39674782008621368 0.04348041067995833 0 0.38791705742610771 0.044539104287684539 0 0.39079668350586277 0.051215399393808793 0 0.39674782008621368 0.04348041067995833 0 0.39674782008621368 0.04348041067995833 0 0.40655765028286611 0.035582104639029083 0 0.40948896714378957 0.05055434744181983 0 0.39805180056669343 0.032772735105760037 0 0.39674782008621368 0.04348041067995833 0 0.40655765028286611 0.035582104639029083 0 0.40655765028286611 0.035582104639029083 0 0.41713079569888262 0.040856968430241461 0 0.41557099838193923 0.024039796491718179 0 0.41713079569888262 0.040856968430241461 0 0.42755741698364552 0.032815777208855347 0 0.41557099838193923 0.024039796491718179 0 0.40655765028286611 0.035582104639029083 0 0.41713079569888262 0.040856968430241461 0 0.40948896714378957 0.05055434744181983 0 0.41226619529834591 0.070009779738664735 0 0.40948896714378957 0.05055434744181983 0 0.42739758089851382 0.054541393999090262 0 0.41713079569888262 0.040856968430241461 0 0.40948896714378957 0.05055434744181983 0 0.42739758089851382 0.054541393999090262 0 0.41226619529834591 0.070009779738664735 0 0.42739758089851382 0.054541393999090262 0 0.43300293116684879 0.070359854062556224 0 0.42739758089851382 0.054541393999090262 0 0.44432728466234178 0.059795406129610977 0 0.41713079569888262 0.040856968430241461 0 0.42739758089851382 0.054541393999090262 0 0.42755741698364552 0.032815777208855347 0 0.42739758089851382 0.054541393999090262 0 0.42755741698364552 0.032815777208855347 0 0.44252896649868317 0.039073008259517338 0 0.42739758089851382 0.054541393999090262 0 0.44252896649868317 0.039073008259517338 0 0.42755741698364552 0.032815777208855347 0 0.4358194844604939 0.024219735287320941 0 0.44252896649868317 0.039073008259517338 0 0.42755741698364552 0.032815777208855347 0 0.41557099838193923 0.024039796491718179 0 0.4265644217351573 0.014684511896395219 0 0.4358194844604939 0.024219735287320941 0 0.4265644217351573 0.014684511896395219 0 0.44548351627008242 0.01642882659412407 0 0.42755741698364552 0.032815777208855347 0 0.4358194844604939 0.024219735287320941 0 0.4265644217351573 0.014684511896395219 0 0.41557099838193923 0.024039796491718179 0 0.4165272652869268 0.01155925859927168 0 0.4265644217351573 0.014684511896395219 0 0.41557099838193923 0.024039796491718179 0 0.40720094273855439 0.01372602960598159 0 0.4165272652869268 0.01155925859927168 0 0.40325323122183843 0.024352223252143548 0 0.41557099838193923 0.024039796491718179 0 0.40720094273855439 0.01372602960598159 0 0.40325323122183843 0.024352223252143548 0 0.40655765028286611 0.035582104639029083 0 0.41557099838193923 0.024039796491718179 0 0.41081432206005303 0.0037114498956348132 0 0.40720094273855439 0.01372602960598159 0 0.4165272652869268 0.01155925859927168 0 0.4165272652869268 0.01155925859927168 0 0.42248564151892998 0.0016345051066286029 0 0.4265644217351573 0.014684511896395219 0 0.41081432206005303 0.0037114498956348132 0 0.4165272652869268 0.01155925859927168 0 0.42248564151892998 0.0016345051066286029 0 0.42248564151892998 0.0016345051066286029 0 0.4265644217351573 0.014684511896395219 0 0.4382820622288856 -0.0014159552958160841 0 0.4265644217351573 0.014684511896395219 0 0.44548351627008242 0.01642882659412407 0 0.4382820622288856 -0.0014159552958160841 0 0.45100246047295739 0.0046664116742636159 0 0.44548351627008242 0.01642882659412407 0 0.4382820622288856 -0.0014159552958160841 0 0.45100246047295739 0.0046664116742636159 0 0.44548351627008242 0.01642882659412407 0 0.4580470330794123 0.0188547641718908 0 0.4358194844604939 0.024219735287320941 0 0.4514029071021442 0.02821869916314456 0 0.44548351627008242 0.01642882659412407 0 0.4358194844604939 0.024219735287320941 0 0.4514029071021442 0.02821869916314456 0 0.44252896649868317 0.039073008259517338 0 0.4514029071021442 0.02821869916314456 0 0.44548351627008242 0.01642882659412407 0 0.4580470330794123 0.0188547641718908 0 0.4514029071021442 0.02821869916314456 0 0.4580470330794123 0.0188547641718908 0 0.46553563141862692 0.027383902935855992 0 0.4580470330794123 0.0188547641718908 0 0.46553563141862692 0.027383902935855992 0 0.471035018561343 0.01684384088441979 0 0.4580470330794123 0.0188547641718908 0 0.4620271672997433 0.0081957990277541914 0 0.471035018561343 0.01684384088441979 0 0.4620271672997433 0.0081957990277541914 0 0.47207727543944228 0.0077163925679632076 0 0.45540766643685782 -0.0078732224449345398 0 0.4620271672997433 0.0081957990277541914 0 0.47207727543944228 0.0077163925679632076 0 0.471035018561343 0.01684384088441979 0 0.45100246047295739 0.0046664116742636159 0 0.4620271672997433 0.0081957990277541914 0 0.45540766643685782 -0.0078732224449345398 0 0.45100246047295739 0.0046664116742636159 0 0.4580470330794123 0.0188547641718908 0 0.4620271672997433 0.0081957990277541914 0 0.42739758089851382 0.054541393999090262 0 0.44432728466234178 0.059795406129610977 0 0.44252896649868317 0.039073008259517338 0 0.44432728466234178 0.059795406129610977 0 0.44252896649868317 0.039073008259517338 0 0.46100281088556699 0.043351957730158222 0 0.4514029071021442 0.02821869916314456 0 0.44252896649868317 0.039073008259517338 0 0.46100281088556699 0.043351957730158222 0 0.4514029071021442 0.02821869916314456 0 0.46553563141862692 0.027383902935855992 0 0.46100281088556699 0.043351957730158222 0 0.46553563141862692 0.027383902935855992 0 0.46100281088556699 0.043351957730158222 0 0.4764725540003833 0.035303178421407518 0 0.46368779630991369 0.062884433647911922 0 0.44432728466234178 0.059795406129610977 0 0.46100281088556699 0.043351957730158222 0 0.48297411160829701 0.071419164250366693 0 0.46368779630991369 0.062884433647911922 0 0.48184389815495748 0.047383459182506117 0 0.46368779630991369 0.062884433647911922 0 0.46100281088556699 0.043351957730158222 0 0.48184389815495748 0.047383459182506117 0 0.46368779630991369 0.062884433647911922 0 0.48184389815495748 0.047383459182506117 0 0.46100281088556699 0.043351957730158222 0 0.48184389815495748 0.047383459182506117 0 0.4764725540003833 0.035303178421407518 0 0.48184389815495748 0.047383459182506117 0 0.50000000000000089 0.031882484717099757 0 0.48184389815495748 0.047383459182506117 0 0.50000000000000089 0.031882484717099757 0 0.5 0.058972369132007867 0 0.48184389815495748 0.047383459182506117 0 0.4764725540003833 0.035303178421407518 0 0.50000000000000089 0.031882484717099757 0 0.48297411160829701 0.071419164250366693 0 0.48184389815495748 0.047383459182506117 0 0.5 0.058972369132007867 0 0.48173822001607031 0.002441982684480838 0 0.47207727543944228 0.0077163925679632076 0 0.45540766643685782 -0.0078732224449345398 0 0.48073089036299149 0.01447516008145705 0 0.48088876464914698 0.0066420825236524483 0 0.47207727543944228 0.0077163925679632076 0 0.48088876464914698 0.0066420825236524483 0 0.48173822001607031 0.002441982684480838 0 0.48944624590280772 0.014576472087587141 0 0.48073089036299149 0.01447516008145705 0 0.48088876464914698 0.0066420825236524483 0 0.48944624590280772 0.014576472087587141 0 0.48088876464914698 0.0066420825236524483 0 0.48173822001607031 0.002441982684480838 0 0.47207727543944228 0.0077163925679632076 0 0.48088876464914698 0.0066420825236524483 0 0.48173822001607031 0.002441982684480838 0 0.48073089036299149 0.01447516008145705 0 0.47207727543944228 0.0077163925679632076 0 0.471035018561343 0.01684384088441979 0 0.46553563141862692 0.027383902935855992 0 0.471035018561343 0.01684384088441979 0 0.48098968552297122 0.023479159592672289 0 0.46553563141862692 0.027383902935855992 0 0.4764725540003833 0.035303178421407518 0 0.48098968552297122 0.023479159592672289 0 0.48073089036299149 0.01447516008145705 0 0.471035018561343 0.01684384088441979 0 0.48098968552297122 0.023479159592672289 0 0.48073089036299149 0.01447516008145705 0 0.48098968552297122 0.023479159592672289 0 0.48944624590280772 0.014576472087587141 0 0.50000000000000089 0.031882484717099757 0 0.50000000000000044 0.0095961811708810997 0 0.48944624590280772 0.014576472087587141 0 0.4764725540003833 0.035303178421407518 0 0.50000000000000089 0.031882484717099757 0 0.48098968552297122 0.023479159592672289 0 0.50000000000000089 0.031882484717099757 0 0.48098968552297122 0.023479159592672289 0 0.48944624590280772 0.014576472087587141 0 0.48173822001607031 0.002441982684480838 0 0.50000000000000044 0.0095961811708810997 0 0.48944624590280772 0.014576472087587141 0 0.48173822001607031 0.002441982684480838 0 0.50000000000000044 0.0095961811708810997 0 0.48173822001607031 0.002441982684480838 0 0.50000000000000044 0.0095961811708810997 0 0.5 -0.01553848795347695 0 0.48173822001607031 0.002441982684480838 0 0.5 -0.01553848795347695 0 0.48723509010938909 -0.024737082977995831 0 0.48173822001607031 0.002441982684480838 0 0.48723509010938909 -0.024737082977995831 0 0.48173822001607031 0.002441982684480838 0 0.46944239540012012 -0.021901386132034111 0 0.45540766643685782 -0.0078732224449345398 0 0.48173822001607031 0.002441982684480838 0 0.46944239540012012 -0.021901386132034111 0 0.48723509010938909 -0.024737082977995831 0 0.46944239540012012 -0.021901386132034111 0 0.48723509010938909 -0.024737082977995831 0 0.47311684284700922 -0.039980301183512167 0 0.5 -0.01553848795347695 0 0.48723509010938909 -0.024737082977995831 0 0.5 -0.040673157077835087 0 0.48723509010938909 -0.024737082977995831 0 0.49273196020270971 -0.051916148640471983 0 0.48034048547664182 -0.050194577481915269 0 0.48723509010938909 -0.024737082977995831 0 0.49273196020270971 -0.051916148640471983 0 0.48723509010938909 -0.024737082977995831 0 0.5 -0.040673157077835087 0 0.49273196020270971 -0.051916148640471983 0 0.5 -0.040673157077835087 0 0.49273196020270971 -0.051916148640471983 0 0.5 -0.065807826202193331 0 0.49273196020270971 -0.051916148640471983 0 0.48384360039889979 -0.062204599920787272 0 0.48034048547664182 -0.050194577481915269 0 0.48034048547664182 -0.050194577481915269 0 0.47035120232490191 -0.060528185902064997 0 0.47311684284700922 -0.039980301183512167 0 0.47035120232490191 -0.060528185902064997 0 0.47311684284700922 -0.039980301183512167 0 0.48384360039889979 -0.062204599920787272 0 0.48034048547664182 -0.050194577481915269 0 0.47035120232490191 -0.060528185902064997 0 0.48723509010938909 -0.024737082977995831 0 0.48034048547664182 -0.050194577481915269 0 0.47311684284700922 -0.039980301183512167 0 0.46944239540012012 -0.021901386132034111 0 0.47311684284700922 -0.039980301183512167 0 0.44971415759127392 -0.039358306738208573 0 0.47035120232490191 -0.060528185902064997 0 0.47311684284700922 -0.039980301183512167 0 0.44971415759127392 -0.039358306738208573 0 0.47035120232490191 -0.060528185902064997 0 0.44971415759127392 -0.039358306738208573 0 0.47035120232490191 -0.060528185902064997 0 0.43963483674523918 -0.055334607978488382 0 0.44971415759127392 -0.039358306738208573 0 0.43963483674523918 -0.055334607978488382 0 0.44971415759127392 -0.039358306738208573 0 0.42419530264354072 -0.042652000491910397 0 0.46944239540012012 -0.021901386132034111 0 0.44971415759127392 -0.039358306738208573 0 0.45540766643685782 -0.0078732224449345398 0 0.44971415759127392 -0.039358306738208573 0 0.42907711285764621 -0.01818842757435184 0 0.44971415759127392 -0.039358306738208573 0 0.45540766643685782 -0.0078732224449345398 0 0.42907711285764621 -0.01818842757435184 0 0.45540766643685782 -0.0078732224449345398 0 0.42907711285764621 -0.01818842757435184 0 0.45100246047295739 0.0046664116742636159 0 0.4382820622288856 -0.0014159552958160841 0 0.45540766643685782 -0.0078732224449345398 0 0.4382820622288856 -0.0014159552958160841 0 0.45540766643685782 -0.0078732224449345398 0 0.42907711285764621 -0.01818842757435184 0 0.48173822001607031 0.002441982684480838 0 0.45540766643685782 -0.0078732224449345398 0 0.47129126618897188 -0.1223351355815797 0 0.47148248434309947 -0.114916285604633 0 0.48087269318342413 -0.1216818802472065 0 0.47148248434309947 -0.114916285604633 0 0.48087269318342413 -0.1216818802472065 0 0.47838814501791832 -0.1066654575105275 0 0.48087269318342413 -0.1216818802472065 0 0.48924328608656842 -0.1141618265083332 0 0.47838814501791832 -0.1066654575105275 0 0.5 -0.1122204549214597 0 0.48924328608656842 -0.1141618265083332 0 0.5 -0.13349841451636779 0 0.48087269318342413 -0.1216818802472065 0 0.48924328608656842 -0.1141618265083332 0 0.5 -0.13349841451636779 0 0.5 -0.1122204549214597 0 0.48924328608656842 -0.1141618265083332 0 0.48827073793524339 -0.097774102912636218 0 0.48924328608656842 -0.1141618265083332 0 0.48827073793524339 -0.097774102912636218 0 0.47838814501791832 -0.1066654575105275 0 0.5 -0.1122204549214597 0 0.48827073793524339 -0.097774102912636218 0 0.50000000000000266 -0.090942495326551576 0 0.47652975213937199 -0.091635549067057065 0 0.46683976751390588 -0.086617099886465918 0 0.46456669494636288 -0.10350535152343909 0 0.48827073793524339 -0.097774102912636218 0 0.47838814501791832 -0.1066654575105275 0 0.47652975213937199 -0.091635549067057065 0 0.47148248434309947 -0.114916285604633 0 0.47838814501791832 -0.1066654575105275 0 0.46456669494636288 -0.10350535152343909 0 0.47838814501791832 -0.1066654575105275 0 0.47652975213937199 -0.091635549067057065 0 0.46456669494636288 -0.10350535152343909 0 0.48827073793524339 -0.097774102912636218 0 0.47652975213937199 -0.091635549067057065 0 0.48517560116245317 -0.075735340614307423 0 0.47652975213937199 -0.091635549067057065 0 0.48517560116245317 -0.075735340614307423 0 0.46683976751390588 -0.086617099886465918 0 0.47652975213937199 -0.091635549067057065 0 0.46683976751390588 -0.086617099886465918 0 0.50000000000000266 -0.090942495326551576 0 0.49822883029603021 -0.079095214302948247 0 0.5 -0.065807826202193331 0 0.48827073793524339 -0.097774102912636218 0 0.50000000000000266 -0.090942495326551576 0 0.48517560116245317 -0.075735340614307423 0 0.50000000000000266 -0.090942495326551576 0 0.48517560116245317 -0.075735340614307423 0 0.50000000000000266 -0.090942495326551576 0 0.49822883029603021 -0.079095214302948247 0 0.48517560116245317 -0.075735340614307423 0 0.49273196020270971 -0.051916148640471983 0 0.49822883029603021 -0.079095214302948247 0 0.48384360039889979 -0.062204599920787272 0 0.49822883029603021 -0.079095214302948247 0 0.48517560116245317 -0.075735340614307423 0 0.49273196020270971 -0.051916148640471983 0 0.48384360039889979 -0.062204599920787272 0 0.49822883029603021 -0.079095214302948247 0 0.49273196020270971 -0.051916148640471983 0 0.49822883029603021 -0.079095214302948247 0 0.5 -0.065807826202193331 0 0.47035120232490191 -0.060528185902064997 0 0.48517560116245317 -0.075735340614307423 0 0.47035120232490191 -0.060528185902064997 0 0.48517560116245317 -0.075735340614307423 0 0.46683976751390588 -0.086617099886465918 0 0.48384360039889979 -0.062204599920787272 0 0.47035120232490191 -0.060528185902064997 0 0.48517560116245317 -0.075735340614307423 0 0.47035120232490191 -0.060528185902064997 0 0.46683976751390588 -0.086617099886465918 0 0.47035120232490191 -0.060528185902064997 0 0.44249197108241189 -0.074007360679063244 0 0.46683976751390588 -0.086617099886465918 0 0.47035120232490191 -0.060528185902064997 0 0.43963483674523918 -0.055334607978488382 0 0.44249197108241189 -0.074007360679063244 0 0.44249197108241189 -0.074007360679063244 0 0.46683976751390588 -0.086617099886465918 0 0.4490662803509099 -0.094083529251462475 0 0.44249197108241189 -0.074007360679063244 0 0.4490662803509099 -0.094083529251462475 0 0.42834270349958448 -0.099226311759436261 0 0.44249197108241189 -0.074007360679063244 0 0.46683976751390588 -0.086617099886465918 0 0.46683976751390588 -0.086617099886465918 0 0.46456669494636288 -0.10350535152343909 0 0.4490662803509099 -0.094083529251462475 0 0.46683976751390588 -0.086617099886465918 0 0.46456669494636288 -0.10350535152343909 0 0.46456669494636288 -0.10350535152343909 0 0.4490662803509099 -0.094083529251462475 0 0.44386094964032902 -0.11054798122052439 0 0.4490662803509099 -0.094083529251462475 0 0.44386094964032902 -0.11054798122052439 0 0.42834270349958448 -0.099226311759436261 0 0.44386094964032902 -0.11054798122052439 0 0.46257396642688631 -0.12529077885077469 0 0.45239247298790419 -0.125419693033265 0 0.44386094964032902 -0.11054798122052439 0 0.42916935431308728 -0.1205456085246996 0 0.4435038969132965 -0.12540022695152131 0 0.44386094964032902 -0.11054798122052439 0 0.45239247298790419 -0.125419693033265 0 0.4435038969132965 -0.12540022695152131 0 0.44386094964032902 -0.11054798122052439 0 0.46229362237882032 -0.1203936031604123 0 0.46257396642688631 -0.12529077885077469 0 0.46456669494636288 -0.10350535152343909 0 0.46229362237882032 -0.1203936031604123 0 0.46456669494636288 -0.10350535152343909 0 0.44386094964032902 -0.11054798122052439 0 0.46229362237882032 -0.1203936031604123 0 0.44386094964032902 -0.11054798122052439 0 0.46257396642688631 -0.12529077885077469 0 0.47148248434309947 -0.114916285604633 0 0.46456669494636288 -0.10350535152343909 0 0.46229362237882032 -0.1203936031604123 0 0.47129126618897188 -0.1223351355815797 0 0.46229362237882032 -0.1203936031604123 0 0.46257396642688631 -0.12529077885077469 0 0.47129126618897188 -0.1223351355815797 0 0.47148248434309947 -0.114916285604633 0 0.46229362237882032 -0.1203936031604123 0 0.44386094964032902 -0.11054798122052439 0 0.42916935431308728 -0.1205456085246996 0 0.42834270349958448 -0.099226311759436261 0 0.41143930547928681 -0.11934523636421419 0 0.42916935431308728 -0.1205456085246996 0 0.42834270349958448 -0.099226311759436261 0 0.41143930547928681 -0.11934523636421419 0 0.40555832972599831 -0.095826118330896617 0 0.41143930547928681 -0.11934523636421419 0 0.42834270349958448 -0.099226311759436261 0 0.40555832972599831 -0.095826118330896617 0 0.42834270349958448 -0.099226311759436261 0 0.41884290658632428 -0.080552882507727325 0 0.40555832972599831 -0.095826118330896617 0 0.41884290658632428 -0.080552882507727325 0 0.39967735397270959 -0.072307000297579083 0 0.40555832972599831 -0.095826118330896617 0 0.44249197108241189 -0.074007360679063244 0 0.42834270349958448 -0.099226311759436261 0 0.41884290658632428 -0.080552882507727325 0 0.44249197108241189 -0.074007360679063244 0 0.41814417465091752 -0.061397621471661459 0 0.43963483674523918 -0.055334607978488382 0 0.44249197108241189 -0.074007360679063244 0 0.41814417465091752 -0.061397621471661459 0 0.44249197108241189 -0.074007360679063244 0 0.41884290658632428 -0.080552882507727325 0 0.41814417465091752 -0.061397621471661459 0 0.41884290658632428 -0.080552882507727325 0 0.39967735397270959 -0.072307000297579083 0 0.41814417465091752 -0.061397621471661459 0 0.39967735397270959 -0.072307000297579083 0 0.38669795957132042 -0.057310603286660967 0 0.37240766699872252 -0.068318548019290964 0 0.39967735397270959 -0.072307000297579083 0 0.37781097748786241 -0.089314889372882261 0 0.37240766699872252 -0.068318548019290964 0 0.39967735397270959 -0.072307000297579083 0 0.37781097748786241 -0.089314889372882261 0 0.40555832972599831 -0.095826118330896617 0 0.39967735397270959 -0.072307000297579083 0 0.40555832972599831 -0.095826118330896617 0 0.40555832972599831 -0.095826118330896617 0 0.38953803654933628 -0.10754997095337659 0 0.39823574772599779 -0.11763079726210079 0 0.37781097748786241 -0.089314889372882261 0 0.40555832972599831 -0.095826118330896617 0 0.38953803654933628 -0.10754997095337659 0 0.37781097748786241 -0.089314889372882261 0 0.38953803654933628 -0.10754997095337659 0 0.37644505785585192 -0.1058120404938334 0 0.38953803654933628 -0.10754997095337659 0 0.37644505785585192 -0.1058120404938334 0 0.37720890243704291 -0.12310924361699779 0 0.38953803654933628 -0.10754997095337659 0 0.37720890243704291 -0.12310924361699779 0 0.38918813321375051 -0.12739880168557821 0 0.38953803654933628 -0.10754997095337659 0 0.39823574772599779 -0.11763079726210079 0 0.38918813321375051 -0.12739880168557821 0 0.41143930547928681 -0.11934523636421419 0 0.39823574772599779 -0.11763079726210079 0 0.40257569972698831 -0.13396225485532559 0 0.41143930547928681 -0.11934523636421419 0 0.40555832972599831 -0.095826118330896617 0 0.39823574772599779 -0.11763079726210079 0 0.42011428296152808 -0.02169968792975261 0 0.41401194260749391 -0.028450411104576211 0 0.41343304557213612 -0.018371446868227208 0 0.42011428296152808 -0.02169968792975261 0 0.41343304557213612 -0.018371446868227208 0 0.41928481904255338 -0.01548900553927589 0 0.42011428296152808 -0.02169968792975261 0 0.41928481904255338 -0.01548900553927589 0 0.42542521438275183 -0.0144422395697206 0 0.42011428296152808 -0.02169968792975261 0 0.41401194260749391 -0.028450411104576211 0 0.42742255973229643 -0.030069766767760062 0 0.41401194260749391 -0.028450411104576211 0 0.40522076275047969 -0.019933987949522329 0 0.40044964155059998 -0.029094842751199331 0 0.41401194260749391 -0.028450411104576211 0 0.41343304557213612 -0.018371446868227208 0 0.40522076275047969 -0.019933987949522329 0 0.41343304557213612 -0.018371446868227208 0 0.40806592415966281 -0.01253819616599721 0 0.40522076275047969 -0.019933987949522329 0 0.40806592415966281 -0.01253819616599721 0 0.4135204533098043 -0.0054466611181140526 0 0.41498054603746559 -0.011947546426581419 0 0.41343304557213612 -0.018371446868227208 0 0.40806592415966281 -0.01253819616599721 0 0.41498054603746559 -0.011947546426581419 0 0.41081432206005303 0.0037114498956348132 0 0.4135204533098043 -0.0054466611181140526 0 0.4046584776842293 -0.0050702490882302163 0 0.40806592415966281 -0.01253819616599721 0 0.4135204533098043 -0.0054466611181140526 0 0.4046584776842293 -0.0050702490882302163 0 0.41081432206005303 0.0037114498956348132 0 0.42248564151892998 0.0016345051066286029 0 0.4135204533098043 -0.0054466611181140526 0 0.42248564151892998 0.0016345051066286029 0 0.4135204533098043 -0.0054466611181140526 0 0.42119781252485211 -0.0083000839364812864 0 0.41343304557213612 -0.018371446868227208 0 0.41498054603746559 -0.011947546426581419 0 0.41928481904255338 -0.01548900553927589 0 0.4135204533098043 -0.0054466611181140526 0 0.41498054603746559 -0.011947546426581419 0 0.42119781252485211 -0.0083000839364812864 0 0.41498054603746559 -0.011947546426581419 0 0.42119781252485211 -0.0083000839364812864 0 0.41928481904255338 -0.01548900553927589 0 0.42542521438275183 -0.0144422395697206 0 0.42820760236351979 -0.0076976995852137747 0 0.42907711285764621 -0.01818842757435184 0 0.4382820622288856 -0.0014159552958160841 0 0.42820760236351979 -0.0076976995852137747 0 0.42907711285764621 -0.01818842757435184 0 0.42119781252485211 -0.0083000839364812864 0 0.41928481904255338 -0.01548900553927589 0 0.42542521438275183 -0.0144422395697206 0 0.42248564151892998 0.0016345051066286029 0 0.4382820622288856 -0.0014159552958160841 0 0.42820760236351979 -0.0076976995852137747 0 0.42119781252485211 -0.0083000839364812864 0 0.42542521438275183 -0.0144422395697206 0 0.42820760236351979 -0.0076976995852137747 0 0.42248564151892998 0.0016345051066286029 0 0.42119781252485211 -0.0083000839364812864 0 0.42820760236351979 -0.0076976995852137747 0 0.44971415759127392 -0.039358306738208573 0 0.42907711285764621 -0.01818842757435184 0 0.42742255973229643 -0.030069766767760062 0 0.42011428296152808 -0.02169968792975261 0 0.42907711285764621 -0.01818842757435184 0 0.42742255973229643 -0.030069766767760062 0 0.42011428296152808 -0.02169968792975261 0 0.42542521438275183 -0.0144422395697206 0 0.42907711285764621 -0.01818842757435184 0 0.42011428296152808 -0.02169968792975261 0 0.42907711285764621 -0.01818842757435184 0 0.42542521438275183 -0.0144422395697206 0 0.42907711285764621 -0.01818842757435184 0 0.44971415759127392 -0.039358306738208573 0 0.42742255973229643 -0.030069766767760062 0 0.42419530264354072 -0.042652000491910397 0 0.41401194260749391 -0.028450411104576211 0 0.42742255973229643 -0.030069766767760062 0 0.42419530264354072 -0.042652000491910397 0 0.43963483674523918 -0.055334607978488382 0 0.42419530264354072 -0.042652000491910397 0 0.41814417465091752 -0.061397621471661459 0 0.41814417465091752 -0.061397621471661459 0 0.41107184061272262 -0.047596707948501772 0 0.39379637821942232 -0.04878788226426127 0 0.42419530264354072 -0.042652000491910397 0 0.41814417465091752 -0.061397621471661459 0 0.41107184061272262 -0.047596707948501772 0 0.41401194260749391 -0.028450411104576211 0 0.42419530264354072 -0.042652000491910397 0 0.40815150693701141 -0.037549327566173699 0 0.42419530264354072 -0.042652000491910397 0 0.41107184061272262 -0.047596707948501772 0 0.40815150693701141 -0.037549327566173699 0 0.41401194260749391 -0.028450411104576211 0 0.40815150693701141 -0.037549327566173699 0 0.40044964155059998 -0.029094842751199331 0 0.41107184061272262 -0.047596707948501772 0 0.40815150693701141 -0.037549327566173699 0 0.39379637821942232 -0.04878788226426127 0 0.40815150693701141 -0.037549327566173699 0 0.39379637821942232 -0.04878788226426127 0 0.40044964155059998 -0.029094842751199331 0 0.39379637821942232 -0.04878788226426127 0 0.38867892262788012 -0.028322223649632432 0 0.39379637821942232 -0.04878788226426127 0 0.38867892262788012 -0.028322223649632432 0 0.40044964155059998 -0.029094842751199331 0 0.39967735397270959 -0.072307000297579083 0 0.39379637821942232 -0.04878788226426127 0 0.38669795957132042 -0.057310603286660967 0 0.41814417465091752 -0.061397621471661459 0 0.39379637821942232 -0.04878788226426127 0 0.39967735397270959 -0.072307000297579083 0 0.39379637821942232 -0.04878788226426127 0 0.39967735397270959 -0.072307000297579083 0 0.41814417465091752 -0.061397621471661459 0 0.39379637821942232 -0.04878788226426127 0 0.39379637821942232 -0.04878788226426127 0 0.38896036142985008 -0.046283306103098283 0 0.38669795957132042 -0.057310603286660967 0 0.37839056082150663 -0.050608978831784571 0 0.37240766699872252 -0.068318548019290964 0 0.38669795957132042 -0.057310603286660967 0 0.37839056082150663 -0.050608978831784571 0 0.38896036142985008 -0.046283306103098283 0 0.39379637821942232 -0.04878788226426127 0 0.38669795957132042 -0.057310603286660967 0 0.38896036142985008 -0.046283306103098283 0 0.39379637821942232 -0.04878788226426127 0 0.38896036142985008 -0.046283306103098283 0 0.38867892262788012 -0.028322223649632432 0 0.3834615598562825 -0.037386722635115492 0 0.38896036142985008 -0.046283306103098283 0 0.38867892262788012 -0.028322223649632432 0 0.37839056082150663 -0.050608978831784571 0 0.3834615598562825 -0.037386722635115492 0 0.38896036142985008 -0.046283306103098283 0 0.37839056082150663 -0.050608978831784571 0 0.3834615598562825 -0.037386722635115492 0 0.37356965880113402 -0.040783236975350308 0 0.38867892262788012 -0.028322223649632432 0 0.38356146703633898 -0.0078565650350033434 0 0.3834615598562825 -0.037386722635115492 0 0.37600683512296651 -0.014087071697862221 0 0.37356965880113402 -0.040783236975350308 0 0.3834615598562825 -0.037386722635115492 0 0.38867892262788012 -0.028322223649632432 0 0.37600683512296651 -0.014087071697862221 0 0.38867892262788012 -0.028322223649632432 0 0.37600683512296651 -0.014087071697862221 0 0.38356146703633898 -0.0078565650350033434 0 0.38867892262788012 -0.028322223649632432 0 0.39658225960386179 -0.014459285545308009 0 0.38356146703633898 -0.0078565650350033434 0 0.38867892262788012 -0.028322223649632432 0 0.40044964155059998 -0.029094842751199331 0 0.39658225960386179 -0.014459285545308009 0 0.40522076275047969 -0.019933987949522329 0 0.40044964155059998 -0.029094842751199331 0 0.39658225960386179 -0.014459285545308009 0 0.40806592415966281 -0.01253819616599721 0 0.40522076275047969 -0.019933987949522329 0 0.39658225960386179 -0.014459285545308009 0 0.40060323373222451 0.0042547197705496897 0 0.4046584776842293 -0.0050702490882302163 0 0.39531848553630572 -0.0042569273994520467 0 0.40806592415966281 -0.01253819616599721 0 0.4046584776842293 -0.0050702490882302163 0 0.39658225960386179 -0.014459285545308009 0 0.4046584776842293 -0.0050702490882302163 0 0.39658225960386179 -0.014459285545308009 0 0.39531848553630572 -0.0042569273994520467 0 0.39658225960386179 -0.014459285545308009 0 0.39531848553630572 -0.0042569273994520467 0 0.38356146703633898 -0.0078565650350033434 0 0.39025836247721268 0.0036292771787240202 0 0.39531848553630572 -0.0042569273994520467 0 0.38356146703633898 -0.0078565650350033434 0 0.37844401144479839 0.012609093579625891 0 0.37600683512296651 -0.014087071697862221 0 0.37844401144479839 0.012609093579625891 0 0.37600683512296651 -0.014087071697862221 0 0.38356146703633898 -0.0078565650350033434 0 0.37600683512296651 -0.014087071697862221 0 0.36665723294200347 -0.001883505129568449 0 0.35850646790810559 -0.01395473468271459 0 0.37844401144479839 0.012609093579625891 0 0.37600683512296651 -0.014087071697862221 0 0.36665723294200347 -0.001883505129568449 0 0.36665723294200347 -0.001883505129568449 0 0.35531676971978082 -0.0033532784323768001 0 0.35850646790810559 -0.01395473468271459 0 0.37600683512296651 -0.014087071697862221 0 0.37356965880113402 -0.040783236975350308 0 0.37600683512296651 -0.014087071697862221 0 0.36404947753274258 -0.026706798856440471 0 0.35850646790810559 -0.01395473468271459 0 0.37600683512296651 -0.014087071697862221 0 0.36404947753274258 -0.026706798856440471 0 0.37356965880113402 -0.040783236975350308 0 0.34748556133762742 -0.02738266599094942 0 0.35850646790810559 -0.01395473468271459 0 0.34370628527030811 -0.0115647124322744 0 0.36404947753274258 -0.026706798856440471 0 0.34748556133762742 -0.02738266599094942 0 0.35850646790810559 -0.01395473468271459 0 0.36404947753274258 -0.026706798856440471 0 0.34748556133762742 -0.02738266599094942 0 0.36012817770438982 -0.039413746555128387 0 0.33689267375143878 0.0039255003288513873 0 0.35531676971978082 -0.0033532784323768001 0 0.34370628527030811 -0.0115647124322744 0 0.35531676971978082 -0.0033532784323768001 0 0.35850646790810559 -0.01395473468271459 0 0.34370628527030811 -0.0115647124322744 0 0.33689267375143878 0.0039255003288513873 0 0.34370628527030811 -0.0115647124322744 0 0.32469666258817742 -0.019557632270551 0 0.33689267375143878 0.0039255003288513873 0 0.30352242257352219 0.0039185454548519476 0 0.32469666258817742 -0.019557632270551 0 0.34748556133762742 -0.02738266599094942 0 0.34370628527030811 -0.0115647124322744 0 0.32469666258817742 -0.019557632270551 0 0.34748556133762742 -0.02738266599094942 0 0.32469666258817742 -0.019557632270551 0 0.33457477032001748 -0.043965109755099818 0 0.31326255248553708 -0.043768501277314603 0 0.32924913997341337 -0.063603686862235317 0 0.31014365419524398 -0.06072536978512106 0 0.31326255248553708 -0.043768501277314603 0 0.32924913997341337 -0.063603686862235317 0 0.31326255248553708 -0.043768501277314603 0 0.33457477032001748 -0.043965109755099818 0 0.32924913997341337 -0.063603686862235317 0 0.32469666258817742 -0.019557632270551 0 0.31326255248553708 -0.043768501277314603 0 0.33457477032001748 -0.043965109755099818 0 0.33457477032001748 -0.043965109755099818 0 0.34313363496153881 -0.061193084728204693 0 0.35029003257871461 -0.048624574981710279 0 0.33457477032001748 -0.043965109755099818 0 0.34313363496153881 -0.061193084728204693 0 0.32924913997341337 -0.063603686862235317 0 0.35029003257871461 -0.048624574981710279 0 0.36524615827173029 -0.053571455971191423 0 0.35631850447425872 -0.066333179594821989 0 0.34313363496153881 -0.061193084728204693 0 0.35029003257871461 -0.048624574981710279 0 0.35631850447425872 -0.066333179594821989 0 0.35029003257871461 -0.048624574981710279 0 0.36012817770438982 -0.039413746555128387 0 0.36524615827173029 -0.053571455971191423 0 0.34748556133762742 -0.02738266599094942 0 0.33457477032001748 -0.043965109755099818 0 0.35029003257871461 -0.048624574981710279 0 0.34748556133762742 -0.02738266599094942 0 0.35029003257871461 -0.048624574981710279 0 0.36012817770438982 -0.039413746555128387 0 0.36404947753274258 -0.026706798856440471 0 0.36012817770438982 -0.039413746555128387 0 0.37356965880113402 -0.040783236975350308 0 0.36012817770438982 -0.039413746555128387 0 0.37356965880113402 -0.040783236975350308 0 0.36524615827173029 -0.053571455971191423 0 0.37839056082150663 -0.050608978831784571 0 0.36524615827173029 -0.053571455971191423 0 0.37240766699872252 -0.068318548019290964 0 0.37839056082150663 -0.050608978831784571 0 0.37356965880113402 -0.040783236975350308 0 0.36524615827173029 -0.053571455971191423 0 0.36524615827173029 -0.053571455971191423 0 0.37240766699872252 -0.068318548019290964 0 0.35631850447425872 -0.066333179594821989 0 0.37240766699872252 -0.068318548019290964 0 0.36259903827425999 -0.08213590949324566 0 0.35631850447425872 -0.066333179594821989 0 0.37781097748786241 -0.089314889372882261 0 0.37240766699872252 -0.068318548019290964 0 0.36259903827425999 -0.08213590949324566 0 0.37781097748786241 -0.089314889372882261 0 0.36259903827425999 -0.08213590949324566 0 0.3612223149491664 -0.1032740580320769 0 0.34523572746128989 -0.083438872447156087 0 0.3612223149491664 -0.1032740580320769 0 0.36259903827425999 -0.08213590949324566 0 0.34523572746128989 -0.083438872447156087 0 0.3612223149491664 -0.1032740580320769 0 0.34313363496153881 -0.061193084728204693 0 0.34523572746128989 -0.083438872447156087 0 0.35631850447425872 -0.066333179594821989 0 0.36259903827425999 -0.08213590949324566 0 0.34523572746128989 -0.083438872447156087 0 0.35631850447425872 -0.066333179594821989 0 0.37720890243704291 -0.12310924361699779 0 0.36253108037134668 -0.1248744885805331 0 0.3612223149491664 -0.1032740580320769 0 0.37644505785585192 -0.1058120404938334 0 0.37720890243704291 -0.12310924361699779 0 0.3612223149491664 -0.1032740580320769 0 0.37720890243704291 -0.12310924361699779 0 0.3612223149491664 -0.1032740580320769 0 0.37781097748786241 -0.089314889372882261 0 0.37644505785585192 -0.1058120404938334 0 0.3612223149491664 -0.1032740580320769 0 0.34523572746128989 -0.083438872447156087 0 0.3612223149491664 -0.1032740580320769 0 0.33932087337301742 -0.1007066993955318 0 0.3612223149491664 -0.1032740580320769 0 0.34941185211170689 -0.1127717253903176 0 0.33932087337301742 -0.1007066993955318 0 0.36253108037134668 -0.1248744885805331 0 0.33587402752894302 -0.122350175475488 0 0.36253108037134668 -0.1248744885805331 0 0.34941185211170689 -0.1127717253903176 0 0.33587402752894302 -0.122350175475488 0 0.36253108037134668 -0.1248744885805331 0 0.3612223149491664 -0.1032740580320769 0 0.34941185211170689 -0.1127717253903176 0 0.34941185211170689 -0.1127717253903176 0 0.33587402752894302 -0.122350175475488 0 0.33932087337301742 -0.1007066993955318 0 0.33587402752894302 -0.122350175475488 0 0.33932087337301742 -0.1007066993955318 0 0.31943204723016899 -0.10139701157958859 0 0.33932087337301742 -0.1007066993955318 0 0.31943204723016899 -0.10139701157958859 0 0.32474927095682959 -0.081008353448563344 0 0.33587402752894302 -0.122350175475488 0 0.31943204723016899 -0.10139701157958859 0 0.3092169746865393 -0.1198258623704429 0 0.33587402752894302 -0.122350175475488 0 0.3092169746865393 -0.1198258623704429 0 0.34523572746128989 -0.083438872447156087 0 0.32924913997341337 -0.063603686862235317 0 0.32474927095682959 -0.081008353448563344 0 0.34523572746128989 -0.083438872447156087 0 0.32924913997341337 -0.063603686862235317 0 0.34313363496153881 -0.061193084728204693 0 0.34523572746128989 -0.083438872447156087 0 0.32924913997341337 -0.063603686862235317 0 0.34523572746128989 -0.083438872447156087 0 0.33932087337301742 -0.1007066993955318 0 0.32474927095682959 -0.081008353448563344 0 0.31943204723016899 -0.10139701157958859 0 0.32474927095682959 -0.081008353448563344 0 0.31117343018006932 -0.08835554327446378 0 0.32474927095682959 -0.081008353448563344 0 0.30201438303726968 -0.075929904193525521 0 0.32474927095682959 -0.081008353448563344 0 0.30201438303726968 -0.075929904193525521 0 0.31117343018006932 -0.08835554327446378 0 0.32924913997341337 -0.063603686862235317 0 0.32474927095682959 -0.081008353448563344 0 0.31014365419524398 -0.06072536978512106 0 0.32474927095682959 -0.081008353448563344 0 0.30201438303726968 -0.075929904193525521 0 0.31014365419524398 -0.06072536978512106 0 0.30201438303726968 -0.075929904193525521 0 0.31014365419524398 -0.06072536978512106 0 0.29222542489931519 -0.060978945333093171 0 0.31117343018006932 -0.08835554327446378 0 0.29442961060618023 -0.089764156713605506 0 0.30306705175182019 -0.101009202806625 0 0.30201438303726968 -0.075929904193525521 0 0.31117343018006932 -0.08835554327446378 0 0.29442961060618023 -0.089764156713605506 0 0.29442961060618023 -0.089764156713605506 0 0.28691460331806928 -0.079185378374353493 0 0.27734124638624891 -0.089737863242296378 0 0.30201438303726968 -0.075929904193525521 0 0.29442961060618023 -0.089764156713605506 0 0.28691460331806928 -0.079185378374353493 0 0.30201438303726968 -0.075929904193525521 0 0.27927949511770961 -0.070851454938488739 0 0.29222542489931519 -0.060978945333093171 0 0.30201438303726968 -0.075929904193525521 0 0.27927949511770961 -0.070851454938488739 0 0.30201438303726968 -0.075929904193525521 0 0.28691460331806928 -0.079185378374353493 0 0.27927949511770961 -0.070851454938488739 0 0.28691460331806928 -0.079185378374353493 0 0.27927949511770961 -0.070851454938488739 0 0.27809334201771629 -0.079209584513290715 0 0.28691460331806928 -0.079185378374353493 0 0.27927949511770961 -0.070851454938488739 0 0.27927949511770961 -0.070851454938488739 0 0.27868582307562201 -0.055886184139343542 0 0.29222542489931519 -0.060978945333093171 0 0.31943204723016899 -0.10139701157958859 0 0.3092169746865393 -0.1198258623704429 0 0.30306705175182019 -0.101009202806625 0 0.3092169746865393 -0.1198258623704429 0 0.30306705175182019 -0.101009202806625 0 0.28879183359809052 -0.10393054527906551 0 0.31943204723016899 -0.10139701157958859 0 0.31117343018006932 -0.08835554327446378 0 0.30306705175182019 -0.101009202806625 0 0.28879183359809052 -0.10393054527906551 0 0.28255992184413548 -0.11730154926539781 0 0.27267591943638608 -0.1048970298088977 0 0.29442961060618023 -0.089764156713605506 0 0.28879183359809052 -0.10393054527906551 0 0.27734124638624891 -0.089737863242296378 0 0.29442961060618023 -0.089764156713605506 0 0.30306705175182019 -0.101009202806625 0 0.28879183359809052 -0.10393054527906551 0 0.3092169746865393 -0.1198258623704429 0 0.28255992184413548 -0.11730154926539781 0 0.3092169746865393 -0.1198258623704429 0 0.28879183359809052 -0.10393054527906551 0 0.28255992184413548 -0.11730154926539781 0 0.3092169746865393 -0.1198258623704429 0 0.28255992184413548 -0.11730154926539781 0 0.28721398294742878 -0.13035474923543569 0 0.28255992184413548 -0.11730154926539781 0 0.26776517015272971 -0.1222840496799191 0 0.28721398294742878 -0.13035474923543569 0 0.28255992184413548 -0.11730154926539781 0 0.26776517015272971 -0.1222840496799191 0 0.27267591943638608 -0.1048970298088977 0 0.26776517015272971 -0.1222840496799191 0 0.27267591943638608 -0.1048970298088977 0 0.26047800574605201 -0.11084537767631369 0 0.28879183359809052 -0.10393054527906551 0 0.27267591943638608 -0.1048970298088977 0 0.27734124638624891 -0.089737863242296378 0 0.27267591943638608 -0.1048970298088977 0 0.27734124638624891 -0.089737863242296378 0 0.26256105175446781 -0.092679464148907056 0 0.25771864553297669 -0.099620140202181948 0 0.26047800574605201 -0.11084537767631369 0 0.24375228786211539 -0.116580291014256 0 0.27267591943638608 -0.1048970298088977 0 0.25771864553297669 -0.099620140202181948 0 0.26256105175446781 -0.092679464148907056 0 0.25771864553297669 -0.099620140202181948 0 0.25304747237378489 -0.090741332181114118 0 0.24292322406264641 -0.096552741650977186 0 0.25771864553297669 -0.099620140202181948 0 0.26256105175446781 -0.092679464148907056 0 0.25304747237378489 -0.090741332181114118 0 0.27267591943638608 -0.1048970298088977 0 0.25771864553297669 -0.099620140202181948 0 0.26047800574605201 -0.11084537767631369 0 0.26776517015272971 -0.1222840496799191 0 0.26153006621115998 -0.13421007507225571 0 0.24375228786211539 -0.116580291014256 0 0.26776517015272971 -0.1222840496799191 0 0.24375228786211539 -0.116580291014256 0 0.26776517015272971 -0.1222840496799191 0 0.26047800574605201 -0.11084537767631369 0 0.24375228786211539 -0.116580291014256 0 0.27927949511770961 -0.070851454938488739 0 0.25811154610651499 -0.066123023671663908 0 0.26329678137076351 -0.053405898285071182 0 0.27927949511770961 -0.070851454938488739 0 0.25811154610651499 -0.066123023671663908 0 0.26883802324883782 -0.077063641498024305 0 0.27927949511770961 -0.070851454938488739 0 0.25811154610651499 -0.066123023671663908 0 0.26883802324883782 -0.077063641498024305 0 0.27927949511770961 -0.070851454938488739 0 0.27809334201771629 -0.079209584513290715 0 0.26883802324883782 -0.077063641498024305 0 0.27809334201771629 -0.079209584513290715 0 0.27734124638624891 -0.089737863242296378 0 0.26883802324883782 -0.077063641498024305 0 0.27734124638624891 -0.089737863242296378 0 0.25202197504294188 -0.078400955310045109 0 0.28691460331806928 -0.079185378374353493 0 0.27809334201771629 -0.079209584513290715 0 0.27734124638624891 -0.089737863242296378 0 0.27734124638624891 -0.089737863242296378 0 0.26256105175446781 -0.092679464148907056 0 0.25202197504294188 -0.078400955310045109 0 0.27734124638624891 -0.089737863242296378 0 0.25202197504294188 -0.078400955310045109 0 0.26256105175446781 -0.092679464148907056 0 0.25304747237378489 -0.090741332181114118 0 0.25202197504294188 -0.078400955310045109 0 0.25304747237378489 -0.090741332181114118 0 0.25202197504294188 -0.078400955310045109 0 0.24624903761231479 -0.086847438891893419 0 0.26883802324883782 -0.077063641498024305 0 0.25202197504294188 -0.078400955310045109 0 0.25811154610651499 -0.066123023671663908 0 0.25811154610651499 -0.066123023671663908 0 0.26329678137076351 -0.053405898285071182 0 0.24870160087168189 -0.052882304334001928 0 0.26329678137076351 -0.053405898285071182 0 0.24870160087168189 -0.052882304334001928 0 0.24731406762381819 -0.035960341631652723 0 0.27927949511770961 -0.070851454938488739 0 0.26329678137076351 -0.053405898285071182 0 0.27868582307562201 -0.055886184139343542 0 0.27927949511770961 -0.070851454938488739 0 0.26329678137076351 -0.053405898285071182 0 0.26329678137076351 -0.053405898285071182 0 0.27868582307562201 -0.055886184139343542 0 0.27337213238318842 -0.044040078526876879 0 0.27868582307562201 -0.055886184139343542 0 0.27337213238318842 -0.044040078526876879 0 0.28525528160713332 -0.050154543613187753 0 0.26329678137076351 -0.053405898285071182 0 0.27337213238318842 -0.044040078526876879 0 0.26311483972878968 -0.036713614733010089 0 0.27337213238318842 -0.044040078526876879 0 0.27217486102646721 -0.027861542379398439 0 0.28494473946257981 -0.034556038004921102 0 0.27337213238318842 -0.044040078526876879 0 0.26311483972878968 -0.036713614733010089 0 0.27217486102646721 -0.027861542379398439 0 0.27337213238318842 -0.044040078526876879 0 0.28525528160713332 -0.050154543613187753 0 0.28494473946257981 -0.034556038004921102 0 0.26311483972878968 -0.036713614733010089 0 0.25941635623971138 -0.02230021284205122 0 0.24731406762381819 -0.035960341631652723 0 0.26329678137076351 -0.053405898285071182 0 0.24731406762381819 -0.035960341631652723 0 0.26329678137076351 -0.053405898285071182 0 0.26311483972878968 -0.036713614733010089 0 0.24731406762381819 -0.035960341631652723 0 0.25941635623971138 -0.02230021284205122 0 0.24731406762381819 -0.035960341631652723 0 0.2482857443068576 -0.021714794414400052 0 0.25941635623971138 -0.02230021284205122 0 0.25508119948702751 -0.010083838205662381 0 0.2482857443068576 -0.021714794414400052 0 0.26311483972878968 -0.036713614733010089 0 0.25941635623971138 -0.02230021284205122 0 0.27217486102646721 -0.027861542379398439 0 0.2541426920980116 -0.0036136263454906951 0 0.25508119948702751 -0.010083838205662381 0 0.24138147174972829 -0.0061427828714447699 0 0.2541426920980116 -0.0036136263454906951 0 0.25508119948702751 -0.010083838205662381 0 0.26047117107291767 -0.0019720443344692288 0 0.25446675038947358 0.0029162606258486688 0 0.2541426920980116 -0.0036136263454906951 0 0.26047117107291767 -0.0019720443344692288 0 0.25941635623971138 -0.02230021284205122 0 0.25508119948702751 -0.010083838205662381 0 0.26474460583379889 -0.01023883548432745 0 0.25941635623971138 -0.02230021284205122 0 0.26474460583379889 -0.01023883548432745 0 0.27166734417845928 -0.01430021117376327 0 0.25508119948702751 -0.010083838205662381 0 0.26474460583379889 -0.01023883548432745 0 0.26047117107291767 -0.0019720443344692288 0 0.26474460583379889 -0.01023883548432745 0 0.26047117107291767 -0.0019720443344692288 0 0.27708695819087842 -0.0025378708656911609 0 0.26474460583379889 -0.01023883548432745 0 0.27166734417845928 -0.01430021117376327 0 0.27708695819087842 -0.0025378708656911609 0 0.27166734417845928 -0.01430021117376327 0 0.27708695819087842 -0.0025378708656911609 0 0.28469269166600031 -0.01545933141113482 0 0.27217486102646721 -0.027861542379398439 0 0.28469269166600031 -0.01545933141113482 0 0.28494473946257981 -0.034556038004921102 0 0.25941635623971138 -0.02230021284205122 0 0.27166734417845928 -0.01430021117376327 0 0.27217486102646721 -0.027861542379398439 0 0.27166734417845928 -0.01430021117376327 0 0.27217486102646721 -0.027861542379398439 0 0.28469269166600031 -0.01545933141113482 0 0.28469269166600031 -0.01545933141113482 0 0.29727596499766062 -0.023933315692393788 0 0.28494473946257981 -0.034556038004921102 0 0.30352242257352219 0.0039185454548519476 0 0.28469269166600031 -0.01545933141113482 0 0.29727596499766062 -0.023933315692393788 0 0.30352242257352219 0.0039185454548519476 0 0.27708695819087842 -0.0025378708656911609 0 0.28469269166600031 -0.01545933141113482 0 0.30352242257352219 0.0039185454548519476 0 0.32469666258817742 -0.019557632270551 0 0.29727596499766062 -0.023933315692393788 0 0.32469666258817742 -0.019557632270551 0 0.31326255248553708 -0.043768501277314603 0 0.29727596499766062 -0.023933315692393788 0 0.31326255248553708 -0.043768501277314603 0 0.29727596499766062 -0.023933315692393788 0 0.2968975050950291 -0.045887416406534938 0 0.31326255248553708 -0.043768501277314603 0 0.29727596499766062 -0.023933315692393788 0 0.31326255248553708 -0.043768501277314603 0 0.2968975050950291 -0.045887416406534938 0 0.31014365419524398 -0.06072536978512106 0 0.2968975050950291 -0.045887416406534938 0 0.31014365419524398 -0.06072536978512106 0 0.29222542489931519 -0.060978945333093171 0 0.2968975050950291 -0.045887416406534938 0 0.29222542489931519 -0.060978945333093171 0 0.28525528160713332 -0.050154543613187753 0 0.27868582307562201 -0.055886184139343542 0 0.29222542489931519 -0.060978945333093171 0 0.28525528160713332 -0.050154543613187753 0 0.2968975050950291 -0.045887416406534938 0 0.28525528160713332 -0.050154543613187753 0 0.28494473946257981 -0.034556038004921102 0 0.29727596499766062 -0.023933315692393788 0 0.2968975050950291 -0.045887416406534938 0 0.28494473946257981 -0.034556038004921102 0 0.29579617193404978 -0.19432558104056491 0 0.30588539897632072 -0.22256652654210629 0 0.2776594049058328 -0.2175861504380624 0 0.29579617193404978 -0.19432558104056491 0 0.2776594049058328 -0.2175861504380624 0 0.2764107852420567 -0.19644220614923899 0 0.29579617193404978 -0.19432558104056491 0 0.2764107852420567 -0.19644220614923899 0 0.2792899687438003 -0.18116405860585089 0 0.29579617193404978 -0.19432558104056491 0 0.31045946319455608 -0.20263901644370941 0 0.31057073564158039 -0.17760626025882659 0 0.29579617193404978 -0.19432558104056491 0 0.30588539897632072 -0.22256652654210629 0 0.31045946319455608 -0.20263901644370941 0 0.30588539897632072 -0.22256652654210629 0 0.32020032842118662 -0.2136972324735969 0 0.29579617193404978 -0.19432558104056491 0 0.31045946319455608 -0.20263901644370941 0 0.30588539897632072 -0.22256652654210629 0 0.29681701546221179 -0.23419681124085551 0 0.31597462601859122 -0.25080747204364812 0 0.30111904597271899 -0.2536098058489899 0 0.30588539897632072 -0.22256652654210629 0 0.29681701546221179 -0.23419681124085551 0 0.31597462601859122 -0.25080747204364812 0 0.30588539897632072 -0.22256652654210629 0 0.31597462601859122 -0.25080747204364812 0 0.29681701546221179 -0.23419681124085551 0 0.31597462601859122 -0.25080747204364812 0 0.29681701546221179 -0.23419681124085551 0 0.30111904597271899 -0.2536098058489899 0 0.28456511698073272 -0.25518130134833977 0 0.29681701546221179 -0.23419681124085551 0 0.27830026498091959 -0.23745462562099759 0 0.28456511698073272 -0.25518130134833977 0 0.30588539897632072 -0.22256652654210629 0 0.29681701546221179 -0.23419681124085551 0 0.2776594049058328 -0.2175861504380624 0 0.29681701546221179 -0.23419681124085551 0 0.27830026498091959 -0.23745462562099759 0 0.2776594049058328 -0.2175861504380624 0 0.29681701546221179 -0.23419681124085551 0 0.2776594049058328 -0.2175861504380624 0 0.26584409390649738 -0.23415831621220631 0 0.27830026498091959 -0.23745462562099759 0 0.2776594049058328 -0.2175861504380624 0 0.26584409390649738 -0.23415831621220631 0 0.25658827463044448 -0.2222138965281123 0 0.2776594049058328 -0.2175861504380624 0 0.27830026498091959 -0.23745462562099759 0 0.28456511698073272 -0.25518130134833977 0 0.26629969424128969 -0.25192769388052821 0 0.26584409390649738 -0.23415831621220631 0 0.27830026498091959 -0.23745462562099759 0 0.26629969424128969 -0.25192769388052821 0 0.26584409390649738 -0.23415831621220631 0 0.25037283077400019 -0.2416092145933311 0 0.26629969424128969 -0.25192769388052821 0 0.25037283077400019 -0.2416092145933311 0 0.25658827463044448 -0.2222138965281123 0 0.2446094219978813 -0.2276121794933563 0 0.26584409390649738 -0.23415831621220631 0 0.25037283077400019 -0.2416092145933311 0 0.25658827463044448 -0.2222138965281123 0 0.25658827463044448 -0.2222138965281123 0 0.2776594049058328 -0.2175861504380624 0 0.25850179434945381 -0.20097548963526929 0 0.25658827463044448 -0.2222138965281123 0 0.25850179434945381 -0.20097548963526929 0 0.23907695871134879 -0.21289681242661959 0 0.2776594049058328 -0.2175861504380624 0 0.25850179434945381 -0.20097548963526929 0 0.2776594049058328 -0.2175861504380624 0 0.2764107852420567 -0.19644220614923899 0 0.25850179434945381 -0.20097548963526929 0 0.2764107852420567 -0.19644220614923899 0 0.25850179434945381 -0.20097548963526929 0 0.26539786460737957 -0.18100391429238191 0 0.25850179434945381 -0.20097548963526929 0 0.26539786460737957 -0.18100391429238191 0 0.23934418379307471 -0.18436482883247621 0 0.26539786460737957 -0.18100391429238191 0 0.25449645062408999 -0.16331052089379791 0 0.23934418379307471 -0.18436482883247621 0 0.26539786460737957 -0.18100391429238191 0 0.25449645062408999 -0.16331052089379791 0 0.27043371620885309 -0.16438603764101259 0 0.25449645062408999 -0.16331052089379791 0 0.27043371620885309 -0.16438603764101259 0 0.2633734196266177 -0.15149826902969399 0 0.27043371620885309 -0.16438603764101259 0 0.2792899687438003 -0.18116405860585089 0 0.28570694489177878 -0.1660846355390232 0 0.27043371620885309 -0.16438603764101259 0 0.27930784456020519 -0.15183985913025491 0 0.28570694489177878 -0.1660846355390232 0 0.26539786460737957 -0.18100391429238191 0 0.27043371620885309 -0.16438603764101259 0 0.2792899687438003 -0.18116405860585089 0 0.2764107852420567 -0.19644220614923899 0 0.26539786460737957 -0.18100391429238191 0 0.2792899687438003 -0.18116405860585089 0 0.26153006621115998 -0.13421007507225571 0 0.24375228786211539 -0.116580291014256 0 0.24955680073527009 -0.143898101237383 0 0.26153006621115998 -0.13421007507225571 0 0.24375228786211539 -0.116580291014256 0 0.25449645062408999 -0.16331052089379791 0 0.2633734196266177 -0.15149826902969399 0 0.24955680073527009 -0.143898101237383 0 0.26153006621115998 -0.13421007507225571 0 0.2633734196266177 -0.15149826902969399 0 0.24955680073527009 -0.143898101237383 0 0.27043371620885309 -0.16438603764101259 0 0.2633734196266177 -0.15149826902969399 0 0.27930784456020519 -0.15183985913025491 0 0.27561771784950778 -0.13784369003748159 0 0.28570694489177878 -0.1660846355390232 0 0.26153006621115998 -0.13421007507225571 0 0.27930784456020519 -0.15183985913025491 0 0.27561771784950778 -0.13784369003748159 0 0.27930784456020519 -0.15183985913025491 0 0.27561771784950778 -0.13784369003748159 0 0.28570694489177878 -0.1660846355390232 0 0.26153006621115998 -0.13421007507225571 0 0.2633734196266177 -0.15149826902969399 0 0.27930784456020519 -0.15183985913025491 0 0.26153006621115998 -0.13421007507225571 0 0.27930784456020519 -0.15183985913025491 0 0.26776517015272971 -0.1222840496799191 0 0.27561771784950778 -0.13784369003748159 0 0.28721398294742878 -0.13035474923543569 0 0.26776517015272971 -0.1222840496799191 0 0.26153006621115998 -0.13421007507225571 0 0.27561771784950778 -0.13784369003748159 0 0.27561771784950778 -0.13784369003748159 0 0.28721398294742878 -0.13035474923543569 0 0.28891568690104508 -0.14625428249578579 0 0.28721398294742878 -0.13035474923543569 0 0.28891568690104508 -0.14625428249578579 0 0.29920842625061578 -0.1386190615635868 0 0.28891568690104508 -0.14625428249578579 0 0.29920842625061578 -0.1386190615635868 0 0.29789574789403661 -0.15876522012859751 0 0.27561771784950778 -0.13784369003748159 0 0.28891568690104508 -0.14625428249578579 0 0.28570694489177878 -0.1660846355390232 0 0.30985117626407932 -0.1486491484402036 0 0.29920842625061578 -0.1386190615635868 0 0.29789574789403661 -0.15876522012859751 0 0.30985117626407932 -0.1486491484402036 0 0.29789574789403661 -0.15876522012859751 0 0.3134799250960158 -0.16133035304856411 0 0.30985117626407932 -0.1486491484402036 0 0.29920842625061578 -0.1386190615635868 0 0.31980994510895661 -0.13408045692276491 0 0.3092169746865393 -0.1198258623704429 0 0.28721398294742878 -0.13035474923543569 0 0.29920842625061578 -0.1386190615635868 0 0.3092169746865393 -0.1198258623704429 0 0.29920842625061578 -0.1386190615635868 0 0.31980994510895661 -0.13408045692276491 0 0.29579617193404978 -0.19432558104056491 0 0.2792899687438003 -0.18116405860585089 0 0.28570694489177878 -0.1660846355390232 0 0.29579617193404978 -0.19432558104056491 0 0.28570694489177878 -0.1660846355390232 0 0.29579617193404978 -0.19432558104056491 0 0.28570694489177878 -0.1660846355390232 0 0.29784246694311001 -0.17248502473641619 0 0.28891568690104508 -0.14625428249578579 0 0.28570694489177878 -0.1660846355390232 0 0.29789574789403661 -0.15876522012859751 0 0.28570694489177878 -0.1660846355390232 0 0.29789574789403661 -0.15876522012859751 0 0.29784246694311001 -0.17248502473641619 0 0.29789574789403661 -0.15876522012859751 0 0.31057073564158039 -0.17760626025882659 0 0.3134799250960158 -0.16133035304856411 0 0.29789574789403661 -0.15876522012859751 0 0.31057073564158039 -0.17760626025882659 0 0.29784246694311001 -0.17248502473641619 0 0.29789574789403661 -0.15876522012859751 0 0.31057073564158039 -0.17760626025882659 0 0.29579617193404978 -0.19432558104056491 0 0.31057073564158039 -0.17760626025882659 0 0.29784246694311001 -0.17248502473641619 0 0.31057073564158039 -0.17760626025882659 0 0.33117051957001492 -0.16690810347740409 0 0.33960500058918919 -0.18923554211963439 0 0.31057073564158039 -0.17760626025882659 0 0.32324572338912438 -0.19644730038905581 0 0.3134799250960158 -0.16133035304856411 0 0.33117051957001492 -0.16690810347740409 0 0.32297156368297691 -0.15191279281852399 0 0.31057073564158039 -0.17760626025882659 0 0.3134799250960158 -0.16133035304856411 0 0.33117051957001492 -0.16690810347740409 0 0.33117051957001492 -0.16690810347740409 0 0.34312821131240068 -0.1490342399984359 0 0.35150112372442083 -0.17432517416681301 0 0.33117051957001492 -0.16690810347740409 0 0.35150112372442083 -0.17432517416681301 0 0.33960500058918919 -0.18923554211963439 0 0.33587402752894302 -0.122350175475488 0 0.3092169746865393 -0.1198258623704429 0 0.31980994510895661 -0.13408045692276491 0 0.30985117626407932 -0.1486491484402036 0 0.31980994510895661 -0.13408045692276491 0 0.32297156368297691 -0.15191279281852399 0 0.30985117626407932 -0.1486491484402036 0 0.3134799250960158 -0.16133035304856411 0 0.32297156368297691 -0.15191279281852399 0 0.33117051957001492 -0.16690810347740409 0 0.32297156368297691 -0.15191279281852399 0 0.34312821131240068 -0.1490342399984359 0 0.31980994510895661 -0.13408045692276491 0 0.32297156368297691 -0.15191279281852399 0 0.34312821131240068 -0.1490342399984359 0 0.33587402752894302 -0.122350175475488 0 0.31980994510895661 -0.13408045692276491 0 0.34312821131240068 -0.1490342399984359 0 0.36253108037134668 -0.1248744885805331 0 0.33587402752894302 -0.122350175475488 0 0.3555623608711499 -0.1359942506039106 0 0.33587402752894302 -0.122350175475488 0 0.34312821131240068 -0.1490342399984359 0 0.3555623608711499 -0.1359942506039106 0 0.34312821131240068 -0.1490342399984359 0 0.3555623608711499 -0.1359942506039106 0 0.36858459771950869 -0.15733985743645959 0 0.3555623608711499 -0.1359942506039106 0 0.36652086356581781 -0.12946943863695781 0 0.36858459771950869 -0.15733985743645959 0 0.36652086356581781 -0.12946943863695781 0 0.36858459771950869 -0.15733985743645959 0 0.36652086356581781 -0.12946943863695781 0 0.36858459771950869 -0.15733985743645959 0 0.3787995421462832 -0.1425544525875144 0 0.36652086356581781 -0.12946943863695781 0 0.37808333446084269 -0.1309391893982525 0 0.3787995421462832 -0.1425544525875144 0 0.36253108037134668 -0.1248744885805331 0 0.36652086356581781 -0.12946943863695781 0 0.37808333446084269 -0.1309391893982525 0 0.36253108037134668 -0.1248744885805331 0 0.3555623608711499 -0.1359942506039106 0 0.36652086356581781 -0.12946943863695781 0 0.35150112372442083 -0.17432517416681301 0 0.37064833187319962 -0.1852102762359614 0 0.35587008128221181 -0.19822302573298239 0 0.35150112372442083 -0.17432517416681301 0 0.35587008128221181 -0.19822302573298239 0 0.33960500058918919 -0.18923554211963439 0 0.34312821131240068 -0.1490342399984359 0 0.35150112372442083 -0.17432517416681301 0 0.36858459771950869 -0.15733985743645959 0 0.36858459771950869 -0.15733985743645959 0 0.37064833187319962 -0.1852102762359614 0 0.35150112372442083 -0.17432517416681301 0 0.36858459771950869 -0.15733985743645959 0 0.37064833187319962 -0.1852102762359614 0 0.36858459771950869 -0.15733985743645959 0 0.37064833187319962 -0.1852102762359614 0 0.3834788620725188 -0.17954848884060079 0 0.37064833187319962 -0.1852102762359614 0 0.37271206602689039 -0.21308069503546309 0 0.38139900114097952 -0.20469292352659629 0 0.37064833187319962 -0.1852102762359614 0 0.37271206602689039 -0.21308069503546309 0 0.37064833187319962 -0.1852102762359614 0 0.37271206602689039 -0.21308069503546309 0 0.35587008128221181 -0.19822302573298239 0 0.37271206602689039 -0.21308069503546309 0 0.35603419272415182 -0.2169366224123114 0 0.35587008128221181 -0.19822302573298239 0 0.35603419272415182 -0.2169366224123114 0 0.35587008128221181 -0.19822302573298239 0 0.33592071113666833 -0.21528834051928489 0 0.35587008128221181 -0.19822302573298239 0 0.33960500058918919 -0.18923554211963439 0 0.33592071113666833 -0.21528834051928489 0 0.33960500058918919 -0.18923554211963439 0 0.33592071113666833 -0.21528834051928489 0 0.32324572338912438 -0.19644730038905581 0 0.33592071113666833 -0.21528834051928489 0 0.32324572338912438 -0.19644730038905581 0 0.33592071113666833 -0.21528834051928489 0 0.32020032842118662 -0.2136972324735969 0 0.32324572338912438 -0.19644730038905581 0 0.31045946319455608 -0.20263901644370941 0 0.32020032842118662 -0.2136972324735969 0 0.32324572338912438 -0.19644730038905581 0 0.31057073564158039 -0.17760626025882659 0 0.33960500058918919 -0.18923554211963439 0 0.32324572338912438 -0.19644730038905581 0 0.31045946319455608 -0.20263901644370941 0 0.31057073564158039 -0.17760626025882659 0 0.32324572338912438 -0.19644730038905581 0 0.32549034540926353 -0.23154497847382799 0 0.33517615116993849 -0.24743488902137309 0 0.31597462601859122 -0.25080747204364812 0 0.30588539897632072 -0.22256652654210629 0 0.32549034540926353 -0.23154497847382799 0 0.31597462601859122 -0.25080747204364812 0 0.30588539897632072 -0.22256652654210629 0 0.32020032842118662 -0.2136972324735969 0 0.32549034540926353 -0.23154497847382799 0 0.33592071113666833 -0.21528834051928489 0 0.32020032842118662 -0.2136972324735969 0 0.32549034540926353 -0.23154497847382799 0 0.33592071113666833 -0.21528834051928489 0 0.32549034540926353 -0.23154497847382799 0 0.34859569888421221 -0.23412938064951411 0 0.33592071113666833 -0.21528834051928489 0 0.34859569888421221 -0.23412938064951411 0 0.32549034540926353 -0.23154497847382799 0 0.33517615116993849 -0.24743488902137309 0 0.34859569888421221 -0.23412938064951411 0 0.33517615116993849 -0.24743488902137309 0 0.34859569888421221 -0.23412938064951411 0 0.35185333732921159 -0.25428502110151557 0 0.34859569888421221 -0.23412938064951411 0 0.36075586336603621 -0.2426037127049111 0 0.35185333732921159 -0.25428502110151557 0 0.34859569888421221 -0.23412938064951411 0 0.36291464790978972 -0.22902601310760301 0 0.36075586336603621 -0.2426037127049111 0 0.35603419272415182 -0.2169366224123114 0 0.34859569888421221 -0.23412938064951411 0 0.36291464790978972 -0.22902601310760301 0 0.35603419272415182 -0.2169366224123114 0 0.33592071113666833 -0.21528834051928489 0 0.34859569888421221 -0.23412938064951411 0 0.37271206602689039 -0.21308069503546309 0 0.35603419272415182 -0.2169366224123114 0 0.36291464790978972 -0.22902601310760301 0 0.37271206602689039 -0.21308069503546309 0 0.37477580018058132 -0.24095111383496479 0 0.37555308153547928 -0.22286467051027881 0 0.37271206602689039 -0.21308069503546309 0 0.37477580018058132 -0.24095111383496479 0 0.37271206602689039 -0.21308069503546309 0 0.36291464790978972 -0.22902601310760301 0 0.37477580018058132 -0.24095111383496479 0 0.36075586336603621 -0.2426037127049111 0 0.37477580018058132 -0.24095111383496479 0 0.36563983252638571 -0.25462703483095822 0 0.36291464790978972 -0.22902601310760301 0 0.36075586336603621 -0.2426037127049111 0 0.37477580018058132 -0.24095111383496479 0 0.37477580018058132 -0.24095111383496479 0 0.39321551516580561 -0.23618023300957031 0 0.38725375881062551 -0.25185160038302579 0 0.39321551516580561 -0.23618023300957031 0 0.41087794879613182 -0.2494957955088617 0 0.40741230325918792 -0.23450562481703699 0 0.39321551516580561 -0.23618023300957031 0 0.41087794879613182 -0.2494957955088617 0 0.39321551516580561 -0.23618023300957031 0 0.38725375881062551 -0.25185160038302579 0 0.39640803358832022 -0.25154779433757402 0 0.39321551516580561 -0.23618023300957031 0 0.41087794879613182 -0.2494957955088617 0 0.39640803358832022 -0.25154779433757402 0 0.4055308246994358 -0.22407667781788709 0 0.39424069285124719 -0.22310079746779379 0 0.40434357831770951 -0.21487406561090469 0 0.4055308246994358 -0.22407667781788709 0 0.39424069285124719 -0.22310079746779379 0 0.40741230325918792 -0.23450562481703699 0 0.39321551516580561 -0.23618023300957031 0 0.39424069285124719 -0.22310079746779379 0 0.40741230325918792 -0.23450562481703699 0 0.37477580018058132 -0.24095111383496479 0 0.39321551516580561 -0.23618023300957031 0 0.37555308153547928 -0.22286467051027881 0 0.39424069285124719 -0.22310079746779379 0 0.37555308153547928 -0.22286467051027881 0 0.38300691860546521 -0.21527996176244341 0 0.39321551516580561 -0.23618023300957031 0 0.37555308153547928 -0.22286467051027881 0 0.39321551516580561 -0.23618023300957031 0 0.39424069285124719 -0.22310079746779379 0 0.37555308153547928 -0.22286467051027881 0 0.37271206602689039 -0.21308069503546309 0 0.37555308153547928 -0.22286467051027881 0 0.38300691860546521 -0.21527996176244341 0 0.37271206602689039 -0.21308069503546309 0 0.38139900114097952 -0.20469292352659629 0 0.38300691860546521 -0.21527996176244341 0 0.38139900114097952 -0.20469292352659629 0 0.39078770323730427 -0.19674260859680251 0 0.39112975147272949 -0.2126607222720846 0 0.38139900114097952 -0.20469292352659629 0 0.38300691860546521 -0.21527996176244341 0 0.39112975147272949 -0.2126607222720846 0 0.39424069285124719 -0.22310079746779379 0 0.38300691860546521 -0.21527996176244341 0 0.39112975147272949 -0.2126607222720846 0 0.37064833187319962 -0.1852102762359614 0 0.38139900114097952 -0.20469292352659629 0 0.39078770323730427 -0.19674260859680251 0 0.39078770323730427 -0.19674260859680251 0 0.40475141021500721 -0.1910589369573561 0 0.39510197637232292 -0.1839605883432579 0 0.39078770323730427 -0.19674260859680251 0 0.40426546228868082 -0.20108352786525729 0 0.397631623829106 -0.20634023108626229 0 0.39078770323730427 -0.19674260859680251 0 0.40426546228868082 -0.20108352786525729 0 0.40475141021500721 -0.1910589369573561 0 0.39078770323730427 -0.19674260859680251 0 0.39112975147272949 -0.2126607222720846 0 0.397631623829106 -0.20634023108626229 0 0.39112975147272949 -0.2126607222720846 0 0.397631623829106 -0.20634023108626229 0 0.40434357831770951 -0.21487406561090469 0 0.39424069285124719 -0.22310079746779379 0 0.39112975147272949 -0.2126607222720846 0 0.40434357831770951 -0.21487406561090469 0 0.40426546228868082 -0.20108352786525729 0 0.397631623829106 -0.20634023108626229 0 0.40434357831770951 -0.21487406561090469 0 0.40434357831770951 -0.21487406561090469 0 0.41713092845542321 -0.20900944133272009 0 0.41612672436959858 -0.22382622337581301 0 0.40426546228868082 -0.20108352786525729 0 0.40434357831770951 -0.21487406561090469 0 0.41713092845542321 -0.20900944133272009 0 0.41713092845542321 -0.20900944133272009 0 0.42330136258736267 -0.2174116668913772 0 0.41612672436959858 -0.22382622337581301 0 0.40475141021500721 -0.1910589369573561 0 0.41487892771890261 -0.19826025474908979 0 0.4146572714410397 -0.186958864794112 0 0.40426546228868082 -0.20108352786525729 0 0.41713092845542321 -0.20900944133272009 0 0.41487892771890261 -0.19826025474908979 0 0.40426546228868082 -0.20108352786525729 0 0.40475141021500721 -0.1910589369573561 0 0.41487892771890261 -0.19826025474908979 0 0.41713092845542321 -0.20900944133272009 0 0.41487892771890261 -0.19826025474908979 0 0.42701217502226602 -0.19751647228806199 0 0.41487892771890261 -0.19826025474908979 0 0.42053294087941678 -0.1923617771039739 0 0.42701217502226602 -0.19751647228806199 0 0.42053294087941678 -0.1923617771039739 0 0.4146572714410397 -0.186958864794112 0 0.42558338933545942 -0.1867115165846317 0 0.41487892771890261 -0.19826025474908979 0 0.42053294087941678 -0.1923617771039739 0 0.4146572714410397 -0.186958864794112 0 0.42701217502226602 -0.19751647228806199 0 0.43844209377108118 -0.18689286854296691 0 0.44355474576021348 -0.2050869029196882 0 0.42053294087941678 -0.1923617771039739 0 0.42701217502226602 -0.19751647228806199 0 0.42558338933545942 -0.1867115165846317 0 0.42701217502226602 -0.19751647228806199 0 0.42558338933545942 -0.1867115165846317 0 0.43844209377108118 -0.18689286854296691 0 0.42701217502226602 -0.19751647228806199 0 0.43006687167525981 -0.21185300334864521 0 0.44355474576021348 -0.2050869029196882 0 0.41713092845542321 -0.20900944133272009 0 0.42330136258736267 -0.2174116668913772 0 0.43006687167525981 -0.21185300334864521 0 0.42330136258736267 -0.2174116668913772 0 0.43006687167525981 -0.21185300334864521 0 0.42988092584916948 -0.2249579995083304 0 0.41713092845542321 -0.20900944133272009 0 0.42701217502226602 -0.19751647228806199 0 0.43006687167525981 -0.21185300334864521 0 0.43006687167525981 -0.21185300334864521 0 0.42988092584916948 -0.2249579995083304 0 0.44009267276725389 -0.2176624614444449 0 0.42330136258736267 -0.2174116668913772 0 0.42988092584916948 -0.2249579995083304 0 0.41612672436959858 -0.22382622337581301 0 0.42988092584916948 -0.2249579995083304 0 0.43458399188612801 -0.2397076170126072 0 0.42159465327244361 -0.23640953485310751 0 0.42988092584916948 -0.2249579995083304 0 0.42159465327244361 -0.23640953485310751 0 0.41612672436959858 -0.22382622337581301 0 0.42988092584916948 -0.2249579995083304 0 0.43458399188612801 -0.2397076170126072 0 0.44416109061426973 -0.22983272991065171 0 0.43458399188612801 -0.2397076170126072 0 0.42656562700980838 -0.24831468624349931 0 0.4372088962240912 -0.25169219704383999 0 0.43458399188612801 -0.2397076170126072 0 0.42656562700980838 -0.24831468624349931 0 0.42159465327244361 -0.23640953485310751 0 0.42656562700980838 -0.24831468624349931 0 0.42159465327244361 -0.23640953485310751 0 0.41087794879613182 -0.2494957955088617 0 0.42159465327244361 -0.23640953485310751 0 0.41087794879613182 -0.2494957955088617 0 0.40741230325918792 -0.23450562481703699 0 0.4055308246994358 -0.22407667781788709 0 0.40741230325918792 -0.23450562481703699 0 0.41612672436959858 -0.22382622337581301 0 0.4055308246994358 -0.22407667781788709 0 0.40434357831770951 -0.21487406561090469 0 0.41612672436959858 -0.22382622337581301 0 0.42159465327244361 -0.23640953485310751 0 0.40741230325918792 -0.23450562481703699 0 0.41612672436959858 -0.22382622337581301 0 0.39823574772599779 -0.11763079726210079 0 0.40257569972698831 -0.13396225485532559 0 0.38918813321375051 -0.12739880168557821 0 0.40257569972698831 -0.13396225485532559 0 0.38918813321375051 -0.12739880168557821 0 0.39017348084279901 -0.13955387731924049 0 0.38918813321375051 -0.12739880168557821 0 0.37808333446084269 -0.1309391893982525 0 0.39017348084279901 -0.13955387731924049 0 0.37720890243704291 -0.12310924361699779 0 0.36253108037134668 -0.1248744885805331 0 0.38918813321375051 -0.12739880168557821 0 0.36253108037134668 -0.1248744885805331 0 0.38918813321375051 -0.12739880168557821 0 0.37808333446084269 -0.1309391893982525 0 0.36253108037134668 -0.1248744885805331 0 0.38918813321375051 -0.12739880168557821 0 0.37808333446084269 -0.1309391893982525 0 0.39017348084279901 -0.13955387731924049 0 0.3787995421462832 -0.1425544525875144 0 0.36858459771950869 -0.15733985743645959 0 0.3787995421462832 -0.1425544525875144 0 0.38535727780346091 -0.1527557998392445 0 0.39017348084279901 -0.13955387731924049 0 0.3787995421462832 -0.1425544525875144 0 0.38535727780346091 -0.1527557998392445 0 0.40257569972698831 -0.13396225485532559 0 0.39822107621443897 -0.1501202070538992 0 0.41732028123257531 -0.14286435439753159 0 0.40257569972698831 -0.13396225485532559 0 0.39017348084279901 -0.13955387731924049 0 0.39822107621443897 -0.1501202070538992 0 0.39017348084279901 -0.13955387731924049 0 0.38535727780346091 -0.1527557998392445 0 0.39822107621443897 -0.1501202070538992 0 0.39822107621443897 -0.1501202070538992 0 0.39107178753907162 -0.16851380255406381 0 0.40713652226246821 -0.16744863749245631 0 0.39107178753907162 -0.16851380255406381 0 0.40713652226246821 -0.16744863749245631 0 0.38535727780346091 -0.1527557998392445 0 0.39822107621443897 -0.1501202070538992 0 0.39107178753907162 -0.16851380255406381 0 0.39107178753907162 -0.16851380255406381 0 0.40460499843718001 -0.17902112385493851 0 0.40713652226246821 -0.16744863749245631 0 0.36858459771950869 -0.15733985743645959 0 0.38535727780346091 -0.1527557998392445 0 0.39107178753907162 -0.16851380255406381 0 0.36858459771950869 -0.15733985743645959 0 0.39107178753907162 -0.16851380255406381 0 0.3834788620725188 -0.17954848884060079 0 0.39107178753907162 -0.16851380255406381 0 0.3834788620725188 -0.17954848884060079 0 0.39510197637232292 -0.1839605883432579 0 0.39078770323730427 -0.19674260859680251 0 0.3834788620725188 -0.17954848884060079 0 0.39510197637232292 -0.1839605883432579 0 0.37064833187319962 -0.1852102762359614 0 0.39078770323730427 -0.19674260859680251 0 0.3834788620725188 -0.17954848884060079 0 0.39107178753907162 -0.16851380255406381 0 0.39510197637232292 -0.1839605883432579 0 0.40460499843718001 -0.17902112385493851 0 0.40475141021500721 -0.1910589369573561 0 0.39510197637232292 -0.1839605883432579 0 0.40460499843718001 -0.17902112385493851 0 0.40475141021500721 -0.1910589369573561 0 0.40460499843718001 -0.17902112385493851 0 0.4146572714410397 -0.186958864794112 0 0.40460499843718001 -0.17902112385493851 0 0.41491102279317088 -0.17618591298838529 0 0.4146572714410397 -0.186958864794112 0 0.40460499843718001 -0.17902112385493851 0 0.41491102279317088 -0.17618591298838529 0 0.40713652226246821 -0.16744863749245631 0 0.41491102279317088 -0.17618591298838529 0 0.42527009306055918 -0.1746571334479238 0 0.4232012569858648 -0.16638347243084889 0 0.41491102279317088 -0.17618591298838529 0 0.42095079563492938 -0.18072636251124541 0 0.42527009306055918 -0.1746571334479238 0 0.41491102279317088 -0.17618591298838529 0 0.42095079563492938 -0.18072636251124541 0 0.4146572714410397 -0.186958864794112 0 0.42095079563492938 -0.18072636251124541 0 0.4146572714410397 -0.186958864794112 0 0.42558338933545942 -0.1867115165846317 0 0.43180268423531071 -0.1802632517690351 0 0.42527009306055918 -0.1746571334479238 0 0.44880083799057491 -0.164686103644653 0 0.42095079563492938 -0.18072636251124541 0 0.42558338933545942 -0.1867115165846317 0 0.43180268423531071 -0.1802632517690351 0 0.42558338933545942 -0.1867115165846317 0 0.43180268423531071 -0.1802632517690351 0 0.43844209377108118 -0.18689286854296691 0 0.42095079563492938 -0.18072636251124541 0 0.43180268423531071 -0.1802632517690351 0 0.42527009306055918 -0.1746571334479238 0 0.42527009306055918 -0.1746571334479238 0 0.4232012569858648 -0.16638347243084889 0 0.44880083799057491 -0.164686103644653 0 0.4232012569858648 -0.16638347243084889 0 0.43334283997313311 -0.15135273030925811 0 0.44880083799057491 -0.164686103644653 0 0.4232012569858648 -0.16638347243084889 0 0.44880083799057491 -0.164686103644653 0 0.42527009306055918 -0.1746571334479238 0 0.4232012569858648 -0.16638347243084889 0 0.4232012569858648 -0.16638347243084889 0 0.40713652226246821 -0.16744863749245631 0 0.41732028123257531 -0.14286435439753159 0 0.41491102279317088 -0.17618591298838529 0 0.4232012569858648 -0.16638347243084889 0 0.40713652226246821 -0.16744863749245631 0 0.4232012569858648 -0.16638347243084889 0 0.40713652226246821 -0.16744863749245631 0 0.4232012569858648 -0.16638347243084889 0 0.41732028123257531 -0.14286435439753159 0 0.39822107621443897 -0.1501202070538992 0 0.40713652226246821 -0.16744863749245631 0 0.41732028123257531 -0.14286435439753159 0 0.41732028123257531 -0.14286435439753159 0 0.43334283997313311 -0.15135273030925811 0 0.43763345530417341 -0.13584027725706749 0 0.4232012569858648 -0.16638347243084889 0 0.41732028123257531 -0.14286435439753159 0 0.43334283997313311 -0.15135273030925811 0 0.42916935431308728 -0.1205456085246996 0 0.41732028123257531 -0.14286435439753159 0 0.43763345530417341 -0.13584027725706749 0 0.42916935431308728 -0.1205456085246996 0 0.4435038969132965 -0.12540022695152131 0 0.43763345530417341 -0.13584027725706749 0 0.41143930547928681 -0.11934523636421419 0 0.42916935431308728 -0.1205456085246996 0 0.41732028123257531 -0.14286435439753159 0 0.41143930547928681 -0.11934523636421419 0 0.40257569972698831 -0.13396225485532559 0 0.41732028123257531 -0.14286435439753159 0 0.41143930547928681 -0.11934523636421419 0 0.41732028123257531 -0.14286435439753159 0 0.46257396642688631 -0.12529077885077469 0 0.46381730130484328 -0.1363472541609663 0 0.4585659370706795 -0.1308283620105129 0 0.46381730130484328 -0.1363472541609663 0 0.4585659370706795 -0.1308283620105129 0 0.45274550479158487 -0.1345999168850856 0 0.46381730130484328 -0.1363472541609663 0 0.45274550479158487 -0.1345999168850856 0 0.46138481906560302 -0.14686228775601681 0 0.46257396642688631 -0.12529077885077469 0 0.4585659370706795 -0.1308283620105129 0 0.45239247298790419 -0.125419693033265 0 0.4585659370706795 -0.1308283620105129 0 0.45239247298790419 -0.125419693033265 0 0.45274550479158487 -0.1345999168850856 0 0.45239247298790419 -0.125419693033265 0 0.4435038969132965 -0.12540022695152131 0 0.45274550479158487 -0.1345999168850856 0 0.4435038969132965 -0.12540022695152131 0 0.43763345530417341 -0.13584027725706749 0 0.45274550479158487 -0.1345999168850856 0 0.43763345530417341 -0.13584027725706749 0 0.45274550479158487 -0.1345999168850856 0 0.44678149142501389 -0.1466682631704162 0 0.43334283997313311 -0.15135273030925811 0 0.44678149142501389 -0.1466682631704162 0 0.44880083799057491 -0.164686103644653 0 0.44678149142501389 -0.1466682631704162 0 0.46138481906560302 -0.14686228775601681 0 0.44880083799057491 -0.164686103644653 0 0.43334283997313311 -0.15135273030925811 0 0.43763345530417341 -0.13584027725706749 0 0.44678149142501389 -0.1466682631704162 0 0.45274550479158487 -0.1345999168850856 0 0.44678149142501389 -0.1466682631704162 0 0.46138481906560302 -0.14686228775601681 0 0.46138481906560302 -0.14686228775601681 0 0.44880083799057491 -0.164686103644653 0 0.47440041899528501 -0.16298873485845719 0 0.44880083799057491 -0.164686103644653 0 0.46834799031954211 -0.17915452781490099 0 0.47440041899528501 -0.16298873485845719 0 0.44880083799057491 -0.164686103644653 0 0.47440041899528501 -0.16298873485845719 0 0.43180268423531071 -0.1802632517690351 0 0.44880083799057491 -0.164686103644653 0 0.43844209377108118 -0.18689286854296691 0 0.44880083799057491 -0.164686103644653 0 0.43844209377108118 -0.18689286854296691 0 0.45508032593701309 -0.1914137801830845 0 0.44880083799057491 -0.164686103644653 0 0.46834799031954211 -0.17915452781490099 0 0.45508032593701309 -0.1914137801830845 0 0.46834799031954211 -0.17915452781490099 0 0.48419704391512092 -0.17843144908975531 0 0.47440041899528501 -0.16298873485845719 0 0.46834799031954211 -0.17915452781490099 0 0.48419704391512092 -0.17843144908975531 0 0.47823681026078202 -0.19812675643970101 0 0.48419704391512092 -0.17843144908975531 0 0.49999999999999523 -0.16129136607226169 0 0.5 -0.1905958602634561 0 0.49999999999999523 -0.16129136607226169 0 0.47440041899528501 -0.16298873485845719 0 0.50000000000000067 -0.1547763741112759 0 0.48419704391512092 -0.17843144908975531 0 0.49999999999999523 -0.16129136607226169 0 0.47440041899528501 -0.16298873485845719 0 0.49999999999999523 -0.16129136607226169 0 0.47440041899528501 -0.16298873485845719 0 0.46138481906560302 -0.14686228775601681 0 0.47440041899528501 -0.16298873485845719 0 0.48128698321344371 -0.14003357648102521 0 0.46381730130484328 -0.1363472541609663 0 0.46138481906560302 -0.14686228775601681 0 0.48128698321344371 -0.14003357648102521 0 0.50000000000000067 -0.1547763741112759 0 0.48128698321344371 -0.14003357648102521 0 0.50000000000000067 -0.1547763741112759 0 0.5 -0.13349841451636779 0 0.48128698321344371 -0.14003357648102521 0 0.47440041899528501 -0.16298873485845719 0 0.50000000000000067 -0.1547763741112759 0 0.48128698321344371 -0.14003357648102521 0 0.48087269318342413 -0.1216818802472065 0 0.5 -0.13349841451636779 0 0.48128698321344371 -0.14003357648102521 0 0.46257396642688631 -0.12529077885077469 0 0.48128698321344371 -0.14003357648102521 0 0.46257396642688631 -0.12529077885077469 0 0.46381730130484328 -0.1363472541609663 0 0.48128698321344371 -0.14003357648102521 0 0.47129126618897188 -0.1223351355815797 0 0.48087269318342413 -0.1216818802472065 0 0.48128698321344371 -0.14003357648102521 0 0.47129126618897188 -0.1223351355815797 0 0.46257396642688631 -0.12529077885077469 0 0.48128698321344371 -0.14003357648102521 0 0.46029750420545162 -0.23134667767863379 0 0.45079963313025367 -0.219495204315066 0 0.46126535540865482 -0.21094244298034759 0 0.46029750420545162 -0.23134667767863379 0 0.46126535540865482 -0.21094244298034759 0 0.47937109712497578 -0.22608105856418539 0 0.46029750420545162 -0.23134667767863379 0 0.44856132313442931 -0.24393079079591279 0 0.47387431588802909 -0.25499376211151131 0 0.46029750420545162 -0.23134667767863379 0 0.44856132313442931 -0.24393079079591279 0 0.44416109061426973 -0.22983272991065171 0 0.43458399188612801 -0.2397076170126072 0 0.44856132313442931 -0.24393079079591279 0 0.4372088962240912 -0.25169219704383999 0 0.43458399188612801 -0.2397076170126072 0 0.44856132313442931 -0.24393079079591279 0 0.44416109061426973 -0.22983272991065171 0 0.46029750420545162 -0.23134667767863379 0 0.44416109061426973 -0.22983272991065171 0 0.45079963313025367 -0.219495204315066 0 0.44416109061426973 -0.22983272991065171 0 0.45079963313025367 -0.219495204315066 0 0.44009267276725389 -0.2176624614444449 0 0.42988092584916948 -0.2249579995083304 0 0.44416109061426973 -0.22983272991065171 0 0.44009267276725389 -0.2176624614444449 0 0.45079963313025367 -0.219495204315066 0 0.44355474576021348 -0.2050869029196882 0 0.46126535540865482 -0.21094244298034759 0 0.43006687167525981 -0.21185300334864521 0 0.44009267276725389 -0.2176624614444449 0 0.44355474576021348 -0.2050869029196882 0 0.45079963313025367 -0.219495204315066 0 0.44009267276725389 -0.2176624614444449 0 0.44355474576021348 -0.2050869029196882 0 0.43844209377108118 -0.18689286854296691 0 0.44355474576021348 -0.2050869029196882 0 0.45508032593701309 -0.1914137801830845 0 0.46834799031954211 -0.17915452781490099 0 0.45508032593701309 -0.1914137801830845 0 0.47823681026078202 -0.19812675643970101 0 0.44355474576021348 -0.2050869029196882 0 0.45508032593701309 -0.1914137801830845 0 0.46126535540865482 -0.21094244298034759 0 0.45508032593701309 -0.1914137801830845 0 0.46126535540865482 -0.21094244298034759 0 0.47823681026078202 -0.19812675643970101 0 0.46126535540865482 -0.21094244298034759 0 0.47823681026078202 -0.19812675643970101 0 0.47937109712497578 -0.22608105856418539 0 0.48419704391512092 -0.17843144908975531 0 0.47823681026078202 -0.19812675643970101 0 0.5 -0.1905958602634561 0 0.47823681026078202 -0.19812675643970101 0 0.5 -0.1905958602634561 0 0.5 -0.21990035445465039 0 0.47823681026078202 -0.19812675643970101 0 0.5 -0.21990035445465039 0 0.47937109712497578 -0.22608105856418539 0 0.5 -0.21990035445465039 0 0.47937109712497578 -0.22608105856418539 0 0.50000000000000444 -0.24920484864584491 0 0.46029750420545162 -0.23134667767863379 0 0.47937109712497578 -0.22608105856418539 0 0.47387431588802909 -0.25499376211151131 0 0.47937109712497578 -0.22608105856418539 0 0.50000000000000444 -0.24920484864584491 0 0.47387431588802909 -0.25499376211151131 0 0.50000000000000444 -0.24920484864584491 0 0.4915669900217115 -0.25615479242606781 0 0.5 -0.27170772691138367 0 0.50000000000000444 -0.24920484864584491 0 0.4915669900217115 -0.25615479242606781 0 0.47387431588802909 -0.25499376211151131 0 0.50000000000000444 -0.24920484864584491 0 0.47387431588802909 -0.25499376211151131 0 0.4915669900217115 -0.25615479242606781 0 0.48280749151585822 -0.27129304150170008 0 0.47954864786353962 -0.26301133191085868 0 0.4915669900217115 -0.25615479242606781 0 0.5 -0.27170772691138367 0 0.48280749151585822 -0.27129304150170008 0 0.5 -0.27170772691138367 0 0.48280749151585822 -0.27129304150170008 0 0.48951500520952212 -0.28458010338455908 0 0.48280749151585822 -0.27129304150170008 0 0.47474596181800061 -0.28621450290334632 0 0.48951500520952212 -0.28458010338455908 0 0.48280749151585822 -0.27129304150170008 0 0.47416229901770612 -0.26612875971404459 0 0.47954864786353962 -0.26301133191085868 0 0.48280749151585822 -0.27129304150170008 0 0.47416229901770612 -0.26612875971404459 0 0.47052118473631321 -0.27447720361836658 0 0.47416229901770612 -0.26612875971404459 0 0.47052118473631321 -0.27447720361836658 0 0.46319689217890331 -0.26835660325056299 0 0.48280749151585822 -0.27129304150170008 0 0.47052118473631321 -0.27447720361836658 0 0.47474596181800061 -0.28621450290334632 0 0.4915669900217115 -0.25615479242606781 0 0.46965781089888248 -0.25846873400162218 0 0.4915669900217115 -0.25615479242606781 0 0.47387431588802909 -0.25499376211151131 0 0.46965781089888248 -0.25846873400162218 0 0.4915669900217115 -0.25615479242606781 0 0.47954864786353962 -0.26301133191085868 0 0.46965781089888248 -0.25846873400162218 0 0.47416229901770612 -0.26612875971404459 0 0.47954864786353962 -0.26301133191085868 0 0.46965781089888248 -0.25846873400162218 0 0.47416229901770612 -0.26612875971404459 0 0.46965781089888248 -0.25846873400162218 0 0.46319689217890331 -0.26835660325056299 0 0.46965781089888248 -0.25846873400162218 0 0.46319689217890331 -0.26835660325056299 0 0.4477486317760534 -0.26078267557717671 0 0.44856132313442931 -0.24393079079591279 0 0.47387431588802909 -0.25499376211151131 0 0.4477486317760534 -0.26078267557717671 0 0.47387431588802909 -0.25499376211151131 0 0.4477486317760534 -0.26078267557717671 0 0.46965781089888248 -0.25846873400162218 0 0.4477486317760534 -0.26078267557717671 0 0.47387431588802909 -0.25499376211151131 0 0.46965781089888248 -0.25846873400162218 0 0.4477486317760534 -0.26078267557717671 0 0.47052118473631321 -0.27447720361836658 0 0.45389453446556111 -0.28192564334160541 0 0.47474596181800061 -0.28621450290334632 0 0.47052118473631321 -0.27447720361836658 0 0.46319689217890331 -0.26835660325056299 0 0.45389453446556111 -0.28192564334160541 0 0.46319689217890331 -0.26835660325056299 0 0.4477486317760534 -0.26078267557717671 0 0.45389453446556111 -0.28192564334160541 0 0.45389453446556111 -0.28192564334160541 0 0.430823863629894 -0.26453285558412298 0 0.45389453446556111 -0.28192564334160541 0 0.430823863629894 -0.26453285558412298 0 0.43570592202634773 -0.28205449164250063 0 0.4477486317760534 -0.26078267557717671 0 0.45389453446556111 -0.28192564334160541 0 0.430823863629894 -0.26453285558412298 0 0.4477486317760534 -0.26078267557717671 0 0.42854038242645709 -0.26281135800815408 0 0.44856132313442931 -0.24393079079591279 0 0.4477486317760534 -0.26078267557717671 0 0.4372088962240912 -0.25169219704383999 0 0.4477486317760534 -0.26078267557717671 0 0.42854038242645709 -0.26281135800815408 0 0.4372088962240912 -0.25169219704383999 0 0.4477486317760534 -0.26078267557717671 0 0.430823863629894 -0.26453285558412298 0 0.44815314542162782 -0.30273998798419938 0 0.44271266904340639 -0.31513600928105973 0 0.43092107089682352 -0.30573631325696571 0 0.44815314542162782 -0.30273998798419938 0 0.43874415768382158 -0.29310671547163403 0 0.43092107089682352 -0.30573631325696571 0 0.43874415768382158 -0.29310671547163403 0 0.45389453446556111 -0.28192564334160541 0 0.43570592202634773 -0.28205449164250063 0 0.44815314542162782 -0.30273998798419938 0 0.43874415768382158 -0.29310671547163403 0 0.45389453446556111 -0.28192564334160541 0 0.45389453446556111 -0.28192564334160541 0 0.46668010371271101 -0.29937682325086112 0 0.47474596181800061 -0.28621450290334632 0 0.44815314542162782 -0.30273998798419938 0 0.45389453446556111 -0.28192564334160541 0 0.46668010371271101 -0.29937682325086112 0 0.46668010371271101 -0.29937682325086112 0 0.45907432653114449 -0.32014896664993769 0 0.44815314542162782 -0.30273998798419938 0 0.46668010371271101 -0.29937682325086112 0 0.45907432653114449 -0.32014896664993769 0 0.46668010371271101 -0.29937682325086112 0 0.48375110351916628 -0.30725513966339157 0 0.45907432653114449 -0.32014896664993769 0 0.46668010371271101 -0.29937682325086112 0 0.48375110351916628 -0.30725513966339157 0 0.47474596181800061 -0.28621450290334632 0 0.48375110351916628 -0.30725513966339157 0 0.47474596181800061 -0.28621450290334632 0 0.48951500520952212 -0.28458010338455908 0 0.48375110351916628 -0.30725513966339157 0 0.5 -0.29421060517692271 0 0.48951500520952212 -0.28458010338455908 0 0.5 -0.27170772691138367 0 0.5 -0.29421060517692271 0 0.48951500520952212 -0.28458010338455908 0 0.48375110351916628 -0.30725513966339157 0 0.5 -0.29421060517692271 0 0.49999999999999972 -0.31671348344246159 0 0.48375110351916628 -0.30725513966339157 0 0.49999999999999972 -0.31671348344246159 0 0.48658745812515303 -0.32591538654610069 0 0.49999999999999972 -0.31671348344246159 0 0.49107839048707969 -0.33844651150006611 0 0.49999999999999972 -0.31671348344246159 0 0.48658745812515303 -0.32591538654610069 0 0.49107839048707969 -0.33844651150006611 0 0.49999999999999972 -0.31671348344246159 0 0.5 -0.34354646621870782 0 0.49107839048707969 -0.33844651150006611 0 0.48658745812515303 -0.32591538654610069 0 0.49107839048707969 -0.33844651150006611 0 0.48013111160135669 -0.33592777501669763 0 0.48658745812515303 -0.32591538654610069 0 0.48013111160135669 -0.33592777501669763 0 0.47588582758327369 -0.32632043512378739 0 0.48013111160135669 -0.33592777501669763 0 0.46883970942210401 -0.33989811375075968 0 0.47588582758327369 -0.32632043512378739 0 0.48375110351916628 -0.30725513966339157 0 0.48658745812515303 -0.32591538654610069 0 0.47588582758327369 -0.32632043512378739 0 0.48375110351916628 -0.30725513966339157 0 0.47588582758327369 -0.32632043512378739 0 0.45907432653114449 -0.32014896664993769 0 0.5 -0.37037944899495368 0 0.48466784746851571 -0.3739080713738358 0 0.48215678097416009 -0.36017953955767068 0 0.5 -0.34354646621870782 0 0.49107839048707969 -0.33844651150006611 0 0.48215678097416009 -0.36017953955767068 0 0.49107839048707969 -0.33844651150006611 0 0.48013111160135669 -0.33592777501669763 0 0.48215678097416009 -0.36017953955767068 0 0.5 -0.34354646621870782 0 0.5 -0.37037944899495368 0 0.48215678097416009 -0.36017953955767068 0 0.49107839048707969 -0.33844651150006611 0 0.48215678097416009 -0.36017953955767068 0 0.48013111160135669 -0.33592777501669763 0 0.46883970942210401 -0.33989811375075968 0 0.48215678097416009 -0.36017953955767068 0 0.46883970942210401 -0.33989811375075968 0 0.48215678097416009 -0.36017953955767068 0 0.46166172922915721 -0.35810144835948332 0 0.48215678097416009 -0.36017953955767068 0 0.47323517146124039 -0.38191256761527542 0 0.48215678097416009 -0.36017953955767068 0 0.4671179630262795 -0.37324494563770522 0 0.47323517146124039 -0.38191256761527542 0 0.48466784746851571 -0.3739080713738358 0 0.48215678097416009 -0.36017953955767068 0 0.47323517146124039 -0.38191256761527542 0 0.48215678097416009 -0.36017953955767068 0 0.4671179630262795 -0.37324494563770522 0 0.46166172922915721 -0.35810144835948332 0 0.45652460043480969 -0.37267172771365881 0 0.46166172922915721 -0.35810144835948332 0 0.44386277216801179 -0.36169325344809122 0 0.45652460043480969 -0.37267172771365881 0 0.4671179630262795 -0.37324494563770522 0 0.46166172922915721 -0.35810144835948332 0 0.46883970942210401 -0.33989811375075968 0 0.46166172922915721 -0.35810144835948332 0 0.45146854934957792 -0.34092111004901438 0 0.43963091224731599 -0.34751792105314822 0 0.44386277216801179 -0.36169325344809122 0 0.45146854934957792 -0.34092111004901438 0 0.44386277216801179 -0.36169325344809122 0 0.45146854934957792 -0.34092111004901438 0 0.46166172922915721 -0.35810144835948332 0 0.44386277216801179 -0.36169325344809122 0 0.45146854934957792 -0.34092111004901438 0 0.44386277216801179 -0.36169325344809122 0 0.43376943787959182 -0.36708850497004442 0 0.43808065797110041 -0.37748478958974491 0 0.45652460043480969 -0.37267172771365881 0 0.44386277216801179 -0.36169325344809122 0 0.44783900322824399 -0.38008781189722518 0 0.44386277216801179 -0.36169325344809122 0 0.43808065797110041 -0.37748478958974491 0 0.44386277216801179 -0.36169325344809122 0 0.43808065797110041 -0.37748478958974491 0 0.44783900322824399 -0.38008781189722518 0 0.45652460043480969 -0.37267172771365881 0 0.44386277216801179 -0.36169325344809122 0 0.46883970942210401 -0.33989811375075968 0 0.45907432653114449 -0.32014896664993769 0 0.45146854934957792 -0.34092111004901438 0 0.45907432653114449 -0.32014896664993769 0 0.45146854934957792 -0.34092111004901438 0 0.46883970942210401 -0.33989811375075968 0 0.47588582758327369 -0.32632043512378739 0 0.45907432653114449 -0.32014896664993769 0 0.43963091224731599 -0.34751792105314822 0 0.45146854934957792 -0.34092111004901438 0 0.43565299676263758 -0.3352386806192425 0 0.45146854934957792 -0.34092111004901438 0 0.44493724809618768 -0.32603283426431229 0 0.43565299676263758 -0.3352386806192425 0 0.45907432653114449 -0.32014896664993769 0 0.45146854934957792 -0.34092111004901438 0 0.44493724809618768 -0.32603283426431229 0 0.45907432653114449 -0.32014896664993769 0 0.44493724809618768 -0.32603283426431229 0 0.44271266904340639 -0.31513600928105973 0 0.44493724809618768 -0.32603283426431229 0 0.44271266904340639 -0.31513600928105973 0 0.43047755427124879 -0.32102194424988317 0 0.44815314542162782 -0.30273998798419938 0 0.45907432653114449 -0.32014896664993769 0 0.44271266904340639 -0.31513600928105973 0 0.44271266904340639 -0.31513600928105973 0 0.43047755427124879 -0.32102194424988317 0 0.43092107089682352 -0.30573631325696571 0 0.43047755427124879 -0.32102194424988317 0 0.41919911313656122 -0.31385112706466711 0 0.41739686236043672 -0.32199345155319897 0 0.43047755427124879 -0.32102194424988317 0 0.41919911313656122 -0.31385112706466711 0 0.43092107089682352 -0.30573631325696571 0 0.43047755427124879 -0.32102194424988317 0 0.42053718701310799 -0.32957674384091618 0 0.41739686236043672 -0.32199345155319897 0 0.44493724809618768 -0.32603283426431229 0 0.43047755427124879 -0.32102194424988317 0 0.43565299676263758 -0.3352386806192425 0 0.43565299676263758 -0.3352386806192425 0 0.42053718701310799 -0.32957674384091618 0 0.4250793590774925 -0.34540704162396091 0 0.43963091224731599 -0.34751792105314822 0 0.43565299676263758 -0.3352386806192425 0 0.4250793590774925 -0.34540704162396091 0 0.43047755427124879 -0.32102194424988317 0 0.43565299676263758 -0.3352386806192425 0 0.42053718701310799 -0.32957674384091618 0 0.4062959459869725 -0.32912082979983148 0 0.4250793590774925 -0.34540704162396091 0 0.41055923831377589 -0.34398547157316572 0 0.42053718701310799 -0.32957674384091618 0 0.4062959459869725 -0.32912082979983148 0 0.4250793590774925 -0.34540704162396091 0 0.4062959459869725 -0.32912082979983148 0 0.4250793590774925 -0.34540704162396091 0 0.42053718701310799 -0.32957674384091618 0 0.4062959459869725 -0.32912082979983148 0 0.40802480504278882 -0.32457497099322458 0 0.4062959459869725 -0.32912082979983148 0 0.40802480504278882 -0.32457497099322458 0 0.4062959459869725 -0.32912082979983148 0 0.40802480504278882 -0.32457497099322458 0 0.40572459905769331 -0.31910551143285631 0 0.40802480504278882 -0.32457497099322458 0 0.4119015194344513 -0.31818912214386269 0 0.41739686236043672 -0.32199345155319897 0 0.40802480504278882 -0.32457497099322458 0 0.4119015194344513 -0.31818912214386269 0 0.40572459905769331 -0.31910551143285631 0 0.4119015194344513 -0.31818912214386269 0 0.41919911313656122 -0.31385112706466711 0 0.40916221757477672 -0.31142054967536659 0 0.4119015194344513 -0.31818912214386269 0 0.40572459905769331 -0.31910551143285631 0 0.40916221757477672 -0.31142054967536659 0 0.4119015194344513 -0.31818912214386269 0 0.41919911313656122 -0.31385112706466711 0 0.41739686236043672 -0.32199345155319897 0 0.42053718701310799 -0.32957674384091618 0 0.40802480504278882 -0.32457497099322458 0 0.41739686236043672 -0.32199345155319897 0 0.44386277216801179 -0.36169325344809122 0 0.43376943787959182 -0.36708850497004442 0 0.42728564025893462 -0.35958684797927032 0 0.42489657602010461 -0.37065940299189432 0 0.43376943787959182 -0.36708850497004442 0 0.43808065797110041 -0.37748478958974491 0 0.42489657602010461 -0.37065940299189432 0 0.43376943787959182 -0.36708850497004442 0 0.42728564025893462 -0.35958684797927032 0 0.44386277216801179 -0.36169325344809122 0 0.4250793590774925 -0.34540704162396091 0 0.43963091224731599 -0.34751792105314822 0 0.44386277216801179 -0.36169325344809122 0 0.4250793590774925 -0.34540704162396091 0 0.44386277216801179 -0.36169325344809122 0 0.42728564025893462 -0.35958684797927032 0 0.4250793590774925 -0.34540704162396091 0 0.42728564025893462 -0.35958684797927032 0 0.4250793590774925 -0.34540704162396091 0 0.41069622259092692 -0.35617360609135817 0 0.4250793590774925 -0.34540704162396091 0 0.41055923831377589 -0.34398547157316572 0 0.41069622259092692 -0.35617360609135817 0 0.41055923831377589 -0.34398547157316572 0 0.41069622259092692 -0.35617360609135817 0 0.40016542559971202 -0.34524040877751239 0 0.42489657602010461 -0.37065940299189432 0 0.42728564025893462 -0.35958684797927032 0 0.41069622259092692 -0.35617360609135817 0 0.42489657602010461 -0.37065940299189432 0 0.41069622259092692 -0.35617360609135817 0 0.4070765621089808 -0.37107032214525337 0 0.42489657602010461 -0.37065940299189432 0 0.41069622259092692 -0.35617360609135817 0 0.39585190457779329 -0.37201308858561799 0 0.3940349052124521 -0.36135998775519362 0 0.38601585554704992 -0.38244526212700758 0 0.41069622259092692 -0.35617360609135817 0 0.4070765621089808 -0.37107032214525337 0 0.3940349052124521 -0.36135998775519362 0 0.4070765621089808 -0.37107032214525337 0 0.39585190457779329 -0.37201308858561799 0 0.3940349052124521 -0.36135998775519362 0 0.39585190457779329 -0.37201308858561799 0 0.3940349052124521 -0.36135998775519362 0 0.3940349052124521 -0.36135998775519362 0 0.40016542559971202 -0.34524040877751239 0 0.38974443050024338 -0.33620485529262373 0 0.3940349052124521 -0.36135998775519362 0 0.38974443050024338 -0.33620485529262373 0 0.3940349052124521 -0.36135998775519362 0 0.40016542559971202 -0.34524040877751239 0 0.41069622259092692 -0.35617360609135817 0 0.3940349052124521 -0.36135998775519362 0 0.40016542559971202 -0.34524040877751239 0 0.3940349052124521 -0.36135998775519362 0 0.38974443050024338 -0.33620485529262373 0 0.37368731816096312 -0.34897020548070451 0 0.3940349052124521 -0.36135998775519362 0 0.38601585554704992 -0.38244526212700758 0 0.3940349052124521 -0.36135998775519362 0 0.38601585554704992 -0.38244526212700758 0 0.3689120952668708 -0.37284951495870189 0 0.3940349052124521 -0.36135998775519362 0 0.3689120952668708 -0.37284951495870189 0 0.37368731816096312 -0.34897020548070451 0 0.4062959459869725 -0.32912082979983148 0 0.40572459905769331 -0.31910551143285631 0 0.39816778062817881 -0.31191488097197773 0 0.4062959459869725 -0.32912082979983148 0 0.38974443050024338 -0.33620485529262373 0 0.38545395578803499 -0.31104972283005378 0 0.4062959459869725 -0.32912082979983148 0 0.38545395578803499 -0.31104972283005378 0 0.4062959459869725 -0.32912082979983148 0 0.38545395578803499 -0.31104972283005378 0 0.39816778062817881 -0.31191488097197773 0 0.40572459905769331 -0.31910551143285631 0 0.39816778062817881 -0.31191488097197773 0 0.40916221757477672 -0.31142054967536659 0 0.4062959459869725 -0.32912082979983148 0 0.40016542559971202 -0.34524040877751239 0 0.38974443050024338 -0.33620485529262373 0 0.4062959459869725 -0.32912082979983148 0 0.40016542559971202 -0.34524040877751239 0 0.4062959459869725 -0.32912082979983148 0 0.41055923831377589 -0.34398547157316572 0 0.40016542559971202 -0.34524040877751239 0 0.38974443050024338 -0.33620485529262373 0 0.36945761595668469 -0.32738841673247931 0 0.37368731816096312 -0.34897020548070451 0 0.38974443050024338 -0.33620485529262373 0 0.38545395578803499 -0.31104972283005378 0 0.36945761595668469 -0.32738841673247931 0 0.38974443050024338 -0.33620485529262373 0 0.38545395578803499 -0.31104972283005378 0 0.38545395578803499 -0.31104972283005378 0 0.38245755150739558 -0.29348174920317632 0 0.37101427446782781 -0.29852975601036341 0 0.38545395578803499 -0.31104972283005378 0 0.38245755150739558 -0.29348174920317632 0 0.38545395578803499 -0.31104972283005378 0 0.37101427446782781 -0.29852975601036341 0 0.38545395578803499 -0.31104972283005378 0 0.39567659353887108 -0.29306988619604551 0 0.38245755150739558 -0.29348174920317632 0 0.39816778062817881 -0.31191488097197773 0 0.40563314249086863 -0.30155395497769039 0 0.39567659353887108 -0.29306988619604551 0 0.38545395578803499 -0.31104972283005378 0 0.39816778062817881 -0.31191488097197773 0 0.39567659353887108 -0.29306988619604551 0 0.39816778062817881 -0.31191488097197773 0 0.40563314249086863 -0.30155395497769039 0 0.40916221757477672 -0.31142054967536659 0 0.39567659353887108 -0.29306988619604551 0 0.40514250542832608 -0.27022331558021301 0 0.41160024963212011 -0.28933460066763711 0 0.40563314249086863 -0.30155395497769039 0 0.39567659353887108 -0.29306988619604551 0 0.41160024963212011 -0.28933460066763711 0 0.38245755150739558 -0.29348174920317632 0 0.37946114722675722 -0.27591377557629859 0 0.39567659353887108 -0.29306988619604551 0 0.38245755150739558 -0.29348174920317632 0 0.37946114722675722 -0.27591377557629859 0 0.38245755150739558 -0.29348174920317632 0 0.37795999762798671 -0.28395322059410122 0 0.37946114722675722 -0.27591377557629859 0 0.37519981906117678 -0.29055939022370142 0 0.38245755150739558 -0.29348174920317632 0 0.37101427446782781 -0.29852975601036341 0 0.37519981906117678 -0.29055939022370142 0 0.38245755150739558 -0.29348174920317632 0 0.37795999762798671 -0.28395322059410122 0 0.37795999762798671 -0.28395322059410122 0 0.37946114722675722 -0.27591377557629859 0 0.37739853904771847 -0.27637080706343392 0 0.37739853904771847 -0.27637080706343392 0 0.37683953433427181 -0.26882153263446662 0 0.37273728942595791 -0.27740364396778311 0 0.37795999762798671 -0.28395322059410122 0 0.37739853904771847 -0.27637080706343392 0 0.37273728942595791 -0.27740364396778311 0 0.37946114722675722 -0.27591377557629859 0 0.38774772661347989 -0.26664574742688191 0 0.3964002279028962 -0.26984905957103239 0 0.37946114722675722 -0.27591377557629859 0 0.3964002279028962 -0.26984905957103239 0 0.37795999762798671 -0.28395322059410122 0 0.37739853904771847 -0.27637080706343392 0 0.37739853904771847 -0.27637080706343392 0 0.37273728942595791 -0.27740364396778311 0 0.37946114722675722 -0.27591377557629859 0 0.37739853904771847 -0.27637080706343392 0 0.37683953433427181 -0.26882153263446662 0 0.37946114722675722 -0.27591377557629859 0 0.37739853904771847 -0.27637080706343392 0 0.37946114722675722 -0.27591377557629859 0 0.37843581040967561 -0.26746760801825881 0 0.38284686623937531 -0.26497045393317709 0 0.37946114722675722 -0.27591377557629859 0 0.37683953433427181 -0.26882153263446662 0 0.37843581040967561 -0.26746760801825881 0 0.37739853904771847 -0.27637080706343392 0 0.37683953433427181 -0.26882153263446662 0 0.37683953433427181 -0.26882153263446662 0 0.37843581040967561 -0.26746760801825881 0 0.37946114722675722 -0.27591377557629859 0 0.38774772661347989 -0.26664574742688191 0 0.38284686623937531 -0.26497045393317709 0 0.37477580018058132 -0.24095111383496479 0 0.37683953433427181 -0.26882153263446662 0 0.38107906364546162 -0.25934379353391329 0 0.37477580018058132 -0.24095111383496479 0 0.37683953433427181 -0.26882153263446662 0 0.37477580018058132 -0.24095111383496479 0 0.38107906364546162 -0.25934379353391329 0 0.38725375881062551 -0.25185160038302579 0 0.37843581040967561 -0.26746760801825881 0 0.38107906364546162 -0.25934379353391329 0 0.38284686623937531 -0.26497045393317709 0 0.37683953433427181 -0.26882153263446662 0 0.37843581040967561 -0.26746760801825881 0 0.38107906364546162 -0.25934379353391329 0 0.38107906364546162 -0.25934379353391329 0 0.38632261189823958 -0.26200045239958702 0 0.38284686623937531 -0.26497045393317709 0 0.38774772661347989 -0.26664574742688191 0 0.38632261189823958 -0.26200045239958702 0 0.38284686623937531 -0.26497045393317709 0 0.38774772661347989 -0.26664574742688191 0 0.38955528694719099 -0.2630172622662057 0 0.39295554709344072 -0.26445586107842978 0 0.38774772661347989 -0.26664574742688191 0 0.38632261189823958 -0.26200045239958702 0 0.38955528694719099 -0.2630172622662057 0 0.38632261189823958 -0.26200045239958702 0 0.38955528694719099 -0.2630172622662057 0 0.39119526218360401 -0.25896698815992442 0 0.38632261189823958 -0.26200045239958702 0 0.38725375881062551 -0.25185160038302579 0 0.39119526218360401 -0.25896698815992442 0 0.38107906364546162 -0.25934379353391329 0 0.38632261189823958 -0.26200045239958702 0 0.38725375881062551 -0.25185160038302579 0 0.40314688718896508 -0.2619981766022052 0 0.39707581272688741 -0.26613449373937459 0 0.41345304600685079 -0.26440480953867462 0 0.39707581272688741 -0.26613449373937459 0 0.41345304600685079 -0.26440480953867462 0 0.38725375881062551 -0.25185160038302579 0 0.39640803358832022 -0.25154779433757402 0 0.39119526218360401 -0.25896698815992442 0 0.39640803358832022 -0.25154779433757402 0 0.39702034872720737 -0.26014738253762237 0 0.39119526218360401 -0.25896698815992442 0 0.39702034872720737 -0.26014738253762237 0 0.39119526218360401 -0.25896698815992442 0 0.39295554709344072 -0.26445586107842978 0 0.38955528694719099 -0.2630172622662057 0 0.39119526218360401 -0.25896698815992442 0 0.39295554709344072 -0.26445586107842978 0 0.39702034872720737 -0.26014738253762237 0 0.39295554709344072 -0.26445586107842978 0 0.39707581272688741 -0.26613449373937459 0 0.39702034872720737 -0.26014738253762237 0 0.40314688718896508 -0.2619981766022052 0 0.39707581272688741 -0.26613449373937459 0 0.40314688718896508 -0.2619981766022052 0 0.40257909468765629 -0.25704117102420471 0 0.40998094690083942 -0.2590606397541646 0 0.39702034872720737 -0.26014738253762237 0 0.40314688718896508 -0.2619981766022052 0 0.40257909468765629 -0.25704117102420471 0 0.39640803358832022 -0.25154779433757402 0 0.39702034872720737 -0.26014738253762237 0 0.40257909468765629 -0.25704117102420471 0 0.41087794879613182 -0.2494957955088617 0 0.39640803358832022 -0.25154779433757402 0 0.40257909468765629 -0.25704117102420471 0 0.40514250542832608 -0.27022331558021301 0 0.3964002279028962 -0.26984905957103239 0 0.41345304600685079 -0.26440480953867462 0 0.37946114722675722 -0.27591377557629859 0 0.40514250542832608 -0.27022331558021301 0 0.3964002279028962 -0.26984905957103239 0 0.39707581272688741 -0.26613449373937459 0 0.3964002279028962 -0.26984905957103239 0 0.41345304600685079 -0.26440480953867462 0 0.37946114722675722 -0.27591377557629859 0 0.40514250542832608 -0.27022331558021301 0 0.3964002279028962 -0.26984905957103239 0 0.41345304600685079 -0.26440480953867462 0 0.39567659353887108 -0.29306988619604551 0 0.37946114722675722 -0.27591377557629859 0 0.40514250542832608 -0.27022331558021301 0 0.38774772661347989 -0.26664574742688191 0 0.39295554709344072 -0.26445586107842978 0 0.3964002279028962 -0.26984905957103239 0 0.39295554709344072 -0.26445586107842978 0 0.39707581272688741 -0.26613449373937459 0 0.3964002279028962 -0.26984905957103239 0 0.40514250542832608 -0.27022331558021301 0 0.41345304600685079 -0.26440480953867462 0 0.430823863629894 -0.26453285558412298 0 0.40514250542832608 -0.27022331558021301 0 0.430823863629894 -0.26453285558412298 0 0.40514250542832608 -0.27022331558021301 0 0.42166373126508722 -0.27984448092147479 0 0.41160024963212011 -0.28933460066763711 0 0.40514250542832608 -0.27022331558021301 0 0.42166373126508722 -0.27984448092147479 0 0.430823863629894 -0.26453285558412298 0 0.41087794879613182 -0.2494957955088617 0 0.41984775782459283 -0.2623632460968765 0 0.42854038242645709 -0.26281135800815408 0 0.41087794879613182 -0.2494957955088617 0 0.42854038242645709 -0.26281135800815408 0 0.41087794879613182 -0.2494957955088617 0 0.40257909468765629 -0.25704117102420471 0 0.40998094690083942 -0.2590606397541646 0 0.41087794879613182 -0.2494957955088617 0 0.40998094690083942 -0.2590606397541646 0 0.41984775782459283 -0.2623632460968765 0 0.40314688718896508 -0.2619981766022052 0 0.40998094690083942 -0.2590606397541646 0 0.41345304600685079 -0.26440480953867462 0 0.41345304600685079 -0.26440480953867462 0 0.41984775782459283 -0.2623632460968765 0 0.42854038242645709 -0.26281135800815408 0 0.40998094690083942 -0.2590606397541646 0 0.41345304600685079 -0.26440480953867462 0 0.41984775782459283 -0.2623632460968765 0 0.41345304600685079 -0.26440480953867462 0 0.42854038242645709 -0.26281135800815408 0 0.41345304600685079 -0.26440480953867462 0 0.41984775782459283 -0.2623632460968765 0 0.42656562700980838 -0.24831468624349931 0 0.41087794879613182 -0.2494957955088617 0 0.42854038242645709 -0.26281135800815408 0 0.4477486317760534 -0.26078267557717671 0 0.42854038242645709 -0.26281135800815408 0 0.430823863629894 -0.26453285558412298 0 0.41345304600685079 -0.26440480953867462 0 0.42854038242645709 -0.26281135800815408 0 0.430823863629894 -0.26453285558412298 0 0.42854038242645709 -0.26281135800815408 0 0.430823863629894 -0.26453285558412298 0 0.42656562700980838 -0.24831468624349931 0 0.42854038242645709 -0.26281135800815408 0 0.4372088962240912 -0.25169219704383999 0 0.42166373126508722 -0.27984448092147479 0 0.430823863629894 -0.26453285558412298 0 0.43570592202634773 -0.28205449164250063 0 0.42166373126508722 -0.27984448092147479 0 0.43570592202634773 -0.28205449164250063 0 0.42504611560874761 -0.29307714113289868 0 0.43874415768382158 -0.29310671547163403 0 0.43570592202634773 -0.28205449164250063 0 0.42504611560874761 -0.29307714113289868 0 0.43874415768382158 -0.29310671547163403 0 0.42504611560874761 -0.29307714113289868 0 0.43092107089682352 -0.30573631325696571 0 0.41919911313656122 -0.31385112706466711 0 0.43092107089682352 -0.30573631325696571 0 0.41692698488998292 -0.30249561446253759 0 0.42504611560874761 -0.29307714113289868 0 0.43092107089682352 -0.30573631325696571 0 0.41692698488998292 -0.30249561446253759 0 0.41919911313656122 -0.31385112706466711 0 0.41692698488998292 -0.30249561446253759 0 0.40916221757477672 -0.31142054967536659 0 0.40563314249086863 -0.30155395497769039 0 0.41692698488998292 -0.30249561446253759 0 0.40916221757477672 -0.31142054967536659 0 0.40563314249086863 -0.30155395497769039 0 0.41692698488998292 -0.30249561446253759 0 0.41160024963212011 -0.28933460066763711 0 0.42166373126508722 -0.27984448092147479 0 0.42504611560874761 -0.29307714113289868 0 0.41160024963212011 -0.28933460066763711 0 0.42504611560874761 -0.29307714113289868 0 0.41692698488998292 -0.30249561446253759 0 0.41160024963212011 -0.28933460066763711 0 0.5 -0.5 0 0.47532784176218862 -0.47257481327436679 0 0.43264288253940292 -0.48275234633568048 0 0.5 -0.5 0 0.41749257905485199 -0.50000000000000033 0 0.43264288253940292 -0.48275234633568048 0 0.47532784176218862 -0.47257481327436679 0 0.44779318602395363 -0.46550469267136052 0 0.43264288253940292 -0.48275234633568048 0 0.44779318602395363 -0.46550469267136052 0 0.43264288253940292 -0.48275234633568048 0 0.5 -0.5 0 0.47532784176218862 -0.47257481327436679 0 0.49999999999999828 -0.44642064777577001 0 0.47532784176218862 -0.47257481327436679 0 0.47918453573141367 -0.4495963838019249 0 0.46294348950850428 -0.44825703900704061 0 0.47532784176218862 -0.47257481327436679 0 0.49999999999999828 -0.44642064777577001 0 0.47918453573141367 -0.4495963838019249 0 0.49999999999999828 -0.44642064777577001 0 0.47846681165496419 -0.4311330351505217 0 0.49999999999999828 -0.44642064777577001 0 0.47918453573141367 -0.4495963838019249 0 0.47846681165496419 -0.4311330351505217 0 0.47918453573141367 -0.4495963838019249 0 0.46294348950850428 -0.44825703900704061 0 0.47846681165496419 -0.4311330351505217 0 0.46294348950850428 -0.44825703900704061 0 0.44442683605218691 -0.44583817528272968 0 0.45721208074107311 -0.43281318479414382 0 0.46294348950850428 -0.44825703900704061 0 0.44779318602395363 -0.46550469267136052 0 0.47532784176218862 -0.47257481327436679 0 0.46294348950850428 -0.44825703900704061 0 0.44779318602395363 -0.46550469267136052 0 0.44779318602395363 -0.46550469267136052 0 0.44442683605218691 -0.44583817528272968 0 0.43057418754349119 -0.46211781715143319 0 0.46294348950850428 -0.44825703900704061 0 0.44779318602395363 -0.46550469267136052 0 0.44442683605218691 -0.44583817528272968 0 0.44442683605218691 -0.44583817528272968 0 0.44324354583686831 -0.42153379012121539 0 0.45721208074107311 -0.43281318479414382 0 0.44442683605218691 -0.44583817528272968 0 0.44324354583686831 -0.42153379012121539 0 0.42653452723640378 -0.44279137365393179 0 0.44324354583686831 -0.42153379012121539 0 0.45693362330993059 -0.41584542252527262 0 0.45721208074107311 -0.43281318479414382 0 0.45693362330993059 -0.41584542252527262 0 0.4354004349648965 -0.40055780990002432 0 0.44324354583686831 -0.42153379012121539 0 0.45693362330993059 -0.41584542252527262 0 0.4354004349648965 -0.40055780990002432 0 0.45693362330993059 -0.41584542252527262 0 0.46461049463358839 -0.41117161714406408 0 0.47846681165496419 -0.4311330351505217 0 0.45693362330993059 -0.41584542252527262 0 0.46461049463358839 -0.41117161714406408 0 0.45329728287846061 -0.39963099679296588 0 0.46294348950850428 -0.44825703900704061 0 0.45721208074107311 -0.43281318479414382 0 0.47846681165496419 -0.4311330351505217 0 0.45693362330993059 -0.41584542252527262 0 0.45721208074107311 -0.43281318479414382 0 0.47846681165496419 -0.4311330351505217 0 0.45693362330993059 -0.41584542252527262 0 0.47846681165496419 -0.4311330351505217 0 0.49999999999999828 -0.44642064777577001 0 0.47846681165496419 -0.4311330351505217 0 0.5 -0.42181653977348488 0 0.5 -0.42181653977348488 0 0.48394518954555588 -0.41195106762427058 0 0.49999999999999789 -0.3972124317711998 0 0.47846681165496419 -0.4311330351505217 0 0.5 -0.42181653977348488 0 0.48394518954555588 -0.41195106762427058 0 0.46461049463358839 -0.41117161714406408 0 0.47846681165496419 -0.4311330351505217 0 0.48394518954555588 -0.41195106762427058 0 0.46461049463358839 -0.41117161714406408 0 0.48394518954555588 -0.41195106762427058 0 0.47664864143922919 -0.39842171428208217 0 0.47664864143922919 -0.39842171428208217 0 0.47975395238035062 -0.3854291032725421 0 0.46812846895096999 -0.38912968091376021 0 0.47664864143922919 -0.39842171428208217 0 0.49999999999999789 -0.3972124317711998 0 0.48779058149940679 -0.38751051868815611 0 0.48394518954555588 -0.41195106762427058 0 0.47664864143922919 -0.39842171428208217 0 0.49999999999999789 -0.3972124317711998 0 0.47664864143922919 -0.39842171428208217 0 0.49999999999999789 -0.3972124317711998 0 0.5 -0.37037944899495368 0 0.49999999999999789 -0.3972124317711998 0 0.48779058149940679 -0.38751051868815611 0 0.5 -0.37037944899495368 0 0.48466784746851571 -0.3739080713738358 0 0.48779058149940679 -0.38751051868815611 0 0.48466784746851571 -0.3739080713738358 0 0.47975395238035062 -0.3854291032725421 0 0.47323517146124039 -0.38191256761527542 0 0.48466784746851571 -0.3739080713738358 0 0.48779058149940679 -0.38751051868815611 0 0.47975395238035062 -0.3854291032725421 0 0.47664864143922919 -0.39842171428208217 0 0.48779058149940679 -0.38751051868815611 0 0.47975395238035062 -0.3854291032725421 0 0.47975395238035062 -0.3854291032725421 0 0.47323517146124039 -0.38191256761527542 0 0.46812846895096999 -0.38912968091376021 0 0.46918642870160698 -0.38365020197922722 0 0.47323517146124039 -0.38191256761527542 0 0.46812846895096999 -0.38912968091376021 0 0.4671179630262795 -0.37324494563770522 0 0.46918642870160698 -0.38365020197922722 0 0.47323517146124039 -0.38191256761527542 0 0.45652460043480969 -0.37267172771365881 0 0.4671179630262795 -0.37324494563770522 0 0.46918642870160698 -0.38365020197922722 0 0.45652460043480969 -0.37267172771365881 0 0.46918642870160698 -0.38365020197922722 0 0.45652460043480969 -0.37267172771365881 0 0.45606522570456098 -0.38599652494351028 0 0.44783900322824399 -0.38008781189722518 0 0.45652460043480969 -0.37267172771365881 0 0.46918642870160698 -0.38365020197922722 0 0.45606522570456098 -0.38599652494351028 0 0.46918642870160698 -0.38365020197922722 0 0.45606522570456098 -0.38599652494351028 0 0.46812846895096999 -0.38912968091376021 0 0.46461049463358839 -0.41117161714406408 0 0.47664864143922919 -0.39842171428208217 0 0.45329728287846061 -0.39963099679296588 0 0.47664864143922919 -0.39842171428208217 0 0.45329728287846061 -0.39963099679296588 0 0.47664864143922919 -0.39842171428208217 0 0.46812846895096999 -0.38912968091376021 0 0.45329728287846061 -0.39963099679296588 0 0.46461049463358839 -0.41117161714406408 0 0.45329728287846061 -0.39963099679296588 0 0.45606522570456098 -0.38599652494351028 0 0.46812846895096999 -0.38912968091376021 0 0.45329728287846061 -0.39963099679296588 0 0.45693362330993059 -0.41584542252527262 0 0.45329728287846061 -0.39963099679296588 0 0.4354004349648965 -0.40055780990002432 0 0.45329728287846061 -0.39963099679296588 0 0.4354004349648965 -0.40055780990002432 0 0.45329728287846061 -0.39963099679296588 0 0.4390969294492823 -0.3851451998924304 0 0.4354004349648965 -0.40055780990002432 0 0.45329728287846061 -0.39963099679296588 0 0.4390969294492823 -0.3851451998924304 0 0.45606522570456098 -0.38599652494351028 0 0.4390969294492823 -0.3851451998924304 0 0.44783900322824399 -0.38008781189722518 0 0.45606522570456098 -0.38599652494351028 0 0.45329728287846061 -0.39963099679296588 0 0.4390969294492823 -0.3851451998924304 0 0.4390969294492823 -0.3851451998924304 0 0.43808065797110041 -0.37748478958974491 0 0.44783900322824399 -0.38008781189722518 0 0.42782015831496062 -0.38505662608606978 0 0.4354004349648965 -0.40055780990002432 0 0.41188669282555868 -0.38386409155992901 0 0.42489657602010461 -0.37065940299189432 0 0.4390969294492823 -0.3851451998924304 0 0.42782015831496062 -0.38505662608606978 0 0.42489657602010461 -0.37065940299189432 0 0.4390969294492823 -0.3851451998924304 0 0.43808065797110041 -0.37748478958974491 0 0.42489657602010461 -0.37065940299189432 0 0.4390969294492823 -0.3851451998924304 0 0.4390969294492823 -0.3851451998924304 0 0.42782015831496062 -0.38505662608606978 0 0.4354004349648965 -0.40055780990002432 0 0.4354004349648965 -0.40055780990002432 0 0.41188669282555868 -0.38386409155992901 0 0.4354004349648965 -0.40055780990002432 0 0.40669862042327182 -0.40204417319942209 0 0.4354004349648965 -0.40055780990002432 0 0.40669862042327182 -0.40204417319942209 0 0.41188669282555868 -0.38386409155992901 0 0.42489657602010461 -0.37065940299189432 0 0.42782015831496062 -0.38505662608606978 0 0.41188669282555868 -0.38386409155992901 0 0.42489657602010461 -0.37065940299189432 0 0.4070765621089808 -0.37107032214525337 0 0.41188669282555868 -0.38386409155992901 0 0.4070765621089808 -0.37107032214525337 0 0.39585190457779329 -0.37201308858561799 0 0.39886607975096749 -0.38470810625682389 0 0.40669862042327182 -0.40204417319942209 0 0.41188669282555868 -0.38386409155992901 0 0.39886607975096749 -0.38470810625682389 0 0.4070765621089808 -0.37107032214525337 0 0.41188669282555868 -0.38386409155992901 0 0.39886607975096749 -0.38470810625682389 0 0.39585190457779329 -0.37201308858561799 0 0.39886607975096749 -0.38470810625682389 0 0.38601585554704992 -0.38244526212700758 0 0.39886607975096749 -0.38470810625682389 0 0.38601585554704992 -0.38244526212700758 0 0.37799680588164719 -0.40353053649882148 0 0.38601585554704992 -0.38244526212700758 0 0.37799680588164719 -0.40353053649882148 0 0.38601585554704992 -0.38244526212700758 0 0.37799680588164719 -0.40353053649882148 0 0.36816388811638329 -0.39545065246060412 0 0.37799680588164719 -0.40353053649882148 0 0.37635446215448021 -0.40784891206015261 0 0.37799680588164719 -0.40353053649882148 0 0.37505152225636262 -0.40368306209891941 0 0.37635446215448021 -0.40784891206015261 0 0.37799680588164719 -0.40353053649882148 0 0.37505152225636262 -0.40368306209891941 0 0.40669862042327182 -0.40204417319942209 0 0.39886607975096749 -0.38470810625682389 0 0.37799680588164719 -0.40353053649882148 0 0.40669862042327182 -0.40204417319942209 0 0.37799680588164719 -0.40353053649882148 0 0.40669862042327182 -0.40204417319942209 0 0.38553791301154328 -0.41840677215457472 0 0.40567792500840172 -0.4277251834563135 0 0.40669862042327182 -0.40204417319942209 0 0.37799680588164719 -0.40353053649882148 0 0.38553791301154328 -0.41840677215457472 0 0.38553791301154328 -0.41840677215457472 0 0.36905142820508552 -0.42917232846767789 0 0.37241381966677689 -0.417360225696081 0 0.38553791301154328 -0.41840677215457472 0 0.37635446215448021 -0.40784891206015261 0 0.37241381966677689 -0.417360225696081 0 0.37799680588164719 -0.40353053649882148 0 0.38553791301154328 -0.41840677215457472 0 0.37635446215448021 -0.40784891206015261 0 0.38553791301154328 -0.41840677215457472 0 0.38807715457860831 -0.4388905332329941 0 0.36905142820508552 -0.42917232846767789 0 0.38553791301154328 -0.41840677215457472 0 0.40567792500840172 -0.4277251834563135 0 0.38807715457860831 -0.4388905332329941 0 0.40567792500840172 -0.4277251834563135 0 0.42351101069396863 -0.41893046606618117 0 0.42653452723640378 -0.44279137365393179 0 0.4354004349648965 -0.40055780990002432 0 0.40669862042327182 -0.40204417319942209 0 0.42351101069396863 -0.41893046606618117 0 0.40669862042327182 -0.40204417319942209 0 0.40567792500840172 -0.4277251834563135 0 0.42351101069396863 -0.41893046606618117 0 0.44324354583686831 -0.42153379012121539 0 0.4354004349648965 -0.40055780990002432 0 0.42351101069396863 -0.41893046606618117 0 0.44324354583686831 -0.42153379012121539 0 0.42653452723640378 -0.44279137365393179 0 0.44324354583686831 -0.42153379012121539 0 0.42351101069396863 -0.41893046606618117 0 0.42653452723640378 -0.44279137365393179 0 0.44442683605218691 -0.44583817528272968 0 0.42653452723640378 -0.44279137365393179 0 0.43057418754349119 -0.46211781715143319 0 0.42653452723640378 -0.44279137365393179 0 0.43057418754349119 -0.46211781715143319 0 0.40982550863593931 -0.46404895718664829 0 0.42653452723640378 -0.44279137365393179 0 0.40982550863593931 -0.46404895718664829 0 0.42653452723640378 -0.44279137365393179 0 0.40982550863593931 -0.46404895718664829 0 0.4036378289262339 -0.44671034290208689 0 0.40567792500840172 -0.4277251834563135 0 0.42653452723640378 -0.44279137365393179 0 0.4036378289262339 -0.44671034290208689 0 0.40567792500840172 -0.4277251834563135 0 0.4036378289262339 -0.44671034290208689 0 0.38807715457860831 -0.4388905332329941 0 0.4036378289262339 -0.44671034290208689 0 0.38807715457860831 -0.4388905332329941 0 0.38807402917181633 -0.46009566698054732 0 0.38807715457860831 -0.4388905332329941 0 0.3733961412993268 -0.45022493016754961 0 0.36905142820508552 -0.42917232846767789 0 0.38807715457860831 -0.4388905332329941 0 0.38807402917181633 -0.46009566698054732 0 0.3733961412993268 -0.45022493016754961 0 0.38807402917181633 -0.46009566698054732 0 0.36593927904035028 -0.47432204071884282 0 0.3733961412993268 -0.45022493016754961 0 0.40982550863593931 -0.46404895718664829 0 0.4036378289262339 -0.44671034290208689 0 0.38807402917181633 -0.46009566698054732 0 0.40982550863593931 -0.46404895718664829 0 0.39311649003547477 -0.48530654071936469 0 0.40982550863593931 -0.46404895718664829 0 0.38807402917181633 -0.46009566698054732 0 0.39311649003547477 -0.48530654071936469 0 0.38807402917181633 -0.46009566698054732 0 0.39311649003547477 -0.48530654071936469 0 0.36593927904035028 -0.47432204071884282 0 0.37603974257992701 -0.49999999999999978 0 0.39311649003547477 -0.48530654071936469 0 0.36593927904035028 -0.47432204071884282 0 0.37603974257992701 -0.49999999999999978 0 0.39676616081738958 -0.5 0 0.39311649003547477 -0.48530654071936469 0 0.39676616081738958 -0.5 0 0.39311649003547477 -0.48530654071936469 0 0.41749257905485199 -0.50000000000000033 0 0.40982550863593931 -0.46404895718664829 0 0.41749257905485199 -0.50000000000000033 0 0.43264288253940292 -0.48275234633568048 0 0.40982550863593931 -0.46404895718664829 0 0.39311649003547477 -0.48530654071936469 0 0.41749257905485199 -0.50000000000000033 0 0.43057418754349119 -0.46211781715143319 0 0.40982550863593931 -0.46404895718664829 0 0.43264288253940292 -0.48275234633568048 0 0.44779318602395363 -0.46550469267136052 0 0.43057418754349119 -0.46211781715143319 0 0.43264288253940292 -0.48275234633568048 0 0.41749257905485199 -0.50000000000000033 0 0.43264288253940292 -0.48275234633568048 0 0.32215468257820618 -0.5 0 0.33760568703239408 -0.47417818032706111 0 0.31005432530219129 -0.48106067464861729 0 0.33760568703239408 -0.47417818032706111 0 0.3189449745883719 -0.46117016543644002 0 0.31005432530219129 -0.48106067464861729 0 0.32215468257820618 -0.5 0 0.33760568703239408 -0.47417818032706111 0 0.34909721257906662 -0.5 0 0.37603974257992701 -0.49999999999999978 0 0.34909721257906662 -0.5 0 0.36593927904035028 -0.47432204071884282 0 0.37603974257992701 -0.49999999999999978 0 0.36593927904035028 -0.47432204071884282 0 0.33760568703239408 -0.47417818032706111 0 0.34909721257906662 -0.5 0 0.36593927904035028 -0.47432204071884282 0 0.33760568703239408 -0.47417818032706111 0 0.36593927904035028 -0.47432204071884282 0 0.35583881550077368 -0.44864408143768569 0 0.36593927904035028 -0.47432204071884282 0 0.35583881550077368 -0.44864408143768569 0 0.36593927904035028 -0.47432204071884282 0 0.3733961412993268 -0.45022493016754961 0 0.35583881550077368 -0.44864408143768569 0 0.3733961412993268 -0.45022493016754961 0 0.35583881550077368 -0.44864408143768569 0 0.36905142820508552 -0.42917232846767789 0 0.35583881550077368 -0.44864408143768569 0 0.33540415989768779 -0.44905252560006492 0 0.34573835196119679 -0.42296612215652868 0 0.33760568703239408 -0.47417818032706111 0 0.35583881550077368 -0.44864408143768569 0 0.33540415989768779 -0.44905252560006492 0 0.33760568703239408 -0.47417818032706111 0 0.33540415989768779 -0.44905252560006492 0 0.3189449745883719 -0.46117016543644002 0 0.33540415989768779 -0.44905252560006492 0 0.3189449745883719 -0.46117016543644002 0 0.32126124445813709 -0.43429719032362252 0 0.3189449745883719 -0.46117016543644002 0 0.32126124445813709 -0.43429719032362252 0 0.30480654487456732 -0.44641521679941309 0 0.32126124445813709 -0.43429719032362252 0 0.3193156137706864 -0.40941365839269389 0 0.29937418247959258 -0.41817563384508599 0 0.3193156137706864 -0.40941365839269389 0 0.34573835196119679 -0.42296612215652868 0 0.33563788842162012 -0.39728816287537172 0 0.34573835196119679 -0.42296612215652868 0 0.33563788842162012 -0.39728816287537172 0 0.33540415989768779 -0.44905252560006492 0 0.32126124445813709 -0.43429719032362252 0 0.34573835196119679 -0.42296612215652868 0 0.32126124445813709 -0.43429719032362252 0 0.3193156137706864 -0.40941365839269389 0 0.34573835196119679 -0.42296612215652868 0 0.35583881550077368 -0.44864408143768569 0 0.34573835196119679 -0.42296612215652868 0 0.36905142820508552 -0.42917232846767789 0 0.35583881550077368 -0.44864408143768569 0 0.34573835196119679 -0.42296612215652868 0 0.36905142820508552 -0.42917232846767789 0 0.37241381966677689 -0.417360225696081 0 0.36195200988480669 -0.41065981681110758 0 0.36990343230398692 -0.40830781576793279 0 0.37241381966677689 -0.417360225696081 0 0.36195200988480669 -0.41065981681110758 0 0.37635446215448021 -0.40784891206015261 0 0.36990343230398692 -0.40830781576793279 0 0.37241381966677689 -0.417360225696081 0 0.37505152225636262 -0.40368306209891941 0 0.37635446215448021 -0.40784891206015261 0 0.36990343230398692 -0.40830781576793279 0 0.36990343230398692 -0.40830781576793279 0 0.36195200988480669 -0.41065981681110758 0 0.36876771314038492 -0.40452533678464098 0 0.34573835196119679 -0.42296612215652868 0 0.36195200988480669 -0.41065981681110758 0 0.35211107663302149 -0.40015425695529971 0 0.34573835196119679 -0.42296612215652868 0 0.36905142820508552 -0.42917232846767789 0 0.36195200988480669 -0.41065981681110758 0 0.34573835196119679 -0.42296612215652868 0 0.35211107663302149 -0.40015425695529971 0 0.33563788842162012 -0.39728816287537172 0 0.35211107663302149 -0.40015425695529971 0 0.35352794608594401 -0.38791341326287138 0 0.33563788842162012 -0.39728816287537172 0 0.35211107663302149 -0.40015425695529971 0 0.36816388811638329 -0.39545065246060412 0 0.35352794608594401 -0.38791341326287138 0 0.36195200988480669 -0.41065981681110758 0 0.36816388811638329 -0.39545065246060412 0 0.36876771314038492 -0.40452533678464098 0 0.36195200988480669 -0.41065981681110758 0 0.35211107663302149 -0.40015425695529971 0 0.36816388811638329 -0.39545065246060412 0 0.37505152225636262 -0.40368306209891941 0 0.36816388811638329 -0.39545065246060412 0 0.36876771314038492 -0.40452533678464098 0 0.37799680588164719 -0.40353053649882148 0 0.37505152225636262 -0.40368306209891941 0 0.36816388811638329 -0.39545065246060412 0 0.37505152225636262 -0.40368306209891941 0 0.36990343230398692 -0.40830781576793279 0 0.36876771314038492 -0.40452533678464098 0 0.38601585554704992 -0.38244526212700758 0 0.36816388811638329 -0.39545065246060412 0 0.3689120952668708 -0.37284951495870189 0 0.36816388811638329 -0.39545065246060412 0 0.35352794608594401 -0.38791341326287138 0 0.3689120952668708 -0.37284951495870189 0 0.35352794608594401 -0.38791341326287138 0 0.33563788842162012 -0.39728816287537172 0 0.34467783115022588 -0.37252705130409253 0 0.35352794608594401 -0.38791341326287138 0 0.3689120952668708 -0.37284951495870189 0 0.34467783115022588 -0.37252705130409253 0 0.33563788842162012 -0.39728816287537172 0 0.3255374248820434 -0.37161020359421471 0 0.33563788842162012 -0.39728816287537172 0 0.34467783115022588 -0.37252705130409253 0 0.3255374248820434 -0.37161020359421471 0 0.3193156137706864 -0.40941365839269389 0 0.33563788842162012 -0.39728816287537172 0 0.30534853388527528 -0.38930881101125692 0 0.33563788842162012 -0.39728816287537172 0 0.30534853388527528 -0.38930881101125692 0 0.3255374248820434 -0.37161020359421471 0 0.30534853388527528 -0.38930881101125692 0 0.3255374248820434 -0.37161020359421471 0 0.30525369772634148 -0.37164386163485291 0 0.30534853388527528 -0.38930881101125692 0 0.28783989868818821 -0.37644057584389279 0 0.30525369772634148 -0.37164386163485291 0 0.3193156137706864 -0.40941365839269389 0 0.30534853388527528 -0.38930881101125692 0 0.29937418247959258 -0.41817563384508599 0 0.30534853388527528 -0.38930881101125692 0 0.28922044672054198 -0.39637746652331562 0 0.29937418247959258 -0.41817563384508599 0 0.28922044672054198 -0.39637746652331562 0 0.27510086349567708 -0.39798721671617321 0 0.28320928432356041 -0.41012407252970262 0 0.28922044672054198 -0.39637746652331562 0 0.28783989868818821 -0.37644057584389279 0 0.27924907625512951 -0.38731579260330862 0 0.30534853388527528 -0.38930881101125692 0 0.28922044672054198 -0.39637746652331562 0 0.28783989868818821 -0.37644057584389279 0 0.30534853388527528 -0.38930881101125692 0 0.28783989868818821 -0.37644057584389279 0 0.28783989868818821 -0.37644057584389279 0 0.27447250226623809 -0.37821124143188289 0 0.27924907625512951 -0.38731579260330862 0 0.27447250226623809 -0.37821124143188289 0 0.27924907625512951 -0.38731579260330862 0 0.26961167010500181 -0.38756246250127813 0 0.27447250226623809 -0.37821124143188289 0 0.26961167010500181 -0.38756246250127813 0 0.26423397132697279 -0.37890457124200982 0 0.26961167010500181 -0.38756246250127813 0 0.26423397132697279 -0.37890457124200982 0 0.25687819372407023 -0.38903915957053298 0 0.26423397132697279 -0.37890457124200982 0 0.25687819372407023 -0.38903915957053298 0 0.24987622704845311 -0.37613765202982719 0 0.25108303853213881 -0.40002667887407228 0 0.26390234922262928 -0.39930308446362528 0 0.256136481120742 -0.41447562176841068 0 0.25687819372407023 -0.38903915957053298 0 0.25108303853213881 -0.40002667887407228 0 0.24309899287842279 -0.39271330151873202 0 0.25687819372407023 -0.38903915957053298 0 0.25108303853213881 -0.40002667887407228 0 0.26390234922262928 -0.39930308446362528 0 0.26961167010500181 -0.38756246250127813 0 0.25687819372407023 -0.38903915957053298 0 0.26390234922262928 -0.39930308446362528 0 0.26390234922262928 -0.39930308446362528 0 0.27510086349567708 -0.39798721671617321 0 0.2708804648698091 -0.41009655218672442 0 0.26961167010500181 -0.38756246250127813 0 0.26390234922262928 -0.39930308446362528 0 0.27510086349567708 -0.39798721671617321 0 0.28922044672054198 -0.39637746652331562 0 0.27924907625512951 -0.38731579260330862 0 0.27510086349567708 -0.39798721671617321 0 0.27924907625512951 -0.38731579260330862 0 0.26961167010500181 -0.38756246250127813 0 0.27510086349567708 -0.39798721671617321 0 0.27510086349567708 -0.39798721671617321 0 0.2708804648698091 -0.41009655218672442 0 0.28320928432356041 -0.41012407252970262 0 0.2708804648698091 -0.41009655218672442 0 0.256136481120742 -0.41447562176841068 0 0.27433621812851161 -0.42550461519375637 0 0.2708804648698091 -0.41009655218672442 0 0.27433621812851161 -0.42550461519375637 0 0.28320928432356041 -0.41012407252970262 0 0.26390234922262928 -0.39930308446362528 0 0.2708804648698091 -0.41009655218672442 0 0.256136481120742 -0.41447562176841068 0 0.25108303853213881 -0.40002667887407228 0 0.256136481120742 -0.41447562176841068 0 0.24629253832767661 -0.41022035877505542 0 0.256136481120742 -0.41447562176841068 0 0.25513396950241118 -0.43290986753561628 0 0.2453827316299185 -0.42192330194190181 0 0.256136481120742 -0.41447562176841068 0 0.25513396950241118 -0.43290986753561628 0 0.27433621812851161 -0.42550461519375637 0 0.25513396950241118 -0.43290986753561628 0 0.27433621812851161 -0.42550461519375637 0 0.26752346795397081 -0.44788636482661331 0 0.27433621812851161 -0.42550461519375637 0 0.29937418247959258 -0.41817563384508599 0 0.28546596250580908 -0.44246723239800262 0 0.29937418247959258 -0.41817563384508599 0 0.30480654487456732 -0.44641521679941309 0 0.28546596250580908 -0.44246723239800262 0 0.28922044672054198 -0.39637746652331562 0 0.28320928432356041 -0.41012407252970262 0 0.29937418247959258 -0.41817563384508599 0 0.27433621812851161 -0.42550461519375637 0 0.28320928432356041 -0.41012407252970262 0 0.29937418247959258 -0.41817563384508599 0 0.32126124445813709 -0.43429719032362252 0 0.29937418247959258 -0.41817563384508599 0 0.30480654487456732 -0.44641521679941309 0 0.3189449745883719 -0.46117016543644002 0 0.30480654487456732 -0.44641521679941309 0 0.28880919487484108 -0.4658549053918814 0 0.30480654487456732 -0.44641521679941309 0 0.28880919487484108 -0.4658549053918814 0 0.28546596250580908 -0.44246723239800262 0 0.27433621812851161 -0.42550461519375637 0 0.28546596250580908 -0.44246723239800262 0 0.26752346795397081 -0.44788636482661331 0 0.28880919487484108 -0.4658549053918814 0 0.28546596250580908 -0.44246723239800262 0 0.26752346795397081 -0.44788636482661331 0 0.25513396950241118 -0.43290986753561628 0 0.26752346795397081 -0.44788636482661331 0 0.24480843210435321 -0.45079661158300749 0 0.26752346795397081 -0.44788636482661331 0 0.2588368117714554 -0.46700690363883102 0 0.24480843210435321 -0.45079661158300749 0 0.28880919487484108 -0.4658549053918814 0 0.26752346795397081 -0.44788636482661331 0 0.2588368117714554 -0.46700690363883102 0 0.28880919487484108 -0.4658549053918814 0 0.2588368117714554 -0.46700690363883102 0 0.27227655507569209 -0.48076744006000099 0 0.2588368117714554 -0.46700690363883102 0 0.27227655507569209 -0.48076744006000099 0 0.25270961841775552 -0.48460016746525392 0 0.2588368117714554 -0.46700690363883102 0 0.25270961841775552 -0.48460016746525392 0 0.23949561189523169 -0.47426551941090739 0 0.25270961841775552 -0.48460016746525392 0 0.26826962257648529 -0.5 0 0.2413270925756249 -0.5 0 0.27227655507569209 -0.48076744006000099 0 0.25270961841775552 -0.48460016746525392 0 0.26826962257648529 -0.5 0 0.27227655507569209 -0.48076744006000099 0 0.26826962257648529 -0.5 0 0.29521215257734579 -0.5 0 0.28880919487484108 -0.4658549053918814 0 0.27227655507569209 -0.48076744006000099 0 0.29521215257734579 -0.5 0 0.28880919487484108 -0.4658549053918814 0 0.29521215257734579 -0.5 0 0.31005432530219129 -0.48106067464861729 0 0.3189449745883719 -0.46117016543644002 0 0.28880919487484108 -0.4658549053918814 0 0.31005432530219129 -0.48106067464861729 0 0.32215468257820618 -0.5 0 0.29521215257734579 -0.5 0 0.31005432530219129 -0.48106067464861729 0 0.33463237856908817 -0.28956894479377399 0 0.33485830675890288 -0.30442904333306592 0 0.35657459314761941 -0.2860097891906741 0 0.33463237856908817 -0.28956894479377399 0 0.32894302133540282 -0.28710755170783531 0 0.35195887039823659 -0.28200771363307098 0 0.32894302133540282 -0.28710755170783531 0 0.35195887039823659 -0.28200771363307098 0 0.32894302133540282 -0.28710755170783531 0 0.33255663915089151 -0.29722249741805129 0 0.33463237856908817 -0.28956894479377399 0 0.32894302133540282 -0.28710755170783531 0 0.33255663915089151 -0.29722249741805129 0 0.32894302133540282 -0.28710755170783531 0 0.33255663915089151 -0.29722249741805129 0 0.32301709761150521 -0.2972128627914089 0 0.33485830675890288 -0.30442904333306592 0 0.34824447571033601 -0.30253517369681238 0 0.34533870308018377 -0.31598934501886372 0 0.33485830675890288 -0.30442904333306592 0 0.33255663915089151 -0.29722249741805129 0 0.32434770264142349 -0.30499280498860082 0 0.33463237856908817 -0.28956894479377399 0 0.33485830675890288 -0.30442904333306592 0 0.33255663915089151 -0.29722249741805129 0 0.32301709761150521 -0.2972128627914089 0 0.32434770264142349 -0.30499280498860082 0 0.3171485971304504 -0.30589952111326829 0 0.32434770264142349 -0.30499280498860082 0 0.3171485971304504 -0.30589952111326829 0 0.31314202037018413 -0.32284829747545468 0 0.33485830675890288 -0.30442904333306592 0 0.32434770264142349 -0.30499280498860082 0 0.31314202037018413 -0.32284829747545468 0 0.33255663915089151 -0.29722249741805129 0 0.32301709761150521 -0.2972128627914089 0 0.32434770264142349 -0.30499280498860082 0 0.3171485971304504 -0.30589952111326829 0 0.31208952779935789 -0.2908419387292881 0 0.30833746379913463 -0.30503745501229762 0 0.32301709761150521 -0.2972128627914089 0 0.3171485971304504 -0.30589952111326829 0 0.31208952779935789 -0.2908419387292881 0 0.32894302133540282 -0.28710755170783531 0 0.31611371382327402 -0.28007222207304999 0 0.31208952779935789 -0.2908419387292881 0 0.32894302133540282 -0.28710755170783531 0 0.32301709761150521 -0.2972128627914089 0 0.31208952779935789 -0.2908419387292881 0 0.32894302133540282 -0.28710755170783531 0 0.31208952779935789 -0.2908419387292881 0 0.32894302133540282 -0.28710755170783531 0 0.32245882367699719 -0.26895751187574157 0 0.32894302133540282 -0.28710755170783531 0 0.31611371382327402 -0.28007222207304999 0 0.32245882367699719 -0.26895751187574157 0 0.31611371382327402 -0.28007222207304999 0 0.32245882367699719 -0.26895751187574157 0 0.30706455279928557 -0.27339796693147528 0 0.32245882367699719 -0.26895751187574157 0 0.30981211567343969 -0.26250129009931661 0 0.30706455279928557 -0.27339796693147528 0 0.32245882367699719 -0.26895751187574157 0 0.31597462601859122 -0.25080747204364812 0 0.32245882367699719 -0.26895751187574157 0 0.31597462601859122 -0.25080747204364812 0 0.30981211567343969 -0.26250129009931661 0 0.32245882367699719 -0.26895751187574157 0 0.31597462601859122 -0.25080747204364812 0 0.33396674820841349 -0.26640759283836002 0 0.31597462601859122 -0.25080747204364812 0 0.33396674820841349 -0.26640759283836002 0 0.33517615116993849 -0.24743488902137309 0 0.33396674820841349 -0.26640759283836002 0 0.35185333732921159 -0.25428502110151557 0 0.33517615116993849 -0.24743488902137309 0 0.31597462601859122 -0.25080747204364812 0 0.33396674820841349 -0.26640759283836002 0 0.32894302133540282 -0.28710755170783531 0 0.32245882367699719 -0.26895751187574157 0 0.33396674820841349 -0.26640759283836002 0 0.33396674820841349 -0.26640759283836002 0 0.35195887039823659 -0.28200771363307098 0 0.32894302133540282 -0.28710755170783531 0 0.33396674820841349 -0.26640759283836002 0 0.35195887039823659 -0.28200771363307098 0 0.33396674820841349 -0.26640759283836002 0 0.35159414215374007 -0.26901089914998932 0 0.35195887039823659 -0.28200771363307098 0 0.35159414215374007 -0.26901089914998932 0 0.36459381448795669 -0.2792080702757721 0 0.35195887039823659 -0.28200771363307098 0 0.36459381448795669 -0.2792080702757721 0 0.35195887039823659 -0.28200771363307098 0 0.33396674820841349 -0.26640759283836002 0 0.35159414215374007 -0.26901089914998932 0 0.35185333732921159 -0.25428502110151557 0 0.35159414215374007 -0.26901089914998932 0 0.35185333732921159 -0.25428502110151557 0 0.36435388824524378 -0.26651308148643732 0 0.37477580018058132 -0.24095111383496479 0 0.37683953433427181 -0.26882153263446662 0 0.36563983252638571 -0.25462703483095822 0 0.36075586336603621 -0.2426037127049111 0 0.35185333732921159 -0.25428502110151557 0 0.36563983252638571 -0.25462703483095822 0 0.35185333732921159 -0.25428502110151557 0 0.36563983252638571 -0.25462703483095822 0 0.36435388824524378 -0.26651308148643732 0 0.37683953433427181 -0.26882153263446662 0 0.36563983252638571 -0.25462703483095822 0 0.36435388824524378 -0.26651308148643732 0 0.36459381448795669 -0.2792080702757721 0 0.36308990924476459 -0.28048364807874221 0 0.35195887039823659 -0.28200771363307098 0 0.36459381448795669 -0.2792080702757721 0 0.36308990924476459 -0.28048364807874221 0 0.37273728942595791 -0.27740364396778311 0 0.36459381448795669 -0.2792080702757721 0 0.36308990924476459 -0.28048364807874221 0 0.35159414215374007 -0.26901089914998932 0 0.36459381448795669 -0.2792080702757721 0 0.36435388824524378 -0.26651308148643732 0 0.37683953433427181 -0.26882153263446662 0 0.36459381448795669 -0.2792080702757721 0 0.36435388824524378 -0.26651308148643732 0 0.36459381448795669 -0.2792080702757721 0 0.37273728942595791 -0.27740364396778311 0 0.37683953433427181 -0.26882153263446662 0 0.36459381448795669 -0.2792080702757721 0 0.37273728942595791 -0.27740364396778311 0 0.37683953433427181 -0.26882153263446662 0 0.36459381448795669 -0.2792080702757721 0 0.36308990924476459 -0.28048364807874221 0 0.37273728942595791 -0.27740364396778311 0 0.37795999762798671 -0.28395322059410122 0 0.37273728942595791 -0.27740364396778311 0 0.36936745264149701 -0.28627283508716472 0 0.35657459314761941 -0.2860097891906741 0 0.35620629985463748 -0.30371251724464648 0 0.37101427446782781 -0.29852975601036341 0 0.36308990924476459 -0.28048364807874221 0 0.37273728942595791 -0.27740364396778311 0 0.36936745264149701 -0.28627283508716472 0 0.37519981906117678 -0.29055939022370142 0 0.37795999762798671 -0.28395322059410122 0 0.36936745264149701 -0.28627283508716472 0 0.37519981906117678 -0.29055939022370142 0 0.36936745264149701 -0.28627283508716472 0 0.37101427446782781 -0.29852975601036341 0 0.36936745264149701 -0.28627283508716472 0 0.35657459314761941 -0.2860097891906741 0 0.37101427446782781 -0.29852975601036341 0 0.35657459314761941 -0.2860097891906741 0 0.37101427446782781 -0.29852975601036341 0 0.36308990924476459 -0.28048364807874221 0 0.36936745264149701 -0.28627283508716472 0 0.35657459314761941 -0.2860097891906741 0 0.36308990924476459 -0.28048364807874221 0 0.35657459314761941 -0.2860097891906741 0 0.36308990924476459 -0.28048364807874221 0 0.35366972758071469 -0.28349111722646431 0 0.33463237856908817 -0.28956894479377399 0 0.35366972758071469 -0.28349111722646431 0 0.33463237856908817 -0.28956894479377399 0 0.35366972758071469 -0.28349111722646431 0 0.35195887039823659 -0.28200771363307098 0 0.36308990924476459 -0.28048364807874221 0 0.35366972758071469 -0.28349111722646431 0 0.35195887039823659 -0.28200771363307098 0 0.33485830675890288 -0.30442904333306592 0 0.35657459314761941 -0.2860097891906741 0 0.36308990924476459 -0.28048364807874221 0 0.35366972758071469 -0.28349111722646431 0 0.35657459314761941 -0.2860097891906741 0 0.33463237856908817 -0.28956894479377399 0 0.35366972758071469 -0.28349111722646431 0 0.35657459314761941 -0.2860097891906741 0 0.35366972758071469 -0.28349111722646431 0 0.35657459314761941 -0.2860097891906741 0 0.35366972758071469 -0.28349111722646431 0 0.35195887039823659 -0.28200771363307098 0 0.35620629985463748 -0.30371251724464648 0 0.36380134767337091 -0.31365371592763602 0 0.34533870308018377 -0.31598934501886372 0 0.35657459314761941 -0.2860097891906741 0 0.34824447571033601 -0.30253517369681238 0 0.35620629985463748 -0.30371251724464648 0 0.33485830675890288 -0.30442904333306592 0 0.35657459314761941 -0.2860097891906741 0 0.34824447571033601 -0.30253517369681238 0 0.34824447571033601 -0.30253517369681238 0 0.35620629985463748 -0.30371251724464648 0 0.34533870308018377 -0.31598934501886372 0 0.38545395578803499 -0.31104972283005378 0 0.37101427446782781 -0.29852975601036341 0 0.36380134767337091 -0.31365371592763602 0 0.35620629985463748 -0.30371251724464648 0 0.37101427446782781 -0.29852975601036341 0 0.36380134767337091 -0.31365371592763602 0 0.38545395578803499 -0.31104972283005378 0 0.36380134767337091 -0.31365371592763602 0 0.36945761595668469 -0.32738841673247931 0 0.36380134767337091 -0.31365371592763602 0 0.36945761595668469 -0.32738841673247931 0 0.35533723689285712 -0.32525253772940937 0 0.36945761595668469 -0.32738841673247931 0 0.35618710249729552 -0.34088690244721892 0 0.35533723689285712 -0.32525253772940937 0 0.36945761595668469 -0.32738841673247931 0 0.35618710249729552 -0.34088690244721892 0 0.37368731816096312 -0.34897020548070451 0 0.35618710249729552 -0.34088690244721892 0 0.33810128782584858 -0.35072533414536311 0 0.34064131712366241 -0.33181983138849169 0 0.35618710249729552 -0.34088690244721892 0 0.35533723689285712 -0.32525253772940937 0 0.34064131712366241 -0.33181983138849169 0 0.34533870308018377 -0.31598934501886372 0 0.35533723689285712 -0.32525253772940937 0 0.34064131712366241 -0.33181983138849169 0 0.36380134767337091 -0.31365371592763602 0 0.34533870308018377 -0.31598934501886372 0 0.35533723689285712 -0.32525253772940937 0 0.3689120952668708 -0.37284951495870189 0 0.37368731816096312 -0.34897020548070451 0 0.35738528973841999 -0.35772904562383351 0 0.35618710249729552 -0.34088690244721892 0 0.37368731816096312 -0.34897020548070451 0 0.35738528973841999 -0.35772904562383351 0 0.35618710249729552 -0.34088690244721892 0 0.35738528973841999 -0.35772904562383351 0 0.33810128782584858 -0.35072533414536311 0 0.35738528973841999 -0.35772904562383351 0 0.34467783115022588 -0.37252705130409253 0 0.33810128782584858 -0.35072533414536311 0 0.3689120952668708 -0.37284951495870189 0 0.35738528973841999 -0.35772904562383351 0 0.34467783115022588 -0.37252705130409253 0 0.34467783115022588 -0.37252705130409253 0 0.33810128782584858 -0.35072533414536311 0 0.3255374248820434 -0.37161020359421471 0 0.31543696134246668 -0.34593224431305769 0 0.3255374248820434 -0.37161020359421471 0 0.30900602422585888 -0.35865430802761772 0 0.31543696134246668 -0.34593224431305769 0 0.3255374248820434 -0.37161020359421471 0 0.33810128782584858 -0.35072533414536311 0 0.31543696134246668 -0.34593224431305769 0 0.3255374248820434 -0.37161020359421471 0 0.3255374248820434 -0.37161020359421471 0 0.30525369772634148 -0.37164386163485291 0 0.30900602422585888 -0.35865430802761772 0 0.34533870308018377 -0.31598934501886372 0 0.33130220335757699 -0.32186248444176119 0 0.34064131712366241 -0.33181983138849169 0 0.33485830675890288 -0.30442904333306592 0 0.34533870308018377 -0.31598934501886372 0 0.33130220335757699 -0.32186248444176119 0 0.33810128782584858 -0.35072533414536311 0 0.34064131712366241 -0.33181983138849169 0 0.3268430880468266 -0.33457206034663262 0 0.33130220335757699 -0.32186248444176119 0 0.34064131712366241 -0.33181983138849169 0 0.3268430880468266 -0.33457206034663262 0 0.31543696134246668 -0.34593224431305769 0 0.3268430880468266 -0.33457206034663262 0 0.31314202037018413 -0.32284829747545468 0 0.33810128782584858 -0.35072533414536311 0 0.31543696134246668 -0.34593224431305769 0 0.3268430880468266 -0.33457206034663262 0 0.33130220335757699 -0.32186248444176119 0 0.3268430880468266 -0.33457206034663262 0 0.31314202037018413 -0.32284829747545468 0 0.33485830675890288 -0.30442904333306592 0 0.31314202037018413 -0.32284829747545468 0 0.3171485971304504 -0.30589952111326829 0 0.31314202037018413 -0.32284829747545468 0 0.3109911447756647 -0.31350988965823029 0 0.33485830675890288 -0.30442904333306592 0 0.33130220335757699 -0.32186248444176119 0 0.31314202037018413 -0.32284829747545468 0 0.31314202037018413 -0.32284829747545468 0 0.30533649780288991 -0.32025428503190068 0 0.3109911447756647 -0.31350988965823029 0 0.30533649780288991 -0.32025428503190068 0 0.3109911447756647 -0.31350988965823029 0 0.30833746379913463 -0.30503745501229762 0 0.31543696134246668 -0.34593224431305769 0 0.30533649780288991 -0.32025428503190068 0 0.30314188851555429 -0.3464145030398364 0 0.30533649780288991 -0.32025428503190068 0 0.29792146783109758 -0.32077626486014349 0 0.30314188851555429 -0.3464145030398364 0 0.31543696134246668 -0.34593224431305769 0 0.31314202037018413 -0.32284829747545468 0 0.30533649780288991 -0.32025428503190068 0 0.29792146783109758 -0.32077626486014349 0 0.30314188851555429 -0.3464145030398364 0 0.31543696134246668 -0.34593224431305769 0 0.30533649780288991 -0.32025428503190068 0 0.29792146783109758 -0.32077626486014349 0 0.29422135484035322 -0.33366994296298719 0 0.30314188851555429 -0.3464145030398364 0 0.29422135484035322 -0.33366994296298719 0 0.29546103181119637 -0.34185893253319311 0 0.30314188851555429 -0.3464145030398364 0 0.29422135484035322 -0.33366994296298719 0 0.29546103181119637 -0.34185893253319311 0 0.28827175492889229 -0.34275780055790278 0 0.29546103181119637 -0.34185893253319311 0 0.28827175492889229 -0.34275780055790278 0 0.29811044553331972 -0.34650788457159087 0 0.29422135484035322 -0.33366994296298719 0 0.28827175492889229 -0.34275780055790278 0 0.27955848846152698 -0.33666113426449551 0 0.29422135484035322 -0.33366994296298719 0 0.28744860979629389 -0.32474860906702402 0 0.27955848846152698 -0.33666113426449551 0 0.28744860979629389 -0.32474860906702402 0 0.29019889155513462 -0.31620785207956748 0 0.28097437988070417 -0.31138482246715898 0 0.29792146783109758 -0.32077626486014349 0 0.29019889155513462 -0.31620785207956748 0 0.29244758100571983 -0.32385066724243061 0 0.29422135484035322 -0.33366994296298719 0 0.28744860979629389 -0.32474860906702402 0 0.29244758100571983 -0.32385066724243061 0 0.29792146783109758 -0.32077626486014349 0 0.29422135484035322 -0.33366994296298719 0 0.29244758100571983 -0.32385066724243061 0 0.28744860979629389 -0.32474860906702402 0 0.29019889155513462 -0.31620785207956748 0 0.29244758100571983 -0.32385066724243061 0 0.30525369772634148 -0.37164386163485291 0 0.30031449930387721 -0.36082981960256849 0 0.30900602422585888 -0.35865430802761772 0 0.30525369772634148 -0.37164386163485291 0 0.30031449930387721 -0.36082981960256849 0 0.29483415024835152 -0.36747827247447862 0 0.30080593951138668 -0.35381036279877531 0 0.30900602422585888 -0.35865430802761772 0 0.30314188851555429 -0.3464145030398364 0 0.30080593951138668 -0.35381036279877531 0 0.29811044553331972 -0.34650788457159087 0 0.29345683997832372 -0.35664529875226292 0 0.30031449930387721 -0.36082981960256849 0 0.30080593951138668 -0.35381036279877531 0 0.30900602422585888 -0.35865430802761772 0 0.30031449930387721 -0.36082981960256849 0 0.30080593951138668 -0.35381036279877531 0 0.29345683997832372 -0.35664529875226292 0 0.31543696134246668 -0.34593224431305769 0 0.30900602422585888 -0.35865430802761772 0 0.30314188851555429 -0.3464145030398364 0 0.30080593951138668 -0.35381036279877531 0 0.30314188851555429 -0.3464145030398364 0 0.29811044553331972 -0.34650788457159087 0 0.29546103181119637 -0.34185893253319311 0 0.30314188851555429 -0.3464145030398364 0 0.29811044553331972 -0.34650788457159087 0 0.29811044553331972 -0.34650788457159087 0 0.29345683997832372 -0.35664529875226292 0 0.28122462644821988 -0.35688066365974619 0 0.28827175492889229 -0.34275780055790278 0 0.29811044553331972 -0.34650788457159087 0 0.28122462644821988 -0.35688066365974619 0 0.28827175492889229 -0.34275780055790278 0 0.28122462644821988 -0.35688066365974619 0 0.27955848846152698 -0.33666113426449551 0 0.29811044553331972 -0.34650788457159087 0 0.28122462644821988 -0.35688066365974619 0 0.29345683997832372 -0.35664529875226292 0 0.28676543400443838 -0.36101512068260139 0 0.28122462644821988 -0.35688066365974619 0 0.28676543400443838 -0.36101512068260139 0 0.28122462644821988 -0.35688066365974619 0 0.28783989868818821 -0.37644057584389279 0 0.30525369772634148 -0.37164386163485291 0 0.29483415024835152 -0.36747827247447862 0 0.28783989868818821 -0.37644057584389279 0 0.28676543400443838 -0.36101512068260139 0 0.27033126349110148 -0.36357234067652822 0 0.29357505063040601 -0.36145191270551408 0 0.28676543400443838 -0.36101512068260139 0 0.29483415024835152 -0.36747827247447862 0 0.30031449930387721 -0.36082981960256849 0 0.29357505063040601 -0.36145191270551408 0 0.29483415024835152 -0.36747827247447862 0 0.30031449930387721 -0.36082981960256849 0 0.29345683997832372 -0.35664529875226292 0 0.29357505063040601 -0.36145191270551408 0 0.29345683997832372 -0.35664529875226292 0 0.29357505063040601 -0.36145191270551408 0 0.28676543400443838 -0.36101512068260139 0 0.28783989868818821 -0.37644057584389279 0 0.28676543400443838 -0.36101512068260139 0 0.29483415024835152 -0.36747827247447862 0 0.28783989868818821 -0.37644057584389279 0 0.27033126349110148 -0.36357234067652822 0 0.28783989868818821 -0.37644057584389279 0 0.27447250226623809 -0.37821124143188289 0 0.27033126349110148 -0.36357234067652822 0 0.28676543400443838 -0.36101512068260139 0 0.27033126349110148 -0.36357234067652822 0 0.28122462644821988 -0.35688066365974619 0 0.27447250226623809 -0.37821124143188289 0 0.26423397132697279 -0.37890457124200982 0 0.27033126349110148 -0.36357234067652822 0 0.27033126349110148 -0.36357234067652822 0 0.28122462644821988 -0.35688066365974619 0 0.28122462644821988 -0.35688066365974619 0 0.26082083375001269 -0.34165569813656432 0 0.27033126349110148 -0.36357234067652822 0 0.28122462644821988 -0.35688066365974619 0 0.26082083375001269 -0.34165569813656432 0 0.28122462644821988 -0.35688066365974619 0 0.27955848846152698 -0.33666113426449551 0 0.26082083375001269 -0.34165569813656432 0 0.27033126349110148 -0.36357234067652822 0 0.25099839141978419 -0.34936335514031408 0 0.27033126349110148 -0.36357234067652822 0 0.25099839141978419 -0.34936335514031408 0 0.26082083375001269 -0.34165569813656432 0 0.27033126349110148 -0.36357234067652822 0 0.25099839141978419 -0.34936335514031408 0 0.24534349961555019 -0.36253701182870851 0 0.26423397132697279 -0.37890457124200982 0 0.27033126349110148 -0.36357234067652822 0 0.24987622704845311 -0.37613765202982719 0 0.27033126349110148 -0.36357234067652822 0 0.24534349961555019 -0.36253701182870851 0 0.24987622704845311 -0.37613765202982719 0 0.27033126349110148 -0.36357234067652822 0 0.24987622704845311 -0.37613765202982719 0 0.28744860979629389 -0.32474860906702402 0 0.26598899428458778 -0.32103793389256657 0 0.27955848846152698 -0.33666113426449551 0 0.28744860979629389 -0.32474860906702402 0 0.26598899428458778 -0.32103793389256657 0 0.28097437988070417 -0.31138482246715898 0 0.26598899428458778 -0.32103793389256657 0 0.27955848846152698 -0.33666113426449551 0 0.26082083375001269 -0.34165569813656432 0 0.26082083375001269 -0.34165569813656432 0 0.2404170410518052 -0.32643073261338312 0 0.26598899428458778 -0.32103793389256657 0 0.26082083375001269 -0.34165569813656432 0 0.2404170410518052 -0.32643073261338312 0 0.25099839141978419 -0.34936335514031408 0 0.26082083375001269 -0.34165569813656432 0 0.2404170410518052 -0.32643073261338312 0 0.26598899428458778 -0.32103793389256657 0 0.24423538898563429 -0.30587701823941071 0 0.2404170410518052 -0.32643073261338312 0 0.26846821806613752 -0.30050752245993012 0 0.24423538898563429 -0.30587701823941071 0 0.25301376652256202 -0.2892367573709661 0 0.26846821806613752 -0.30050752245993012 0 0.24423538898563429 -0.30587701823941071 0 0.26598899428458778 -0.32103793389256657 0 0.26846821806613752 -0.30050752245993012 0 0.24423538898563429 -0.30587701823941071 0 0.25301376652256202 -0.2892367573709661 0 0.26500420865911251 -0.28331687632378699 0 0.26846821806613752 -0.30050752245993012 0 0.25301376652256202 -0.2892367573709661 0 0.26500420865911251 -0.28331687632378699 0 0.2507153324002197 -0.27704953531328702 0 0.26500420865911251 -0.28331687632378699 0 0.27805302037335089 -0.28584974436810762 0 0.26846821806613752 -0.30050752245993012 0 0.27805302037335089 -0.28584974436810762 0 0.26846821806613752 -0.30050752245993012 0 0.29270104714664102 -0.29513802668045069 0 0.26500420865911251 -0.28331687632378699 0 0.27805302037335089 -0.28584974436810762 0 0.27342558025451552 -0.27498979272208851 0 0.26598899428458778 -0.32103793389256657 0 0.26846821806613752 -0.30050752245993012 0 0.28097437988070417 -0.31138482246715898 0 0.26846821806613752 -0.30050752245993012 0 0.28097437988070417 -0.31138482246715898 0 0.29270104714664102 -0.29513802668045069 0 0.26846821806613752 -0.30050752245993012 0 0.29270104714664102 -0.29513802668045069 0 0.29792146783109758 -0.32077626486014349 0 0.29270104714664102 -0.29513802668045069 0 0.29019889155513462 -0.31620785207956748 0 0.28097437988070417 -0.31138482246715898 0 0.29270104714664102 -0.29513802668045069 0 0.29792146783109758 -0.32077626486014349 0 0.29019889155513462 -0.31620785207956748 0 0.29270104714664102 -0.29513802668045069 0 0.29792146783109758 -0.32077626486014349 0 0.29270104714664102 -0.29513802668045069 0 0.29523603426331357 -0.29457632575074338 0 0.27805302037335089 -0.28584974436810762 0 0.29026987947112831 -0.28319821192468808 0 0.29270104714664102 -0.29513802668045069 0 0.27805302037335089 -0.28584974436810762 0 0.29026987947112831 -0.28319821192468808 0 0.28863308206368682 -0.27515966401439529 0 0.29026987947112831 -0.28319821192468808 0 0.29523603426331357 -0.29457632575074338 0 0.29026987947112831 -0.28319821192468808 0 0.29523603426331357 -0.29457632575074338 0 0.30320790951940702 -0.28313078900162059 0 0.29026987947112831 -0.28319821192468808 0 0.29270104714664102 -0.29513802668045069 0 0.29523603426331357 -0.29457632575074338 0 0.29026987947112831 -0.28319821192468808 0 0.29270104714664102 -0.29513802668045069 0 0.29270104714664102 -0.29513802668045069 0 0.29523603426331357 -0.29457632575074338 0 0.29523603426331357 -0.29457632575074338 0 0.31208952779935789 -0.2908419387292881 0 0.29523603426331357 -0.29457632575074338 0 0.30320790951940702 -0.28313078900162059 0 0.31208952779935789 -0.2908419387292881 0 0.29523603426331357 -0.29457632575074338 0 0.31208952779935789 -0.2908419387292881 0 0.30833746379913463 -0.30503745501229762 0 0.31611371382327402 -0.28007222207304999 0 0.30320790951940702 -0.28313078900162059 0 0.31208952779935789 -0.2908419387292881 0 0.30533649780288991 -0.32025428503190068 0 0.29523603426331357 -0.29457632575074338 0 0.30833746379913463 -0.30503745501229762 0 0.30533649780288991 -0.32025428503190068 0 0.29792146783109758 -0.32077626486014349 0 0.29523603426331357 -0.29457632575074338 0 0.30533649780288991 -0.32025428503190068 0 0.29523603426331357 -0.29457632575074338 0 0.3171485971304504 -0.30589952111326829 0 0.3109911447756647 -0.31350988965823029 0 0.30833746379913463 -0.30503745501229762 0 0.29812220868357159 -0.26533402464574418 0 0.30111904597271899 -0.2536098058489899 0 0.30981211567343969 -0.26250129009931661 0 0.31597462601859122 -0.25080747204364812 0 0.30111904597271899 -0.2536098058489899 0 0.30981211567343969 -0.26250129009931661 0 0.29812220868357159 -0.26533402464574418 0 0.30981211567343969 -0.26250129009931661 0 0.30706455279928557 -0.27339796693147528 0 0.31611371382327402 -0.28007222207304999 0 0.30320790951940702 -0.28313078900162059 0 0.30706455279928557 -0.27339796693147528 0 0.29026987947112831 -0.28319821192468808 0 0.30320790951940702 -0.28313078900162059 0 0.29755036247591721 -0.27602563541609298 0 0.30320790951940702 -0.28313078900162059 0 0.30706455279928557 -0.27339796693147528 0 0.29755036247591721 -0.27602563541609298 0 0.29812220868357159 -0.26533402464574418 0 0.30706455279928557 -0.27339796693147528 0 0.29755036247591721 -0.27602563541609298 0 0.29812220868357159 -0.26533402464574418 0 0.29755036247591721 -0.27602563541609298 0 0.28863308206368682 -0.27515966401439529 0 0.29026987947112831 -0.28319821192468808 0 0.28863308206368682 -0.27515966401439529 0 0.29026987947112831 -0.28319821192468808 0 0.29755036247591721 -0.27602563541609298 0 0.28863308206368682 -0.27515966401439529 0 0.28863308206368682 -0.27515966401439529 0 0.28456511698073272 -0.25518130134833977 0 0.29812220868357159 -0.26533402464574418 0 0.28863308206368682 -0.27515966401439529 0 0.28456511698073272 -0.25518130134833977 0 0.29812220868357159 -0.26533402464574418 0 0.30111904597271899 -0.2536098058489899 0 0.28456511698073272 -0.25518130134833977 0 0.28863308206368682 -0.27515966401439529 0 0.28456511698073272 -0.25518130134833977 0 0.27223885194073971 -0.26265851400849172 0 0.28456511698073272 -0.25518130134833977 0 0.27223885194073971 -0.26265851400849172 0 0.26629969424128969 -0.25192769388052821 0 0.27223885194073971 -0.26265851400849172 0 0.26629969424128969 -0.25192769388052821 0 0.2629172406837702 -0.26740365320709081 0 0.26500420865911251 -0.28331687632378699 0 0.27342558025451552 -0.27498979272208851 0 0.2629172406837702 -0.26740365320709081 0 0.28863308206368682 -0.27515966401439529 0 0.27223885194073971 -0.26265851400849172 0 0.27342558025451552 -0.27498979272208851 0 0.27805302037335089 -0.28584974436810762 0 0.28863308206368682 -0.27515966401439529 0 0.27342558025451552 -0.27498979272208851 0 0.27223885194073971 -0.26265851400849172 0 0.27342558025451552 -0.27498979272208851 0 0.2629172406837702 -0.26740365320709081 0 0.26500420865911251 -0.28331687632378699 0 0.2629172406837702 -0.26740365320709081 0 0.2507153324002197 -0.27704953531328702 0 0.2629172406837702 -0.26740365320709081 0 0.2507153324002197 -0.27704953531328702 0 0.2466218950091964 -0.26012473444713258 0 0.25037283077400019 -0.2416092145933311 0 0.26629969424128969 -0.25192769388052821 0 0.2466218950091964 -0.26012473444713258 0 0.26629969424128969 -0.25192769388052821 0 0.2629172406837702 -0.26740365320709081 0 0.2466218950091964 -0.26012473444713258 0 0.25037283077400019 -0.2416092145933311 0 0.2466218950091964 -0.26012473444713258 0 0.2339549802858914 -0.24933471903745599 0 0.2466218950091964 -0.26012473444713258 0 0.22717476572977791 -0.26325637954660608 0 0.2339549802858914 -0.24933471903745599 0 0.2466218950091964 -0.26012473444713258 0 0.23628574795648369 -0.27498419313581679 0 0.22717476572977791 -0.26325637954660608 0 0.2507153324002197 -0.27704953531328702 0 0.2466218950091964 -0.26012473444713258 0 0.23628574795648369 -0.27498419313581679 0 0.2507153324002197 -0.27704953531328702 0 0.23628574795648369 -0.27498419313581679 0 0.24044913557019401 -0.28723099739492908 0 0.2247339410531527 -0.27667652802353632 0 0.21554844428562811 -0.26491471108287651 0 0.21653111649902579 -0.28712771180040292 0 0.23628574795648369 -0.27498419313581679 0 0.2247339410531527 -0.27667652802353632 0 0.22717476572977791 -0.26325637954660608 0 0.2247339410531527 -0.27667652802353632 0 0.22717476572977791 -0.26325637954660608 0 0.21554844428562811 -0.26491471108287651 0 0.22717476572977791 -0.26325637954660608 0 0.22331750647786899 -0.25281133177650322 0 0.2339549802858914 -0.24933471903745599 0 0.22717476572977791 -0.26325637954660608 0 0.22331750647786899 -0.25281133177650322 0 0.21554844428562811 -0.26491471108287651 0 0.2084475354763706 -0.25511513831035743 0 0.21554844428562811 -0.26491471108287651 0 0.1982966667633215 -0.26354120971092698 0 0.21554844428562811 -0.26491471108287651 0 0.21456577207223029 -0.24270171036535029 0 0.22331750647786899 -0.25281133177650322 0 0.21554844428562811 -0.26491471108287651 0 0.21456577207223029 -0.24270171036535029 0 0.2084475354763706 -0.25511513831035743 0 0.21554844428562811 -0.26491471108287651 0 0.21336353465090491 -0.24693864317134839 0 0.21554844428562811 -0.26491471108287651 0 0.21336353465090491 -0.24693864317134839 0 0.21456577207223029 -0.24270171036535029 0 0.2084475354763706 -0.25511513831035743 0 0.1982966667633215 -0.26354120971092698 0 0.2080714594183444 -0.2424179483002232 0 0.1982966667633215 -0.26354120971092698 0 0.2080714594183444 -0.2424179483002232 0 0.21554844428562811 -0.26491471108287651 0 0.21653111649902579 -0.28712771180040292 0 0.21554844428562811 -0.26491471108287651 0 0.20859607852913339 -0.28093905456482821 0 0.21653111649902579 -0.28712771180040292 0 0.21554844428562811 -0.26491471108287651 0 0.20859607852913339 -0.28093905456482821 0 0.2011380539128553 -0.27767933622792518 0 0.21554844428562811 -0.26491471108287651 0 0.2011380539128553 -0.27767933622792518 0 0.1982966667633215 -0.26354120971092698 0 0.1982966667633215 -0.26354120971092698 0 0.18852187410829821 -0.28466447112163068 0 0.1982966667633215 -0.26354120971092698 0 0.18852187410829821 -0.28466447112163068 0 0.1845366839674035 -0.26640487959885623 0 0.2011380539128553 -0.27767933622792518 0 0.1982966667633215 -0.26354120971092698 0 0.18852187410829821 -0.28466447112163068 0 0.1982966667633215 -0.26354120971092698 0 0.2080714594183444 -0.2424179483002232 0 0.19254414318066221 -0.24961624770678509 0 0.1982966667633215 -0.26354120971092698 0 0.18706352147094041 -0.25756661524031438 0 0.1845366839674035 -0.26640487959885623 0 0.1982966667633215 -0.26354120971092698 0 0.18706352147094041 -0.25756661524031438 0 0.19254414318066221 -0.24961624770678509 0 0.18706352147094041 -0.25756661524031438 0 0.19254414318066221 -0.24961624770678509 0 0.18399505531774341 -0.24981832115951039 0 0.20249447748908611 -0.29813355613580778 0 0.1976485991634879 -0.30796138879627621 0 0.19462594870140809 -0.30164723750547567 0 0.20249447748908611 -0.29813355613580778 0 0.19462594870140809 -0.30164723750547567 0 0.19392418081794471 -0.29575522021664652 0 0.20249447748908611 -0.29813355613580778 0 0.1976485991634879 -0.30796138879627621 0 0.20782414549410869 -0.30817847155873718 0 0.1976485991634879 -0.30796138879627621 0 0.20782414549410869 -0.30817847155873718 0 0.20282381327660201 -0.31505297042611552 0 0.1976485991634879 -0.30796138879627621 0 0.19009702279388629 -0.3064242775921906 0 0.18802618722583669 -0.31833181955932999 0 0.1976485991634879 -0.30796138879627621 0 0.19009702279388629 -0.3064242775921906 0 0.19462594870140809 -0.30164723750547567 0 0.19009702279388629 -0.3064242775921906 0 0.19462594870140809 -0.30164723750547567 0 0.1880606218677118 -0.30022154946313712 0 0.19462594870140809 -0.30164723750547567 0 0.19110113081553529 -0.29631368747161629 0 0.19392418081794471 -0.29575522021664652 0 0.1880606218677118 -0.30022154946313712 0 0.19110113081553529 -0.29631368747161629 0 0.18734834214976739 -0.29514628785519947 0 0.19462594870140809 -0.30164723750547567 0 0.1880606218677118 -0.30022154946313712 0 0.19110113081553529 -0.29631368747161629 0 0.20249447748908611 -0.29813355613580778 0 0.18747516626574931 -0.28692639975368628 0 0.20249447748908611 -0.29813355613580778 0 0.19392418081794471 -0.29575522021664652 0 0.18747516626574931 -0.28692639975368628 0 0.19110113081553529 -0.29631368747161629 0 0.19392418081794471 -0.29575522021664652 0 0.18747516626574931 -0.28692639975368628 0 0.19110113081553529 -0.29631368747161629 0 0.18747516626574931 -0.28692639975368628 0 0.18734834214976739 -0.29514628785519947 0 0.18852187410829821 -0.28466447112163068 0 0.19787122383615691 -0.29172525818392958 0 0.18852187410829821 -0.28466447112163068 0 0.19731262536099689 -0.28481999283041842 0 0.19787122383615691 -0.29172525818392958 0 0.18852187410829821 -0.28466447112163068 0 0.19787122383615691 -0.29172525818392958 0 0.18747516626574931 -0.28692639975368628 0 0.18852187410829821 -0.28466447112163068 0 0.18747516626574931 -0.28692639975368628 0 0.2011380539128553 -0.27767933622792518 0 0.18852187410829821 -0.28466447112163068 0 0.19731262536099689 -0.28481999283041842 0 0.201719349586677 -0.2852109057881882 0 0.19787122383615691 -0.29172525818392958 0 0.206049533411369 -0.28982701925762389 0 0.19731262536099689 -0.28481999283041842 0 0.201719349586677 -0.2852109057881882 0 0.19787122383615691 -0.29172525818392958 0 0.2011380539128553 -0.27767933622792518 0 0.19731262536099689 -0.28481999283041842 0 0.201719349586677 -0.2852109057881882 0 0.20249447748908611 -0.29813355613580778 0 0.19787122383615691 -0.29172525818392958 0 0.18747516626574931 -0.28692639975368628 0 0.20249447748908611 -0.29813355613580778 0 0.19787122383615691 -0.29172525818392958 0 0.206049533411369 -0.28982701925762389 0 0.20249447748908611 -0.29813355613580778 0 0.206049533411369 -0.28982701925762389 0 0.20903552332543929 -0.29406903275804652 0 0.206049533411369 -0.28982701925762389 0 0.20903552332543929 -0.29406903275804652 0 0.21653111649902579 -0.28712771180040292 0 0.20249447748908611 -0.29813355613580778 0 0.20903552332543929 -0.29406903275804652 0 0.2123558614978226 -0.29827812898856709 0 0.20859607852913339 -0.28093905456482821 0 0.206049533411369 -0.28982701925762389 0 0.21653111649902579 -0.28712771180040292 0 0.20859607852913339 -0.28093905456482821 0 0.201719349586677 -0.2852109057881882 0 0.206049533411369 -0.28982701925762389 0 0.20859607852913339 -0.28093905456482821 0 0.2011380539128553 -0.27767933622792518 0 0.201719349586677 -0.2852109057881882 0 0.20903552332543929 -0.29406903275804652 0 0.21653111649902579 -0.28712771180040292 0 0.2123558614978226 -0.29827812898856709 0 0.21653111649902579 -0.28712771180040292 0 0.2175137887124228 -0.30934071251792922 0 0.21653111649902579 -0.28712771180040292 0 0.2123558614978226 -0.29827812898856709 0 0.2175137887124228 -0.30934071251792922 0 0.20249447748908611 -0.29813355613580778 0 0.2123558614978226 -0.29827812898856709 0 0.2175137887124228 -0.30934071251792922 0 0.20249447748908611 -0.29813355613580778 0 0.2175137887124228 -0.30934071251792922 0 0.20782414549410869 -0.30817847155873718 0 0.2176214393273678 -0.31177412129290383 0 0.20282381327660201 -0.31505297042611552 0 0.20249447748908611 -0.29813355613580778 0 0.20782414549410869 -0.30817847155873718 0 0.2175137887124228 -0.30934071251792922 0 0.20782414549410869 -0.30817847155873718 0 0.2175137887124228 -0.30934071251792922 0 0.2176214393273678 -0.31177412129290383 0 0.2175137887124228 -0.30934071251792922 0 0.2176214393273678 -0.31177412129290383 0 0.2175137887124228 -0.30934071251792922 0 0.2176214393273678 -0.31177412129290383 0 0.21999804566891551 -0.31122614102315033 0 0.21999804566891551 -0.31122614102315033 0 0.24423538898563429 -0.30587701823941071 0 0.2175137887124228 -0.30934071251792922 0 0.21999804566891551 -0.31122614102315033 0 0.22812963079484819 -0.29309964455197901 0 0.21999804566891551 -0.31122614102315033 0 0.22812963079484819 -0.29309964455197901 0 0.21999804566891551 -0.31122614102315033 0 0.22812963079484819 -0.29309964455197901 0 0.24423538898563429 -0.30587701823941071 0 0.2176214393273678 -0.31177412129290383 0 0.21999804566891551 -0.31122614102315033 0 0.2175137887124228 -0.30934071251792922 0 0.21999804566891551 -0.31122614102315033 0 0.23628574795648369 -0.27498419313581679 0 0.22812963079484819 -0.29309964455197901 0 0.2247339410531527 -0.27667652802353632 0 0.21653111649902579 -0.28712771180040292 0 0.22812963079484819 -0.29309964455197901 0 0.23628574795648369 -0.27498419313581679 0 0.2247339410531527 -0.27667652802353632 0 0.22812963079484819 -0.29309964455197901 0 0.21653111649902579 -0.28712771180040292 0 0.2175137887124228 -0.30934071251792922 0 0.22812963079484819 -0.29309964455197901 0 0.23628574795648369 -0.27498419313581679 0 0.22812963079484819 -0.29309964455197901 0 0.24044913557019401 -0.28723099739492908 0 0.25301376652256202 -0.2892367573709661 0 0.24044913557019401 -0.28723099739492908 0 0.24423538898563429 -0.30587701823941071 0 0.22812963079484819 -0.29309964455197901 0 0.24044913557019401 -0.28723099739492908 0 0.24423538898563429 -0.30587701823941071 0 0.25301376652256202 -0.2892367573709661 0 0.2507153324002197 -0.27704953531328702 0 0.24044913557019401 -0.28723099739492908 0 0.21999804566891551 -0.31122614102315033 0 0.24423538898563429 -0.30587701823941071 0 0.2404170410518052 -0.32643073261338312 0 0.25099839141978419 -0.34936335514031408 0 0.2316655193484673 -0.33515436960409939 0 0.25099839141978419 -0.34936335514031408 0 0.2404170410518052 -0.32643073261338312 0 0.2316655193484673 -0.33515436960409939 0 0.2404170410518052 -0.32643073261338312 0 0.2316655193484673 -0.33515436960409939 0 0.2247705650129608 -0.32491873692320528 0 0.2316655193484673 -0.33515436960409939 0 0.22208049410379579 -0.34309390150507102 0 0.22867514261462599 -0.34782526071452929 0 0.2316655193484673 -0.33515436960409939 0 0.22208049410379579 -0.34309390150507102 0 0.220555537226792 -0.33578323097752499 0 0.22208049410379579 -0.34309390150507102 0 0.220555537226792 -0.33578323097752499 0 0.21451162402718699 -0.34512658597487872 0 0.220555537226792 -0.33578323097752499 0 0.2247705650129608 -0.32491873692320528 0 0.21820242441149371 -0.32490710899175251 0 0.2316655193484673 -0.33515436960409939 0 0.220555537226792 -0.33578323097752499 0 0.2247705650129608 -0.32491873692320528 0 0.21999804566891551 -0.31122614102315033 0 0.2404170410518052 -0.32643073261338312 0 0.2247705650129608 -0.32491873692320528 0 0.21999804566891551 -0.31122614102315033 0 0.2404170410518052 -0.32643073261338312 0 0.2247705650129608 -0.32491873692320528 0 0.21780935440599439 -0.31602188338433101 0 0.21820242441149371 -0.32490710899175251 0 0.21999804566891551 -0.31122614102315033 0 0.2247705650129608 -0.32491873692320528 0 0.21780935440599439 -0.31602188338433101 0 0.21999804566891551 -0.31122614102315033 0 0.21780935440599439 -0.31602188338433101 0 0.23679608458568241 -0.3713456781615978 0 0.24534349961555019 -0.36253701182870851 0 0.24987622704845311 -0.37613765202982719 0 0.23679608458568241 -0.3713456781615978 0 0.24534349961555019 -0.36253701182870851 0 0.23133102347449649 -0.35950822589080189 0 0.25099839141978419 -0.34936335514031408 0 0.2316655193484673 -0.33515436960409939 0 0.23760271529458479 -0.35087764463569071 0 0.24534349961555019 -0.36253701182870851 0 0.23760271529458479 -0.35087764463569071 0 0.23133102347449649 -0.35950822589080189 0 0.25099839141978419 -0.34936335514031408 0 0.24534349961555019 -0.36253701182870851 0 0.23760271529458479 -0.35087764463569071 0 0.2316655193484673 -0.33515436960409939 0 0.23760271529458479 -0.35087764463569071 0 0.22867514261462599 -0.34782526071452929 0 0.22208049410379579 -0.34309390150507102 0 0.22076837523631451 -0.35267920974236072 0 0.21451162402718699 -0.34512658597487872 0 0.22208049410379579 -0.34309390150507102 0 0.22867514261462599 -0.34782526071452929 0 0.22076837523631451 -0.35267920974236072 0 0.22076837523631451 -0.35267920974236072 0 0.22341137818785181 -0.36337688942730773 0 0.21609027172906259 -0.36087537471117581 0 0.22076837523631451 -0.35267920974236072 0 0.23133102347449649 -0.35950822589080189 0 0.22341137818785181 -0.36337688942730773 0 0.22867514261462599 -0.34782526071452929 0 0.22076837523631451 -0.35267920974236072 0 0.23133102347449649 -0.35950822589080189 0 0.23760271529458479 -0.35087764463569071 0 0.22867514261462599 -0.34782526071452929 0 0.23133102347449649 -0.35950822589080189 0 0.23133102347449649 -0.35950822589080189 0 0.22341137818785181 -0.36337688942730773 0 0.22699371624108439 -0.37103399677892651 0 0.22341137818785181 -0.36337688942730773 0 0.22699371624108439 -0.37103399677892651 0 0.21663927632257499 -0.37152038636996992 0 0.22699371624108439 -0.37103399677892651 0 0.21663927632257499 -0.37152038636996992 0 0.22189277223980711 -0.38054577212349588 0 0.23679608458568241 -0.3713456781615978 0 0.22699371624108439 -0.37103399677892651 0 0.23010576568282681 -0.37607478874810818 0 0.23679608458568241 -0.3713456781615978 0 0.23133102347449649 -0.35950822589080189 0 0.22699371624108439 -0.37103399677892651 0 0.21663927632257499 -0.37152038636996992 0 0.20683644217058031 -0.36558797855932218 0 0.20576161095015591 -0.37595213443190167 0 0.22341137818785181 -0.36337688942730773 0 0.21663927632257499 -0.37152038636996992 0 0.21609027172906259 -0.36087537471117581 0 0.21609027172906259 -0.36087537471117581 0 0.20683644217058031 -0.36558797855932218 0 0.21089823393406021 -0.35324530101306001 0 0.21663927632257499 -0.37152038636996992 0 0.21609027172906259 -0.36087537471117581 0 0.20683644217058031 -0.36558797855932218 0 0.19940837682496099 -0.35689206815154528 0 0.20777431361625601 -0.33831058893907762 0 0.21089823393406021 -0.35324530101306001 0 0.19940837682496099 -0.35689206815154528 0 0.20777431361625601 -0.33831058893907762 0 0.20683644217058031 -0.36558797855932218 0 0.21089823393406021 -0.35324530101306001 0 0.19940837682496099 -0.35689206815154528 0 0.22076837523631451 -0.35267920974236072 0 0.21609027172906259 -0.36087537471117581 0 0.21089823393406021 -0.35324530101306001 0 0.21089823393406021 -0.35324530101306001 0 0.21451162402718699 -0.34512658597487872 0 0.20777431361625601 -0.33831058893907762 0 0.22076837523631451 -0.35267920974236072 0 0.21089823393406021 -0.35324530101306001 0 0.21451162402718699 -0.34512658597487872 0 0.1971616983813648 -0.34495631128618592 0 0.19940837682496099 -0.35689206815154528 0 0.20777431361625601 -0.33831058893907762 0 0.1971616983813648 -0.34495631128618592 0 0.18787137947787569 -0.35180034780069419 0 0.18864170350563411 -0.33720407153827198 0 0.1971616983813648 -0.34495631128618592 0 0.18787137947787569 -0.35180034780069419 0 0.19940837682496099 -0.35689206815154528 0 0.20683644217058031 -0.36558797855932218 0 0.20576161095015591 -0.37595213443190167 0 0.1910424400336663 -0.37547354736401328 0 0.18787137947787569 -0.35180034780069419 0 0.19940837682496099 -0.35689206815154528 0 0.1910424400336663 -0.37547354736401328 0 0.19940837682496099 -0.35689206815154528 0 0.1910424400336663 -0.37547354736401328 0 0.20683644217058031 -0.36558797855932218 0 0.19940837682496099 -0.35689206815154528 0 0.1910424400336663 -0.37547354736401328 0 0.21780935440599439 -0.31602188338433101 0 0.20777431361625601 -0.33831058893907762 0 0.21780935440599439 -0.31602188338433101 0 0.20777431361625601 -0.33831058893907762 0 0.20282381327660201 -0.31505297042611552 0 0.21780935440599439 -0.31602188338433101 0 0.21820242441149371 -0.32490710899175251 0 0.20777431361625601 -0.33831058893907762 0 0.2176214393273678 -0.31177412129290383 0 0.20282381327660201 -0.31505297042611552 0 0.2176214393273678 -0.31177412129290383 0 0.21780935440599439 -0.31602188338433101 0 0.20282381327660201 -0.31505297042611552 0 0.2176214393273678 -0.31177412129290383 0 0.21780935440599439 -0.31602188338433101 0 0.2176214393273678 -0.31177412129290383 0 0.21999804566891551 -0.31122614102315033 0 0.21780935440599439 -0.31602188338433101 0 0.21780935440599439 -0.31602188338433101 0 0.21820242441149371 -0.32490710899175251 0 0.220555537226792 -0.33578323097752499 0 0.21820242441149371 -0.32490710899175251 0 0.20777431361625601 -0.33831058893907762 0 0.220555537226792 -0.33578323097752499 0 0.21451162402718699 -0.34512658597487872 0 0.20777431361625601 -0.33831058893907762 0 0.21451162402718699 -0.34512658597487872 0 0.20777431361625601 -0.33831058893907762 0 0.1971616983813648 -0.34495631128618592 0 0.20777431361625601 -0.33831058893907762 0 0.18864170350563411 -0.33720407153827198 0 0.20777431361625601 -0.33831058893907762 0 0.18802618722583669 -0.31833181955932999 0 0.20777431361625601 -0.33831058893907762 0 0.18864170350563411 -0.33720407153827198 0 0.18802618722583669 -0.31833181955932999 0 0.20777431361625601 -0.33831058893907762 0 0.20282381327660201 -0.31505297042611552 0 0.18802618722583669 -0.31833181955932999 0 0.20282381327660201 -0.31505297042611552 0 0.18802618722583669 -0.31833181955932999 0 0.1976485991634879 -0.30796138879627621 0 0.20282381327660201 -0.31505297042611552 0 0.18802618722583669 -0.31833181955932999 0 0.18802618722583669 -0.31833181955932999 0 0.1791507244663583 -0.32983729973660558 0 0.16791254130802971 -0.3227885891963716 0 0.18802618722583669 -0.31833181955932999 0 0.17151825735526699 -0.31325416760549368 0 0.16791254130802971 -0.3227885891963716 0 0.18802618722583669 -0.31833181955932999 0 0.16791254130802971 -0.3227885891963716 0 0.18864170350563411 -0.33720407153827198 0 0.18802618722583669 -0.31833181955932999 0 0.1791507244663583 -0.32983729973660558 0 0.17202246582593331 -0.34102471865244838 0 0.1791507244663583 -0.32983729973660558 0 0.16791254130802971 -0.3227885891963716 0 0.18787137947787569 -0.35180034780069419 0 0.18864170350563411 -0.33720407153827198 0 0.17202246582593331 -0.34102471865244838 0 0.18864170350563411 -0.33720407153827198 0 0.17202246582593331 -0.34102471865244838 0 0.1791507244663583 -0.32983729973660558 0 0.17202246582593331 -0.34102471865244838 0 0.1546435437787094 -0.34381338892778002 0 0.1557586906108582 -0.32786840018592928 0 0.17202246582593331 -0.34102471865244838 0 0.16791254130802971 -0.3227885891963716 0 0.1557586906108582 -0.32786840018592928 0 0.16791254130802971 -0.3227885891963716 0 0.1557586906108582 -0.32786840018592928 0 0.1602411687519314 -0.31190927739118429 0 0.17151825735526699 -0.31325416760549368 0 0.16791254130802971 -0.3227885891963716 0 0.1602411687519314 -0.31190927739118429 0 0.18787137947787569 -0.35180034780069419 0 0.17662324672053431 -0.35795823269279659 0 0.1910424400336663 -0.37547354736401328 0 0.17662324672053431 -0.35795823269279659 0 0.17035242753357599 -0.36877211446365682 0 0.1910424400336663 -0.37547354736401328 0 0.17035242753357599 -0.36877211446365682 0 0.1910424400336663 -0.37547354736401328 0 0.1737051017910701 -0.38004230502140057 0 0.18787137947787569 -0.35180034780069419 0 0.17202246582593331 -0.34102471865244838 0 0.17662324672053431 -0.35795823269279659 0 0.17202246582593331 -0.34102471865244838 0 0.17662324672053431 -0.35795823269279659 0 0.16265844046108829 -0.35526087104265458 0 0.17202246582593331 -0.34102471865244838 0 0.16265844046108829 -0.35526087104265458 0 0.1546435437787094 -0.34381338892778002 0 0.17662324672053431 -0.35795823269279659 0 0.16265844046108829 -0.35526087104265458 0 0.17035242753357599 -0.36877211446365682 0 0.16265844046108829 -0.35526087104265458 0 0.1569593121701936 -0.36832063090657668 0 0.17035242753357599 -0.36877211446365682 0 0.1569593121701936 -0.36832063090657668 0 0.17035242753357599 -0.36877211446365682 0 0.16307541855137739 -0.37743582412871929 0 0.14536400873927011 -0.3681220756701501 0 0.1426630499740982 -0.35652090160864008 0 0.13524945632583441 -0.37311377610700652 0 0.16265844046108829 -0.35526087104265458 0 0.1569593121701936 -0.36832063090657668 0 0.1426630499740982 -0.35652090160864008 0 0.14536400873927011 -0.3681220756701501 0 0.13524945632583441 -0.37311377610700652 0 0.14973869037300869 -0.38096853745143089 0 0.1569593121701936 -0.36832063090657668 0 0.14536400873927011 -0.3681220756701501 0 0.14973869037300869 -0.38096853745143089 0 0.1569593121701936 -0.36832063090657668 0 0.14536400873927011 -0.3681220756701501 0 0.1426630499740982 -0.35652090160864008 0 0.1546435437787094 -0.34381338892778002 0 0.1426630499740982 -0.35652090160864008 0 0.1424354920479888 -0.33775294740649747 0 0.16265844046108829 -0.35526087104265458 0 0.1546435437787094 -0.34381338892778002 0 0.1426630499740982 -0.35652090160864008 0 0.13449730155472761 -0.34743155680512378 0 0.12784456261830821 -0.36308533366748658 0 0.123981461538115 -0.35128285539313481 0 0.1426630499740982 -0.35652090160864008 0 0.13449730155472761 -0.34743155680512378 0 0.1424354920479888 -0.33775294740649747 0 0.1426630499740982 -0.35652090160864008 0 0.13449730155472761 -0.34743155680512378 0 0.12784456261830821 -0.36308533366748658 0 0.13449730155472761 -0.34743155680512378 0 0.13051916655351839 -0.33696304048325831 0 0.123981461538115 -0.35128285539313481 0 0.1426630499740982 -0.35652090160864008 0 0.12784456261830821 -0.36308533366748658 0 0.13524945632583441 -0.37311377610700652 0 0.12784456261830821 -0.36308533366748658 0 0.13524945632583441 -0.37311377610700652 0 0.12609635470998201 -0.38402791619100712 0 0.14855409589738661 -0.31441038212804873 0 0.1557586906108582 -0.32786840018592928 0 0.1602411687519314 -0.31190927739118429 0 0.1445015266660287 -0.32337949759917511 0 0.14855409589738661 -0.31441038212804873 0 0.13871327718005111 -0.31332369293528212 0 0.1445015266660287 -0.32337949759917511 0 0.14855409589738661 -0.31441038212804873 0 0.1557586906108582 -0.32786840018592928 0 0.1546435437787094 -0.34381338892778002 0 0.1557586906108582 -0.32786840018592928 0 0.1424354920479888 -0.33775294740649747 0 0.1445015266660287 -0.32337949759917511 0 0.1557586906108582 -0.32786840018592928 0 0.1424354920479888 -0.33775294740649747 0 0.1445015266660287 -0.32337949759917511 0 0.1424354920479888 -0.33775294740649747 0 0.13219802669416811 -0.32498852212276208 0 0.1424354920479888 -0.33775294740649747 0 0.13051916655351839 -0.33696304048325831 0 0.13219802669416811 -0.32498852212276208 0 0.13449730155472761 -0.34743155680512378 0 0.1424354920479888 -0.33775294740649747 0 0.13051916655351839 -0.33696304048325831 0 0.13051916655351839 -0.33696304048325831 0 0.13219802669416811 -0.32498852212276208 0 0.12260601330919629 -0.33072698382653798 0 0.1445015266660287 -0.32337949759917511 0 0.13219802669416811 -0.32498852212276208 0 0.13871327718005111 -0.31332369293528212 0 0.13219802669416811 -0.32498852212276208 0 0.1265219532001009 -0.3124330460259736 0 0.1192961391526948 -0.32261879728377291 0 0.13219802669416811 -0.32498852212276208 0 0.13871327718005111 -0.31332369293528212 0 0.1265219532001009 -0.3124330460259736 0 0.1265219532001009 -0.3124330460259736 0 0.1332586495603032 -0.30031372317270688 0 0.1198701537204314 -0.30089140532399938 0 0.1332586495603032 -0.30031372317270688 0 0.1242383748246253 -0.29131174999725179 0 0.1198701537204314 -0.30089140532399938 0 0.13871327718005111 -0.31332369293528212 0 0.1265219532001009 -0.3124330460259736 0 0.1332586495603032 -0.30031372317270688 0 0.13871327718005111 -0.31332369293528212 0 0.1332586495603032 -0.30031372317270688 0 0.147245411062319 -0.30441698656302629 0 0.14855409589738661 -0.31441038212804873 0 0.13871327718005111 -0.31332369293528212 0 0.147245411062319 -0.30441698656302629 0 0.147245411062319 -0.30441698656302629 0 0.15432967412725099 -0.29846298066074151 0 0.14327492933615671 -0.29425024746867751 0 0.1332586495603032 -0.30031372317270688 0 0.147245411062319 -0.30441698656302629 0 0.14327492933615671 -0.29425024746867751 0 0.147245411062319 -0.30441698656302629 0 0.15432967412725099 -0.29846298066074151 0 0.1602411687519314 -0.31190927739118429 0 0.14855409589738661 -0.31441038212804873 0 0.147245411062319 -0.30441698656302629 0 0.1602411687519314 -0.31190927739118429 0 0.15432967412725099 -0.29846298066074151 0 0.1517600770447052 -0.28164214899084639 0 0.14327492933615671 -0.29425024746867751 0 0.1517600770447052 -0.28164214899084639 0 0.14327492933615671 -0.29425024746867751 0 0.13646338677899769 -0.28546266283427663 0 0.1332586495603032 -0.30031372317270688 0 0.14327492933615671 -0.29425024746867751 0 0.13646338677899769 -0.28546266283427663 0 0.1332586495603032 -0.30031372317270688 0 0.13646338677899769 -0.28546266283427663 0 0.1242383748246253 -0.29131174999725179 0 0.13646338677899769 -0.28546266283427663 0 0.1233023238440631 -0.28097148456094378 0 0.1242383748246253 -0.29131174999725179 0 0.1517600770447052 -0.28164214899084639 0 0.13646338677899769 -0.28546266283427663 0 0.1311170075682456 -0.27142576198599933 0 0.1517600770447052 -0.28164214899084639 0 0.1311170075682456 -0.27142576198599933 0 0.1364827709165429 -0.26618641562940759 0 0.13646338677899769 -0.28546266283427663 0 0.1311170075682456 -0.27142576198599933 0 0.1233023238440631 -0.28097148456094378 0 0.1311170075682456 -0.27142576198599933 0 0.1364827709165429 -0.26618641562940759 0 0.1212054647883809 -0.25073068226796852 0 0.1364827709165429 -0.26618641562940759 0 0.13217397618885759 -0.25462043987800831 0 0.1212054647883809 -0.25073068226796852 0 0.1364827709165429 -0.26618641562940759 0 0.1212054647883809 -0.25073068226796852 0 0.1364827709165429 -0.26618641562940759 0 0.13217397618885759 -0.25462043987800831 0 0.14275904560399111 -0.25945725309375861 0 0.13217397618885759 -0.25462043987800831 0 0.1429630926125974 -0.2502577086919005 0 0.14275904560399111 -0.25945725309375861 0 0.1429630926125974 -0.2502577086919005 0 0.16574248336044761 -0.26746108990676593 0 0.1429630926125974 -0.2502577086919005 0 0.15128247879849499 -0.26292486595599002 0 0.16574248336044761 -0.26746108990676593 0 0.1429630926125974 -0.2502577086919005 0 0.16574248336044761 -0.26746108990676593 0 0.16001236861667459 -0.2513654190734112 0 0.1429630926125974 -0.2502577086919005 0 0.14275904560399111 -0.25945725309375861 0 0.15128247879849499 -0.26292486595599002 0 0.1364827709165429 -0.26618641562940759 0 0.14275904560399111 -0.25945725309375861 0 0.15128247879849499 -0.26292486595599002 0 0.1517600770447052 -0.28164214899084639 0 0.1364827709165429 -0.26618641562940759 0 0.15128247879849499 -0.26292486595599002 0 0.1517600770447052 -0.28164214899084639 0 0.15128247879849499 -0.26292486595599002 0 0.15776774232478771 -0.26956647822523339 0 0.1517600770447052 -0.28164214899084639 0 0.1311170075682456 -0.27142576198599933 0 0.1517600770447052 -0.28164214899084639 0 0.1364827709165429 -0.26618641562940759 0 0.1517600770447052 -0.28164214899084639 0 0.16209364730358741 -0.27452888323759039 0 0.16594555478614451 -0.28284233368471318 0 0.1517600770447052 -0.28164214899084639 0 0.16209364730358741 -0.27452888323759039 0 0.15776774232478771 -0.26956647822523339 0 0.16209364730358741 -0.27452888323759039 0 0.15776774232478771 -0.26956647822523339 0 0.16574248336044761 -0.26746108990676593 0 0.15128247879849499 -0.26292486595599002 0 0.15776774232478771 -0.26956647822523339 0 0.16574248336044761 -0.26746108990676593 0 0.16209364730358741 -0.27452888323759039 0 0.16574248336044761 -0.26746108990676593 0 0.16920230535812411 -0.27329149954452342 0 0.16209364730358741 -0.27452888323759039 0 0.16920230535812411 -0.27329149954452342 0 0.16594555478614451 -0.28284233368471318 0 0.16920230535812411 -0.27329149954452342 0 0.1710222018321049 -0.28124575318360368 0 0.16594555478614451 -0.28284233368471318 0 0.16574248336044761 -0.26746108990676593 0 0.16001236861667459 -0.2513654190734112 0 0.16988601458932601 -0.2589500224365659 0 0.16574248336044761 -0.26746108990676593 0 0.16988601458932601 -0.2589500224365659 0 0.17628584543496439 -0.26683535894776161 0 0.16001236861667459 -0.2513654190734112 0 0.16988601458932601 -0.2589500224365659 0 0.16978669848249819 -0.25098739912941831 0 0.1767458594742066 -0.25730285456071711 0 0.17619278994504239 -0.24587918172992959 0 0.18399505531774341 -0.24981832115951039 0 0.16978669848249819 -0.25098739912941831 0 0.1767458594742066 -0.25730285456071711 0 0.17619278994504239 -0.24587918172992959 0 0.16988601458932601 -0.2589500224365659 0 0.16978669848249819 -0.25098739912941831 0 0.1767458594742066 -0.25730285456071711 0 0.16988601458932601 -0.2589500224365659 0 0.1767458594742066 -0.25730285456071711 0 0.17628584543496439 -0.26683535894776161 0 0.1767458594742066 -0.25730285456071711 0 0.17628584543496439 -0.26683535894776161 0 0.1845366839674035 -0.26640487959885623 0 0.1767458594742066 -0.25730285456071711 0 0.18706352147094041 -0.25756661524031438 0 0.1845366839674035 -0.26640487959885623 0 0.1767458594742066 -0.25730285456071711 0 0.18706352147094041 -0.25756661524031438 0 0.18399505531774341 -0.24981832115951039 0 0.18852187410829821 -0.28466447112163068 0 0.17628584543496439 -0.26683535894776161 0 0.1845366839674035 -0.26640487959885623 0 0.18852187410829821 -0.28466447112163068 0 0.16574248336044761 -0.26746108990676593 0 0.18852187410829821 -0.28466447112163068 0 0.16574248336044761 -0.26746108990676593 0 0.17628584543496439 -0.26683535894776161 0 0.16920230535812411 -0.27329149954452342 0 0.18747516626574931 -0.28692639975368628 0 0.17602993407772211 -0.2832030986568283 0 0.18852187410829821 -0.28466447112163068 0 0.16574248336044761 -0.26746108990676593 0 0.16920230535812411 -0.27329149954452342 0 0.16920230535812411 -0.27329149954452342 0 0.18747516626574931 -0.28692639975368628 0 0.16920230535812411 -0.27329149954452342 0 0.1710222018321049 -0.28124575318360368 0 0.17602993407772211 -0.2832030986568283 0 0.18747516626574931 -0.28692639975368628 0 0.1806905449634813 -0.28832929748571318 0 0.17602993407772211 -0.2832030986568283 0 0.18852187410829821 -0.28466447112163068 0 0.16920230535812411 -0.27329149954452342 0 0.18747516626574931 -0.28692639975368628 0 0.18747516626574931 -0.28692639975368628 0 0.1806905449634813 -0.28832929748571318 0 0.18301660310609241 -0.29114958545392738 0 0.17291101310642881 -0.28564608084835003 0 0.17864991096044419 -0.29495009963706692 0 0.16594555478614451 -0.28284233368471318 0 0.1806905449634813 -0.28832929748571318 0 0.17602993407772211 -0.2832030986568283 0 0.17673138357400531 -0.28840876668861409 0 0.17602993407772211 -0.2832030986568283 0 0.17673138357400531 -0.28840876668861409 0 0.17291101310642881 -0.28564608084835003 0 0.1710222018321049 -0.28124575318360368 0 0.17602993407772211 -0.2832030986568283 0 0.17291101310642881 -0.28564608084835003 0 0.17673138357400531 -0.28840876668861409 0 0.17291101310642881 -0.28564608084835003 0 0.17864991096044419 -0.29495009963706692 0 0.17673138357400531 -0.28840876668861409 0 0.17909088347012619 -0.29088019083727579 0 0.17864991096044419 -0.29495009963706692 0 0.1806905449634813 -0.28832929748571318 0 0.17673138357400531 -0.28840876668861409 0 0.17909088347012619 -0.29088019083727579 0 0.17909088347012619 -0.29088019083727579 0 0.17864991096044419 -0.29495009963706692 0 0.18114425154506539 -0.29221912984395187 0 0.18747516626574931 -0.28692639975368628 0 0.18734834214976739 -0.29514628785519947 0 0.1827564496500734 -0.29712351473235832 0 0.18747516626574931 -0.28692639975368628 0 0.18301660310609241 -0.29114958545392738 0 0.1827564496500734 -0.29712351473235832 0 0.18114425154506539 -0.29221912984395187 0 0.18301660310609241 -0.29114958545392738 0 0.1827564496500734 -0.29712351473235832 0 0.17864991096044419 -0.29495009963706692 0 0.18114425154506539 -0.29221912984395187 0 0.1827564496500734 -0.29712351473235832 0 0.18747516626574931 -0.28692639975368628 0 0.1827564496500734 -0.29712351473235832 0 0.1806905449634813 -0.28832929748571318 0 0.18114425154506539 -0.29221912984395187 0 0.18301660310609241 -0.29114958545392738 0 0.1806905449634813 -0.28832929748571318 0 0.17909088347012619 -0.29088019083727579 0 0.18114425154506539 -0.29221912984395187 0 0.18802618722583669 -0.31833181955932999 0 0.18221347423979239 -0.30458962683289892 0 0.1698931321352706 -0.29998698427508858 0 0.1880606218677118 -0.30022154946313712 0 0.18734834214976739 -0.29514628785519947 0 0.1827564496500734 -0.29712351473235832 0 0.19009702279388629 -0.3064242775921906 0 0.1880606218677118 -0.30022154946313712 0 0.18221347423979239 -0.30458962683289892 0 0.18802618722583669 -0.31833181955932999 0 0.17151825735526699 -0.31325416760549368 0 0.1698931321352706 -0.29998698427508858 0 0.1880606218677118 -0.30022154946313712 0 0.18221347423979239 -0.30458962683289892 0 0.1827564496500734 -0.29712351473235832 0 0.18802618722583669 -0.31833181955932999 0 0.1698931321352706 -0.29998698427508858 0 0.17864991096044419 -0.29495009963706692 0 0.1827564496500734 -0.29712351473235832 0 0.17837824174639511 -0.29916255636935318 0 0.18221347423979239 -0.30458962683289892 0 0.1827564496500734 -0.29712351473235832 0 0.17837824174639511 -0.29916255636935318 0 0.19009702279388629 -0.3064242775921906 0 0.18802618722583669 -0.31833181955932999 0 0.18221347423979239 -0.30458962683289892 0 0.18221347423979239 -0.30458962683289892 0 0.17837824174639511 -0.29916255636935318 0 0.1698931321352706 -0.29998698427508858 0 0.17864991096044419 -0.29495009963706692 0 0.17837824174639511 -0.29916255636935318 0 0.1698931321352706 -0.29998698427508858 0 0.17151825735526699 -0.31325416760549368 0 0.1698931321352706 -0.29998698427508858 0 0.1602411687519314 -0.31190927739118429 0 0.15432967412725099 -0.29846298066074151 0 0.1698931321352706 -0.29998698427508858 0 0.1602411687519314 -0.31190927739118429 0 0.1517600770447052 -0.28164214899084639 0 0.17864991096044419 -0.29495009963706692 0 0.1698931321352706 -0.29998698427508858 0 0.1517600770447052 -0.28164214899084639 0 0.1698931321352706 -0.29998698427508858 0 0.15432967412725099 -0.29846298066074151 0 0.1517600770447052 -0.28164214899084639 0 0.1698931321352706 -0.29998698427508858 0 0.1517600770447052 -0.28164214899084639 0 0.17864991096044419 -0.29495009963706692 0 0.1517600770447052 -0.28164214899084639 0 0.17864991096044419 -0.29495009963706692 0 0.16594555478614451 -0.28284233368471318 0 0.1710222018321049 -0.28124575318360368 0 0.17291101310642881 -0.28564608084835003 0 0.16594555478614451 -0.28284233368471318 0 0.21438456257476449 -0.5 0 0.2048745361024723 -0.48472171768082351 0 0.18744203257390391 -0.5 0 0.19122796324104871 -0.48466606029959602 0 0.2048745361024723 -0.48472171768082351 0 0.18744203257390391 -0.5 0 0.19122796324104871 -0.48466606029959602 0 0.20365346230900849 -0.47086657296764728 0 0.1938641377332887 -0.4633108835168005 0 0.19122796324104871 -0.48466606029959602 0 0.20365346230900849 -0.47086657296764728 0 0.2048745361024723 -0.48472171768082351 0 0.21766866328091511 -0.47157360957620892 0 0.2048745361024723 -0.48472171768082351 0 0.22288060450936709 -0.48400008360299168 0 0.20365346230900849 -0.47086657296764728 0 0.21766866328091511 -0.47157360957620892 0 0.2048745361024723 -0.48472171768082351 0 0.21438456257476449 -0.5 0 0.2048745361024723 -0.48472171768082351 0 0.22288060450936709 -0.48400008360299168 0 0.21438456257476449 -0.5 0 0.23633351028628971 -0.48712361601618398 0 0.2413270925756249 -0.5 0 0.21438456257476449 -0.5 0 0.23633351028628971 -0.48712361601618398 0 0.22288060450936709 -0.48400008360299168 0 0.25270961841775552 -0.48460016746525392 0 0.23633351028628971 -0.48712361601618398 0 0.2413270925756249 -0.5 0 0.25270961841775552 -0.48460016746525392 0 0.23633351028628971 -0.48712361601618398 0 0.23949561189523169 -0.47426551941090739 0 0.23949561189523169 -0.47426551941090739 0 0.22288060450936709 -0.48400008360299168 0 0.22545312399173489 -0.46028769725088831 0 0.21766866328091511 -0.47157360957620892 0 0.22288060450936709 -0.48400008360299168 0 0.22545312399173489 -0.46028769725088831 0 0.23633351028628971 -0.48712361601618398 0 0.23949561189523169 -0.47426551941090739 0 0.22288060450936709 -0.48400008360299168 0 0.22288060450936709 -0.48400008360299168 0 0.22545312399173489 -0.46028769725088831 0 0.21766866328091511 -0.47157360957620892 0 0.22545312399173489 -0.46028769725088831 0 0.2186728293425339 -0.44755637628226819 0 0.2588368117714554 -0.46700690363883102 0 0.23949561189523169 -0.47426551941090739 0 0.2409729068143365 -0.46262444708906358 0 0.22545312399173489 -0.46028769725088831 0 0.2409729068143365 -0.46262444708906358 0 0.24480843210435321 -0.45079661158300749 0 0.2588368117714554 -0.46700690363883102 0 0.2409729068143365 -0.46262444708906358 0 0.24480843210435321 -0.45079661158300749 0 0.23949561189523169 -0.47426551941090739 0 0.22545312399173489 -0.46028769725088831 0 0.2409729068143365 -0.46262444708906358 0 0.24480843210435321 -0.45079661158300749 0 0.22802564347410281 -0.43657531089878487 0 0.2418992233321238 -0.43333026798624508 0 0.25513396950241118 -0.43290986753561628 0 0.24480843210435321 -0.45079661158300749 0 0.2418992233321238 -0.43333026798624508 0 0.22545312399173489 -0.46028769725088831 0 0.22802564347410281 -0.43657531089878487 0 0.2186728293425339 -0.44755637628226819 0 0.21246462128442831 -0.43168381348743168 0 0.22802564347410281 -0.43657531089878487 0 0.22545312399173489 -0.46028769725088831 0 0.2186728293425339 -0.44755637628226819 0 0.22802564347410281 -0.43657531089878487 0 0.22545312399173489 -0.46028769725088831 0 0.24480843210435321 -0.45079661158300749 0 0.22802564347410281 -0.43657531089878487 0 0.20442019459899149 -0.44533796874460208 0 0.2186728293425339 -0.44755637628226819 0 0.21246462128442831 -0.43168381348743168 0 0.21766866328091511 -0.47157360957620892 0 0.20442019459899149 -0.44533796874460208 0 0.21766866328091511 -0.47157360957620892 0 0.20442019459899149 -0.44533796874460208 0 0.2186728293425339 -0.44755637628226819 0 0.20365346230900849 -0.47086657296764728 0 0.21766866328091511 -0.47157360957620892 0 0.20442019459899149 -0.44533796874460208 0 0.20365346230900849 -0.47086657296764728 0 0.20442019459899149 -0.44533796874460208 0 0.1938641377332887 -0.4633108835168005 0 0.20442019459899149 -0.44533796874460208 0 0.18484232774876749 -0.43033534366960768 0 0.18590039067086719 -0.44115637567916172 0 0.20442019459899149 -0.44533796874460208 0 0.18923595964957429 -0.45067509688328122 0 0.18590039067086719 -0.44115637567916172 0 0.20442019459899149 -0.44533796874460208 0 0.1938641377332887 -0.4633108835168005 0 0.18923595964957429 -0.45067509688328122 0 0.20442019459899149 -0.44533796874460208 0 0.1911717259170673 -0.41910232791299562 0 0.20473537155931409 -0.42802668409371708 0 0.20442019459899149 -0.44533796874460208 0 0.1911717259170673 -0.41910232791299562 0 0.20442019459899149 -0.44533796874460208 0 0.1911717259170673 -0.41910232791299562 0 0.18484232774876749 -0.43033534366960768 0 0.1911717259170673 -0.41910232791299562 0 0.21088494443676881 -0.41598262622983972 0 0.20473537155931409 -0.42802668409371708 0 0.18851111772050869 -0.41383358608972459 0 0.208966154163157 -0.40126827473642579 0 0.1911717259170673 -0.41910232791299562 0 0.21088494443676881 -0.41598262622983972 0 0.1911717259170673 -0.41910232791299562 0 0.18851111772050869 -0.41383358608972459 0 0.21088494443676881 -0.41598262622983972 0 0.18851111772050869 -0.41383358608972459 0 0.21088494443676881 -0.41598262622983972 0 0.208966154163157 -0.40126827473642579 0 0.1911717259170673 -0.41910232791299562 0 0.18851111772050869 -0.41383358608972459 0 0.21088494443676881 -0.41598262622983972 0 0.22155668588658281 -0.40529615173032069 0 0.208966154163157 -0.40126827473642579 0 0.21088494443676881 -0.41598262622983972 0 0.20473537155931409 -0.42802668409371708 0 0.21246462128442831 -0.43168381348743168 0 0.21088494443676881 -0.41598262622983972 0 0.21246462128442831 -0.43168381348743168 0 0.21959695705502991 -0.42408781639437282 0 0.20442019459899149 -0.44533796874460208 0 0.20473537155931409 -0.42802668409371708 0 0.21246462128442831 -0.43168381348743168 0 0.21246462128442831 -0.43168381348743168 0 0.21959695705502991 -0.42408781639437282 0 0.22802564347410281 -0.43657531089878487 0 0.22802564347410281 -0.43657531089878487 0 0.23614533994983331 -0.4244462479719151 0 0.23059816295646979 -0.4128629245466815 0 0.22802564347410281 -0.43657531089878487 0 0.23059816295646979 -0.4128629245466815 0 0.21959695705502991 -0.42408781639437282 0 0.22802564347410281 -0.43657531089878487 0 0.23059816295646979 -0.4128629245466815 0 0.22802564347410281 -0.43657531089878487 0 0.2418992233321238 -0.43333026798624508 0 0.23614533994983331 -0.4244462479719151 0 0.2418992233321238 -0.43333026798624508 0 0.23614533994983331 -0.4244462479719151 0 0.2453827316299185 -0.42192330194190181 0 0.25513396950241118 -0.43290986753561628 0 0.2418992233321238 -0.43333026798624508 0 0.2453827316299185 -0.42192330194190181 0 0.256136481120742 -0.41447562176841068 0 0.2453827316299185 -0.42192330194190181 0 0.24629253832767661 -0.41022035877505542 0 0.2453827316299185 -0.42192330194190181 0 0.24629253832767661 -0.41022035877505542 0 0.2366098857920339 -0.41191154353144788 0 0.23614533994983331 -0.4244462479719151 0 0.2366098857920339 -0.41191154353144788 0 0.23059816295646979 -0.4128629245466815 0 0.23614533994983331 -0.4244462479719151 0 0.2453827316299185 -0.42192330194190181 0 0.2366098857920339 -0.41191154353144788 0 0.24629253832767661 -0.41022035877505542 0 0.2366098857920339 -0.41191154353144788 0 0.2422505545635501 -0.40276464775944387 0 0.21088494443676881 -0.41598262622983972 0 0.23059816295646979 -0.4128629245466815 0 0.2366098857920339 -0.41191154353144788 0 0.23059816295646979 -0.4128629245466815 0 0.23156745731421779 -0.4039283829592023 0 0.23059816295646979 -0.4128629245466815 0 0.22155668588658281 -0.40529615173032069 0 0.23156745731421779 -0.4039283829592023 0 0.23059816295646979 -0.4128629245466815 0 0.23156745731421779 -0.4039283829592023 0 0.21088494443676881 -0.41598262622983972 0 0.23059816295646979 -0.4128629245466815 0 0.22155668588658281 -0.40529615173032069 0 0.21088494443676881 -0.41598262622983972 0 0.21959695705502991 -0.42408781639437282 0 0.23059816295646979 -0.4128629245466815 0 0.2366098857920339 -0.41191154353144788 0 0.23059816295646979 -0.4128629245466815 0 0.22155668588658281 -0.40529615173032069 0 0.22942119060580499 -0.38870296338312649 0 0.208966154163157 -0.40126827473642579 0 0.22155668588658281 -0.40529615173032069 0 0.23156745731421779 -0.4039283829592023 0 0.22942119060580499 -0.38870296338312649 0 0.22942119060580499 -0.38870296338312649 0 0.208966154163157 -0.40126827473642579 0 0.23156745731421779 -0.4039283829592023 0 0.24309899287842279 -0.39271330151873202 0 0.2422505545635501 -0.40276464775944387 0 0.2366098857920339 -0.41191154353144788 0 0.23156745731421779 -0.4039283829592023 0 0.2422505545635501 -0.40276464775944387 0 0.23156745731421779 -0.4039283829592023 0 0.24309899287842279 -0.39271330151873202 0 0.22942119060580499 -0.38870296338312649 0 0.25108303853213881 -0.40002667887407228 0 0.24629253832767661 -0.41022035877505542 0 0.2422505545635501 -0.40276464775944387 0 0.25108303853213881 -0.40002667887407228 0 0.24309899287842279 -0.39271330151873202 0 0.2422505545635501 -0.40276464775944387 0 0.24987622704845311 -0.37613765202982719 0 0.22942119060580499 -0.38870296338312649 0 0.24309899287842279 -0.39271330151873202 0 0.24987622704845311 -0.37613765202982719 0 0.22942119060580499 -0.38870296338312649 0 0.24987622704845311 -0.37613765202982719 0 0.23474048966473349 -0.38137370792841258 0 0.22942119060580499 -0.38870296338312649 0 0.25687819372407023 -0.38903915957053298 0 0.24309899287842279 -0.39271330151873202 0 0.24987622704845311 -0.37613765202982719 0 0.23679608458568241 -0.3713456781615978 0 0.24987622704845311 -0.37613765202982719 0 0.23474048966473349 -0.38137370792841258 0 0.23474048966473349 -0.38137370792841258 0 0.23010576568282681 -0.37607478874810818 0 0.22189277223980711 -0.38054577212349588 0 0.23474048966473349 -0.38137370792841258 0 0.22189277223980711 -0.38054577212349588 0 0.20961824525516401 -0.3936281247522696 0 0.23474048966473349 -0.38137370792841258 0 0.22942119060580499 -0.38870296338312649 0 0.20961824525516401 -0.3936281247522696 0 0.23679608458568241 -0.3713456781615978 0 0.23474048966473349 -0.38137370792841258 0 0.23010576568282681 -0.37607478874810818 0 0.23474048966473349 -0.38137370792841258 0 0.20961824525516401 -0.3936281247522696 0 0.22699371624108439 -0.37103399677892651 0 0.23010576568282681 -0.37607478874810818 0 0.22189277223980711 -0.38054577212349588 0 0.21663927632257499 -0.37152038636996992 0 0.22189277223980711 -0.38054577212349588 0 0.21119602619295649 -0.38157571206759561 0 0.21663927632257499 -0.37152038636996992 0 0.21119602619295649 -0.38157571206759561 0 0.20576161095015591 -0.37595213443190167 0 0.21119602619295649 -0.38157571206759561 0 0.20576161095015591 -0.37595213443190167 0 0.20229958674085519 -0.38616776423662919 0 0.21119602619295649 -0.38157571206759561 0 0.20961824525516401 -0.3936281247522696 0 0.20229958674085519 -0.38616776423662919 0 0.22189277223980711 -0.38054577212349588 0 0.21119602619295649 -0.38157571206759561 0 0.20961824525516401 -0.3936281247522696 0 0.22942119060580499 -0.38870296338312649 0 0.208966154163157 -0.40126827473642579 0 0.20961824525516401 -0.3936281247522696 0 0.20961824525516401 -0.3936281247522696 0 0.18449600084559339 -0.40588254157612419 0 0.20961824525516401 -0.3936281247522696 0 0.19262774622386039 -0.39991289132556063 0 0.20229958674085519 -0.38616776423662919 0 0.18851111772050869 -0.41383358608972459 0 0.20961824525516401 -0.3936281247522696 0 0.18449600084559339 -0.40588254157612419 0 0.19262774622386039 -0.39991289132556063 0 0.193172237845981 -0.38760648281860499 0 0.20229958674085519 -0.38616776423662919 0 0.20961824525516401 -0.3936281247522696 0 0.19262774622386039 -0.39991289132556063 0 0.18449600084559339 -0.40588254157612419 0 0.18851111772050869 -0.41383358608972459 0 0.208966154163157 -0.40126827473642579 0 0.20961824525516401 -0.3936281247522696 0 0.19262774622386039 -0.39991289132556063 0 0.18963514604776821 -0.39361523539988952 0 0.193172237845981 -0.38760648281860499 0 0.19262774622386039 -0.39991289132556063 0 0.18963514604776821 -0.39361523539988952 0 0.18221634088723479 -0.40136818287387582 0 0.18963514604776821 -0.39361523539988952 0 0.193172237845981 -0.38760648281860499 0 0.18267650324237161 -0.39405502657648112 0 0.193172237845981 -0.38760648281860499 0 0.1910424400336663 -0.37547354736401328 0 0.18267650324237161 -0.39405502657648112 0 0.20576161095015591 -0.37595213443190167 0 0.1910424400336663 -0.37547354736401328 0 0.20229958674085519 -0.38616776423662919 0 0.193172237845981 -0.38760648281860499 0 0.1910424400336663 -0.37547354736401328 0 0.20229958674085519 -0.38616776423662919 0 0.1910424400336663 -0.37547354736401328 0 0.17822948803450961 -0.38676940160015832 0 0.1737051017910701 -0.38004230502140057 0 0.1910424400336663 -0.37547354736401328 0 0.18267650324237161 -0.39405502657648112 0 0.1910424400336663 -0.37547354736401328 0 0.17822948803450961 -0.38676940160015832 0 0.18267650324237161 -0.39405502657648112 0 0.17822948803450961 -0.38676940160015832 0 0.17910183421640119 -0.39520059623836468 0 0.1646215608890387 -0.38907553280053181 0 0.17822948803450961 -0.38676940160015832 0 0.1737051017910701 -0.38004230502140057 0 0.1646215608890387 -0.38907553280053181 0 0.17822948803450961 -0.38676940160015832 0 0.18267650324237161 -0.39405502657648112 0 0.17910183421640119 -0.39520059623836468 0 0.18221634088723479 -0.40136818287387582 0 0.17910183421640119 -0.39520059623836468 0 0.15805845094365739 -0.40474493864538458 0 0.18963514604776821 -0.39361523539988952 0 0.18267650324237161 -0.39405502657648112 0 0.18221634088723479 -0.40136818287387582 0 0.18267650324237161 -0.39405502657648112 0 0.18221634088723479 -0.40136818287387582 0 0.17910183421640119 -0.39520059623836468 0 0.18221634088723479 -0.40136818287387582 0 0.17910183421640119 -0.39520059623836468 0 0.19262774622386039 -0.39991289132556063 0 0.18221634088723479 -0.40136818287387582 0 0.19262774622386039 -0.39991289132556063 0 0.18449600084559339 -0.40588254157612419 0 0.18221634088723479 -0.40136818287387582 0 0.18449600084559339 -0.40588254157612419 0 0.18221634088723479 -0.40136818287387582 0 0.17910183421640119 -0.39520059623836468 0 0.15805845094365739 -0.40474493864538458 0 0.1646215608890387 -0.38907553280053181 0 0.18221634088723479 -0.40136818287387582 0 0.15805845094365739 -0.40474493864538458 0 0.15805845094365739 -0.40474493864538458 0 0.1646215608890387 -0.38907553280053181 0 0.14706277844018539 -0.39464292458295508 0 0.1737051017910701 -0.38004230502140057 0 0.1646215608890387 -0.38907553280053181 0 0.16307541855137739 -0.37743582412871929 0 0.17035242753357599 -0.36877211446365682 0 0.1737051017910701 -0.38004230502140057 0 0.16307541855137739 -0.37743582412871929 0 0.1569593121701936 -0.36832063090657668 0 0.16307541855137739 -0.37743582412871929 0 0.14973869037300869 -0.38096853745143089 0 0.1646215608890387 -0.38907553280053181 0 0.16307541855137739 -0.37743582412871929 0 0.14973869037300869 -0.38096853745143089 0 0.1646215608890387 -0.38907553280053181 0 0.14973869037300869 -0.38096853745143089 0 0.14706277844018539 -0.39464292458295508 0 0.14973869037300869 -0.38096853745143089 0 0.1375772795987745 -0.38493757303029391 0 0.14706277844018539 -0.39464292458295508 0 0.13524945632583441 -0.37311377610700652 0 0.14973869037300869 -0.38096853745143089 0 0.1375772795987745 -0.38493757303029391 0 0.13524945632583441 -0.37311377610700652 0 0.1375772795987745 -0.38493757303029391 0 0.12609635470998201 -0.38402791619100712 0 0.1375772795987745 -0.38493757303029391 0 0.12609635470998201 -0.38402791619100712 0 0.13569313113510631 -0.39589912548093298 0 0.12645644117523869 -0.39722706905544619 0 0.13569313113510631 -0.39589912548093298 0 0.1339005610000801 -0.40812169441689322 0 0.12645644117523869 -0.39722706905544619 0 0.1339005610000801 -0.40812169441689322 0 0.1250254850364893 -0.40936224001308058 0 0.12609635470998201 -0.38402791619100712 0 0.12645644117523869 -0.39722706905544619 0 0.13569313113510631 -0.39589912548093298 0 0.1375772795987745 -0.38493757303029391 0 0.13569313113510631 -0.39589912548093298 0 0.14706277844018539 -0.39464292458295508 0 0.13569313113510631 -0.39589912548093298 0 0.14706277844018539 -0.39464292458295508 0 0.1339005610000801 -0.40812169441689322 0 0.13569313113510631 -0.39589912548093298 0 0.1339005610000801 -0.40812169441689322 0 0.15805845094365739 -0.40474493864538458 0 0.14706277844018539 -0.39464292458295508 0 0.1339005610000801 -0.40812169441689322 0 0.15805845094365739 -0.40474493864538458 0 0.1339005610000801 -0.40812169441689322 0 0.15805845094365739 -0.40474493864538458 0 0.15398562739609989 -0.414436145328195 0 0.14500783119440661 -0.41410657591589572 0 0.15805845094365739 -0.40474493864538458 0 0.14500783119440661 -0.41410657591589572 0 0.1339005610000801 -0.40812169441689322 0 0.15398562739609989 -0.414436145328195 0 0.15088002640467921 -0.42009116626417142 0 0.14500783119440661 -0.41410657591589572 0 0.15088002640467921 -0.42009116626417142 0 0.15979138776423191 -0.42406840149736191 0 0.15636365466176849 -0.41960526040447821 0 0.15398562739609989 -0.414436145328195 0 0.15088002640467921 -0.42009116626417142 0 0.15636365466176849 -0.41960526040447821 0 0.15088002640467921 -0.42009116626417142 0 0.14500783119440661 -0.41410657591589572 0 0.14354831806896931 -0.42663893719234869 0 0.14500783119440661 -0.41410657591589572 0 0.1339005610000801 -0.40812169441689322 0 0.13212255532719441 -0.42024495614079282 0 0.14500783119440661 -0.41410657591589572 0 0.13212255532719441 -0.42024495614079282 0 0.14354831806896931 -0.42663893719234869 0 0.1339005610000801 -0.40812169441689322 0 0.13212255532719441 -0.42024495614079282 0 0.13212255532719441 -0.42024495614079282 0 0.1250254850364893 -0.40936224001308058 0 0.117866085899093 -0.41583132647739651 0 0.13212255532719441 -0.42024495614079282 0 0.1250254850364893 -0.40936224001308058 0 0.1339005610000801 -0.40812169441689322 0 0.13212255532719441 -0.42024495614079282 0 0.1250254850364893 -0.40936224001308058 0 0.1339005610000801 -0.40812169441689322 0 0.1250254850364893 -0.40936224001308058 0 0.13212255532719441 -0.42024495614079282 0 0.14354831806896931 -0.42663893719234869 0 0.1460535583969573 -0.44160689079445481 0 0.13212255532719441 -0.42024495614079282 0 0.128223579302082 -0.44682997076052833 0 0.13212255532719441 -0.42024495614079282 0 0.128223579302082 -0.44682997076052833 0 0.1159996351348133 -0.43474120747525058 0 0.13212255532719441 -0.42024495614079282 0 0.1460535583969573 -0.44160689079445481 0 0.13212255532719441 -0.42024495614079282 0 0.1460535583969573 -0.44160689079445481 0 0.128223579302082 -0.44682997076052833 0 0.15088002640467921 -0.42009116626417142 0 0.14354831806896931 -0.42663893719234869 0 0.15979138776423191 -0.42406840149736191 0 0.14354831806896931 -0.42663893719234869 0 0.15979138776423191 -0.42406840149736191 0 0.14354831806896931 -0.42663893719234869 0 0.15423293294423909 -0.43386412417913311 0 0.1460535583969573 -0.44160689079445481 0 0.14354831806896931 -0.42663893719234869 0 0.15423293294423909 -0.43386412417913311 0 0.15979138776423191 -0.42406840149736191 0 0.15423293294423909 -0.43386412417913311 0 0.16088991666547389 -0.43196094602310392 0 0.16557730454712019 -0.44172028084172121 0 0.1713980071398 -0.42434598792645378 0 0.15979138776423191 -0.42406840149736191 0 0.1760344574594947 -0.42149786580237669 0 0.15423293294423909 -0.43386412417913311 0 0.16088991666547389 -0.43196094602310392 0 0.15979138776423191 -0.42406840149736191 0 0.15979138776423191 -0.42406840149736191 0 0.1760344574594947 -0.42149786580237669 0 0.16626302434537371 -0.43076979168845952 0 0.17509911994716071 -0.43336510097506958 0 0.16557730454712019 -0.44172028084172121 0 0.16088991666547389 -0.43196094602310392 0 0.16626302434537371 -0.43076979168845952 0 0.16557730454712019 -0.44172028084172121 0 0.16626302434537371 -0.43076979168845952 0 0.1713980071398 -0.42434598792645378 0 0.17509911994716071 -0.43336510097506958 0 0.16626302434537371 -0.43076979168845952 0 0.1713980071398 -0.42434598792645378 0 0.15979138776423191 -0.42406840149736191 0 0.16088991666547389 -0.43196094602310392 0 0.16626302434537371 -0.43076979168845952 0 0.15979138776423191 -0.42406840149736191 0 0.15636365466176849 -0.41960526040447821 0 0.16176651730702801 -0.41283252991975622 0 0.17042982775368151 -0.41274390099030239 0 0.18221634088723479 -0.40136818287387582 0 0.15805845094365739 -0.40474493864538458 0 0.17042982775368151 -0.41274390099030239 0 0.15979138776423191 -0.42406840149736191 0 0.15636365466176849 -0.41960526040447821 0 0.17042982775368151 -0.41274390099030239 0 0.15636365466176849 -0.41960526040447821 0 0.17042982775368151 -0.41274390099030239 0 0.15979138776423191 -0.42406840149736191 0 0.17042982775368151 -0.41274390099030239 0 0.1760344574594947 -0.42149786580237669 0 0.15398562739609989 -0.414436145328195 0 0.15636365466176849 -0.41960526040447821 0 0.16176651730702801 -0.41283252991975622 0 0.15805845094365739 -0.40474493864538458 0 0.15398562739609989 -0.414436145328195 0 0.16176651730702801 -0.41283252991975622 0 0.15805845094365739 -0.40474493864538458 0 0.16176651730702801 -0.41283252991975622 0 0.17042982775368151 -0.41274390099030239 0 0.17042982775368151 -0.41274390099030239 0 0.1760344574594947 -0.42149786580237669 0 0.17986785094481991 -0.4134894736146324 0 0.18449600084559339 -0.40588254157612419 0 0.17042982775368151 -0.41274390099030239 0 0.18449600084559339 -0.40588254157612419 0 0.18221634088723479 -0.40136818287387582 0 0.17042982775368151 -0.41274390099030239 0 0.18449600084559339 -0.40588254157612419 0 0.17042982775368151 -0.41274390099030239 0 0.17986785094481991 -0.4134894736146324 0 0.18851111772050869 -0.41383358608972459 0 0.18449600084559339 -0.40588254157612419 0 0.18851111772050869 -0.41383358608972459 0 0.18449600084559339 -0.40588254157612419 0 0.17986785094481991 -0.4134894736146324 0 0.18851111772050869 -0.41383358608972459 0 0.1760344574594947 -0.42149786580237669 0 0.1911717259170673 -0.41910232791299562 0 0.1760344574594947 -0.42149786580237669 0 0.18851111772050869 -0.41383358608972459 0 0.1760344574594947 -0.42149786580237669 0 0.17986785094481991 -0.4134894736146324 0 0.1911717259170673 -0.41910232791299562 0 0.18851111772050869 -0.41383358608972459 0 0.1760344574594947 -0.42149786580237669 0 0.1911717259170673 -0.41910232791299562 0 0.1760344574594947 -0.42149786580237669 0 0.18484232774876749 -0.43033534366960768 0 0.18484232774876749 -0.43033534366960768 0 0.17509911994716071 -0.43336510097506958 0 0.18590039067086719 -0.44115637567916172 0 0.18484232774876749 -0.43033534366960768 0 0.17509911994716071 -0.43336510097506958 0 0.17653319474121221 -0.42750765242104072 0 0.1713980071398 -0.42434598792645378 0 0.17509911994716071 -0.43336510097506958 0 0.17653319474121221 -0.42750765242104072 0 0.1760344574594947 -0.42149786580237669 0 0.18484232774876749 -0.43033534366960768 0 0.17653319474121221 -0.42750765242104072 0 0.1713980071398 -0.42434598792645378 0 0.1760344574594947 -0.42149786580237669 0 0.17653319474121221 -0.42750765242104072 0 0.1713980071398 -0.42434598792645378 0 0.1760344574594947 -0.42149786580237669 0 0.17791556380287959 -0.4455361086535346 0 0.17376504419967539 -0.46076368888843938 0 0.16557730454712019 -0.44172028084172121 0 0.17509911994716071 -0.43336510097506958 0 0.17791556380287959 -0.4455361086535346 0 0.18590039067086719 -0.44115637567916172 0 0.17509911994716071 -0.43336510097506958 0 0.17791556380287959 -0.4455361086535346 0 0.16557730454712019 -0.44172028084172121 0 0.18923595964957429 -0.45067509688328122 0 0.17791556380287959 -0.4455361086535346 0 0.18590039067086719 -0.44115637567916172 0 0.18923595964957429 -0.45067509688328122 0 0.17791556380287959 -0.4455361086535346 0 0.17376504419967539 -0.46076368888843938 0 0.1938641377332887 -0.4633108835168005 0 0.18923595964957429 -0.45067509688328122 0 0.17376504419967539 -0.46076368888843938 0 0.1938641377332887 -0.4633108835168005 0 0.17376504419967539 -0.46076368888843938 0 0.17718182015316611 -0.48165544175840053 0 0.17376504419967539 -0.46076368888843938 0 0.15550290350416551 -0.45157236434768988 0 0.1539044029471725 -0.46809795184702829 0 0.17376504419967539 -0.46076368888843938 0 0.16557730454712019 -0.44172028084172121 0 0.15550290350416551 -0.45157236434768988 0 0.15423293294423909 -0.43386412417913311 0 0.16557730454712019 -0.44172028084172121 0 0.15550290350416551 -0.45157236434768988 0 0.15423293294423909 -0.43386412417913311 0 0.15550290350416551 -0.45157236434768988 0 0.1460535583969573 -0.44160689079445481 0 0.15550290350416551 -0.45157236434768988 0 0.1460535583969573 -0.44160689079445481 0 0.14153074802588431 -0.45654190970348868 0 0.1460535583969573 -0.44160689079445481 0 0.128223579302082 -0.44682997076052833 0 0.14153074802588431 -0.45654190970348868 0 0.128223579302082 -0.44682997076052833 0 0.12432460327697011 -0.47341498538026422 0 0.128223579302082 -0.44682997076052833 0 0.14153074802588431 -0.45654190970348868 0 0.12432460327697011 -0.47341498538026422 0 0.1539044029471725 -0.46809795184702829 0 0.14153074802588431 -0.45654190970348868 0 0.12432460327697011 -0.47341498538026422 0 0.15550290350416551 -0.45157236434768988 0 0.1539044029471725 -0.46809795184702829 0 0.14153074802588431 -0.45654190970348868 0 0.1539044029471725 -0.46809795184702829 0 0.15048103374274721 -0.48484579871078243 0 0.12432460327697011 -0.47341498538026422 0 0.1404625649124509 -0.5 0 0.15048103374274721 -0.48484579871078243 0 0.12432460327697011 -0.47341498538026422 0 0.1404625649124509 -0.5 0 0.12042562725185831 -0.49999999999999989 0 0.12432460327697011 -0.47341498538026422 0 0.1404625649124509 -0.5 0 0.15048103374274721 -0.48484579871078243 0 0.16049950257304349 -0.50000000000000033 0 0.16049950257304349 -0.50000000000000033 0 0.17718182015316611 -0.48165544175840053 0 0.15048103374274721 -0.48484579871078243 0 0.16049950257304349 -0.50000000000000033 0 0.17718182015316611 -0.48165544175840053 0 0.17376504419967539 -0.46076368888843938 0 0.1539044029471725 -0.46809795184702829 0 0.17718182015316611 -0.48165544175840053 0 0.1539044029471725 -0.46809795184702829 0 0.15048103374274721 -0.48484579871078243 0 0.17718182015316611 -0.48165544175840053 0 0.1938641377332887 -0.4633108835168005 0 0.17718182015316611 -0.48165544175840053 0 0.19122796324104871 -0.48466606029959602 0 0.1938641377332887 -0.4633108835168005 0 0.17718182015316611 -0.48165544175840053 0 0.16049950257304349 -0.50000000000000033 0 0.17718182015316611 -0.48165544175840053 0 0.18744203257390391 -0.5 0 0.19122796324104871 -0.48466606029959602 0 0.17718182015316611 -0.48165544175840053 0 0.18744203257390391 -0.5 0 0.072018957471098571 -0.48629524479662273 0 0.069142552082564368 -0.5 0 0.082735946582200875 -0.4892045976485363 0 0.072018957471098571 -0.48629524479662273 0 0.079568506083734697 -0.4785915255016745 0 0.082735946582200875 -0.4892045976485363 0 0.072018957471098571 -0.48629524479662273 0 0.062670741706174135 -0.48944359682069549 0 0.064881374578912687 -0.4815757870058418 0 0.072018957471098571 -0.48629524479662273 0 0.069142552082564368 -0.5 0 0.062670741706174135 -0.48944359682069549 0 0.073180054077148754 -0.46968413697177741 0 0.079568506083734697 -0.4785915255016745 0 0.081395248040860374 -0.46160025678040811 0 0.067447632246636219 -0.45716428258124142 0 0.05849497948899289 -0.47642287528831911 0 0.061758178687080389 -0.47580514524370598 0 0.072018957471098571 -0.48629524479662273 0 0.064881374578912687 -0.4815757870058418 0 0.070673492561877091 -0.4782128222507579 0 0.064881374578912687 -0.4815757870058418 0 0.066280053791524171 -0.47680462027284459 0 0.061758178687080389 -0.47580514524370598 0 0.064881374578912687 -0.4815757870058418 0 0.066280053791524171 -0.47680462027284459 0 0.070673492561877091 -0.4782128222507579 0 0.066280053791524171 -0.47680462027284459 0 0.067807169338226503 -0.47162472659107291 0 0.061758178687080389 -0.47580514524370598 0 0.066280053791524171 -0.47680462027284459 0 0.067807169338226503 -0.47162472659107291 0 0.070673492561877091 -0.4782128222507579 0 0.067807169338226503 -0.47162472659107291 0 0.073180054077148754 -0.46968413697177741 0 0.070673492561877091 -0.4782128222507579 0 0.073180054077148754 -0.46968413697177741 0 0.070673492561877091 -0.4782128222507579 0 0.079568506083734697 -0.4785915255016745 0 0.072018957471098571 -0.48629524479662273 0 0.070673492561877091 -0.4782128222507579 0 0.079568506083734697 -0.4785915255016745 0 0.096876661376123455 -0.48080012839020431 0 0.081395248040860374 -0.46160025678040811 0 0.096876661376123455 -0.48080012839020431 0 0.095349939854524335 -0.46404107218864848 0 0.081395248040860374 -0.46160025678040811 0 0.079568506083734697 -0.4785915255016745 0 0.082735946582200875 -0.4892045976485363 0 0.096876661376123455 -0.48080012839020431 0 0.079568506083734697 -0.4785915255016745 0 0.096876661376123455 -0.48080012839020431 0 0.081395248040860374 -0.46160025678040811 0 0.090750313396975479 -0.5 0 0.082735946582200875 -0.4892045976485363 0 0.096876661376123455 -0.48080012839020431 0 0.069142552082564368 -0.5 0 0.090750313396975479 -0.5 0 0.082735946582200875 -0.4892045976485363 0 0.1123580747113867 -0.50000000000000033 0 0.1124728586670535 -0.48406595427175642 0 0.096876661376123455 -0.48080012839020431 0 0.090750313396975479 -0.5 0 0.1123580747113867 -0.50000000000000033 0 0.096876661376123455 -0.48080012839020431 0 0.1123580747113867 -0.50000000000000033 0 0.096876661376123455 -0.48080012839020431 0 0.1123580747113867 -0.50000000000000033 0 0.12042562725185831 -0.49999999999999989 0 0.1124728586670535 -0.48406595427175642 0 0.12042562725185831 -0.49999999999999989 0 0.1124728586670535 -0.48406595427175642 0 0.12432460327697011 -0.47341498538026422 0 0.12042562725185831 -0.49999999999999989 0 0.12432460327697011 -0.47341498538026422 0 0.1124728586670535 -0.48406595427175642 0 0.12432460327697011 -0.47341498538026422 0 0.1082250197838846 -0.46311527911574241 0 0.096876661376123455 -0.48080012839020431 0 0.095349939854524335 -0.46404107218864848 0 0.1082250197838846 -0.46311527911574241 0 0.1124728586670535 -0.48406595427175642 0 0.096876661376123455 -0.48080012839020431 0 0.1082250197838846 -0.46311527911574241 0 0.095349939854524335 -0.46404107218864848 0 0.1082250197838846 -0.46311527911574241 0 0.094902830217228867 -0.45064862446823939 0 0.128223579302082 -0.44682997076052833 0 0.12432460327697011 -0.47341498538026422 0 0.1082250197838846 -0.46311527911574241 0 0.128223579302082 -0.44682997076052833 0 0.1069391861142964 -0.44299064961396012 0 0.1159996351348133 -0.43474120747525058 0 0.128223579302082 -0.44682997076052833 0 0.1082250197838846 -0.46311527911574241 0 0.1069391861142964 -0.44299064961396012 0 0.1082250197838846 -0.46311527911574241 0 0.1069391861142964 -0.44299064961396012 0 0.094902830217228867 -0.45064862446823939 0 0.1069391861142964 -0.44299064961396012 0 0.091812697424993442 -0.4386357446441016 0 0.098414951810672224 -0.43233268446502993 0 0.1069391861142964 -0.44299064961396012 0 0.094902830217228867 -0.45064862446823939 0 0.091812697424993442 -0.4386357446441016 0 0.094902830217228867 -0.45064862446823939 0 0.091812697424993442 -0.4386357446441016 0 0.082434724511159588 -0.44537142502386151 0 0.094902830217228867 -0.45064862446823939 0 0.082434724511159588 -0.44537142502386151 0 0.081395248040860374 -0.46160025678040811 0 0.091812697424993442 -0.4386357446441016 0 0.082434724511159588 -0.44537142502386151 0 0.078149012167117934 -0.43357211405594609 0 0.095349939854524335 -0.46404107218864848 0 0.094902830217228867 -0.45064862446823939 0 0.081395248040860374 -0.46160025678040811 0 0.067447632246636219 -0.45716428258124142 0 0.065913834705597293 -0.44240038517061198 0 0.057068655694905858 -0.46015288389510001 0 0.067447632246636219 -0.45716428258124142 0 0.05849497948899289 -0.47642287528831911 0 0.067807169338226503 -0.47162472659107291 0 0.067447632246636219 -0.45716428258124142 0 0.061758178687080389 -0.47580514524370598 0 0.081395248040860374 -0.46160025678040811 0 0.067447632246636219 -0.45716428258124142 0 0.065913834705597293 -0.44240038517061198 0 0.073180054077148754 -0.46968413697177741 0 0.081395248040860374 -0.46160025678040811 0 0.067447632246636219 -0.45716428258124142 0 0.067807169338226503 -0.47162472659107291 0 0.073180054077148754 -0.46968413697177741 0 0.067447632246636219 -0.45716428258124142 0 0.081395248040860374 -0.46160025678040811 0 0.065913834705597293 -0.44240038517061198 0 0.082434724511159588 -0.44537142502386151 0 0.081395248040860374 -0.46160025678040811 0 0.065913834705597293 -0.44240038517061198 0 0.082434724511159588 -0.44537142502386151 0 0.065913834705597293 -0.44240038517061198 0 0.078149012167117934 -0.43357211405594609 0 0.065921365320016911 -0.4273577277455588 0 0.073982485551444349 -0.42005290588181732 0 0.078149012167117934 -0.43357211405594609 0 0.065913834705597293 -0.44240038517061198 0 0.065921365320016911 -0.4273577277455588 0 0.078149012167117934 -0.43357211405594609 0 0.073982485551444349 -0.42005290588181732 0 0.069775570718114244 -0.40426700169235308 0 0.060774245729122177 -0.41691050055794487 0 0.065921365320016911 -0.4273577277455588 0 0.073982485551444349 -0.42005290588181732 0 0.060774245729122177 -0.41691050055794487 0 0.073982485551444349 -0.42005290588181732 0 0.086447448161059384 -0.41120764722282821 0 0.069775570718114244 -0.40426700169235308 0 0.073982485551444349 -0.42005290588181732 0 0.086447448161059384 -0.41120764722282821 0 0.088692331433278357 -0.42535053834926723 0 0.086447448161059384 -0.41120764722282821 0 0.093827427438274241 -0.41775801958915132 0 0.099702730965631758 -0.41290181884877419 0 0.086447448161059384 -0.41120764722282821 0 0.088692331433278357 -0.42535053834926723 0 0.093827427438274241 -0.41775801958915132 0 0.088692331433278357 -0.42535053834926723 0 0.097645949564215143 -0.42435504664253748 0 0.093827427438274241 -0.41775801958915132 0 0.073982485551444349 -0.42005290588181732 0 0.088692331433278357 -0.42535053834926723 0 0.078149012167117934 -0.43357211405594609 0 0.091812697424993442 -0.4386357446441016 0 0.088692331433278357 -0.42535053834926723 0 0.078149012167117934 -0.43357211405594609 0 0.091812697424993442 -0.4386357446441016 0 0.088692331433278357 -0.42535053834926723 0 0.098414951810672224 -0.43233268446502993 0 0.098414951810672224 -0.43233268446502993 0 0.097645949564215143 -0.42435504664253748 0 0.1061961683754654 -0.43004895598907111 0 0.088692331433278357 -0.42535053834926723 0 0.098414951810672224 -0.43233268446502993 0 0.097645949564215143 -0.42435504664253748 0 0.1061961683754654 -0.43004895598907111 0 0.11152958735588871 -0.42539382439527612 0 0.1045809803654715 -0.42051706085107571 0 0.097645949564215143 -0.42435504664253748 0 0.1061961683754654 -0.43004895598907111 0 0.1045809803654715 -0.42051706085107571 0 0.1069391861142964 -0.44299064961396012 0 0.098414951810672224 -0.43233268446502993 0 0.1061961683754654 -0.43004895598907111 0 0.1061961683754654 -0.43004895598907111 0 0.1159996351348133 -0.43474120747525058 0 0.11152958735588871 -0.42539382439527612 0 0.13212255532719441 -0.42024495614079282 0 0.1159996351348133 -0.43474120747525058 0 0.11851153239627241 -0.42275952171654291 0 0.1069391861142964 -0.44299064961396012 0 0.1061961683754654 -0.43004895598907111 0 0.1159996351348133 -0.43474120747525058 0 0.1159996351348133 -0.43474120747525058 0 0.11152958735588871 -0.42539382439527612 0 0.11851153239627241 -0.42275952171654291 0 0.11152958735588871 -0.42539382439527612 0 0.11851153239627241 -0.42275952171654291 0 0.1123596205074209 -0.41890237594444008 0 0.1250254850364893 -0.40936224001308058 0 0.117866085899093 -0.41583132647739651 0 0.1096180349996463 -0.41151587164058129 0 0.1250254850364893 -0.40936224001308058 0 0.1096180349996463 -0.41151587164058129 0 0.13212255532719441 -0.42024495614079282 0 0.11851153239627241 -0.42275952171654291 0 0.117866085899093 -0.41583132647739651 0 0.117866085899093 -0.41583132647739651 0 0.1123596205074209 -0.41890237594444008 0 0.1096180349996463 -0.41151587164058129 0 0.11851153239627241 -0.42275952171654291 0 0.117866085899093 -0.41583132647739651 0 0.1123596205074209 -0.41890237594444008 0 0.11152958735588871 -0.42539382439527612 0 0.1123596205074209 -0.41890237594444008 0 0.1045809803654715 -0.42051706085107571 0 0.1123596205074209 -0.41890237594444008 0 0.1096180349996463 -0.41151587164058129 0 0.1065506547415149 -0.41613106226330793 0 0.1096180349996463 -0.41151587164058129 0 0.1065506547415149 -0.41613106226330793 0 0.099702730965631758 -0.41290181884877419 0 0.1096180349996463 -0.41151587164058129 0 0.099702730965631758 -0.41290181884877419 0 0.1096180349996463 -0.41151587164058129 0 0.099702730965631758 -0.41290181884877419 0 0.1041447551606165 -0.40305668800175581 0 0.1123596205074209 -0.41890237594444008 0 0.1065506547415149 -0.41613106226330793 0 0.1045809803654715 -0.42051706085107571 0 0.1065506547415149 -0.41613106226330793 0 0.1045809803654715 -0.42051706085107571 0 0.099702730965631758 -0.41290181884877419 0 0.1045809803654715 -0.42051706085107571 0 0.093827427438274241 -0.41775801958915132 0 0.099702730965631758 -0.41290181884877419 0 0.097645949564215143 -0.42435504664253748 0 0.1045809803654715 -0.42051706085107571 0 0.093827427438274241 -0.41775801958915132 0 0.086447448161059384 -0.41120764722282821 0 0.099702730965631758 -0.41290181884877419 0 0.095691580682652475 -0.39908469234235189 0 0.095691580682652475 -0.39908469234235189 0 0.1041447551606165 -0.40305668800175581 0 0.1115666739945345 -0.38872436917531578 0 0.099702730965631758 -0.41290181884877419 0 0.095691580682652475 -0.39908469234235189 0 0.1041447551606165 -0.40305668800175581 0 0.1096180349996463 -0.41151587164058129 0 0.1041447551606165 -0.40305668800175581 0 0.1115666739945345 -0.38872436917531578 0 0.1250254850364893 -0.40936224001308058 0 0.1115666739945345 -0.38872436917531578 0 0.1096180349996463 -0.41151587164058129 0 0.1115666739945345 -0.38872436917531578 0 0.1250254850364893 -0.40936224001308058 0 0.1096180349996463 -0.41151587164058129 0 0.1115666739945345 -0.38872436917531578 0 0.12645644117523869 -0.39722706905544619 0 0.1250254850364893 -0.40936224001308058 0 0.1115666739945345 -0.38872436917531578 0 0.12609635470998201 -0.38402791619100712 0 0.1115666739945345 -0.38872436917531578 0 0.113745377556003 -0.36324200547299851 0 0.1115666739945345 -0.38872436917531578 0 0.113745377556003 -0.36324200547299851 0 0.12609635470998201 -0.38402791619100712 0 0.12645644117523869 -0.39722706905544619 0 0.1115666739945345 -0.38872436917531578 0 0.1115666739945345 -0.38872436917531578 0 0.096372132326470572 -0.36542491223168638 0 0.1115666739945345 -0.38872436917531578 0 0.089853218628298884 -0.38394717958202601 0 0.096372132326470572 -0.36542491223168638 0 0.095691580682652475 -0.39908469234235189 0 0.1115666739945345 -0.38872436917531578 0 0.089853218628298884 -0.38394717958202601 0 0.089853218628298884 -0.38394717958202601 0 0.082924844884061683 -0.39714926844771359 0 0.072939106935086151 -0.38728773006234168 0 0.089853218628298884 -0.38394717958202601 0 0.072939106935086151 -0.38728773006234168 0 0.07582030708563034 -0.37256671738353597 0 0.095691580682652475 -0.39908469234235189 0 0.089853218628298884 -0.38394717958202601 0 0.082924844884061683 -0.39714926844771359 0 0.086447448161059384 -0.41120764722282821 0 0.082924844884061683 -0.39714926844771359 0 0.069775570718114244 -0.40426700169235308 0 0.086447448161059384 -0.41120764722282821 0 0.095691580682652475 -0.39908469234235189 0 0.082924844884061683 -0.39714926844771359 0 0.069775570718114244 -0.40426700169235308 0 0.072939106935086151 -0.38728773006234168 0 0.058313699768321348 -0.39007371912844929 0 0.082924844884061683 -0.39714926844771359 0 0.069775570718114244 -0.40426700169235308 0 0.072939106935086151 -0.38728773006234168 0 0.072939106935086151 -0.38728773006234168 0 0.05933500968155693 -0.37671477575793533 0 0.058313699768321348 -0.39007371912844929 0 0.072939106935086151 -0.38728773006234168 0 0.05933500968155693 -0.37671477575793533 0 0.07582030708563034 -0.37256671738353597 0 0.05933500968155693 -0.37671477575793533 0 0.043300396670470892 -0.38581293046691678 0 0.039079294002052851 -0.37065651216905859 0 0.05933500968155693 -0.37671477575793533 0 0.058313699768321348 -0.39007371912844929 0 0.043300396670470892 -0.38581293046691678 0 0.058313699768321348 -0.39007371912844929 0 0.0466875803122518 -0.39705513158652528 0 0.054373060569327003 -0.40663711634463268 0 0.069775570718114244 -0.40426700169235308 0 0.058313699768321348 -0.39007371912844929 0 0.054373060569327003 -0.40663711634463268 0 0.058313699768321348 -0.39007371912844929 0 0.054373060569327003 -0.40663711634463268 0 0.0466875803122518 -0.39705513158652528 0 0.042121557959679479 -0.40689397827368962 0 0.054373060569327003 -0.40663711634463268 0 0.058313699768321348 -0.39007371912844929 0 0.0466875803122518 -0.39705513158652528 0 0.043300396670470892 -0.38581293046691678 0 0.0466875803122518 -0.39705513158652528 0 0.032645317368698572 -0.39721328630736241 0 0.043300396670470892 -0.38581293046691678 0 0.0466875803122518 -0.39705513158652528 0 0.032645317368698572 -0.39721328630736241 0 0.042121557959679479 -0.40689397827368962 0 0.032645317368698572 -0.39721328630736241 0 0.043300396670470892 -0.38581293046691678 0 0.025542853711361019 -0.38384675294920401 0 0.043300396670470892 -0.38581293046691678 0 0.025542853711361019 -0.38384675294920401 0 0.039079294002052851 -0.37065651216905859 0 0.025542853711361019 -0.38384675294920401 0 0.009690974369139977 -0.39295199195252922 0 0.016784443680880379 -0.36713146693108112 0 -0.0064694903547723136 -0.38059021958606692 0 0.009690974369139977 -0.39295199195252922 0 0.016784443680880379 -0.36713146693108112 0 0.032645317368698572 -0.39721328630736241 0 0.009690974369139977 -0.39295199195252922 0 0.030062121183744069 -0.41560348860952728 0 0.032645317368698572 -0.39721328630736241 0 0.025542853711361019 -0.38384675294920401 0 0.009690974369139977 -0.39295199195252922 0 0.009690974369139977 -0.39295199195252922 0 0.030062121183744069 -0.41560348860952728 0 0.01224976062295041 -0.42183763890738629 0 -0.0080625817845775948 -0.40608726553411861 0 0.009690974369139977 -0.39295199195252922 0 0.01224976062295041 -0.42183763890738629 0 0.009690974369139977 -0.39295199195252922 0 0.01224976062295041 -0.42183763890738629 0 0.01224976062295041 -0.42183763890738629 0 0.01480854687676085 -0.45072328586224342 0 0.030062121183744069 -0.41560348860952728 0 0.01224976062295041 -0.42183763890738629 0 0.028535899264767479 -0.43733174884408438 0 0.01224976062295041 -0.42183763890738629 0 0.028535899264767479 -0.43733174884408438 0 0.01480854687676085 -0.45072328586224342 0 0.030062121183744069 -0.41560348860952728 0 0.028535899264767479 -0.43733174884408438 0 0.039909128579099777 -0.42893709763038412 0 0.039909128579099777 -0.42893709763038412 0 0.050432421370333713 -0.42320051356081623 0 0.04400553312424714 -0.45021417746364167 0 0.039909128579099777 -0.42893709763038412 0 0.046509667952406512 -0.41833555967385072 0 0.050432421370333713 -0.42320051356081623 0 0.032645317368698572 -0.39721328630736241 0 0.030062121183744069 -0.41560348860952728 0 0.042121557959679479 -0.40689397827368962 0 0.030062121183744069 -0.41560348860952728 0 0.039909128579099777 -0.42893709763038412 0 0.046509667952406512 -0.41833555967385072 0 0.030062121183744069 -0.41560348860952728 0 0.042121557959679479 -0.40689397827368962 0 0.046509667952406512 -0.41833555967385072 0 0.054373060569327003 -0.40663711634463268 0 0.050432421370333713 -0.42320051356081623 0 0.046509667952406512 -0.41833555967385072 0 0.054373060569327003 -0.40663711634463268 0 0.050432421370333713 -0.42320051356081623 0 0.054373060569327003 -0.40663711634463268 0 0.060774245729122177 -0.41691050055794487 0 0.050432421370333713 -0.42320051356081623 0 0.046509667952406512 -0.41833555967385072 0 0.050432421370333713 -0.42320051356081623 0 0.042121557959679479 -0.40689397827368962 0 0.046509667952406512 -0.41833555967385072 0 0.054373060569327003 -0.40663711634463268 0 0.069775570718114244 -0.40426700169235308 0 0.054373060569327003 -0.40663711634463268 0 0.060774245729122177 -0.41691050055794487 0 0.050432421370333713 -0.42320051356081623 0 0.04400553312424714 -0.45021417746364167 0 0.065913834705597293 -0.44240038517061198 0 0.050432421370333713 -0.42320051356081623 0 0.065913834705597293 -0.44240038517061198 0 0.065921365320016911 -0.4273577277455588 0 0.050432421370333713 -0.42320051356081623 0 0.065921365320016911 -0.4273577277455588 0 0.060774245729122177 -0.41691050055794487 0 0.050432421370333713 -0.42320051356081623 0 0.065913834705597293 -0.44240038517061198 0 0.050432421370333713 -0.42320051356081623 0 0.04400553312424714 -0.45021417746364167 0 0.065913834705597293 -0.44240038517061198 0 0.057068655694905858 -0.46015288389510001 0 0.04400553312424714 -0.45021417746364167 0 0.057068655694905858 -0.46015288389510001 0 0.048043393468649283 -0.46676160836513853 0 0.04400553312424714 -0.45021417746364167 0 0.067447632246636219 -0.45716428258124142 0 0.057068655694905858 -0.46015288389510001 0 0.05849497948899289 -0.47642287528831911 0 0.057068655694905858 -0.46015288389510001 0 0.048043393468649283 -0.46676160836513853 0 0.052635520687858477 -0.47072247146996382 0 0.04400553312424714 -0.45021417746364167 0 0.037578644878161642 -0.47722784136646751 0 0.048043393468649283 -0.46676160836513853 0 0.04400553312424714 -0.45021417746364167 0 0.037578644878161642 -0.47722784136646751 0 0.04400553312424714 -0.45021417746364167 0 0.030366658319331299 -0.45781827645911538 0 0.037578644878161642 -0.47722784136646751 0 0.028535899264767479 -0.43733174884408438 0 0.039909128579099777 -0.42893709763038412 0 0.04400553312424714 -0.45021417746364167 0 0.028535899264767479 -0.43733174884408438 0 0.04400553312424714 -0.45021417746364167 0 0.030366658319331299 -0.45781827645911538 0 0.028535899264767479 -0.43733174884408438 0 0.01480854687676085 -0.45072328586224342 0 0.030366658319331299 -0.45781827645911538 0 -0.008216644178786571 -0.4466179140804285 0 0.01224976062295041 -0.42183763890738629 0 0.01480854687676085 -0.45072328586224342 0 0.01480854687676085 -0.45072328586224342 0 0.017367333130571299 -0.47960893281710049 0 0.0084119176919832291 -0.471974008478943 0 -0.0021957942935651631 -0.46571035637089769 0 0.01480854687676085 -0.45072328586224342 0 0.0084119176919832291 -0.471974008478943 0 -0.008216644178786571 -0.4466179140804285 0 -0.0021957942935651631 -0.46571035637089769 0 0.01480854687676085 -0.45072328586224342 0 0.01480854687676085 -0.45072328586224342 0 0.017367333130571299 -0.47960893281710049 0 0.01480854687676085 -0.45072328586224342 0 0.030366658319331299 -0.45781827645911538 0 0.0269046674527194 -0.47359432875914009 0 0.01480854687676085 -0.45072328586224342 0 0.0269046674527194 -0.47359432875914009 0 0.017367333130571299 -0.47960893281710049 0 0.017367333130571299 -0.47960893281710049 0 0.012735562036971701 -0.48508522326900949 0 0.035615270762982369 -0.48075404927866472 0 0.012735562036971701 -0.48508522326900949 0 0.035615270762982369 -0.48075404927866472 0 0.0269046674527194 -0.47359432875914009 0 0.017367333130571299 -0.47960893281710049 0 0.035615270762982369 -0.48075404927866472 0 0.017367333130571299 -0.47960893281710049 0 0.0084119176919832291 -0.471974008478943 0 0.012735562036971701 -0.48508522326900949 0 -0.00065605929082254884 -0.47874224407546379 0 0.0084119176919832291 -0.471974008478943 0 0.012735562036971701 -0.48508522326900949 0 -0.0021957942935651631 -0.46571035637089769 0 -0.00065605929082254884 -0.47874224407546379 0 0.0084119176919832291 -0.471974008478943 0 -0.010144146689038991 -0.48941639725935437 0 -0.00065605929082254884 -0.47874224407546379 0 0.012735562036971701 -0.48508522326900949 0 -0.010144146689038991 -0.48941639725935437 0 0.012735562036971701 -0.48508522326900949 0 -0.011489863113854141 -0.5 0 0.012735562036971701 -0.48508522326900949 0 0.01802246382714956 -0.5 0 0.01802246382714956 -0.5 0 0.025329369399590369 -0.48901546815995378 0 0.047534790768153173 -0.50000000000000044 0 0.012735562036971701 -0.48508522326900949 0 0.025329369399590369 -0.48901546815995378 0 0.035615270762982369 -0.48075404927866472 0 0.012735562036971701 -0.48508522326900949 0 0.01802246382714956 -0.5 0 0.025329369399590369 -0.48901546815995378 0 0.025329369399590369 -0.48901546815995378 0 0.035615270762982369 -0.48075404927866472 0 0.047534790768153173 -0.50000000000000044 0 0.030366658319331299 -0.45781827645911538 0 0.0269046674527194 -0.47359432875914009 0 0.037578644878161642 -0.47722784136646751 0 0.0269046674527194 -0.47359432875914009 0 0.037578644878161642 -0.47722784136646751 0 0.035615270762982369 -0.48075404927866472 0 0.048043393468649283 -0.46676160836513853 0 0.037578644878161642 -0.47722784136646751 0 0.046296380844488463 -0.47463440362945558 0 0.035615270762982369 -0.48075404927866472 0 0.046296380844488463 -0.47463440362945558 0 0.049693011087844949 -0.4756354888466594 0 0.037578644878161642 -0.47722784136646751 0 0.035615270762982369 -0.48075404927866472 0 0.046296380844488463 -0.47463440362945558 0 0.057068655694905858 -0.46015288389510001 0 0.052635520687858477 -0.47072247146996382 0 0.05849497948899289 -0.47642287528831911 0 0.035615270762982369 -0.48075404927866472 0 0.049693011087844949 -0.4756354888466594 0 0.05849497948899289 -0.47642287528831911 0 0.035615270762982369 -0.48075404927866472 0 0.05849497948899289 -0.47642287528831911 0 0.048043393468649283 -0.46676160836513853 0 0.046296380844488463 -0.47463440362945558 0 0.052635520687858477 -0.47072247146996382 0 0.049693011087844949 -0.4756354888466594 0 0.052635520687858477 -0.47072247146996382 0 0.05849497948899289 -0.47642287528831911 0 0.046296380844488463 -0.47463440362945558 0 0.049693011087844949 -0.4756354888466594 0 0.052635520687858477 -0.47072247146996382 0 0.05849497948899289 -0.47642287528831911 0 0.061758178687080389 -0.47580514524370598 0 0.062670741706174135 -0.48944359682069549 0 0.064881374578912687 -0.4815757870058418 0 0.05849497948899289 -0.47642287528831911 0 0.064881374578912687 -0.4815757870058418 0 0.05849497948899289 -0.47642287528831911 0 0.061758178687080389 -0.47580514524370598 0 0.069142552082564368 -0.5 0 0.062670741706174135 -0.48944359682069549 0 0.047534790768153173 -0.50000000000000044 0 0.05849497948899289 -0.47642287528831911 0 0.047534790768153173 -0.50000000000000044 0 0.035615270762982369 -0.48075404927866472 0 0.05849497948899289 -0.47642287528831911 0 0.047534790768153173 -0.50000000000000044 0 0.062670741706174135 -0.48944359682069549 0 0.05849497948899289 -0.47642287528831911 0 0.047534790768153173 -0.50000000000000044 0 0.089727975817252392 -0.29646224842349211 0 0.069967983226982527 -0.30495776272600778 0 0.075483032258224086 -0.28815868119130272 0 0.089727975817252392 -0.29646224842349211 0 0.088503230311337153 -0.27716835087377989 0 0.101883582619993 -0.28460947857741209 0 0.089727975817252392 -0.29646224842349211 0 0.075483032258224086 -0.28815868119130272 0 0.088503230311337153 -0.27716835087377989 0 0.089727975817252392 -0.29646224842349211 0 0.086214248119208581 -0.31193359067875348 0 0.069967983226982527 -0.30495776272600778 0 0.089727975817252392 -0.29646224842349211 0 0.086214248119208581 -0.31193359067875348 0 0.10049372866807189 -0.31082656242210721 0 0.069967983226982527 -0.30495776272600778 0 0.075483032258224086 -0.28815868119130272 0 0.059449054433483903 -0.28956707473318272 0 0.075483032258224086 -0.28815868119130272 0 0.0646939085167762 -0.2722383315448984 0 0.059449054433483903 -0.28956707473318272 0 0.0646939085167762 -0.2722383315448984 0 0.077350866508299074 -0.27549126298099152 0 0.080723294946858856 -0.26439968831398508 0 0.075483032258224086 -0.28815868119130272 0 0.0646939085167762 -0.2722383315448984 0 0.077350866508299074 -0.27549126298099152 0 0.0646939085167762 -0.2722383315448984 0 0.070005134957367529 -0.25889031236374099 0 0.080723294946858856 -0.26439968831398508 0 0.070005134957367529 -0.25889031236374099 0 0.061490933840310687 -0.25382890142296882 0 0.070069103552599196 -0.24823964670048029 0 0.0646939085167762 -0.2722383315448984 0 0.070005134957367529 -0.25889031236374099 0 0.060614126731859473 -0.2624009925450973 0 0.070005134957367529 -0.25889031236374099 0 0.061490933840310687 -0.25382890142296882 0 0.060614126731859473 -0.2624009925450973 0 0.070005134957367529 -0.25889031236374099 0 0.080071368274292315 -0.25145738896057979 0 0.080723294946858856 -0.26439968831398508 0 0.070005134957367529 -0.25889031236374099 0 0.080071368274292315 -0.25145738896057979 0 0.070069103552599196 -0.24823964670048029 0 0.080071368274292315 -0.25145738896057979 0 0.080723294946858856 -0.26439968831398508 0 0.090706365013478091 -0.25245448435890872 0 0.080723294946858856 -0.26439968831398508 0 0.090706365013478091 -0.25245448435890872 0 0.095060577752172304 -0.26241188567384149 0 0.075483032258224086 -0.28815868119130272 0 0.077350866508299074 -0.27549126298099152 0 0.088503230311337153 -0.27716835087377989 0 0.077350866508299074 -0.27549126298099152 0 0.080723294946858856 -0.26439968831398508 0 0.088503230311337153 -0.27716835087377989 0 0.080723294946858856 -0.26439968831398508 0 0.088503230311337153 -0.27716835087377989 0 0.095060577752172304 -0.26241188567384149 0 0.088503230311337153 -0.27716835087377989 0 0.1016952336099234 -0.27235330725820578 0 0.101883582619993 -0.28460947857741209 0 0.088503230311337153 -0.27716835087377989 0 0.1016952336099234 -0.27235330725820578 0 0.095060577752172304 -0.26241188567384149 0 0.1016952336099234 -0.27235330725820578 0 0.1104739380917857 -0.2612093749811526 0 0.1125548392743288 -0.27636744618484282 0 0.1016952336099234 -0.27235330725820578 0 0.1125548392743288 -0.27636744618484282 0 0.101883582619993 -0.28460947857741209 0 0.090706365013478091 -0.25245448435890872 0 0.099550463170151926 -0.25262580003909579 0 0.095060577752172304 -0.26241188567384149 0 0.1016952336099234 -0.27235330725820578 0 0.095060577752172304 -0.26241188567384149 0 0.1104739380917857 -0.2612093749811526 0 0.099550463170151926 -0.25262580003909579 0 0.095060577752172304 -0.26241188567384149 0 0.1104739380917857 -0.2612093749811526 0 0.099550463170151926 -0.25262580003909579 0 0.1104739380917857 -0.2612093749811526 0 0.1078238037173969 -0.24832262031645649 0 0.1311170075682456 -0.27142576198599933 0 0.1104739380917857 -0.2612093749811526 0 0.1212054647883809 -0.25073068226796852 0 0.1104739380917857 -0.2612093749811526 0 0.1212054647883809 -0.25073068226796852 0 0.1078238037173969 -0.24832262031645649 0 0.1311170075682456 -0.27142576198599933 0 0.1104739380917857 -0.2612093749811526 0 0.1311170075682456 -0.27142576198599933 0 0.1104739380917857 -0.2612093749811526 0 0.1193620271946058 -0.27249351692823448 0 0.1104739380917857 -0.2612093749811526 0 0.1125548392743288 -0.27636744618484282 0 0.1193620271946058 -0.27249351692823448 0 0.1125548392743288 -0.27636744618484282 0 0.1193620271946058 -0.27249351692823448 0 0.1233023238440631 -0.28097148456094378 0 0.1311170075682456 -0.27142576198599933 0 0.1193620271946058 -0.27249351692823448 0 0.1233023238440631 -0.28097148456094378 0 0.1233023238440631 -0.28097148456094378 0 0.1242383748246253 -0.29131174999725179 0 0.1141297936923768 -0.28878453930630188 0 0.1242383748246253 -0.29131174999725179 0 0.1141297936923768 -0.28878453930630188 0 0.1198701537204314 -0.30089140532399938 0 0.1141297936923768 -0.28878453930630188 0 0.10622170970645189 -0.29895353846799488 0 0.1198701537204314 -0.30089140532399938 0 0.1125548392743288 -0.27636744618484282 0 0.1233023238440631 -0.28097148456094378 0 0.1141297936923768 -0.28878453930630188 0 0.1125548392743288 -0.27636744618484282 0 0.1141297936923768 -0.28878453930630188 0 0.101883582619993 -0.28460947857741209 0 0.089727975817252392 -0.29646224842349211 0 0.101883582619993 -0.28460947857741209 0 0.10622170970645189 -0.29895353846799488 0 0.1141297936923768 -0.28878453930630188 0 0.101883582619993 -0.28460947857741209 0 0.10622170970645189 -0.29895353846799488 0 0.089727975817252392 -0.29646224842349211 0 0.10049372866807189 -0.31082656242210721 0 0.10622170970645189 -0.29895353846799488 0 0.10049372866807189 -0.31082656242210721 0 0.10622170970645189 -0.29895353846799488 0 0.1134387524627216 -0.31086840579325631 0 0.10622170970645189 -0.29895353846799488 0 0.1134387524627216 -0.31086840579325631 0 0.1198701537204314 -0.30089140532399938 0 0.1265219532001009 -0.3124330460259736 0 0.1134387524627216 -0.31086840579325631 0 0.1198701537204314 -0.30089140532399938 0 0.1265219532001009 -0.3124330460259736 0 0.1134387524627216 -0.31086840579325631 0 0.1192961391526948 -0.32261879728377291 0 0.1134387524627216 -0.31086840579325631 0 0.1192961391526948 -0.32261879728377291 0 0.1082288303285789 -0.31948708523568958 0 0.1192961391526948 -0.32261879728377291 0 0.1093748658769356 -0.32997486192450581 0 0.1082288303285789 -0.31948708523568958 0 0.1192961391526948 -0.32261879728377291 0 0.1168506625355451 -0.3296807312869221 0 0.1093748658769356 -0.32997486192450581 0 0.1192961391526948 -0.32261879728377291 0 0.12260601330919629 -0.33072698382653798 0 0.1168506625355451 -0.3296807312869221 0 0.13219802669416811 -0.32498852212276208 0 0.1192961391526948 -0.32261879728377291 0 0.12260601330919629 -0.33072698382653798 0 0.13051916655351839 -0.33696304048325831 0 0.12260601330919629 -0.33072698382653798 0 0.1159240811174677 -0.33775964177068091 0 0.12260601330919629 -0.33072698382653798 0 0.1159240811174677 -0.33775964177068091 0 0.1161256318033537 -0.33540228211287182 0 0.12260601330919629 -0.33072698382653798 0 0.1168506625355451 -0.3296807312869221 0 0.1161256318033537 -0.33540228211287182 0 0.13051916655351839 -0.33696304048325831 0 0.1159240811174677 -0.33775964177068091 0 0.13051916655351839 -0.33696304048325831 0 0.1159240811174677 -0.33775964177068091 0 0.123981461538115 -0.35128285539313481 0 0.1159240811174677 -0.33775964177068091 0 0.1161256318033537 -0.33540228211287182 0 0.1168506625355451 -0.3296807312869221 0 0.1161256318033537 -0.33540228211287182 0 0.1093748658769356 -0.32997486192450581 0 0.1159240811174677 -0.33775964177068091 0 0.1161256318033537 -0.33540228211287182 0 0.1093748658769356 -0.32997486192450581 0 0.1159240811174677 -0.33775964177068091 0 0.092335912071574502 -0.33904708650077298 0 0.1159240811174677 -0.33775964177068091 0 0.1093748658769356 -0.32997486192450581 0 0.092335912071574502 -0.33904708650077298 0 0.1093748658769356 -0.32997486192450581 0 0.096347407600029022 -0.32440529872184809 0 0.092335912071574502 -0.33904708650077298 0 0.1159240811174677 -0.33775964177068091 0 0.10211321446004019 -0.35101158716873732 0 0.092335912071574502 -0.33904708650077298 0 0.086214248119208581 -0.31193359067875348 0 0.10049372866807189 -0.31082656242210721 0 0.096347407600029022 -0.32440529872184809 0 0.10049372866807189 -0.31082656242210721 0 0.1134387524627216 -0.31086840579325631 0 0.1082288303285789 -0.31948708523568958 0 0.10049372866807189 -0.31082656242210721 0 0.096347407600029022 -0.32440529872184809 0 0.1082288303285789 -0.31948708523568958 0 0.1093748658769356 -0.32997486192450581 0 0.096347407600029022 -0.32440529872184809 0 0.1082288303285789 -0.31948708523568958 0 0.12784456261830821 -0.36308533366748658 0 0.12609635470998201 -0.38402791619100712 0 0.113745377556003 -0.36324200547299851 0 0.1159240811174677 -0.33775964177068091 0 0.113745377556003 -0.36324200547299851 0 0.123981461538115 -0.35128285539313481 0 0.1159240811174677 -0.33775964177068091 0 0.113745377556003 -0.36324200547299851 0 0.1159240811174677 -0.33775964177068091 0 0.113745377556003 -0.36324200547299851 0 0.10211321446004019 -0.35101158716873732 0 0.12784456261830821 -0.36308533366748658 0 0.113745377556003 -0.36324200547299851 0 0.123981461538115 -0.35128285539313481 0 0.1115666739945345 -0.38872436917531578 0 0.113745377556003 -0.36324200547299851 0 0.096372132326470572 -0.36542491223168638 0 0.113745377556003 -0.36324200547299851 0 0.10211321446004019 -0.35101158716873732 0 0.096372132326470572 -0.36542491223168638 0 0.089853218628298884 -0.38394717958202601 0 0.096372132326470572 -0.36542491223168638 0 0.07582030708563034 -0.37256671738353597 0 0.096372132326470572 -0.36542491223168638 0 0.082110249222110576 -0.35466523699539548 0 0.07582030708563034 -0.37256671738353597 0 0.10211321446004019 -0.35101158716873732 0 0.096372132326470572 -0.36542491223168638 0 0.082110249222110576 -0.35466523699539548 0 0.082110249222110576 -0.35466523699539548 0 0.092335912071574502 -0.33904708650077298 0 0.068747743025681235 -0.34033453123086538 0 0.10211321446004019 -0.35101158716873732 0 0.082110249222110576 -0.35466523699539548 0 0.092335912071574502 -0.33904708650077298 0 0.082110249222110576 -0.35466523699539548 0 0.068747743025681235 -0.34033453123086538 0 0.057272186363266697 -0.35960658745677498 0 0.082110249222110576 -0.35466523699539548 0 0.07582030708563034 -0.37256671738353597 0 0.057272186363266697 -0.35960658745677498 0 0.05933500968155693 -0.37671477575793533 0 0.07582030708563034 -0.37256671738353597 0 0.057272186363266697 -0.35960658745677498 0 0.086214248119208581 -0.31193359067875348 0 0.096347407600029022 -0.32440529872184809 0 0.078030795921920637 -0.32434601069550512 0 0.092335912071574502 -0.33904708650077298 0 0.068747743025681235 -0.34033453123086538 0 0.078030795921920637 -0.32434601069550512 0 0.092335912071574502 -0.33904708650077298 0 0.068747743025681235 -0.34033453123086538 0 0.096347407600029022 -0.32440529872184809 0 0.092335912071574502 -0.33904708650077298 0 0.078030795921920637 -0.32434601069550512 0 0.068747743025681235 -0.34033453123086538 0 0.078030795921920637 -0.32434601069550512 0 0.053863538987460123 -0.3232816795844588 0 0.069967983226982527 -0.30495776272600778 0 0.078030795921920637 -0.32434601069550512 0 0.053863538987460123 -0.3232816795844588 0 0.086214248119208581 -0.31193359067875348 0 0.069967983226982527 -0.30495776272600778 0 0.078030795921920637 -0.32434601069550512 0 0.068747743025681235 -0.34033453123086538 0 0.045159573979787898 -0.34162197596095778 0 0.068747743025681235 -0.34033453123086538 0 0.053863538987460123 -0.3232816795844588 0 0.045159573979787898 -0.34162197596095778 0 0.053863538987460123 -0.3232816795844588 0 0.034832013842728909 -0.33032259781876938 0 0.045159573979787898 -0.34162197596095778 0 0.034832013842728909 -0.33032259781876938 0 0.045159573979787898 -0.34162197596095778 0 0.02157140493389462 -0.34290942069105018 0 0.045159573979787898 -0.34162197596095778 0 0.02157140493389462 -0.34290942069105018 0 0.053863538987460123 -0.3232816795844588 0 0.034832013842728909 -0.33032259781876938 0 0.03621734991660093 -0.31670946998547028 0 0.053863538987460123 -0.3232816795844588 0 0.03621734991660093 -0.31670946998547028 0 0.048768037075517537 -0.30442990221103089 0 0.05933500968155693 -0.37671477575793533 0 0.057272186363266697 -0.35960658745677498 0 0.039079294002052851 -0.37065651216905859 0 0.068747743025681235 -0.34033453123086538 0 0.045159573979787898 -0.34162197596095778 0 0.057272186363266697 -0.35960658745677498 0 0.045159573979787898 -0.34162197596095778 0 0.034512899630155462 -0.3545258348651717 0 0.02157140493389462 -0.34290942069105018 0 0.045159573979787898 -0.34162197596095778 0 0.057272186363266697 -0.35960658745677498 0 0.034512899630155462 -0.3545258348651717 0 0.057272186363266697 -0.35960658745677498 0 0.034512899630155462 -0.3545258348651717 0 0.039079294002052851 -0.37065651216905859 0 0.025542853711361019 -0.38384675294920401 0 0.039079294002052851 -0.37065651216905859 0 0.016784443680880379 -0.36713146693108112 0 0.034512899630155462 -0.3545258348651717 0 0.039079294002052851 -0.37065651216905859 0 0.016784443680880379 -0.36713146693108112 0 0.034512899630155462 -0.3545258348651717 0 0.016784443680880379 -0.36713146693108112 0 0.02157140493389462 -0.34290942069105018 0 -0.0043130761299947744 -0.35643483176966217 0 0.016784443680880379 -0.36713146693108112 0 0.02157140493389462 -0.34290942069105018 0 -0.0038616663111063101 -0.33241552487502413 0 -0.0043130761299947744 -0.35643483176966217 0 0.02157140493389462 -0.34290942069105018 0 -0.0043130761299947744 -0.35643483176966217 0 -0.0064694903547723136 -0.38059021958606692 0 0.016784443680880379 -0.36713146693108112 0 0.03621734991660093 -0.31670946998547028 0 0.020048637459846991 -0.32439583124448262 0 0.029165048793799431 -0.30349547286963757 0 0.034832013842728909 -0.33032259781876938 0 0.03621734991660093 -0.31670946998547028 0 0.020048637459846991 -0.32439583124448262 0 0.020048637459846991 -0.32439583124448262 0 0.0094652366165251054 -0.31053241408104548 0 0.029165048793799431 -0.30349547286963757 0 0.034832013842728909 -0.33032259781876938 0 0.020048637459846991 -0.32439583124448262 0 0.02157140493389462 -0.34290942069105018 0 -0.0038616663111063101 -0.33241552487502413 0 0.020048637459846991 -0.32439583124448262 0 0.02157140493389462 -0.34290942069105018 0 -0.0038616663111063101 -0.33241552487502413 0 0.020048637459846991 -0.32439583124448262 0 0.0094652366165251054 -0.31053241408104548 0 -0.01007927323019326 -0.3103345258507364 0 0.0094652366165251054 -0.31053241408104548 0 0.0017563221397047381 -0.2997067901486577 0 0.0094652366165251054 -0.31053241408104548 0 0.0017563221397047381 -0.2997067901486577 0 0.017453688627786131 -0.29322190620108468 0 0.0017563221397047381 -0.2997067901486577 0 0.0066437179820165657 -0.2861171845936395 0 0.017453688627786131 -0.29322190620108468 0 -0.0080748459131490501 -0.2914060437848453 0 0.0017563221397047381 -0.2997067901486577 0 0.0066437179820165657 -0.2861171845936395 0 0.0066437179820165657 -0.2861171845936395 0 0.017453688627786131 -0.29322190620108468 0 0.01908241754038794 -0.28073467218482329 0 0.017453688627786131 -0.29322190620108468 0 0.029398966714908509 -0.28692964748338379 0 0.029165048793799431 -0.30349547286963757 0 0.017453688627786131 -0.29322190620108468 0 0.029398966714908509 -0.28692964748338379 0 0.01908241754038794 -0.28073467218482329 0 0.0094652366165251054 -0.31053241408104548 0 0.017453688627786131 -0.29322190620108468 0 0.029165048793799431 -0.30349547286963757 0 0.03621734991660093 -0.31670946998547028 0 0.029165048793799431 -0.30349547286963757 0 0.048768037075517537 -0.30442990221103089 0 0.029165048793799431 -0.30349547286963757 0 0.043029943860180789 -0.28970337243015992 0 0.048768037075517537 -0.30442990221103089 0 0.029398966714908509 -0.28692964748338379 0 0.029165048793799431 -0.30349547286963757 0 0.043029943860180789 -0.28970337243015992 0 0.029398966714908509 -0.28692964748338379 0 0.043029943860180789 -0.28970337243015992 0 0.038396769586432553 -0.27977596087564799 0 0.043029943860180789 -0.28970337243015992 0 0.051749435803858171 -0.27840569125857739 0 0.038396769586432553 -0.27977596087564799 0 0.043029943860180789 -0.28970337243015992 0 0.059449054433483903 -0.28956707473318272 0 0.051749435803858171 -0.27840569125857739 0 0.043029943860180789 -0.28970337243015992 0 0.059449054433483903 -0.28956707473318272 0 0.048768037075517537 -0.30442990221103089 0 0.069967983226982527 -0.30495776272600778 0 0.059449054433483903 -0.28956707473318272 0 0.048768037075517537 -0.30442990221103089 0 0.069967983226982527 -0.30495776272600778 0 0.053863538987460123 -0.3232816795844588 0 0.048768037075517537 -0.30442990221103089 0 0.053380735395516472 -0.25867595766617779 0 0.04428054005230446 -0.26275141268032309 0 0.045372505498807933 -0.25408090721008542 0 0.053380735395516472 -0.25867595766617779 0 0.053158010572478251 -0.26777612517812432 0 0.04428054005230446 -0.26275141268032309 0 0.053380735395516472 -0.25867595766617779 0 0.045372505498807933 -0.25408090721008542 0 0.05268811686830014 -0.24901610311096159 0 0.053380735395516472 -0.25867595766617779 0 0.061490933840310687 -0.25382890142296882 0 0.05268811686830014 -0.24901610311096159 0 0.053380735395516472 -0.25867595766617779 0 0.060614126731859473 -0.2624009925450973 0 0.053158010572478251 -0.26777612517812432 0 0.053380735395516472 -0.25867595766617779 0 0.061490933840310687 -0.25382890142296882 0 0.060614126731859473 -0.2624009925450973 0 0.0646939085167762 -0.2722383315448984 0 0.060614126731859473 -0.2624009925450973 0 0.053158010572478251 -0.26777612517812432 0 0.0646939085167762 -0.2722383315448984 0 0.059449054433483903 -0.28956707473318272 0 0.051749435803858171 -0.27840569125857739 0 0.0646939085167762 -0.2722383315448984 0 0.051749435803858171 -0.27840569125857739 0 0.053158010572478251 -0.26777612517812432 0 0.053158010572478251 -0.26777612517812432 0 0.044229316934554799 -0.27218436537367241 0 0.04428054005230446 -0.26275141268032309 0 0.051749435803858171 -0.27840569125857739 0 0.053158010572478251 -0.26777612517812432 0 0.044229316934554799 -0.27218436537367241 0 0.044229316934554799 -0.27218436537367241 0 0.031885251388666561 -0.26470215361104171 0 0.04428054005230446 -0.26275141268032309 0 0.051749435803858171 -0.27840569125857739 0 0.044229316934554799 -0.27218436537367241 0 0.038396769586432553 -0.27977596087564799 0 0.044229316934554799 -0.27218436537367241 0 0.038396769586432553 -0.27977596087564799 0 0.029696712261103771 -0.27487286106778819 0 0.029398966714908509 -0.28692964748338379 0 0.038396769586432553 -0.27977596087564799 0 0.029696712261103771 -0.27487286106778819 0 0.044229316934554799 -0.27218436537367241 0 0.031885251388666561 -0.26470215361104171 0 0.029696712261103771 -0.27487286106778819 0 0.037315510146954597 -0.25849363249326118 0 0.031885251388666561 -0.26470215361104171 0 0.04428054005230446 -0.26275141268032309 0 0.037315510146954597 -0.25849363249326118 0 0.031885251388666561 -0.26470215361104171 0 0.03069464768829987 -0.25176037071845259 0 0.037315510146954597 -0.25849363249326118 0 0.04428054005230446 -0.26275141268032309 0 0.045372505498807933 -0.25408090721008542 0 0.045372505498807933 -0.25408090721008542 0 0.03069464768829987 -0.25176037071845259 0 0.042588116356466379 -0.2448823624008481 0 0.037315510146954597 -0.25849363249326118 0 0.045372505498807933 -0.25408090721008542 0 0.03069464768829987 -0.25176037071845259 0 0.031885251388666561 -0.26470215361104171 0 0.021199614426200629 -0.26114166245967918 0 0.019908913466960752 -0.27058631964059482 0 0.031885251388666561 -0.26470215361104171 0 0.03069464768829987 -0.25176037071845259 0 0.021199614426200629 -0.26114166245967918 0 0.03069464768829987 -0.25176037071845259 0 0.021199614426200629 -0.26114166245967918 0 0.016145176335298529 -0.25210595968411048 0 0.029398966714908509 -0.28692964748338379 0 0.029696712261103771 -0.27487286106778819 0 0.01908241754038794 -0.28073467218482329 0 0.031885251388666561 -0.26470215361104171 0 0.029696712261103771 -0.27487286106778819 0 0.019908913466960752 -0.27058631964059482 0 0.019908913466960752 -0.27058631964059482 0 0.01908241754038794 -0.28073467218482329 0 0.01128192931255503 -0.27464126756021451 0 0.029696712261103771 -0.27487286106778819 0 0.019908913466960752 -0.27058631964059482 0 0.01908241754038794 -0.28073467218482329 0 -0.01145854626600548 -0.26602311564559261 0 0.01128192931255503 -0.27464126756021451 0 0.0057158633005241696 -0.26337829885565528 0 0.0066437179820165657 -0.2861171845936395 0 0.01908241754038794 -0.28073467218482329 0 0.01128192931255503 -0.27464126756021451 0 0.019908913466960752 -0.27058631964059482 0 0.01128192931255503 -0.27464126756021451 0 0.0057158633005241696 -0.26337829885565528 0 -0.002848760243290064 -0.27761611820401882 0 0.0066437179820165657 -0.2861171845936395 0 0.01128192931255503 -0.27464126756021451 0 0.016145176335298529 -0.25210595968411048 0 0.0057158633005241696 -0.26337829885565528 0 0.0054759062840018038 -0.25064707341720888 0 0.021199614426200629 -0.26114166245967918 0 0.019908913466960752 -0.27058631964059482 0 0.0057158633005241696 -0.26337829885565528 0 0.021199614426200629 -0.26114166245967918 0 0.016145176335298529 -0.25210595968411048 0 0.0057158633005241696 -0.26337829885565528 0 -0.0009620894167222515 -0.25496392916579452 0 0.0057158633005241696 -0.26337829885565528 0 0.0054759062840018038 -0.25064707341720888 0 -0.0009620894167222515 -0.25496392916579452 0 -0.0029313858115674811 -0.24854412401401971 0 0.0054759062840018038 -0.25064707341720888 0 0.0054759062840018038 -0.25064707341720888 0 0.0026199421412959989 -0.2430643023623929 0 0.011589873569895199 -0.24127835128668559 0 -0.0029313858115674811 -0.24854412401401971 0 0.0054759062840018038 -0.25064707341720888 0 0.0026199421412959989 -0.2430643023623929 0 0.016145176335298529 -0.25210595968411048 0 0.0054759062840018038 -0.25064707341720888 0 0.011589873569895199 -0.24127835128668559 0 0.011589873569895199 -0.24127835128668559 0 0.010668172172219499 -0.2272828987723072 0 0.020574075722817331 -0.2351284197632682 0 0.0026199421412959989 -0.2430643023623929 0 0.011589873569895199 -0.24127835128668559 0 0.0017465435191736189 -0.23378549097037141 0 -0.00080535468136348092 -0.21995366459000901 0 0.010668172172219499 -0.2272828987723072 0 0.01016515501406726 -0.20926501301563591 0 -0.00080535468136348092 -0.21995366459000901 0 0.0017465435191736189 -0.23378549097037141 0 0.010668172172219499 -0.2272828987723072 0 0.010668172172219499 -0.2272828987723072 0 0.02170661161633574 -0.22145314359659171 0 0.01016515501406726 -0.20926501301563591 0 0.011589873569895199 -0.24127835128668559 0 0.0017465435191736189 -0.23378549097037141 0 0.010668172172219499 -0.2272828987723072 0 0.010668172172219499 -0.2272828987723072 0 0.02170661161633574 -0.22145314359659171 0 0.020574075722817331 -0.2351284197632682 0 0.02170661161633574 -0.22145314359659171 0 0.02866695829179056 -0.22960637228307629 0 0.036392787169896093 -0.22322562645731159 0 0.02170661161633574 -0.22145314359659171 0 0.02866695829179056 -0.22960637228307629 0 0.020574075722817331 -0.2351284197632682 0 0.02866695829179056 -0.22960637228307629 0 0.020574075722817331 -0.2351284197632682 0 0.032071787069821417 -0.24054619649286721 0 0.022195152742869501 -0.2444300013669817 0 0.020574075722817331 -0.2351284197632682 0 0.032071787069821417 -0.24054619649286721 0 0.03069464768829987 -0.25176037071845259 0 0.022195152742869501 -0.2444300013669817 0 0.032071787069821417 -0.24054619649286721 0 0.03069464768829987 -0.25176037071845259 0 0.016145176335298529 -0.25210595968411048 0 0.022195152742869501 -0.2444300013669817 0 0.016145176335298529 -0.25210595968411048 0 0.011589873569895199 -0.24127835128668559 0 0.022195152742869501 -0.2444300013669817 0 0.011589873569895199 -0.24127835128668559 0 0.022195152742869501 -0.2444300013669817 0 0.020574075722817331 -0.2351284197632682 0 -0.003739977245034012 -0.19168309442994089 0 0.010514116253606281 -0.1925853606064957 0 0.01016515501406726 -0.20926501301563591 0 0.010514116253606281 -0.1925853606064957 0 0.01016515501406726 -0.20926501301563591 0 0.018596641755985681 -0.20049862993462389 0 0.02170661161633574 -0.22145314359659171 0 0.01016515501406726 -0.20926501301563591 0 0.028304225500431591 -0.20785134554231141 0 0.01016515501406726 -0.20926501301563591 0 0.028304225500431591 -0.20785134554231141 0 0.018596641755985681 -0.20049862993462389 0 0.02170661161633574 -0.22145314359659171 0 0.028304225500431591 -0.20785134554231141 0 0.036392787169896093 -0.22322562645731159 0 0.028304225500431591 -0.20785134554231141 0 0.018596641755985681 -0.20049862993462389 0 0.02540307025583758 -0.19229280057405279 0 0.010514116253606281 -0.1925853606064957 0 0.018596641755985681 -0.20049862993462389 0 0.02540307025583758 -0.19229280057405279 0 0.010514116253606281 -0.1925853606064957 0 0.02540307025583758 -0.19229280057405279 0 0.015764016274472759 -0.1812646672695073 0 0.02540307025583758 -0.19229280057405279 0 0.041440672425083092 -0.19607701236864419 0 0.030421272951226121 -0.1778391783376792 0 0.028304225500431591 -0.20785134554231141 0 0.02540307025583758 -0.19229280057405279 0 0.041440672425083092 -0.19607701236864419 0 0.041440672425083092 -0.19607701236864419 0 0.042310424588804782 -0.2140630995529598 0 0.055497750511994078 -0.2086068857692274 0 0.028304225500431591 -0.20785134554231141 0 0.041440672425083092 -0.19607701236864419 0 0.042310424588804782 -0.2140630995529598 0 0.028304225500431591 -0.20785134554231141 0 0.042310424588804782 -0.2140630995529598 0 0.036392787169896093 -0.22322562645731159 0 0.042310424588804782 -0.2140630995529598 0 0.055497750511994078 -0.2086068857692274 0 0.052955454276687589 -0.2198291654371925 0 0.062338921595789062 -0.21792006704763969 0 0.055497750511994078 -0.2086068857692274 0 0.052955454276687589 -0.2198291654371925 0 0.062338921595789062 -0.21792006704763969 0 0.055497750511994078 -0.2086068857692274 0 0.067863046951983474 -0.20503048868511209 0 0.055497750511994078 -0.2086068857692274 0 0.056257937900538298 -0.19577788601322099 0 0.067863046951983474 -0.20503048868511209 0 0.041440672425083092 -0.19607701236864419 0 0.056257937900538298 -0.19577788601322099 0 0.051449240160577621 -0.1762857105508405 0 0.041440672425083092 -0.19607701236864419 0 0.055497750511994078 -0.2086068857692274 0 0.056257937900538298 -0.19577788601322099 0 0.040491861427302538 -0.2355872617630255 0 0.042588116356466379 -0.2448823624008481 0 0.052307832003780613 -0.23884346229351339 0 0.040491861427302538 -0.2355872617630255 0 0.045866106706223042 -0.22907627795895011 0 0.052307832003780613 -0.23884346229351339 0 0.03069464768829987 -0.25176037071845259 0 0.042588116356466379 -0.2448823624008481 0 0.032071787069821417 -0.24054619649286721 0 0.040491861427302538 -0.2355872617630255 0 0.042588116356466379 -0.2448823624008481 0 0.032071787069821417 -0.24054619649286721 0 0.02866695829179056 -0.22960637228307629 0 0.040491861427302538 -0.2355872617630255 0 0.032071787069821417 -0.24054619649286721 0 0.02866695829179056 -0.22960637228307629 0 0.040491861427302538 -0.2355872617630255 0 0.036392787169896093 -0.22322562645731159 0 0.042310424588804782 -0.2140630995529598 0 0.036392787169896093 -0.22322562645731159 0 0.045866106706223042 -0.22907627795895011 0 0.040491861427302538 -0.2355872617630255 0 0.036392787169896093 -0.22322562645731159 0 0.045866106706223042 -0.22907627795895011 0 0.045866106706223042 -0.22907627795895011 0 0.058764067980626958 -0.22947949685718549 0 0.052307832003780613 -0.23884346229351339 0 0.045866106706223042 -0.22907627795895011 0 0.052955454276687589 -0.2198291654371925 0 0.058764067980626958 -0.22947949685718549 0 0.042310424588804782 -0.2140630995529598 0 0.045866106706223042 -0.22907627795895011 0 0.052955454276687589 -0.2198291654371925 0 0.062338921595789062 -0.21792006704763969 0 0.058764067980626958 -0.22947949685718549 0 0.065719467571416057 -0.22489822263154319 0 0.062338921595789062 -0.21792006704763969 0 0.052955454276687589 -0.2198291654371925 0 0.058764067980626958 -0.22947949685718549 0 0.058764067980626958 -0.22947949685718549 0 0.062159259289524899 -0.2368834247622158 0 0.052307832003780613 -0.23884346229351339 0 0.062159259289524899 -0.2368834247622158 0 0.052307832003780613 -0.23884346229351339 0 0.061229972926465738 -0.2445427902389527 0 0.045372505498807933 -0.25408090721008542 0 0.042588116356466379 -0.2448823624008481 0 0.05268811686830014 -0.24901610311096159 0 0.042588116356466379 -0.2448823624008481 0 0.052307832003780613 -0.23884346229351339 0 0.05268811686830014 -0.24901610311096159 0 0.061490933840310687 -0.25382890142296882 0 0.05268811686830014 -0.24901610311096159 0 0.061229972926465738 -0.2445427902389527 0 0.052307832003780613 -0.23884346229351339 0 0.05268811686830014 -0.24901610311096159 0 0.061229972926465738 -0.2445427902389527 0 0.061490933840310687 -0.25382890142296882 0 0.061229972926465738 -0.2445427902389527 0 0.070069103552599196 -0.24823964670048029 0 0.061229972926465738 -0.2445427902389527 0 0.070069103552599196 -0.24823964670048029 0 0.069856411684105391 -0.23913895996007839 0 0.062159259289524899 -0.2368834247622158 0 0.061229972926465738 -0.2445427902389527 0 0.069856411684105391 -0.23913895996007839 0 0.062159259289524899 -0.2368834247622158 0 0.069856411684105391 -0.23913895996007839 0 0.067142239376285745 -0.23139328163069281 0 0.069856411684105391 -0.23913895996007839 0 0.077788170153509889 -0.24196191377257101 0 0.076767606518392539 -0.23187249677345001 0 0.080071368274292315 -0.25145738896057979 0 0.070069103552599196 -0.24823964670048029 0 0.077788170153509889 -0.24196191377257101 0 0.070069103552599196 -0.24823964670048029 0 0.069856411684105391 -0.23913895996007839 0 0.077788170153509889 -0.24196191377257101 0 0.080071368274292315 -0.25145738896057979 0 0.090706365013478091 -0.25245448435890872 0 0.085906732882507178 -0.24385162082211831 0 0.080071368274292315 -0.25145738896057979 0 0.077788170153509889 -0.24196191377257101 0 0.085906732882507178 -0.24385162082211831 0 0.077788170153509889 -0.24196191377257101 0 0.085906732882507178 -0.24385162082211831 0 0.083256636250354649 -0.23616880796388259 0 0.077788170153509889 -0.24196191377257101 0 0.083256636250354649 -0.23616880796388259 0 0.076767606518392539 -0.23187249677345001 0 0.085906732882507178 -0.24385162082211831 0 0.089657973372422345 -0.23730775202069579 0 0.094006026236525903 -0.2441335510050745 0 0.085906732882507178 -0.24385162082211831 0 0.083256636250354649 -0.23616880796388259 0 0.089657973372422345 -0.23730775202069579 0 0.083256636250354649 -0.23616880796388259 0 0.089657973372422345 -0.23730775202069579 0 0.089763789457938253 -0.2306791647953326 0 0.089657973372422345 -0.23730775202069579 0 0.089763789457938253 -0.2306791647953326 0 0.096012267649498176 -0.23702186761809721 0 0.089657973372422345 -0.23730775202069579 0 0.094006026236525903 -0.2441335510050745 0 0.096012267649498176 -0.23702186761809721 0 0.090706365013478091 -0.25245448435890872 0 0.085906732882507178 -0.24385162082211831 0 0.094006026236525903 -0.2441335510050745 0 0.086446736705125371 -0.22420087797706609 0 0.091303359373345411 -0.22339335178318359 0 0.089763789457938253 -0.2306791647953326 0 0.086446736705125371 -0.22420087797706609 0 0.091303359373345411 -0.22339335178318359 0 0.086853981468707001 -0.2185547472363609 0 0.091303359373345411 -0.22339335178318359 0 0.086853981468707001 -0.2185547472363609 0 0.09077468002378962 -0.21857675351640271 0 0.091303359373345411 -0.22339335178318359 0 0.09077468002378962 -0.21857675351640271 0 0.094530837428433365 -0.22086489816084981 0 0.091303359373345411 -0.22339335178318359 0 0.089763789457938253 -0.2306791647953326 0 0.098670227838192195 -0.22970514568366851 0 0.086446736705125371 -0.22420087797706609 0 0.089763789457938253 -0.2306791647953326 0 0.083020570332336119 -0.22791650227557511 0 0.083256636250354649 -0.23616880796388259 0 0.083020570332336119 -0.22791650227557511 0 0.076767606518392539 -0.23187249677345001 0 0.083256636250354649 -0.23616880796388259 0 0.089763789457938253 -0.2306791647953326 0 0.083020570332336119 -0.22791650227557511 0 0.083020570332336119 -0.22791650227557511 0 0.077930889523722374 -0.22519622511208121 0 0.076767606518392539 -0.23187249677345001 0 0.083020570332336119 -0.22791650227557511 0 0.081291982893300085 -0.22046062379487821 0 0.077930889523722374 -0.22519622511208121 0 0.086446736705125371 -0.22420087797706609 0 0.083020570332336119 -0.22791650227557511 0 0.081291982893300085 -0.22046062379487821 0 0.086446736705125371 -0.22420087797706609 0 0.081291982893300085 -0.22046062379487821 0 0.086853981468707001 -0.2185547472363609 0 0.081291982893300085 -0.22046062379487821 0 0.077930889523722374 -0.22519622511208121 0 0.073706539318973169 -0.21796036257100029 0 0.072234091795087663 -0.22574485878751241 0 0.065719467571416057 -0.22489822263154319 0 0.073706539318973169 -0.21796036257100029 0 0.077930889523722374 -0.22519622511208121 0 0.072234091795087663 -0.22574485878751241 0 0.073706539318973169 -0.21796036257100029 0 0.069856411684105391 -0.23913895996007839 0 0.076767606518392539 -0.23187249677345001 0 0.067142239376285745 -0.23139328163069281 0 0.072234091795087663 -0.22574485878751241 0 0.076767606518392539 -0.23187249677345001 0 0.067142239376285745 -0.23139328163069281 0 0.077930889523722374 -0.22519622511208121 0 0.072234091795087663 -0.22574485878751241 0 0.076767606518392539 -0.23187249677345001 0 0.058764067980626958 -0.22947949685718549 0 0.062159259289524899 -0.2368834247622158 0 0.067142239376285745 -0.23139328163069281 0 0.058764067980626958 -0.22947949685718549 0 0.067142239376285745 -0.23139328163069281 0 0.065719467571416057 -0.22489822263154319 0 0.072234091795087663 -0.22574485878751241 0 0.067142239376285745 -0.23139328163069281 0 0.065719467571416057 -0.22489822263154319 0 0.062338921595789062 -0.21792006704763969 0 0.065719467571416057 -0.22489822263154319 0 0.073706539318973169 -0.21796036257100029 0 0.062338921595789062 -0.21792006704763969 0 0.067863046951983474 -0.20503048868511209 0 0.073706539318973169 -0.21796036257100029 0 0.067863046951983474 -0.20503048868511209 0 0.073706539318973169 -0.21796036257100029 0 0.079094442607528917 -0.20913243433380641 0 0.067863046951983474 -0.20503048868511209 0 0.081482512553192915 -0.1953056794767786 0 0.079094442607528917 -0.20913243433380641 0 0.056257937900538298 -0.19577788601322099 0 0.067863046951983474 -0.20503048868511209 0 0.066040058368007956 -0.18964665730407451 0 0.067863046951983474 -0.20503048868511209 0 0.066040058368007956 -0.18964665730407451 0 0.081482512553192915 -0.1953056794767786 0 0.081482512553192915 -0.1953056794767786 0 0.095454742848087734 -0.19451486061966669 0 0.093505174579280592 -0.1731787749771625 0 0.081482512553192915 -0.1953056794767786 0 0.08833530696517819 -0.21036332105093219 0 0.095454742848087734 -0.19451486061966669 0 0.08833530696517819 -0.21036332105093219 0 0.097404311116896569 -0.21585094626217091 0 0.095454742848087734 -0.19451486061966669 0 0.081291982893300085 -0.22046062379487821 0 0.073706539318973169 -0.21796036257100029 0 0.082946926161669862 -0.2149195339015407 0 0.082946926161669862 -0.2149195339015407 0 0.079094442607528917 -0.20913243433380641 0 0.08833530696517819 -0.21036332105093219 0 0.073706539318973169 -0.21796036257100029 0 0.082946926161669862 -0.2149195339015407 0 0.079094442607528917 -0.20913243433380641 0 0.081291982893300085 -0.22046062379487821 0 0.082946926161669862 -0.2149195339015407 0 0.086853981468707001 -0.2185547472363609 0 0.081482512553192915 -0.1953056794767786 0 0.079094442607528917 -0.20913243433380641 0 0.08833530696517819 -0.21036332105093219 0 0.082946926161669862 -0.2149195339015407 0 0.08833530696517819 -0.21036332105093219 0 0.086853981468707001 -0.2185547472363609 0 0.08833530696517819 -0.21036332105093219 0 0.086853981468707001 -0.2185547472363609 0 0.09077468002378962 -0.21857675351640271 0 0.08833530696517819 -0.21036332105093219 0 0.09077468002378962 -0.21857675351640271 0 0.092213447725184278 -0.21529843562297729 0 0.08833530696517819 -0.21036332105093219 0 0.092213447725184278 -0.21529843562297729 0 0.097404311116896569 -0.21585094626217091 0 0.09077468002378962 -0.21857675351640271 0 0.094501608789943028 -0.21679829355882299 0 0.094530837428433365 -0.22086489816084981 0 0.09077468002378962 -0.21857675351640271 0 0.092213447725184278 -0.21529843562297729 0 0.094501608789943028 -0.21679829355882299 0 0.094501608789943028 -0.21679829355882299 0 0.097404311116896569 -0.21585094626217091 0 0.094530837428433365 -0.22086489816084981 0 0.092213447725184278 -0.21529843562297729 0 0.094501608789943028 -0.21679829355882299 0 0.097404311116896569 -0.21585094626217091 0 0.097404311116896569 -0.21585094626217091 0 0.095454742848087734 -0.19451486061966669 0 0.097404311116896569 -0.21585094626217091 0 0.1059898830346106 -0.20430933332548051 0 0.095454742848087734 -0.19451486061966669 0 0.097404311116896569 -0.21585094626217091 0 0.1089347031997706 -0.21297733173581901 0 0.1146171121197104 -0.21980430615730401 0 0.097404311116896569 -0.21585094626217091 0 0.1059898830346106 -0.20430933332548051 0 0.1089347031997706 -0.21297733173581901 0 0.095454742848087734 -0.19451486061966669 0 0.1128143282819509 -0.19216489626002589 0 0.10772522460311169 -0.17968171223372481 0 0.1059898830346106 -0.20430933332548051 0 0.095454742848087734 -0.19451486061966669 0 0.1128143282819509 -0.19216489626002589 0 0.1128143282819509 -0.19216489626002589 0 0.1237689835273371 -0.19605207676116951 0 0.1178461100078927 -0.20838697738218431 0 0.1059898830346106 -0.20430933332548051 0 0.1128143282819509 -0.19216489626002589 0 0.1178461100078927 -0.20838697738218431 0 0.1128143282819509 -0.19216489626002589 0 0.1237689835273371 -0.19605207676116951 0 0.1232013989280239 -0.1819146573535104 0 0.1089347031997706 -0.21297733173581901 0 0.1178461100078927 -0.20838697738218431 0 0.1146171121197104 -0.21980430615730401 0 0.1059898830346106 -0.20430933332548051 0 0.1089347031997706 -0.21297733173581901 0 0.1178461100078927 -0.20838697738218431 0 0.1178461100078927 -0.20838697738218431 0 0.1146171121197104 -0.21980430615730401 0 0.12895394136930069 -0.22163642029703709 0 0.1146171121197104 -0.21980430615730401 0 0.12018370186474731 -0.23305432747703519 0 0.12895394136930069 -0.22163642029703709 0 0.097404311116896569 -0.21585094626217091 0 0.1146171121197104 -0.21980430615730401 0 0.12018370186474731 -0.23305432747703519 0 0.1212054647883809 -0.25073068226796852 0 0.12018370186474731 -0.23305432747703519 0 0.1059281586602189 -0.23527494890652931 0 0.13217397618885759 -0.25462043987800831 0 0.1212054647883809 -0.25073068226796852 0 0.12018370186474731 -0.23305432747703519 0 0.1212054647883809 -0.25073068226796852 0 0.1059281586602189 -0.23527494890652931 0 0.1078238037173969 -0.24832262031645649 0 0.1212054647883809 -0.25073068226796852 0 0.1059281586602189 -0.23527494890652931 0 0.099550463170151926 -0.25262580003909579 0 0.1078238037173969 -0.24832262031645649 0 0.10103467245524091 -0.24298905409433241 0 0.1059281586602189 -0.23527494890652931 0 0.1078238037173969 -0.24832262031645649 0 0.10103467245524091 -0.24298905409433241 0 0.099550463170151926 -0.25262580003909579 0 0.10103467245524091 -0.24298905409433241 0 0.094006026236525903 -0.2441335510050745 0 0.090706365013478091 -0.25245448435890872 0 0.099550463170151926 -0.25262580003909579 0 0.094006026236525903 -0.2441335510050745 0 0.1059281586602189 -0.23527494890652931 0 0.10103467245524091 -0.24298905409433241 0 0.096012267649498176 -0.23702186761809721 0 0.10103467245524091 -0.24298905409433241 0 0.094006026236525903 -0.2441335510050745 0 0.096012267649498176 -0.23702186761809721 0 0.1059281586602189 -0.23527494890652931 0 0.096012267649498176 -0.23702186761809721 0 0.098670227838192195 -0.22970514568366851 0 0.089763789457938253 -0.2306791647953326 0 0.096012267649498176 -0.23702186761809721 0 0.098670227838192195 -0.22970514568366851 0 0.097404311116896569 -0.21585094626217091 0 0.12018370186474731 -0.23305432747703519 0 0.097404311116896569 -0.21585094626217091 0 0.12018370186474731 -0.23305432747703519 0 0.1059281586602189 -0.23527494890652931 0 0.097404311116896569 -0.21585094626217091 0 0.1059281586602189 -0.23527494890652931 0 0.098670227838192195 -0.22970514568366851 0 0.091303359373345411 -0.22339335178318359 0 0.098670227838192195 -0.22970514568366851 0 0.094530837428433365 -0.22086489816084981 0 0.097404311116896569 -0.21585094626217091 0 0.098670227838192195 -0.22970514568366851 0 0.094530837428433365 -0.22086489816084981 0 0.097404311116896569 -0.21585094626217091 0 0.098670227838192195 -0.22970514568366851 0 0.1071373084330472 -0.14482826815459701 0 0.1035248479174861 -0.15311019857333261 0 0.098760878024456711 -0.14050656481393209 0 0.1071373084330472 -0.14482826815459701 0 0.1035248479174861 -0.15311019857333261 0 0.1121477659277255 -0.1503271840913511 0 0.1035248479174861 -0.15311019857333261 0 0.098760878024456711 -0.14050656481393209 0 0.091560400862706559 -0.15189516094014111 0 0.098760878024456711 -0.14050656481393209 0 0.099399694252258627 -0.1328638184600745 0 0.089615627146132512 -0.13061154690311971 0 0.099399694252258627 -0.1328638184600745 0 0.099525338641528904 -0.12611341339503321 0 0.089615627146132512 -0.13061154690311971 0 0.099525338641528904 -0.12611341339503321 0 0.1096969331969164 -0.13422374872821319 0 0.1121708616464093 -0.1216807098986791 0 0.099399694252258627 -0.1328638184600745 0 0.099525338641528904 -0.12611341339503321 0 0.1096969331969164 -0.13422374872821319 0 0.098760878024456711 -0.14050656481393209 0 0.099399694252258627 -0.1328638184600745 0 0.1096969331969164 -0.13422374872821319 0 0.1071373084330472 -0.14482826815459701 0 0.098760878024456711 -0.14050656481393209 0 0.1096969331969164 -0.13422374872821319 0 0.1096969331969164 -0.13422374872821319 0 0.1155243526086871 -0.14484298486410191 0 0.12532898621889721 -0.13663811256420449 0 0.1096969331969164 -0.13422374872821319 0 0.11997683785091839 -0.1276371159963853 0 0.12532898621889721 -0.13663811256420449 0 0.1096969331969164 -0.13422374872821319 0 0.11997683785091839 -0.1276371159963853 0 0.1121708616464093 -0.1216807098986791 0 0.1217036921304827 -0.1482443959076799 0 0.1155243526086871 -0.14484298486410191 0 0.12532898621889721 -0.13663811256420449 0 0.1217036921304827 -0.1482443959076799 0 0.1155243526086871 -0.14484298486410191 0 0.1179114041550178 -0.15136128022523329 0 0.1071373084330472 -0.14482826815459701 0 0.1155243526086871 -0.14484298486410191 0 0.1121477659277255 -0.1503271840913511 0 0.1071373084330472 -0.14482826815459701 0 0.1096969331969164 -0.13422374872821319 0 0.1155243526086871 -0.14484298486410191 0 0.1035248479174861 -0.15311019857333261 0 0.1121477659277255 -0.1503271840913511 0 0.1169082366172023 -0.15609331882735419 0 0.1155243526086871 -0.14484298486410191 0 0.1121477659277255 -0.1503271840913511 0 0.1179114041550178 -0.15136128022523329 0 0.1121477659277255 -0.1503271840913511 0 0.1169082366172023 -0.15609331882735419 0 0.1179114041550178 -0.15136128022523329 0 0.1169082366172023 -0.15609331882735419 0 0.1179114041550178 -0.15136128022523329 0 0.12324902196630889 -0.15465793599018671 0 0.1217036921304827 -0.1482443959076799 0 0.1179114041550178 -0.15136128022523329 0 0.12324902196630889 -0.15465793599018671 0 0.1217036921304827 -0.1482443959076799 0 0.12324902196630889 -0.15465793599018671 0 0.12831016946945831 -0.1492440347933528 0 0.1035248479174861 -0.15311019857333261 0 0.12443417021765769 -0.1709717485187108 0 0.1227471198665283 -0.15880086614903269 0 0.12098675462827781 -0.16200852072179159 0 0.1290045142054978 -0.1612372837293575 0 0.1035248479174861 -0.15311019857333261 0 0.12443417021765769 -0.1709717485187108 0 0.12083528946942131 -0.1711597280255607 0 0.1035248479174861 -0.15311019857333261 0 0.12098675462827781 -0.16200852072179159 0 0.12443417021765769 -0.1709717485187108 0 0.1035248479174861 -0.15311019857333261 0 0.1169082366172023 -0.15609331882735419 0 0.12098675462827781 -0.16200852072179159 0 0.1169082366172023 -0.15609331882735419 0 0.1227471198665283 -0.15880086614903269 0 0.12098675462827781 -0.16200852072179159 0 0.1169082366172023 -0.15609331882735419 0 0.12324902196630889 -0.15465793599018671 0 0.1227471198665283 -0.15880086614903269 0 0.12098675462827781 -0.16200852072179159 0 0.12443417021765769 -0.1709717485187108 0 0.12715697753007521 -0.16591248018761531 0 0.1128143282819509 -0.19216489626002589 0 0.1232013989280239 -0.1819146573535104 0 0.1157139550245927 -0.18029465614444529 0 0.12083528946942131 -0.1711597280255607 0 0.1232013989280239 -0.1819146573535104 0 0.1157139550245927 -0.18029465614444529 0 0.12443417021765769 -0.1709717485187108 0 0.12083528946942131 -0.1711597280255607 0 0.1232013989280239 -0.1819146573535104 0 0.12083528946942131 -0.1711597280255607 0 0.1157139550245927 -0.18029465614444529 0 0.10772522460311169 -0.17968171223372481 0 0.1128143282819509 -0.19216489626002589 0 0.1157139550245927 -0.18029465614444529 0 0.10772522460311169 -0.17968171223372481 0 0.095454742848087734 -0.19451486061966669 0 0.10772522460311169 -0.17968171223372481 0 0.093505174579280592 -0.1731787749771625 0 0.12083528946942131 -0.1711597280255607 0 0.093505174579280592 -0.1731787749771625 0 0.095454742848087734 -0.19451486061966669 0 0.093505174579280592 -0.1731787749771625 0 0.12083528946942131 -0.1711597280255607 0 0.10772522460311169 -0.17968171223372481 0 0.093505174579280592 -0.1731787749771625 0 0.1035248479174861 -0.15311019857333261 0 0.093505174579280592 -0.1731787749771625 0 0.091560400862706559 -0.15189516094014111 0 0.1035248479174861 -0.15311019857333261 0 0.12083528946942131 -0.1711597280255607 0 0.093505174579280592 -0.1731787749771625 0 0.078133883947979807 -0.15717501910519549 0 0.093505174579280592 -0.1731787749771625 0 0.091560400862706559 -0.15189516094014111 0 0.078133883947979807 -0.15717501910519549 0 0.093505174579280592 -0.1731787749771625 0 0.072477207369929117 -0.17473224276400179 0 0.093505174579280592 -0.1731787749771625 0 0.091560400862706559 -0.15189516094014111 0 0.081482512553192915 -0.1953056794767786 0 0.093505174579280592 -0.1731787749771625 0 0.072477207369929117 -0.17473224276400179 0 0.093505174579280592 -0.1731787749771625 0 0.072477207369929117 -0.17473224276400179 0 0.066040058368007956 -0.18964665730407451 0 0.072477207369929117 -0.17473224276400179 0 0.051449240160577621 -0.1762857105508405 0 0.066040058368007956 -0.18964665730407451 0 0.081482512553192915 -0.1953056794767786 0 0.072477207369929117 -0.17473224276400179 0 0.078133883947979807 -0.15717501910519549 0 0.072477207369929117 -0.17473224276400179 0 0.063878974636528515 -0.16401540189567099 0 0.072477207369929117 -0.17473224276400179 0 0.063878974636528515 -0.16401540189567099 0 0.051449240160577621 -0.1762857105508405 0 0.078133883947979807 -0.15717501910519549 0 0.063878974636528515 -0.16401540189567099 0 0.06522271263887458 -0.15305574504012881 0 0.06522271263887458 -0.15305574504012881 0 0.069316279952888193 -0.14186668388360371 0 0.075278834721760557 -0.14616760919767161 0 0.06522271263887458 -0.15305574504012881 0 0.069316279952888193 -0.14186668388360371 0 0.05757515479497001 -0.1486962131740798 0 0.069316279952888193 -0.14186668388360371 0 0.075278834721760557 -0.14616760919767161 0 0.079765110473415279 -0.13788087003968491 0 0.078133883947979807 -0.15717501910519549 0 0.06522271263887458 -0.15305574504012881 0 0.075278834721760557 -0.14616760919767161 0 0.098760878024456711 -0.14050656481393209 0 0.091560400862706559 -0.15189516094014111 0 0.089615627146132512 -0.13061154690311971 0 0.078133883947979807 -0.15717501910519549 0 0.083611330147541921 -0.14459745320402559 0 0.091560400862706559 -0.15189516094014111 0 0.091560400862706559 -0.15189516094014111 0 0.089615627146132512 -0.13061154690311971 0 0.078133883947979807 -0.15717501910519549 0 0.075278834721760557 -0.14616760919767161 0 0.083611330147541921 -0.14459745320402559 0 0.083611330147541921 -0.14459745320402559 0 0.091560400862706559 -0.15189516094014111 0 0.089615627146132512 -0.13061154690311971 0 0.075278834721760557 -0.14616760919767161 0 0.083611330147541921 -0.14459745320402559 0 0.079765110473415279 -0.13788087003968491 0 0.099525338641528904 -0.12611341339503321 0 0.089615627146132512 -0.13061154690311971 0 0.081894058627025895 -0.12584863130967919 0 0.083611330147541921 -0.14459745320402559 0 0.089615627146132512 -0.13061154690311971 0 0.079765110473415279 -0.13788087003968491 0 0.089615627146132512 -0.13061154690311971 0 0.079765110473415279 -0.13788087003968491 0 0.081894058627025895 -0.12584863130967919 0 0.081894058627025895 -0.12584863130967919 0 0.065576399090336079 -0.13067912082877309 0 0.057907204523981459 -0.13951585418161591 0 0.081894058627025895 -0.12584863130967919 0 0.057907204523981459 -0.13951585418161591 0 0.069316279952888193 -0.14186668388360371 0 0.081894058627025895 -0.12584863130967919 0 0.057907204523981459 -0.13951585418161591 0 0.081894058627025895 -0.12584863130967919 0 0.068207364780656948 -0.12563827965844471 0 0.065576399090336079 -0.13067912082877309 0 0.069316279952888193 -0.14186668388360371 0 0.079765110473415279 -0.13788087003968491 0 0.081894058627025895 -0.12584863130967919 0 0.068207364780656948 -0.12563827965844471 0 0.065576399090336079 -0.13067912082877309 0 0.054296968429680029 -0.13171371816535249 0 0.054296968429680029 -0.13171371816535249 0 0.057907204523981459 -0.13951585418161591 0 0.034849001543539322 -0.1503583031021323 0 0.054296968429680029 -0.13171371816535249 0 0.045553716665441668 -0.12681104972785159 0 0.052448498866582129 -0.1166826243517366 0 0.065576399090336079 -0.13067912082877309 0 0.054296968429680029 -0.13171371816535249 0 0.057907204523981459 -0.13951585418161591 0 0.069316279952888193 -0.14186668388360371 0 0.057907204523981459 -0.13951585418161591 0 0.05757515479497001 -0.1486962131740798 0 0.06522271263887458 -0.15305574504012881 0 0.05757515479497001 -0.1486962131740798 0 0.052111829065281459 -0.15882829201818821 0 0.046808539919221563 -0.15014413002933799 0 0.052111829065281459 -0.15882829201818821 0 0.043031393960321331 -0.1571354857308308 0 0.05757515479497001 -0.1486962131740798 0 0.046808539919221563 -0.15014413002933799 0 0.052111829065281459 -0.15882829201818821 0 0.057907204523981459 -0.13951585418161591 0 0.05757515479497001 -0.1486962131740798 0 0.046808539919221563 -0.15014413002933799 0 0.057907204523981459 -0.13951585418161591 0 0.046808539919221563 -0.15014413002933799 0 0.033920350420936912 -0.1531830770535528 0 0.057907204523981459 -0.13951585418161591 0 0.034849001543539322 -0.1503583031021323 0 0.033920350420936912 -0.1531830770535528 0 0.054296968429680029 -0.13171371816535249 0 0.034849001543539322 -0.1503583031021323 0 0.038558521200612962 -0.14006542407622449 0 0.054296968429680029 -0.13171371816535249 0 0.034849001543539322 -0.1503583031021323 0 0.057907204523981459 -0.13951585418161591 0 0.033920350420936912 -0.1531830770535528 0 0.046808539919221563 -0.15014413002933799 0 0.040219483271594643 -0.15466785876887121 0 0.033920350420936912 -0.1531830770535528 0 0.046808539919221563 -0.15014413002933799 0 0.040219483271594643 -0.15466785876887121 0 0.043031393960321331 -0.1571354857308308 0 0.040219483271594643 -0.15466785876887121 0 0.033920350420936912 -0.1531830770535528 0 0.037117648785898759 -0.15820874226176301 0 0.034849001543539322 -0.1503583031021323 0 0.031672068294339203 -0.14528428076340441 0 0.030051573782975471 -0.15027594372919439 0 0.034849001543539322 -0.1503583031021323 0 0.033920350420936912 -0.1531830770535528 0 0.030051573782975471 -0.15027594372919439 0 0.034849001543539322 -0.1503583031021323 0 0.031672068294339203 -0.14528428076340441 0 0.038558521200612962 -0.14006542407622449 0 0.031672068294339203 -0.14528428076340441 0 0.038558521200612962 -0.14006542407622449 0 0.030566093298411881 -0.13865773310914861 0 0.054296968429680029 -0.13171371816535249 0 0.038558521200612962 -0.14006542407622449 0 0.040644455285911409 -0.1338393175667463 0 0.038558521200612962 -0.14006542407622449 0 0.040644455285911409 -0.1338393175667463 0 0.030566093298411881 -0.13865773310914861 0 0.034824944079593127 -0.12500853882757099 0 0.040644455285911409 -0.1338393175667463 0 0.030566093298411881 -0.13865773310914861 0 0.034824944079593127 -0.12500853882757099 0 0.045553716665441668 -0.12681104972785159 0 0.040644455285911409 -0.1338393175667463 0 0.054296968429680029 -0.13171371816535249 0 0.045553716665441668 -0.12681104972785159 0 0.040644455285911409 -0.1338393175667463 0 0.072477207369929117 -0.17473224276400179 0 0.051449240160577621 -0.1762857105508405 0 0.056257937900538298 -0.19577788601322099 0 0.066040058368007956 -0.18964665730407451 0 0.051449240160577621 -0.1762857105508405 0 0.063878974636528515 -0.16401540189567099 0 0.051449240160577621 -0.1762857105508405 0 0.052111829065281459 -0.15882829201818821 0 0.051449240160577621 -0.1762857105508405 0 0.052111829065281459 -0.15882829201818821 0 0.040502396519655252 -0.1663673850483231 0 0.063878974636528515 -0.16401540189567099 0 0.06522271263887458 -0.15305574504012881 0 0.052111829065281459 -0.15882829201818821 0 0.043031393960321331 -0.1571354857308308 0 0.037117648785898759 -0.15820874226176301 0 0.040502396519655252 -0.1663673850483231 0 0.052111829065281459 -0.15882829201818821 0 0.043031393960321331 -0.1571354857308308 0 0.040502396519655252 -0.1663673850483231 0 0.040219483271594643 -0.15466785876887121 0 0.043031393960321331 -0.1571354857308308 0 0.037117648785898759 -0.15820874226176301 0 0.033920350420936912 -0.1531830770535528 0 0.033509818979212957 -0.15868168045615499 0 0.027465449436243041 -0.1628752445715565 0 0.037117648785898759 -0.15820874226176301 0 0.034071859908748191 -0.1623715567021686 0 0.040502396519655252 -0.1663673850483231 0 0.033920350420936912 -0.1531830770535528 0 0.037117648785898759 -0.15820874226176301 0 0.033509818979212957 -0.15868168045615499 0 0.037117648785898759 -0.15820874226176301 0 0.033509818979212957 -0.15868168045615499 0 0.034071859908748191 -0.1623715567021686 0 0.033509818979212957 -0.15868168045615499 0 0.034071859908748191 -0.1623715567021686 0 0.027465449436243041 -0.1628752445715565 0 0.031586668938662611 -0.1691709391612749 0 0.040502396519655252 -0.1663673850483231 0 0.030421272951226121 -0.1778391783376792 0 0.034071859908748191 -0.1623715567021686 0 0.031586668938662611 -0.1691709391612749 0 0.040502396519655252 -0.1663673850483231 0 0.051449240160577621 -0.1762857105508405 0 0.040502396519655252 -0.1663673850483231 0 0.030421272951226121 -0.1778391783376792 0 0.041440672425083092 -0.19607701236864419 0 0.051449240160577621 -0.1762857105508405 0 0.030421272951226121 -0.1778391783376792 0 0.051449240160577621 -0.1762857105508405 0 0.030421272951226121 -0.1778391783376792 0 0.02540307025583758 -0.19229280057405279 0 0.015764016274472759 -0.1812646672695073 0 0.030421272951226121 -0.1778391783376792 0 0.031586668938662611 -0.1691709391612749 0 0.030421272951226121 -0.1778391783376792 0 0.021575687727073561 -0.1734893605992324 0 0.015764016274472759 -0.1812646672695073 0 0.021575687727073561 -0.1734893605992324 0 0.012676990919703311 -0.16924925594887871 0 0.015764016274472759 -0.1812646672695073 0 0.030421272951226121 -0.1778391783376792 0 0.021575687727073561 -0.1734893605992324 0 0.033920350420936912 -0.1531830770535528 0 0.009933496317892726 -0.16685029992549011 0 0.02294500892830088 -0.1542832107784407 0 0.033920350420936912 -0.1531830770535528 0 0.027465449436243041 -0.1628752445715565 0 0.009933496317892726 -0.16685029992549011 0 0.019596439448784399 -0.16744493330375371 0 0.027465449436243041 -0.1628752445715565 0 0.009933496317892726 -0.16685029992549011 0 0.033920350420936912 -0.1531830770535528 0 0.009933496317892726 -0.16685029992549011 0 0.021575687727073561 -0.1734893605992324 0 0.019596439448784399 -0.16744493330375371 0 0.012676990919703311 -0.16924925594887871 0 0.021575687727073561 -0.1734893605992324 0 0.019596439448784399 -0.16744493330375371 0 0.025540403417393751 -0.1677775419388785 0 0.031586668938662611 -0.1691709391612749 0 0.021575687727073561 -0.1734893605992324 0 0.025540403417393751 -0.1677775419388785 0 0.019596439448784399 -0.16744493330375371 0 0.025540403417393751 -0.1677775419388785 0 0.027465449436243041 -0.1628752445715565 0 0.034071859908748191 -0.1623715567021686 0 0.031586668938662611 -0.1691709391612749 0 0.027465449436243041 -0.1628752445715565 0 0.031586668938662611 -0.1691709391612749 0 0.025540403417393751 -0.1677775419388785 0 0.027465449436243041 -0.1628752445715565 0 0.009933496317892726 -0.16685029992549011 0 0.01648447247354291 -0.15404273338364399 0 0.02294500892830088 -0.1542832107784407 0 0.009933496317892726 -0.16685029992549011 0 0.01648447247354291 -0.15404273338364399 0 0.0068311679390763679 -0.1533437069849535 0 0.019596439448784399 -0.16744493330375371 0 0.009933496317892726 -0.16685029992549011 0 0.012676990919703311 -0.16924925594887871 0 0.009933496317892726 -0.16685029992549011 0 0.012676990919703311 -0.16924925594887871 0 0.0034571977838801569 -0.17702496179755631 0 0.009933496317892726 -0.16685029992549011 0 0.012676990919703311 -0.16924925594887871 0 -0.0085976242789068957 -0.177408956520272 0 0.009933496317892726 -0.16685029992549011 0 -0.0085976242789068957 -0.177408956520272 0 0.009933496317892726 -0.16685029992549011 0 0.0034571977838801569 -0.17702496179755631 0 0.015764016274472759 -0.1812646672695073 0 0.012676990919703311 -0.16924925594887871 0 0.0034571977838801569 -0.17702496179755631 0 -0.003739977245034012 -0.19168309442994089 0 0.010514116253606281 -0.1925853606064957 0 0.0034571977838801569 -0.17702496179755631 0 0.010514116253606281 -0.1925853606064957 0 0.015764016274472759 -0.1812646672695073 0 0.0034571977838801569 -0.17702496179755631 0 0.02166725362828328 -0.1398342401410575 0 0.019282665512654749 -0.1297026577714144 0 0.01241268948209219 -0.14437852502616319 0 0.034824944079593127 -0.12500853882757099 0 0.019282665512654749 -0.1297026577714144 0 0.030566093298411881 -0.13865773310914861 0 0.02166725362828328 -0.1398342401410575 0 0.019282665512654749 -0.1297026577714144 0 0.030566093298411881 -0.13865773310914861 0 0.031672068294339203 -0.14528428076340441 0 0.030566093298411881 -0.13865773310914861 0 0.024335151646156381 -0.14706399980032239 0 0.02166725362828328 -0.1398342401410575 0 0.030566093298411881 -0.13865773310914861 0 0.024335151646156381 -0.14706399980032239 0 0.031672068294339203 -0.14528428076340441 0 0.024335151646156381 -0.14706399980032239 0 0.030051573782975471 -0.15027594372919439 0 0.033920350420936912 -0.1531830770535528 0 0.030051573782975471 -0.15027594372919439 0 0.02294500892830088 -0.1542832107784407 0 0.024335151646156381 -0.14706399980032239 0 0.030051573782975471 -0.15027594372919439 0 0.02294500892830088 -0.1542832107784407 0 0.024335151646156381 -0.14706399980032239 0 0.01648447247354291 -0.15404273338364399 0 0.01241268948209219 -0.14437852502616319 0 0.024335151646156381 -0.14706399980032239 0 0.01648447247354291 -0.15404273338364399 0 0.02294500892830088 -0.1542832107784407 0 0.02166725362828328 -0.1398342401410575 0 0.024335151646156381 -0.14706399980032239 0 0.01241268948209219 -0.14437852502616319 0 -0.011505986517222349 -0.14810326960451681 0 0.01241268948209219 -0.14437852502616319 0 0.0068311679390763679 -0.1533437069849535 0 -0.011505986517222349 -0.14810326960451681 0 0.009933496317892726 -0.16685029992549011 0 0.0068311679390763679 -0.1533437069849535 0 -0.011505986517222349 -0.14810326960451681 0 0.01241268948209219 -0.14437852502616319 0 0.0027021066240326768 -0.1317064378292063 0 0.01648447247354291 -0.15404273338364399 0 0.01241268948209219 -0.14437852502616319 0 0.0068311679390763679 -0.1533437069849535 0 0.019282665512654749 -0.1297026577714144 0 0.01241268948209219 -0.14437852502616319 0 0.0027021066240326768 -0.1317064378292063 0 0.019282665512654749 -0.1297026577714144 0 0.0027021066240326768 -0.1317064378292063 0 0.005085065621477718 -0.1151057880332567 0 0.019282665512654749 -0.1297026577714144 0 0.005085065621477718 -0.1151057880332567 0 0.024129304522527751 -0.1089818526354679 0 0.034824944079593127 -0.12500853882757099 0 0.019282665512654749 -0.1297026577714144 0 0.024129304522527751 -0.1089818526354679 0 0.024129304522527751 -0.1089818526354679 0 0.01380815825635252 -0.094132232187142617 0 0.031293966725895003 -0.08518965294817829 0 -0.00044729776891663488 -0.1011528385718463 0 0.005085065621477718 -0.1151057880332567 0 0.01380815825635252 -0.094132232187142617 0 0.005085065621477718 -0.1151057880332567 0 0.024129304522527751 -0.1089818526354679 0 0.01380815825635252 -0.094132232187142617 0 0.01380815825635252 -0.094132232187142617 0 0.0042106568376920582 -0.081118225430045127 0 0.020039989671696231 -0.071989185162356889 0 -0.00044729776891663488 -0.1011528385718463 0 0.01380815825635252 -0.094132232187142617 0 0.0042106568376920582 -0.081118225430045127 0 0.0042106568376920582 -0.081118225430045127 0 0.0052181775422467033 -0.064346337314722044 0 0.020039989671696231 -0.071989185162356889 0 -0.0043762627118289626 -0.071729097412358583 0 0.0042106568376920582 -0.081118225430045127 0 0.0052181775422467033 -0.064346337314722044 0 0.0052181775422467033 -0.064346337314722044 0 0.020039989671696231 -0.071989185162356889 0 0.0052181775422467033 -0.064346337314722044 0 0.020039989671696231 -0.071989185162356889 0 0.017880224012190679 -0.058506375123621113 0 0.020039989671696231 -0.071989185162356889 0 0.017880224012190679 -0.058506375123621113 0 0.035073137211611732 -0.060365082031122411 0 0.020039989671696231 -0.071989185162356889 0 0.031293966725895003 -0.08518965294817829 0 0.035073137211611732 -0.060365082031122411 0 0.01380815825635252 -0.094132232187142617 0 0.020039989671696231 -0.071989185162356889 0 0.031293966725895003 -0.08518965294817829 0 0.031293966725895003 -0.08518965294817829 0 0.050629459546369923 -0.074776417317023003 0 0.042727201812981508 -0.099892478072297022 0 0.050629459546369923 -0.074776417317023003 0 0.042727201812981508 -0.099892478072297022 0 0.031293966725895003 -0.08518965294817829 0 0.050629459546369923 -0.074776417317023003 0 0.035073137211611732 -0.060365082031122411 0 0.050629459546369923 -0.074776417317023003 0 0.058531717279758283 -0.049660356561749108 0 0.072219385832792832 -0.066659644627356851 0 0.050629459546369923 -0.074776417317023003 0 0.042727201812981508 -0.099892478072297022 0 0.069701838591585213 -0.089386546866783212 0 0.059655618646742382 -0.10475769562984739 0 0.052448498866582129 -0.1166826243517366 0 0.042727201812981508 -0.099892478072297022 0 0.059655618646742382 -0.10475769562984739 0 0.042727201812981508 -0.099892478072297022 0 0.069701838591585213 -0.089386546866783212 0 0.054296968429680029 -0.13171371816535249 0 0.052448498866582129 -0.1166826243517366 0 0.073744935315820714 -0.1130691332285727 0 0.059655618646742382 -0.10475769562984739 0 0.052448498866582129 -0.1166826243517366 0 0.073744935315820714 -0.1130691332285727 0 0.034824944079593127 -0.12500853882757099 0 0.045553716665441668 -0.12681104972785159 0 0.052448498866582129 -0.1166826243517366 0 0.034824944079593127 -0.12500853882757099 0 0.052448498866582129 -0.1166826243517366 0 0.042727201812981508 -0.099892478072297022 0 0.034824944079593127 -0.12500853882757099 0 0.024129304522527751 -0.1089818526354679 0 0.042727201812981508 -0.099892478072297022 0 0.034824944079593127 -0.12500853882757099 0 0.042727201812981508 -0.099892478072297022 0 0.024129304522527751 -0.1089818526354679 0 0.031293966725895003 -0.08518965294817829 0 0.042727201812981508 -0.099892478072297022 0 0.034885408484197772 0.0062912350017927032 0 0.01265631079038235 -0.01012693536007268 0 0.042517259973231587 -0.011683923625132649 0 -0.00118246574067416 -0.01324232368796026 0 0.0012074066645448821 -0.00065723147797176382 0 0.01265631079038235 -0.01012693536007268 0 0.01265631079038235 -0.01012693536007268 0 0.02406773205363014 -0.026959444655171291 0 0.0015263381015913891 -0.033415212413580753 0 0.01265631079038235 -0.01012693536007268 0 0.0015263381015913891 -0.033415212413580753 0 -0.00118246574067416 -0.01324232368796026 0 0.01265631079038235 -0.01012693536007268 0 0.0015263381015913891 -0.033415212413580753 0 0.01265631079038235 -0.01012693536007268 0 0.02406773205363014 -0.026959444655171291 0 0.042517259973231587 -0.011683923625132649 0 0.02406773205363014 -0.026959444655171291 0 0.021771409900077709 -0.044354063799483319 0 0.04186734150286768 -0.035217088077587062 0 0.02406773205363014 -0.026959444655171291 0 0.021771409900077709 -0.044354063799483319 0 0.0015263381015913891 -0.033415212413580753 0 0.021771409900077709 -0.044354063799483319 0 0.0015263381015913891 -0.033415212413580753 0 0.007298405735321048 -0.051477207310420908 0 -0.0096036345872028556 -0.056703489467087059 0 0.0052181775422467033 -0.064346337314722044 0 0.007298405735321048 -0.051477207310420908 0 0.0052181775422467033 -0.064346337314722044 0 0.007298405735321048 -0.051477207310420908 0 0.017880224012190679 -0.058506375123621113 0 0.021771409900077709 -0.044354063799483319 0 0.017880224012190679 -0.058506375123621113 0 0.035073137211611732 -0.060365082031122411 0 0.021771409900077709 -0.044354063799483319 0 0.007298405735321048 -0.051477207310420908 0 0.017880224012190679 -0.058506375123621113 0 0.035073137211611732 -0.060365082031122411 0 0.058531717279758283 -0.049660356561749108 0 0.04186734150286768 -0.035217088077587062 0 0.050629459546369923 -0.074776417317023003 0 0.058531717279758283 -0.049660356561749108 0 0.050629459546369923 -0.074776417317023003 0 0.035073137211611732 -0.060365082031122411 0 0.058531717279758283 -0.049660356561749108 0 0.058531717279758283 -0.049660356561749108 0 0.066433975013146629 -0.02454429580647528 0 0.058531717279758283 -0.049660356561749108 0 0.04186734150286768 -0.035217088077587062 0 0.066433975013146629 -0.02454429580647528 0 0.021771409900077709 -0.044354063799483319 0 0.035073137211611732 -0.060365082031122411 0 0.04186734150286768 -0.035217088077587062 0 0.02406773205363014 -0.026959444655171291 0 0.04186734150286768 -0.035217088077587062 0 0.042517259973231587 -0.011683923625132649 0 0.04186734150286768 -0.035217088077587062 0 0.042517259973231587 -0.011683923625132649 0 0.066433975013146629 -0.02454429580647528 0 0.052968053050369737 0.0090809173488315582 0 0.042517259973231587 -0.011683923625132649 0 0.067492943165135169 -0.0019794682467893379 0 0.042517259973231587 -0.011683923625132649 0 0.067492943165135169 -0.0019794682467893379 0 0.066433975013146629 -0.02454429580647528 0 0.087040675587819916 -0.0096101539263870796 0 0.066433975013146629 -0.02454429580647528 0 0.098032226742104309 -0.02831505409649597 0 0.083930998993742512 0.0059737405228527038 0 0.087040675587819916 -0.0096101539263870796 0 0.067492943165135169 -0.0019794682467893379 0 0.083930998993742512 0.0059737405228527038 0 0.098495163759696414 0.0029673617968291321 0 0.087040675587819916 -0.0096101539263870796 0 0.087040675587819916 -0.0096101539263870796 0 0.067492943165135169 -0.0019794682467893379 0 0.066433975013146629 -0.02454429580647528 0 0.066433975013146629 -0.02454429580647528 0 0.080663194565618018 -0.042742664855397232 0 0.098032226742104309 -0.02831505409649597 0 0.080663194565618018 -0.042742664855397232 0 0.099119978598511321 -0.045144617550746849 0 0.098032226742104309 -0.02831505409649597 0 0.058531717279758283 -0.049660356561749108 0 0.066433975013146629 -0.02454429580647528 0 0.080663194565618018 -0.042742664855397232 0 0.058531717279758283 -0.049660356561749108 0 0.080663194565618018 -0.042742664855397232 0 0.072219385832792832 -0.066659644627356851 0 0.080663194565618018 -0.042742664855397232 0 0.091985945990252393 -0.059557823171565508 0 0.072219385832792832 -0.066659644627356851 0 0.080663194565618018 -0.042742664855397232 0 0.091985945990252393 -0.059557823171565508 0 0.099119978598511321 -0.045144617550746849 0 0.091985945990252393 -0.059557823171565508 0 0.109385226414503 -0.056941989317685793 0 0.099119978598511321 -0.045144617550746849 0 0.109385226414503 -0.056941989317685793 0 0.1174221699598199 -0.069046986946925279 0 0.12664898879935529 -0.055605769639440771 0 0.109385226414503 -0.056941989317685793 0 0.1155332992800789 -0.038165556312589707 0 0.12664898879935529 -0.055605769639440771 0 0.1155332992800789 -0.038165556312589707 0 0.12954193793015309 -0.041748568408345607 0 0.12664898879935529 -0.055605769639440771 0 0.1155332992800789 -0.038165556312589707 0 0.1294320674019063 -0.023146095115484211 0 0.12954193793015309 -0.041748568408345607 0 0.109385226414503 -0.056941989317685793 0 0.1155332992800789 -0.038165556312589707 0 0.099119978598511321 -0.045144617550746849 0 0.1155332992800789 -0.038165556312589707 0 0.099119978598511321 -0.045144617550746849 0 0.098032226742104309 -0.02831505409649597 0 0.1155332992800789 -0.038165556312589707 0 0.098032226742104309 -0.02831505409649597 0 0.1112777463759113 -0.012222875866518469 0 0.087040675587819916 -0.0096101539263870796 0 0.098032226742104309 -0.02831505409649597 0 0.1112777463759113 -0.012222875866518469 0 0.1155332992800789 -0.038165556312589707 0 0.1112777463759113 -0.012222875866518469 0 0.1294320674019063 -0.023146095115484211 0 0.1158546052028349 0.0064685721448778594 0 0.13464870039648349 0.00080453217212592717 0 0.1112777463759113 -0.012222875866518469 0 0.098495163759696414 0.0029673617968291321 0 0.087040675587819916 -0.0096101539263870796 0 0.1112777463759113 -0.012222875866518469 0 0.1158546052028349 0.0064685721448778594 0 0.098495163759696414 0.0029673617968291321 0 0.1112777463759113 -0.012222875866518469 0 0.093192902201961414 -0.094424548291792879 0 0.088899626305776192 -0.1113374325741409 0 0.073744935315820714 -0.1130691332285727 0 0.093192902201961414 -0.094424548291792879 0 0.073744935315820714 -0.1130691332285727 0 0.069701838591585213 -0.089386546866783212 0 0.093192902201961414 -0.094424548291792879 0 0.073744935315820714 -0.1130691332285727 0 0.081894058627025895 -0.12584863130967919 0 0.088899626305776192 -0.1113374325741409 0 0.09397493983509804 -0.11322330148444169 0 0.081894058627025895 -0.12584863130967919 0 0.079920122843727764 -0.11786127252462281 0 0.075141871126288284 -0.1211898929860986 0 0.081894058627025895 -0.12584863130967919 0 0.088899626305776192 -0.1113374325741409 0 0.079920122843727764 -0.11786127252462281 0 0.088899626305776192 -0.1113374325741409 0 0.079920122843727764 -0.11786127252462281 0 0.073744935315820714 -0.1130691332285727 0 0.068207364780656948 -0.12563827965844471 0 0.054296968429680029 -0.13171371816535249 0 0.073744935315820714 -0.1130691332285727 0 0.054296968429680029 -0.13171371816535249 0 0.073744935315820714 -0.1130691332285727 0 0.068207364780656948 -0.12563827965844471 0 0.073744935315820714 -0.1130691332285727 0 0.075141871126288284 -0.1211898929860986 0 0.079920122843727764 -0.11786127252462281 0 0.073744935315820714 -0.1130691332285727 0 0.075141871126288284 -0.1211898929860986 0 0.081894058627025895 -0.12584863130967919 0 0.068207364780656948 -0.12563827965844471 0 0.075141871126288284 -0.1211898929860986 0 0.059655618646742382 -0.10475769562984739 0 0.073744935315820714 -0.1130691332285727 0 0.069701838591585213 -0.089386546866783212 0 0.050629459546369923 -0.074776417317023003 0 0.069701838591585213 -0.089386546866783212 0 0.072219385832792832 -0.066659644627356851 0 0.069701838591585213 -0.089386546866783212 0 0.072219385832792832 -0.066659644627356851 0 0.089711563165187497 -0.078251462936863553 0 0.091985945990252393 -0.059557823171565508 0 0.072219385832792832 -0.066659644627356851 0 0.089711563165187497 -0.078251462936863553 0 0.093192902201961414 -0.094424548291792879 0 0.069701838591585213 -0.089386546866783212 0 0.089711563165187497 -0.078251462936863553 0 0.093192902201961414 -0.094424548291792879 0 0.089711563165187497 -0.078251462936863553 0 0.1048667032735431 -0.089595599910983495 0 0.089711563165187497 -0.078251462936863553 0 0.1048667032735431 -0.089595599910983495 0 0.1056935618466131 -0.072691272791708894 0 0.1048667032735431 -0.089595599910983495 0 0.1056935618466131 -0.072691272791708894 0 0.11564058922802831 -0.08068930143821873 0 0.091985945990252393 -0.059557823171565508 0 0.089711563165187497 -0.078251462936863553 0 0.1056935618466131 -0.072691272791708894 0 0.091985945990252393 -0.059557823171565508 0 0.109385226414503 -0.056941989317685793 0 0.1056935618466131 -0.072691272791708894 0 0.1174221699598199 -0.069046986946925279 0 0.12840026197867099 -0.078951386265116219 0 0.12664898879935529 -0.055605769639440771 0 0.109385226414503 -0.056941989317685793 0 0.1056935618466131 -0.072691272791708894 0 0.1174221699598199 -0.069046986946925279 0 0.1056935618466131 -0.072691272791708894 0 0.1174221699598199 -0.069046986946925279 0 0.11564058922802831 -0.08068930143821873 0 0.1174221699598199 -0.069046986946925279 0 0.11564058922802831 -0.08068930143821873 0 0.12840026197867099 -0.078951386265116219 0 0.1048667032735431 -0.089595599910983495 0 0.11564058922802831 -0.08068930143821873 0 0.1191358060176364 -0.092450830711447801 0 0.1191358060176364 -0.092450830711447801 0 0.12840026197867099 -0.078951386265116219 0 0.11564058922802831 -0.08068930143821873 0 0.1191358060176364 -0.092450830711447801 0 0.12840026197867099 -0.078951386265116219 0 0.1058809127300703 -0.11218140843774239 0 0.12023297736745781 -0.1110263554770618 0 0.12986776683311119 -0.098514185565799078 0 0.1058809127300703 -0.11218140843774239 0 0.12986776683311119 -0.098514185565799078 0 0.1048667032735431 -0.089595599910983495 0 0.1191358060176364 -0.092450830711447801 0 0.10987135005660249 -0.1059502751577799 0 0.10987135005660249 -0.1059502751577799 0 0.1058809127300703 -0.11218140843774239 0 0.12986776683311119 -0.098514185565799078 0 0.1191358060176364 -0.092450830711447801 0 0.10987135005660249 -0.1059502751577799 0 0.12986776683311119 -0.098514185565799078 0 0.1191358060176364 -0.092450830711447801 0 0.10987135005660249 -0.1059502751577799 0 0.093192902201961414 -0.094424548291792879 0 0.088899626305776192 -0.1113374325741409 0 0.099225161677519755 -0.1035257336162041 0 0.1048667032735431 -0.089595599910983495 0 0.10987135005660249 -0.1059502751577799 0 0.099225161677519755 -0.1035257336162041 0 0.10987135005660249 -0.1059502751577799 0 0.099225161677519755 -0.1035257336162041 0 0.1058809127300703 -0.11218140843774239 0 0.088899626305776192 -0.1113374325741409 0 0.099225161677519755 -0.1035257336162041 0 0.09397493983509804 -0.11322330148444169 0 0.093192902201961414 -0.094424548291792879 0 0.1048667032735431 -0.089595599910983495 0 0.099225161677519755 -0.1035257336162041 0 0.081894058627025895 -0.12584863130967919 0 0.1058809127300703 -0.11218140843774239 0 0.099525338641528904 -0.12611341339503321 0 0.081894058627025895 -0.12584863130967919 0 0.1058809127300703 -0.11218140843774239 0 0.081894058627025895 -0.12584863130967919 0 0.09397493983509804 -0.11322330148444169 0 0.1058809127300703 -0.11218140843774239 0 0.099225161677519755 -0.1035257336162041 0 0.09397493983509804 -0.11322330148444169 0 0.1058809127300703 -0.11218140843774239 0 0.099525338641528904 -0.12611341339503321 0 0.1058809127300703 -0.11218140843774239 0 0.1121708616464093 -0.1216807098986791 0 0.1058809127300703 -0.11218140843774239 0 0.1121708616464093 -0.1216807098986791 0 0.12023297736745781 -0.1110263554770618 0 0.11997683785091839 -0.1276371159963853 0 0.121067612134044 -0.1214532534018402 0 0.13188977167139071 -0.12546883223523481 0 0.12023297736745781 -0.1110263554770618 0 0.121067612134044 -0.1214532534018402 0 0.13188977167139071 -0.12546883223523481 0 0.11997683785091839 -0.1276371159963853 0 0.1121708616464093 -0.1216807098986791 0 0.121067612134044 -0.1214532534018402 0 0.1121708616464093 -0.1216807098986791 0 0.12023297736745781 -0.1110263554770618 0 0.121067612134044 -0.1214532534018402 0 0.12023297736745781 -0.1110263554770618 0 0.12986776683311119 -0.098514185565799078 0 0.13188977167139071 -0.12546883223523481 0 0.12986776683311119 -0.098514185565799078 0 0.13188977167139071 -0.12546883223523481 0 0.14925441928633251 -0.10969288085116551 0 0.13995942417209239 -0.1034127274713456 0 0.13188977167139071 -0.12546883223523481 0 0.14724036225017881 -0.1245170930860646 0 0.14925441928633251 -0.10969288085116551 0 0.13188977167139071 -0.12546883223523481 0 0.14925441928633251 -0.10969288085116551 0 0.15485465026004211 -0.11932571079310079 0 0.15999890680388329 -0.1096406796162286 0 0.14724036225017881 -0.1245170930860646 0 0.15485465026004211 -0.11932571079310079 0 0.15557261582888751 -0.13003178131142151 0 0.14724036225017881 -0.1245170930860646 0 0.14925441928633251 -0.10969288085116551 0 0.15485465026004211 -0.11932571079310079 0 0.14925441928633251 -0.10969288085116551 0 0.14348993397904131 -0.092765062884646393 0 0.1620153957752187 -0.097165399419701551 0 0.14348993397904131 -0.092765062884646393 0 0.1620153957752187 -0.097165399419701551 0 0.14925441928633251 -0.10969288085116551 0 0.13995942417209239 -0.1034127274713456 0 0.14348993397904131 -0.092765062884646393 0 0.13995942417209239 -0.1034127274713456 0 0.12986776683311119 -0.098514185565799078 0 0.13188977167139071 -0.12546883223523481 0 0.13995942417209239 -0.1034127274713456 0 0.12986776683311119 -0.098514185565799078 0 0.14348993397904131 -0.092765062884646393 0 0.12986776683311119 -0.098514185565799078 0 0.12840026197867099 -0.078951386265116219 0 0.1428482005174804 -0.076716741777837147 0 0.1191358060176364 -0.092450830711447801 0 0.12986776683311119 -0.098514185565799078 0 0.12840026197867099 -0.078951386265116219 0 0.12986776683311119 -0.098514185565799078 0 0.12840026197867099 -0.078951386265116219 0 0.12840026197867099 -0.078951386265116219 0 0.12664898879935529 -0.055605769639440771 0 0.12840026197867099 -0.078951386265116219 0 0.12664898879935529 -0.055605769639440771 0 0.14464694777039611 -0.055277979731059648 0 0.12840026197867099 -0.078951386265116219 0 0.1428482005174804 -0.076716741777837147 0 0.14464694777039611 -0.055277979731059648 0 0.12840026197867099 -0.078951386265116219 0 0.14464694777039611 -0.055277979731059648 0 0.1428482005174804 -0.076716741777837147 0 0.15680899227989839 -0.06637062400294011 0 0.14464694777039611 -0.055277979731059648 0 0.1428482005174804 -0.076716741777837147 0 0.15451703372532541 -0.084469533324270707 0 0.15680899227989839 -0.06637062400294011 0 0.12986776683311119 -0.098514185565799078 0 0.15451703372532541 -0.084469533324270707 0 0.12986776683311119 -0.098514185565799078 0 0.14348993397904131 -0.092765062884646393 0 0.15451703372532541 -0.084469533324270707 0 0.14348993397904131 -0.092765062884646393 0 0.15451703372532541 -0.084469533324270707 0 0.1620153957752187 -0.097165399419701551 0 0.12986776683311119 -0.098514185565799078 0 0.1428482005174804 -0.076716741777837147 0 0.15451703372532541 -0.084469533324270707 0 0.15451703372532541 -0.084469533324270707 0 0.1674193516126988 -0.088794767656503876 0 0.1620153957752187 -0.097165399419701551 0 0.15451703372532541 -0.084469533324270707 0 0.1674193516126988 -0.088794767656503876 0 0.16389165652408541 -0.076485311925560115 0 0.1674193516126988 -0.088794767656503876 0 0.16389165652408541 -0.076485311925560115 0 0.17613181446746839 -0.084287857658230353 0 0.15451703372532541 -0.084469533324270707 0 0.15680899227989839 -0.06637062400294011 0 0.16389165652408541 -0.076485311925560115 0 0.16389165652408541 -0.076485311925560115 0 0.1717227713635387 -0.067009979361705274 0 0.17613181446746839 -0.084287857658230353 0 0.15680899227989839 -0.06637062400294011 0 0.16389165652408541 -0.076485311925560115 0 0.1717227713635387 -0.067009979361705274 0 0.15680899227989839 -0.06637062400294011 0 0.1717227713635387 -0.067009979361705274 0 0.1652446184022294 -0.054500080927008407 0 0.1717227713635387 -0.067009979361705274 0 0.17613181446746839 -0.084287857658230353 0 0.1717227713635387 -0.067009979361705274 0 0.18346211879182289 -0.064955309332027283 0 0.18137547142311691 -0.085525622921553163 0 0.18346211879182289 -0.064955309332027283 0 0.18137547142311691 -0.085525622921553163 0 0.1952329782378138 -0.068464889048657496 0 0.1717227713635387 -0.067009979361705274 0 0.18137547142311691 -0.085525622921553163 0 0.1717227713635387 -0.067009979361705274 0 0.18346211879182289 -0.064955309332027283 0 0.1746283364613696 -0.057560297553190053 0 0.18137547142311691 -0.085525622921553163 0 0.17613181446746839 -0.084287857658230353 0 0.18054085757139629 -0.1015657359547559 0 0.17613181446746839 -0.084287857658230353 0 0.18054085757139629 -0.1015657359547559 0 0.1674193516126988 -0.088794767656503876 0 0.17613181446746839 -0.084287857658230353 0 0.18054085757139629 -0.1015657359547559 0 0.1717227713635387 -0.067009979361705274 0 0.18137547142311691 -0.085525622921553163 0 0.17613181446746839 -0.084287857658230353 0 0.18137547142311691 -0.085525622921553163 0 0.19100769245097829 -0.1040519139747048 0 0.18137547142311691 -0.085525622921553163 0 0.18054085757139629 -0.1015657359547559 0 0.19100769245097829 -0.1040519139747048 0 0.18054085757139629 -0.1015657359547559 0 0.1749190978293893 -0.1165979942053425 0 0.16884250162088479 -0.1080310140379921 0 0.18054085757139629 -0.1015657359547559 0 0.19100769245097829 -0.1040519139747048 0 0.18054085757139629 -0.1015657359547559 0 0.1862357176231304 -0.1238823921021804 0 0.1749190978293893 -0.1165979942053425 0 0.18054085757139629 -0.1015657359547559 0 0.1862357176231304 -0.1238823921021804 0 0.19100769245097829 -0.1040519139747048 0 0.18054085757139629 -0.1015657359547559 0 0.1862357176231304 -0.1238823921021804 0 0.1862357176231304 -0.1238823921021804 0 0.1749190978293893 -0.1165979942053425 0 0.17324983187337631 -0.13165498831909611 0 0.1749190978293893 -0.1165979942053425 0 0.16471491079178111 -0.1205264202314431 0 0.16884250162088479 -0.1080310140379921 0 0.16471491079178111 -0.1205264202314431 0 0.15999890680388329 -0.1096406796162286 0 0.16884250162088479 -0.1080310140379921 0 0.1749190978293893 -0.1165979942053425 0 0.16471491079178111 -0.1205264202314431 0 0.17324983187337631 -0.13165498831909611 0 0.15485465026004211 -0.11932571079310079 0 0.16471491079178111 -0.1205264202314431 0 0.15557261582888751 -0.13003178131142151 0 0.15485465026004211 -0.11932571079310079 0 0.16471491079178111 -0.1205264202314431 0 0.15999890680388329 -0.1096406796162286 0 0.18054085757139629 -0.1015657359547559 0 0.1620153957752187 -0.097165399419701551 0 0.1674193516126988 -0.088794767656503876 0 0.18054085757139629 -0.1015657359547559 0 0.1620153957752187 -0.097165399419701551 0 0.14925441928633251 -0.10969288085116551 0 0.15999890680388329 -0.1096406796162286 0 0.1620153957752187 -0.097165399419701551 0 0.15999890680388329 -0.1096406796162286 0 0.1620153957752187 -0.097165399419701551 0 0.16884250162088479 -0.1080310140379921 0 0.18054085757139629 -0.1015657359547559 0 0.1620153957752187 -0.097165399419701551 0 0.16884250162088479 -0.1080310140379921 0 0.13464870039648349 0.00080453217212592717 0 0.15480995508657039 -0.001084596553268768 0 0.14892696920713289 -0.018041582065753459 0 0.13464870039648349 0.00080453217212592717 0 0.1294320674019063 -0.023146095115484211 0 0.14892696920713289 -0.018041582065753459 0 0.13464870039648349 0.00080453217212592717 0 0.1112777463759113 -0.012222875866518469 0 0.1294320674019063 -0.023146095115484211 0 0.1294320674019063 -0.023146095115484211 0 0.14892696920713289 -0.018041582065753459 0 0.14270131340979469 -0.036531096068384838 0 0.14892696920713289 -0.018041582065753459 0 0.14270131340979469 -0.036531096068384838 0 0.16089363356212191 -0.031604573197003549 0 0.14270131340979469 -0.036531096068384838 0 0.14464694777039611 -0.055277979731059648 0 0.16089363356212191 -0.031604573197003549 0 0.14464694777039611 -0.055277979731059648 0 0.15561449558007559 -0.051164132387281437 0 0.16089363356212191 -0.031604573197003549 0 0.14464694777039611 -0.055277979731059648 0 0.16089363356212191 -0.031604573197003549 0 0.14270131340979469 -0.036531096068384838 0 0.12954193793015309 -0.041748568408345607 0 0.14464694777039611 -0.055277979731059648 0 0.1294320674019063 -0.023146095115484211 0 0.14270131340979469 -0.036531096068384838 0 0.12954193793015309 -0.041748568408345607 0 0.12954193793015309 -0.041748568408345607 0 0.12664898879935529 -0.055605769639440771 0 0.14464694777039611 -0.055277979731059648 0 0.15680899227989839 -0.06637062400294011 0 0.14464694777039611 -0.055277979731059648 0 0.15561449558007559 -0.051164132387281437 0 0.15680899227989839 -0.06637062400294011 0 0.15561449558007559 -0.051164132387281437 0 0.1652446184022294 -0.054500080927008407 0 0.15561449558007559 -0.051164132387281437 0 0.1652446184022294 -0.054500080927008407 0 0.1617942405007988 -0.043199732881276223 0 0.1652446184022294 -0.054500080927008407 0 0.1746283364613696 -0.057560297553190053 0 0.1617942405007988 -0.043199732881276223 0 0.1717227713635387 -0.067009979361705274 0 0.1652446184022294 -0.054500080927008407 0 0.1717227713635387 -0.067009979361705274 0 0.1652446184022294 -0.054500080927008407 0 0.1746283364613696 -0.057560297553190053 0 0.1746283364613696 -0.057560297553190053 0 0.1828119860636557 -0.050363577362968731 0 0.1617942405007988 -0.043199732881276223 0 0.18346211879182289 -0.064955309332027283 0 0.1746283364613696 -0.057560297553190053 0 0.1828119860636557 -0.050363577362968731 0 0.18346211879182289 -0.064955309332027283 0 0.1828119860636557 -0.050363577362968731 0 0.19188844298534441 -0.056659859735039647 0 0.1617942405007988 -0.043199732881276223 0 0.18853740735089011 -0.033706188378118708 0 0.1828119860636557 -0.050363577362968731 0 0.1617942405007988 -0.043199732881276223 0 0.18853740735089011 -0.033706188378118708 0 0.15561449558007559 -0.051164132387281437 0 0.16089363356212191 -0.031604573197003549 0 0.1617942405007988 -0.043199732881276223 0 0.16089363356212191 -0.031604573197003549 0 0.1617942405007988 -0.043199732881276223 0 0.18853740735089011 -0.033706188378118708 0 0.16089363356212191 -0.031604573197003549 0 0.17714031935384769 -0.0079311666629475405 0 0.14892696920713289 -0.018041582065753459 0 0.16089363356212191 -0.031604573197003549 0 0.17714031935384769 -0.0079311666629475405 0 0.16089363356212191 -0.031604573197003549 0 0.17714031935384769 -0.0079311666629475405 0 0.18853740735089011 -0.033706188378118708 0 0.1657030786406338 0.0084270166623369204 0 0.15480995508657039 -0.001084596553268768 0 0.17714031935384769 -0.0079311666629475405 0 0.15480995508657039 -0.001084596553268768 0 0.14892696920713289 -0.018041582065753459 0 0.17714031935384769 -0.0079311666629475405 0 0.21351355446813719 -0.0021103410187178909 0 0.2110126965438916 -0.012672932103663791 0 0.2228246624943325 -0.0092295053444410857 0 0.2110126965438916 -0.012672932103663791 0 0.21911622703360889 -0.015650702578479541 0 0.2228246624943325 -0.0092295053444410857 0 0.21351355446813719 -0.0021103410187178909 0 0.2110126965438916 -0.012672932103663791 0 0.19836939172364151 -0.01016904411482358 0 0.1998105265397013 0.00335350757378736 0 0.21351355446813719 -0.0021103410187178909 0 0.19836939172364151 -0.01016904411482358 0 0.1998105265397013 0.00335350757378736 0 0.17714031935384769 -0.0079311666629475405 0 0.19836939172364151 -0.01016904411482358 0 0.17714031935384769 -0.0079311666629475405 0 0.19836939172364151 -0.01016904411482358 0 0.18853740735089011 -0.033706188378118708 0 0.2110126965438916 -0.012672932103663791 0 0.19836939172364151 -0.01016904411482358 0 0.18853740735089011 -0.033706188378118708 0 0.21528057420098159 -0.024212643874961401 0 0.18853740735089011 -0.033706188378118708 0 0.2110126965438916 -0.012672932103663791 0 0.21528057420098159 -0.024212643874961401 0 0.18853740735089011 -0.033706188378118708 0 0.21528057420098159 -0.024212643874961401 0 0.20886364623554921 -0.031523512657201581 0 0.18853740735089011 -0.033706188378118708 0 0.2110126965438916 -0.012672932103663791 0 0.21528057420098159 -0.024212643874961401 0 0.21911622703360889 -0.015650702578479541 0 0.21528057420098159 -0.024212643874961401 0 0.2158000993154765 -0.027276596113623111 0 0.21360323626451261 -0.02858374534336202 0 0.21528057420098159 -0.024212643874961401 0 0.2158000993154765 -0.027276596113623111 0 0.21995729679401421 -0.029331280632926501 0 0.2158000993154765 -0.027276596113623111 0 0.21503400689837671 -0.030930810510401429 0 0.21995729679401421 -0.029331280632926501 0 0.2158000993154765 -0.027276596113623111 0 0.21503400689837671 -0.030930810510401429 0 0.21360323626451261 -0.02858374534336202 0 0.21528057420098159 -0.024212643874961401 0 0.21360323626451261 -0.02858374534336202 0 0.20886364623554921 -0.031523512657201581 0 0.21503400689837671 -0.030930810510401429 0 0.21360323626451261 -0.02858374534336202 0 0.20886364623554921 -0.031523512657201581 0 0.2128060919330283 -0.035124071741943173 0 0.2180191377477218 -0.035203133534298187 0 0.2167024847658664 -0.043974661413588162 0 0.21503400689837671 -0.030930810510401429 0 0.2128060919330283 -0.035124071741943173 0 0.20886364623554921 -0.031523512657201581 0 0.21503400689837671 -0.030930810510401429 0 0.2128060919330283 -0.035124071741943173 0 0.2180191377477218 -0.035203133534298187 0 0.21503400689837671 -0.030930810510401429 0 0.2180191377477218 -0.035203133534298187 0 0.21995729679401421 -0.029331280632926501 0 0.2167024847658664 -0.043974661413588162 0 0.20890374551960481 -0.040729144831228678 0 0.20897987019450001 -0.050060865146210963 0 0.2128060919330283 -0.035124071741943173 0 0.2167024847658664 -0.043974661413588162 0 0.20890374551960481 -0.040729144831228678 0 0.20890374551960481 -0.040729144831228678 0 0.19655169947710091 -0.043788383486002072 0 0.20897987019450001 -0.050060865146210963 0 0.2128060919330283 -0.035124071741943173 0 0.20890374551960481 -0.040729144831228678 0 0.20886364623554921 -0.031523512657201581 0 0.20890374551960481 -0.040729144831228678 0 0.20886364623554921 -0.031523512657201581 0 0.19655169947710091 -0.043788383486002072 0 0.1828119860636557 -0.050363577362968731 0 0.18853740735089011 -0.033706188378118708 0 0.19655169947710091 -0.043788383486002072 0 0.20886364623554921 -0.031523512657201581 0 0.18853740735089011 -0.033706188378118708 0 0.19655169947710091 -0.043788383486002072 0 0.19655169947710091 -0.043788383486002072 0 0.20138343235632811 -0.055727139445542639 0 0.20897987019450001 -0.050060865146210963 0 0.19655169947710091 -0.043788383486002072 0 0.19188844298534441 -0.056659859735039647 0 0.20138343235632811 -0.055727139445542639 0 0.1828119860636557 -0.050363577362968731 0 0.19655169947710091 -0.043788383486002072 0 0.19188844298534441 -0.056659859735039647 0 0.19188844298534441 -0.056659859735039647 0 0.20138343235632811 -0.055727139445542639 0 0.1952329782378138 -0.068464889048657496 0 0.20138343235632811 -0.055727139445542639 0 0.22670270369963491 -0.067064047377793826 0 0.20138343235632811 -0.055727139445542639 0 0.21577564808412511 -0.056666161138016313 0 0.22670270369963491 -0.067064047377793826 0 0.20138343235632811 -0.055727139445542639 0 0.20897987019450001 -0.050060865146210963 0 0.21577564808412511 -0.056666161138016313 0 0.2167024847658664 -0.043974661413588162 0 0.20897987019450001 -0.050060865146210963 0 0.21577564808412511 -0.056666161138016313 0 0.21577564808412511 -0.056666161138016313 0 0.23694359709532001 -0.061394592404840097 0 0.22670270369963491 -0.067064047377793826 0 0.21577564808412511 -0.056666161138016313 0 0.22648325856373289 -0.049317463857355977 0 0.23694359709532001 -0.061394592404840097 0 0.21577564808412511 -0.056666161138016313 0 0.23694359709532001 -0.061394592404840097 0 0.2167024847658664 -0.043974661413588162 0 0.21577564808412511 -0.056666161138016313 0 0.22648325856373289 -0.049317463857355977 0 0.22648325856373289 -0.049317463857355977 0 0.23694359709532001 -0.061394592404840097 0 0.23716366819637241 -0.046229271507985323 0 0.25811154610651499 -0.066123023671663908 0 0.23694359709532001 -0.061394592404840097 0 0.24870160087168189 -0.052882304334001928 0 0.23694359709532001 -0.061394592404840097 0 0.24870160087168189 -0.052882304334001928 0 0.23716366819637241 -0.046229271507985323 0 0.24870160087168189 -0.052882304334001928 0 0.23716366819637241 -0.046229271507985323 0 0.24731406762381819 -0.035960341631652723 0 0.23716366819637241 -0.046229271507985323 0 0.24731406762381819 -0.035960341631652723 0 0.23342582712955959 -0.033308149953783547 0 0.23342582712955959 -0.033308149953783547 0 0.2258308946769807 -0.038322632822349968 0 0.22548915127375299 -0.027513718828695861 0 0.22648325856373289 -0.049317463857355977 0 0.23716366819637241 -0.046229271507985323 0 0.2258308946769807 -0.038322632822349968 0 0.23716366819637241 -0.046229271507985323 0 0.23342582712955959 -0.033308149953783547 0 0.2258308946769807 -0.038322632822349968 0 0.2180191377477218 -0.035203133534298187 0 0.2167024847658664 -0.043974661413588162 0 0.2258308946769807 -0.038322632822349968 0 0.2167024847658664 -0.043974661413588162 0 0.22648325856373289 -0.049317463857355977 0 0.2258308946769807 -0.038322632822349968 0 0.2180191377477218 -0.035203133534298187 0 0.2258308946769807 -0.038322632822349968 0 0.21995729679401421 -0.029331280632926501 0 0.2258308946769807 -0.038322632822349968 0 0.22548915127375299 -0.027513718828695861 0 0.21995729679401421 -0.029331280632926501 0 0.21528057420098159 -0.024212643874961401 0 0.2313313538768734 -0.018514784978234038 0 0.22829619310998309 -0.01520182636873813 0 0.21528057420098159 -0.024212643874961401 0 0.2313313538768734 -0.018514784978234038 0 0.21528057420098159 -0.024212643874961401 0 0.22548915127375299 -0.027513718828695861 0 0.2313313538768734 -0.018514784978234038 0 0.21528057420098159 -0.024212643874961401 0 0.22548915127375299 -0.027513718828695861 0 0.21995729679401421 -0.029331280632926501 0 0.21528057420098159 -0.024212643874961401 0 0.22829619310998309 -0.01520182636873813 0 0.21528057420098159 -0.024212643874961401 0 0.21911622703360889 -0.015650702578479541 0 0.22829619310998309 -0.01520182636873813 0 0.2313313538768734 -0.018514784978234038 0 0.22829619310998309 -0.01520182636873813 0 0.23342582712955959 -0.033308149953783547 0 0.22548915127375299 -0.027513718828695861 0 0.2313313538768734 -0.018514784978234038 0 0.25508119948702751 -0.010083838205662381 0 0.2313313538768734 -0.018514784978234038 0 0.2482857443068576 -0.021714794414400052 0 0.24731406762381819 -0.035960341631652723 0 0.2313313538768734 -0.018514784978234038 0 0.2482857443068576 -0.021714794414400052 0 0.24731406762381819 -0.035960341631652723 0 0.23342582712955959 -0.033308149953783547 0 0.2313313538768734 -0.018514784978234038 0 0.24731406762381819 -0.035960341631652723 0 0.2313313538768734 -0.018514784978234038 0 0.25508119948702751 -0.010083838205662381 0 0.2313313538768734 -0.018514784978234038 0 0.24138147174972829 -0.0061427828714447699 0 0.25508119948702751 -0.010083838205662381 0 0.2313313538768734 -0.018514784978234038 0 0.24138147174972829 -0.0061427828714447699 0 0.22829619310998309 -0.01520182636873813 0 0.25446675038947358 0.0029162606258486688 0 0.2541426920980116 -0.0036136263454906951 0 0.24138147174972829 -0.0061427828714447699 0 0.25446675038947358 0.0029162606258486688 0 0.24138147174972829 -0.0061427828714447699 0 0.22999165343287109 0.0038227322559807589 0 0.24138147174972829 -0.0061427828714447699 0 0.23189167676904729 -0.0064153040848911828 0 0.22999165343287109 0.0038227322559807589 0 0.23189167676904729 -0.0064153040848911828 0 0.2228246624943325 -0.0092295053444410857 0 0.22999165343287109 0.0038227322559807589 0 0.21351355446813719 -0.0021103410187178909 0 0.2228246624943325 -0.0092295053444410857 0 0.23189167676904729 -0.0064153040848911828 0 0.22829619310998309 -0.01520182636873813 0 0.2228246624943325 -0.0092295053444410857 0 0.2313313538768734 -0.018514784978234038 0 0.24138147174972829 -0.0061427828714447699 0 0.22829619310998309 -0.01520182636873813 0 0.24138147174972829 -0.0061427828714447699 0 0.23189167676904729 -0.0064153040848911828 0 0.22829619310998309 -0.01520182636873813 0 0.21911622703360889 -0.015650702578479541 0 0.22829619310998309 -0.01520182636873813 0 0.2228246624943325 -0.0092295053444410857 0 0.22829619310998309 -0.01520182636873813 0 0.2228246624943325 -0.0092295053444410857 0 0.2084634723971549 -0.097930235578601213 0 0.21737999015654699 -0.1103161024944793 0 0.2275791846540145 -0.10054182369239011 0 0.21737999015654699 -0.1103161024944793 0 0.19100769245097829 -0.1040519139747048 0 0.2084634723971549 -0.097930235578601213 0 0.21140608144591419 -0.084503356370523836 0 0.2275791846540145 -0.10054182369239011 0 0.2084634723971549 -0.097930235578601213 0 0.21737999015654699 -0.1103161024944793 0 0.19100769245097829 -0.1040519139747048 0 0.21737999015654699 -0.1103161024944793 0 0.21277072480774051 -0.1248863227998855 0 0.20025029595199689 -0.1218288277367077 0 0.21737999015654699 -0.1103161024944793 0 0.21277072480774051 -0.1248863227998855 0 0.2239597136694004 -0.1277946194696456 0 0.1862357176231304 -0.1238823921021804 0 0.20025029595199689 -0.1218288277367077 0 0.19100769245097829 -0.1040519139747048 0 0.21737999015654699 -0.1103161024944793 0 0.20025029595199689 -0.1218288277367077 0 0.19100769245097829 -0.1040519139747048 0 0.20025029595199689 -0.1218288277367077 0 0.19100769245097829 -0.1040519139747048 0 0.2084634723971549 -0.097930235578601213 0 0.19100769245097829 -0.1040519139747048 0 0.19624682445825681 -0.08914472739044943 0 0.18137547142311691 -0.085525622921553163 0 0.19100769245097829 -0.1040519139747048 0 0.19624682445825681 -0.08914472739044943 0 0.19624682445825681 -0.08914472739044943 0 0.1952329782378138 -0.068464889048657496 0 0.21140608144591419 -0.084503356370523836 0 0.18137547142311691 -0.085525622921553163 0 0.19624682445825681 -0.08914472739044943 0 0.1952329782378138 -0.068464889048657496 0 0.20138343235632811 -0.055727139445542639 0 0.1952329782378138 -0.068464889048657496 0 0.21149591893834541 -0.070957707586151192 0 0.18346211879182289 -0.064955309332027283 0 0.19188844298534441 -0.056659859735039647 0 0.1952329782378138 -0.068464889048657496 0 0.1952329782378138 -0.068464889048657496 0 0.21140608144591419 -0.084503356370523836 0 0.20138343235632811 -0.055727139445542639 0 0.21149591893834541 -0.070957707586151192 0 0.22670270369963491 -0.067064047377793826 0 0.1952329782378138 -0.068464889048657496 0 0.21149591893834541 -0.070957707586151192 0 0.21140608144591419 -0.084503356370523836 0 0.2084634723971549 -0.097930235578601213 0 0.19624682445825681 -0.08914472739044943 0 0.21140608144591419 -0.084503356370523836 0 0.21149591893834541 -0.070957707586151192 0 0.21140608144591419 -0.084503356370523836 0 0.2227543989520358 -0.079029105688238177 0 0.21140608144591419 -0.084503356370523836 0 0.2275791846540145 -0.10054182369239011 0 0.2227543989520358 -0.079029105688238177 0 0.23449163343577681 -0.083610487294907485 0 0.2275791846540145 -0.10054182369239011 0 0.21140608144591419 -0.084503356370523836 0 0.2227543989520358 -0.079029105688238177 0 0.2275791846540145 -0.10054182369239011 0 0.2227543989520358 -0.079029105688238177 0 0.22670270369963491 -0.067064047377793826 0 0.23449163343577681 -0.083610487294907485 0 0.21149591893834541 -0.070957707586151192 0 0.2227543989520358 -0.079029105688238177 0 0.22670270369963491 -0.067064047377793826 0 0.25202197504294188 -0.078400955310045109 0 0.25811154610651499 -0.066123023671663908 0 0.23694359709532001 -0.061394592404840097 0 0.25202197504294188 -0.078400955310045109 0 0.22670270369963491 -0.067064047377793826 0 0.25202197504294188 -0.078400955310045109 0 0.22670270369963491 -0.067064047377793826 0 0.23449163343577681 -0.083610487294907485 0 0.25202197504294188 -0.078400955310045109 0 0.23694359709532001 -0.061394592404840097 0 0.22670270369963491 -0.067064047377793826 0 0.25811154610651499 -0.066123023671663908 0 0.23694359709532001 -0.061394592404840097 0 0.25202197504294188 -0.078400955310045109 0 0.23449163343577681 -0.083610487294907485 0 0.24624903761231479 -0.086847438891893419 0 0.23449163343577681 -0.083610487294907485 0 0.24292322406264641 -0.096552741650977186 0 0.2275791846540145 -0.10054182369239011 0 0.23449163343577681 -0.083610487294907485 0 0.24624903761231479 -0.086847438891893419 0 0.24292322406264641 -0.096552741650977186 0 0.25304747237378489 -0.090741332181114118 0 0.24624903761231479 -0.086847438891893419 0 0.24292322406264641 -0.096552741650977186 0 0.2275791846540145 -0.10054182369239011 0 0.24375228786211539 -0.116580291014256 0 0.24292322406264641 -0.096552741650977186 0 0.2275791846540145 -0.10054182369239011 0 0.24375228786211539 -0.116580291014256 0 0.25771864553297669 -0.099620140202181948 0 0.24292322406264641 -0.096552741650977186 0 0.24375228786211539 -0.116580291014256 0 0.21737999015654699 -0.1103161024944793 0 0.2275791846540145 -0.10054182369239011 0 0.24375228786211539 -0.116580291014256 0 0.21737999015654699 -0.1103161024944793 0 0.24375228786211539 -0.116580291014256 0 0.2239597136694004 -0.1277946194696456 0 0.21737999015654699 -0.1103161024944793 0 0.24375228786211539 -0.116580291014256 0 0.24375228786211539 -0.116580291014256 0 0.235054631712311 -0.13955626642273861 0 0.24955680073527009 -0.143898101237383 0 0.235054631712311 -0.13955626642273861 0 0.24955680073527009 -0.143898101237383 0 0.23627457688356679 -0.15840319400941011 0 0.25449645062408999 -0.16331052089379791 0 0.24955680073527009 -0.143898101237383 0 0.23627457688356679 -0.15840319400941011 0 0.235054631712311 -0.13955626642273861 0 0.22199130801810529 -0.1478171468904442 0 0.23627457688356679 -0.15840319400941011 0 0.24375228786211539 -0.116580291014256 0 0.235054631712311 -0.13955626642273861 0 0.2239597136694004 -0.1277946194696456 0 0.235054631712311 -0.13955626642273861 0 0.22199130801810529 -0.1478171468904442 0 0.2239597136694004 -0.1277946194696456 0 0.20025029595199689 -0.1218288277367077 0 0.20949289945301761 -0.1396057414987095 0 0.22199130801810529 -0.1478171468904442 0 0.2239597136694004 -0.1277946194696456 0 0.20949289945301761 -0.1396057414987095 0 0.21277072480774051 -0.1248863227998855 0 0.20025029595199689 -0.1218288277367077 0 0.20949289945301761 -0.1396057414987095 0 0.21277072480774051 -0.1248863227998855 0 0.2239597136694004 -0.1277946194696456 0 0.20949289945301761 -0.1396057414987095 0 0.22199130801810529 -0.1478171468904442 0 0.20949289945301761 -0.1396057414987095 0 0.2069794531536403 -0.1537888919124783 0 0.20949289945301761 -0.1396057414987095 0 0.2069794531536403 -0.1537888919124783 0 0.1919305776748628 -0.1461990482496055 0 0.2069794531536403 -0.1537888919124783 0 0.1919305776748628 -0.1461990482496055 0 0.19225769977326759 -0.16432491474026781 0 0.1862357176231304 -0.1238823921021804 0 0.1919305776748628 -0.1461990482496055 0 0.19714487019074359 -0.1333469628700395 0 0.20025029595199689 -0.1218288277367077 0 0.20949289945301761 -0.1396057414987095 0 0.19714487019074359 -0.1333469628700395 0 0.20949289945301761 -0.1396057414987095 0 0.1919305776748628 -0.1461990482496055 0 0.19714487019074359 -0.1333469628700395 0 0.1862357176231304 -0.1238823921021804 0 0.1919305776748628 -0.1461990482496055 0 0.1862357176231304 -0.1238823921021804 0 0.20025029595199689 -0.1218288277367077 0 0.19714487019074359 -0.1333469628700395 0 0.19629081049063871 -0.1815365299480412 0 0.19225769977326759 -0.16432491474026781 0 0.17982600751226671 -0.1762593337595659 0 0.19629081049063871 -0.1815365299480412 0 0.19225769977326759 -0.16432491474026781 0 0.22018657323669569 -0.16775416802968299 0 0.2069794531536403 -0.1537888919124783 0 0.19225769977326759 -0.16432491474026781 0 0.22018657323669569 -0.16775416802968299 0 0.22199130801810529 -0.1478171468904442 0 0.2069794531536403 -0.1537888919124783 0 0.22018657323669569 -0.16775416802968299 0 0.19629081049063871 -0.1815365299480412 0 0.22018657323669569 -0.16775416802968299 0 0.21237941264848451 -0.18810475376770611 0 0.22018657323669569 -0.16775416802968299 0 0.23934418379307471 -0.18436482883247621 0 0.22018657323669569 -0.16775416802968299 0 0.23934418379307471 -0.18436482883247621 0 0.21237941264848451 -0.18810475376770611 0 0.22018657323669569 -0.16775416802968299 0 0.23627457688356679 -0.15840319400941011 0 0.23934418379307471 -0.18436482883247621 0 0.22199130801810529 -0.1478171468904442 0 0.22018657323669569 -0.16775416802968299 0 0.23627457688356679 -0.15840319400941011 0 0.25449645062408999 -0.16331052089379791 0 0.23627457688356679 -0.15840319400941011 0 0.23934418379307471 -0.18436482883247621 0 0.25850179434945381 -0.20097548963526929 0 0.23934418379307471 -0.18436482883247621 0 0.25850179434945381 -0.20097548963526929 0 0.23934418379307471 -0.18436482883247621 0 0.23907695871134879 -0.21289681242661959 0 0.23907695871134879 -0.21289681242661959 0 0.22308479462261119 -0.20217133576560289 0 0.21722062693650279 -0.2226466586169516 0 0.23934418379307471 -0.18436482883247621 0 0.22308479462261119 -0.20217133576560289 0 0.21237941264848451 -0.18810475376770611 0 0.23934418379307471 -0.18436482883247621 0 0.23907695871134879 -0.21289681242661959 0 0.22308479462261119 -0.20217133576560289 0 0.25037283077400019 -0.2416092145933311 0 0.23239962387573149 -0.2337287944253621 0 0.2339549802858914 -0.24933471903745599 0 0.25658827463044448 -0.2222138965281123 0 0.23907695871134879 -0.21289681242661959 0 0.2446094219978813 -0.2276121794933563 0 0.25037283077400019 -0.2416092145933311 0 0.2446094219978813 -0.2276121794933563 0 0.23239962387573149 -0.2337287944253621 0 0.23907695871134879 -0.21289681242661959 0 0.2446094219978813 -0.2276121794933563 0 0.23239962387573149 -0.2337287944253621 0 0.23907695871134879 -0.21289681242661959 0 0.23239962387573149 -0.2337287944253621 0 0.21722062693650279 -0.2226466586169516 0 0.23239962387573149 -0.2337287944253621 0 0.2194561222393229 -0.23682627783696539 0 0.21722062693650279 -0.2226466586169516 0 0.23239962387573149 -0.2337287944253621 0 0.22502312889380549 -0.2426362774769398 0 0.2339549802858914 -0.24933471903745599 0 0.2194561222393229 -0.23682627783696539 0 0.22502312889380549 -0.2426362774769398 0 0.21456577207223029 -0.24270171036535029 0 0.23239962387573149 -0.2337287944253621 0 0.2194561222393229 -0.23682627783696539 0 0.22502312889380549 -0.2426362774769398 0 0.22331750647786899 -0.25281133177650322 0 0.22502312889380549 -0.2426362774769398 0 0.21456577207223029 -0.24270171036535029 0 0.22331750647786899 -0.25281133177650322 0 0.22502312889380549 -0.2426362774769398 0 0.2339549802858914 -0.24933471903745599 0 0.2084475354763706 -0.25511513831035743 0 0.2080714594183444 -0.2424179483002232 0 0.21336353465090491 -0.24693864317134839 0 0.2080714594183444 -0.2424179483002232 0 0.21336353465090491 -0.24693864317134839 0 0.2080714594183444 -0.2424179483002232 0 0.21336353465090491 -0.24693864317134839 0 0.21456577207223029 -0.24270171036535029 0 0.2194561222393229 -0.23682627783696539 0 0.2080714594183444 -0.2424179483002232 0 0.21456577207223029 -0.24270171036535029 0 0.21722062693650279 -0.2226466586169516 0 0.20244123733496699 -0.2260211367091485 0 0.19848523837712481 -0.2136299623964425 0 0.2080714594183444 -0.2424179483002232 0 0.21722062693650279 -0.2226466586169516 0 0.2194561222393229 -0.23682627783696539 0 0.2080714594183444 -0.2424179483002232 0 0.21722062693650279 -0.2226466586169516 0 0.2080714594183444 -0.2424179483002232 0 0.21722062693650279 -0.2226466586169516 0 0.20244123733496699 -0.2260211367091485 0 0.2080714594183444 -0.2424179483002232 0 0.18716213711817259 -0.22455639835484539 0 0.2080714594183444 -0.2424179483002232 0 0.20244123733496699 -0.2260211367091485 0 0.18716213711817259 -0.22455639835484539 0 0.20244123733496699 -0.2260211367091485 0 0.19848523837712481 -0.2136299623964425 0 0.18716213711817259 -0.22455639835484539 0 0.2080714594183444 -0.2424179483002232 0 0.19254414318066221 -0.24961624770678509 0 0.1866817818972302 -0.23981118877977231 0 0.2080714594183444 -0.2424179483002232 0 0.1866817818972302 -0.23981118877977231 0 0.18716213711817259 -0.22455639835484539 0 0.19254414318066221 -0.24961624770678509 0 0.18399505531774341 -0.24981832115951039 0 0.1866817818972302 -0.23981118877977231 0 0.21237941264848451 -0.18810475376770611 0 0.20793523744788639 -0.20366419955677639 0 0.19447652973028121 -0.19759128756789451 0 0.22308479462261119 -0.20217133576560289 0 0.21237941264848451 -0.18810475376770611 0 0.20793523744788639 -0.20366419955677639 0 0.22308479462261119 -0.20217133576560289 0 0.21722062693650279 -0.2226466586169516 0 0.20793523744788639 -0.20366419955677639 0 0.21722062693650279 -0.2226466586169516 0 0.20793523744788639 -0.20366419955677639 0 0.19848523837712481 -0.2136299623964425 0 0.19848523837712481 -0.2136299623964425 0 0.19447652973028121 -0.19759128756789451 0 0.1831457957419608 -0.2071674304332729 0 0.20793523744788639 -0.20366419955677639 0 0.19848523837712481 -0.2136299623964425 0 0.19447652973028121 -0.19759128756789451 0 0.19848523837712481 -0.2136299623964425 0 0.1831457957419608 -0.2071674304332729 0 0.18716213711817259 -0.22455639835484539 0 0.19629081049063871 -0.1815365299480412 0 0.19447652973028121 -0.19759128756789451 0 0.1840061663436266 -0.1900566622106199 0 0.19629081049063871 -0.1815365299480412 0 0.21237941264848451 -0.18810475376770611 0 0.19447652973028121 -0.19759128756789451 0 0.19447652973028121 -0.19759128756789451 0 0.1840061663436266 -0.1900566622106199 0 0.1831457957419608 -0.2071674304332729 0 0.1840061663436266 -0.1900566622106199 0 0.1831457957419608 -0.2071674304332729 0 0.16486725365112659 -0.18785963188663279 0 0.1831457957419608 -0.2071674304332729 0 0.16486725365112659 -0.18785963188663279 0 0.1831457957419608 -0.2071674304332729 0 0.16625281481800089 -0.2066948484094672 0 0.18716213711817259 -0.22455639835484539 0 0.16625281481800089 -0.2066948484094672 0 0.18716213711817259 -0.22455639835484539 0 0.16625281481800089 -0.2066948484094672 0 0.18716213711817259 -0.22455639835484539 0 0.16937657335138201 -0.22198425569814831 0 0.16625281481800089 -0.2066948484094672 0 0.15661990237239229 -0.21733625041789439 0 0.14909823278687431 -0.20687378182447139 0 0.16625281481800089 -0.2066948484094672 0 0.15661990237239229 -0.21733625041789439 0 0.16937657335138201 -0.22198425569814831 0 0.1831457957419608 -0.2071674304332729 0 0.16625281481800089 -0.2066948484094672 0 0.16486725365112659 -0.18785963188663279 0 0.16625281481800089 -0.2066948484094672 0 0.16486725365112659 -0.18785963188663279 0 0.14534349251782941 -0.188833298464089 0 0.17619278994504239 -0.24587918172992959 0 0.18399505531774341 -0.24981832115951039 0 0.1866817818972302 -0.23981118877977231 0 0.17619278994504239 -0.24587918172992959 0 0.17450151464944069 -0.23276490516368609 0 0.16609645978724119 -0.24143951784646769 0 0.17619278994504239 -0.24587918172992959 0 0.1866817818972302 -0.23981118877977231 0 0.17450151464944069 -0.23276490516368609 0 0.17450151464944069 -0.23276490516368609 0 0.18716213711817259 -0.22455639835484539 0 0.16937657335138201 -0.22198425569814831 0 0.1866817818972302 -0.23981118877977231 0 0.17450151464944069 -0.23276490516368609 0 0.18716213711817259 -0.22455639835484539 0 0.15661990237239229 -0.21733625041789439 0 0.1623464977989032 -0.22856887614484861 0 0.15090654410468329 -0.22688320449844629 0 0.15661990237239229 -0.21733625041789439 0 0.16937657335138201 -0.22198425569814831 0 0.1623464977989032 -0.22856887614484861 0 0.17450151464944069 -0.23276490516368609 0 0.1623464977989032 -0.22856887614484861 0 0.16609645978724119 -0.24143951784646769 0 0.17450151464944069 -0.23276490516368609 0 0.16937657335138201 -0.22198425569814831 0 0.1623464977989032 -0.22856887614484861 0 0.1623464977989032 -0.22856887614484861 0 0.16609645978724119 -0.24143951784646769 0 0.1528270009437688 -0.23836283418195289 0 0.16001236861667459 -0.2513654190734112 0 0.16609645978724119 -0.24143951784646769 0 0.1528270009437688 -0.23836283418195289 0 0.16978669848249819 -0.25098739912941831 0 0.17619278994504239 -0.24587918172992959 0 0.16609645978724119 -0.24143951784646769 0 0.16001236861667459 -0.2513654190734112 0 0.16978669848249819 -0.25098739912941831 0 0.16609645978724119 -0.24143951784646769 0 0.1429630926125974 -0.2502577086919005 0 0.16001236861667459 -0.2513654190734112 0 0.1528270009437688 -0.23836283418195289 0 0.1429630926125974 -0.2502577086919005 0 0.1528270009437688 -0.23836283418195289 0 0.13988621804673579 -0.23152362256679451 0 0.1528270009437688 -0.23836283418195289 0 0.15090654410468329 -0.22688320449844629 0 0.13988621804673579 -0.23152362256679451 0 0.1623464977989032 -0.22856887614484861 0 0.1528270009437688 -0.23836283418195289 0 0.15090654410468329 -0.22688320449844629 0 0.15661990237239229 -0.21733625041789439 0 0.15090654410468329 -0.22688320449844629 0 0.1428531013616163 -0.21862443918074129 0 0.15090654410468329 -0.22688320449844629 0 0.13988621804673579 -0.23152362256679451 0 0.1428531013616163 -0.21862443918074129 0 0.12018370186474731 -0.23305432747703519 0 0.12895394136930069 -0.22163642029703709 0 0.13988621804673579 -0.23152362256679451 0 0.12895394136930069 -0.22163642029703709 0 0.13988621804673579 -0.23152362256679451 0 0.1428531013616163 -0.21862443918074129 0 0.1429630926125974 -0.2502577086919005 0 0.12018370186474731 -0.23305432747703519 0 0.1429630926125974 -0.2502577086919005 0 0.12018370186474731 -0.23305432747703519 0 0.13988621804673579 -0.23152362256679451 0 0.13217397618885759 -0.25462043987800831 0 0.1429630926125974 -0.2502577086919005 0 0.12018370186474731 -0.23305432747703519 0 0.16625281481800089 -0.2066948484094672 0 0.14534349251782941 -0.188833298464089 0 0.16625281481800089 -0.2066948484094672 0 0.14534349251782941 -0.188833298464089 0 0.14909823278687431 -0.20687378182447139 0 0.14534349251782941 -0.188833298464089 0 0.14909823278687431 -0.20687378182447139 0 0.1346280568372662 -0.20359450925845249 0 0.15661990237239229 -0.21733625041789439 0 0.14909823278687431 -0.20687378182447139 0 0.1428531013616163 -0.21862443918074129 0 0.14909823278687431 -0.20687378182447139 0 0.1428531013616163 -0.21862443918074129 0 0.1346280568372662 -0.20359450925845249 0 0.1178461100078927 -0.20838697738218431 0 0.12895394136930069 -0.22163642029703709 0 0.1346280568372662 -0.20359450925845249 0 0.12895394136930069 -0.22163642029703709 0 0.1428531013616163 -0.21862443918074129 0 0.1346280568372662 -0.20359450925845249 0 0.14534349251782941 -0.188833298464089 0 0.1346280568372662 -0.20359450925845249 0 0.13128332926409281 -0.18787359724935929 0 0.1237689835273371 -0.19605207676116951 0 0.1178461100078927 -0.20838697738218431 0 0.1346280568372662 -0.20359450925845249 0 0.1237689835273371 -0.19605207676116951 0 0.1346280568372662 -0.20359450925845249 0 0.13128332926409281 -0.18787359724935929 0 0.1237689835273371 -0.19605207676116951 0 0.1232013989280239 -0.1819146573535104 0 0.13128332926409281 -0.18787359724935929 0 0.12443417021765769 -0.1709717485187108 0 0.14534349251782941 -0.188833298464089 0 0.12443417021765769 -0.1709717485187108 0 0.1232013989280239 -0.1819146573535104 0 0.13128332926409281 -0.18787359724935929 0 0.12443417021765769 -0.1709717485187108 0 0.14534349251782941 -0.188833298464089 0 0.13128332926409281 -0.18787359724935929 0 0.12443417021765769 -0.1709717485187108 0 0.14534349251782941 -0.188833298464089 0 0.13540865390058859 -0.1688207667960602 0 0.14534349251782941 -0.188833298464089 0 0.14658871156029241 -0.16855183333999291 0 0.13540865390058859 -0.1688207667960602 0 0.16486725365112659 -0.18785963188663279 0 0.14658871156029241 -0.16855183333999291 0 0.16486725365112659 -0.18785963188663279 0 0.14534349251782941 -0.188833298464089 0 0.14658871156029241 -0.16855183333999291 0 0.14658871156029241 -0.16855183333999291 0 0.13391177650968769 -0.15242347890466901 0 0.14971917460686079 -0.1530450482394467 0 0.14658871156029241 -0.16855183333999291 0 0.14971917460686079 -0.1530450482394467 0 0.16192904395431579 -0.15800089119817939 0 0.14658871156029241 -0.16855183333999291 0 0.13391177650968769 -0.15242347890466901 0 0.12831016946945831 -0.1492440347933528 0 0.14658871156029241 -0.16855183333999291 0 0.12831016946945831 -0.1492440347933528 0 0.14658871156029241 -0.16855183333999291 0 0.13540865390058859 -0.1688207667960602 0 0.1290045142054978 -0.1612372837293575 0 0.14658871156029241 -0.16855183333999291 0 0.1290045142054978 -0.1612372837293575 0 0.12831016946945831 -0.1492440347933528 0 0.13540865390058859 -0.1688207667960602 0 0.12715697753007521 -0.16591248018761531 0 0.1290045142054978 -0.1612372837293575 0 0.12443417021765769 -0.1709717485187108 0 0.13540865390058859 -0.1688207667960602 0 0.12715697753007521 -0.16591248018761531 0 0.12098675462827781 -0.16200852072179159 0 0.12715697753007521 -0.16591248018761531 0 0.1290045142054978 -0.1612372837293575 0 0.12324902196630889 -0.15465793599018671 0 0.1227471198665283 -0.15880086614903269 0 0.1290045142054978 -0.1612372837293575 0 0.13391177650968769 -0.15242347890466901 0 0.12831016946945831 -0.1492440347933528 0 0.12532898621889721 -0.13663811256420449 0 0.12324902196630889 -0.15465793599018671 0 0.1290045142054978 -0.1612372837293575 0 0.12831016946945831 -0.1492440347933528 0 0.1217036921304827 -0.1482443959076799 0 0.12831016946945831 -0.1492440347933528 0 0.12532898621889721 -0.13663811256420449 0 0.13391177650968769 -0.15242347890466901 0 0.13188977167139071 -0.12546883223523481 0 0.13391177650968769 -0.15242347890466901 0 0.13188977167139071 -0.12546883223523481 0 0.1446303542042412 -0.1380662602394005 0 0.13391177650968769 -0.15242347890466901 0 0.13188977167139071 -0.12546883223523481 0 0.12532898621889721 -0.13663811256420449 0 0.11997683785091839 -0.1276371159963853 0 0.13188977167139071 -0.12546883223523481 0 0.12532898621889721 -0.13663811256420449 0 0.1446303542042412 -0.1380662602394005 0 0.15557261582888751 -0.13003178131142151 0 0.1621281360659286 -0.14191921566573409 0 0.14724036225017881 -0.1245170930860646 0 0.13188977167139071 -0.12546883223523481 0 0.1446303542042412 -0.1380662602394005 0 0.14724036225017881 -0.1245170930860646 0 0.1446303542042412 -0.1380662602394005 0 0.15557261582888751 -0.13003178131142151 0 0.13391177650968769 -0.15242347890466901 0 0.1446303542042412 -0.1380662602394005 0 0.14971917460686079 -0.1530450482394467 0 0.1446303542042412 -0.1380662602394005 0 0.14971917460686079 -0.1530450482394467 0 0.1621281360659286 -0.14191921566573409 0 0.1621281360659286 -0.14191921566573409 0 0.17324983187337631 -0.13165498831909611 0 0.17651024624945799 -0.1485415537171802 0 0.14971917460686079 -0.1530450482394467 0 0.1621281360659286 -0.14191921566573409 0 0.16192904395431579 -0.15800089119817939 0 0.1621281360659286 -0.14191921566573409 0 0.17651024624945799 -0.1485415537171802 0 0.16192904395431579 -0.15800089119817939 0 0.16471491079178111 -0.1205264202314431 0 0.15557261582888751 -0.13003178131142151 0 0.1639163736399934 -0.1310331013819237 0 0.15557261582888751 -0.13003178131142151 0 0.1621281360659286 -0.14191921566573409 0 0.1639163736399934 -0.1310331013819237 0 0.1621281360659286 -0.14191921566573409 0 0.1639163736399934 -0.1310331013819237 0 0.17324983187337631 -0.13165498831909611 0 0.16471491079178111 -0.1205264202314431 0 0.1639163736399934 -0.1310331013819237 0 0.17324983187337631 -0.13165498831909611 0 0.1862357176231304 -0.1238823921021804 0 0.1919305776748628 -0.1461990482496055 0 0.17324983187337631 -0.13165498831909611 0 0.1919305776748628 -0.1461990482496055 0 0.17324983187337631 -0.13165498831909611 0 0.17651024624945799 -0.1485415537171802 0 0.1919305776748628 -0.1461990482496055 0 0.19225769977326759 -0.16432491474026781 0 0.17651024624945799 -0.1485415537171802 0 0.19225769977326759 -0.16432491474026781 0 0.17526083145963689 -0.16308053239281189 0 0.17982600751226671 -0.1762593337595659 0 0.19225769977326759 -0.16432491474026781 0 0.17651024624945799 -0.1485415537171802 0 0.17526083145963689 -0.16308053239281189 0 0.17526083145963689 -0.16308053239281189 0 0.17982600751226671 -0.1762593337595659 0 0.16627328335530381 -0.17069773137902189 0 0.1840061663436266 -0.1900566622106199 0 0.16486725365112659 -0.18785963188663279 0 0.17982600751226671 -0.1762593337595659 0 0.19629081049063871 -0.1815365299480412 0 0.1840061663436266 -0.1900566622106199 0 0.17982600751226671 -0.1762593337595659 0 0.16486725365112659 -0.18785963188663279 0 0.14658871156029241 -0.16855183333999291 0 0.16627328335530381 -0.17069773137902189 0 0.16486725365112659 -0.18785963188663279 0 0.17982600751226671 -0.1762593337595659 0 0.16627328335530381 -0.17069773137902189 0 0.14658871156029241 -0.16855183333999291 0 0.16192904395431579 -0.15800089119817939 0 0.16627328335530381 -0.17069773137902189 0 0.17526083145963689 -0.16308053239281189 0 0.16192904395431579 -0.15800089119817939 0 0.16627328335530381 -0.17069773137902189 0 0.17651024624945799 -0.1485415537171802 0 0.17526083145963689 -0.16308053239281189 0 0.16192904395431579 -0.15800089119817939 0 
</DataArray>
</Points>
<Cells>
<DataArray type="UInt32" Name="connectivity" format="ascii">
0 1 2 3 4 5 6 7 8 9 10 11 12 13 14 15 16 17 18 19 20 21 22 23 24 25 26 27 28 29 30 31 32 33 34 35 36 37 38 39 40 41 42 43 44 45 46 47 48 49 50 51 52 53 54 55 56 57 58 59 60 61 62 63 64 65 66 67 68 69 70 71 72 73 74 75 76 77 78 79 80 81 82 83 84 85 86 87 88 89 90 91 92 93 94 95 96 97 98 99 100 101 102 103 104 105 106 107 108 109 110 111 112 113 114 115 116 117 118 119 120 121 122 123 124 125 126 127 128 129 130 131 132 133 134 135 136 137 138 139 140 141 142 143 144 145 146 147 148 149 150 151 152 153 154 155 156 157 158 159 160 161 162 163 164 165 166 167 168 169 170 171 172 173 174 175 176 177 178 179 180 181 182 183 184 185 186 187 188 189 190 191 192 193 194 195 196 197 198 199 200 201 202 203 204 205 206 207 208 209 210 211 212 213 214 215 216 217 218 219 220 221 222 223 224 225 226 227 228 229 230 231 232 233 234 235 236 237 238 239 240 241 242 243 244 245 246 247 248 249 250 251 252 253 254 255 256 257 258 259 260 261 262 263 264 265 266 267 268 269 270 271 272 273 274 275 276 277 278 279 280 281 282 283 284 285 286 287 288 289 290 291 292 293 294 295 296 297 298 299 300 301 302 303 304 305 306 307 308 309 310 311 312 313 314 315 316 317 318 319 320 321 322 323 324 325 326 327 328 329 330 331 332 333 334 335 336 337 338 339 340 341 342 343 344 345 346 347 348 349 350 351 352 353 354 355 356 357 358 359 360 361 362 363 364 365 366 367 368 369 370 371 372 373 374 375 376 377 378 379 380 381 382 383 384 385 386 387 388 389 390 391 392 393 394 395 396 397 398 399 400 401 402 403 404 405 406 407 408 409 410 411 412 413 414 415 416 417 418 419 420 421 422 423 424 425 426 427 428 429 430 431 432 433 434 435 436 437 438 439 440 441 442 443 444 445 446 447 448 449 450 451 452 453 454 455 456 457 458 459 460 461 462 463 464 465 466 467 468 469 470 471 472 473 474 475 476 477 478 479 480 481 482 483 484 485 486 487 488 489 490 491 492 493 494 495 496 497 498 499 500 501 502 503 504 505 506 507 508 509 510 511 512 513 514 515 516 517 518 519 520 521 522 523 524 525 526 527 528 529 530 531 532 533 534 535 536 537 538 539 540 541 542 543 544 545 546 547 548 549 550 551 552 553 554 555 556 557 558 559 560 561 562 563 564 565 566 567 568 569 570 571 572 573 574 575 576 577 578 579 580 581 582 583 584 585 586 587 588 589 590 591 592 593 594 595 596 597 598 599 600 601 602 603 604 605 606 607 608 609 610 611 612 613 614 615 616 617 618 619 620 621 622 623 624 625 626 627 628 629 630 631 632 633 634 635 636 637 638 639 640 641 642 643 644 645 646 647 648 649 650 651 652 653 654 655 656 657 658 659 660 661 662 663 664 665 666 667 668 669 670 671 672 673 674 675 676 677 678 679 680 681 682 683 684 685 686 687 688 689 690 691 692 693 694 695 696 697 698 699 700 701 702 703 704 705 706 707 708 709 710 711 712 713 714 715 716 717 718 719 720 721 722 723 724 725 726 727 728 729 730 731 732 733 734 735 736 737 738 739 740 741 742 743 744 745 746 747 748 749 750 751 752 753 754 755 756 757 758 759 760 761 762 763 764 765 766 767 768 769 770 771 772 773 774 775 776 777 778 779 780 781 782 783 784 785 786 787 788 789 790 791 792 793 794 795 796 797 798 799 800 801 802 803 804 805 806 807 808 809 810 811 812 813 814 815 816 817 818 819 820 821 822 823 824 825 826 827 828 829 830 831 832 833 834 835 836 837 838 839 840 841 842 843 844 845 846 847 848 849 850 851 852 853 854 855 856 857 858 859 860 861 862 863 864 865 866 867 868 869 870 871 872 873 874 875 876 877 878 879 880 881 882 883 884 885 886 887 888 889 890 891 892 893 894 895 896 897 898 899 900 901 902 903 904 905 906 907 908 909 910 911 912 913 914 915 916 917 918 919 920 921 922 923 924 925 926 927 928 929 930 931 932 933 934 935 936 937 938 939 940 941 942 943 944 945 946 947 948 949 950 951 952 953 954 955 956 957 958 959 960 961 962 963 964 965 966 967 968 969 970 971 972 973 974 975 976 977 978 979 980 981 982 983 984 985 986 987 988 989 990 991 992 993 994 995 996 997 998 999 1000 1001 1002 1003 1004 1005 1006 1007 1008 1009 1010 1011 1012 1013 1014 1015 1016 1017 1018 1019 1020 1021 1022 1023 1024 1025 1026 1027 1028 1029 1030 1031 1032 1033 1034 1035 1036 1037 1038 1039 1040 1041 1042 1043 1044 1045 1046 1047 1048 1049 1050 1051 1052 1053 1054 1055 1056 1057 1058 1059 1060 1061 1062 1063 1064 1065 1066 1067 1068 1069 1070 1071 1072 1073 1074 1075 1076 1077 1078 1079 1080 1081 1082 1083 1084 1085 1086 1087 1088 1089 1090 1091 1092 1093 1094 1095 1096 1097 1098 1099 1100 1101 1102 1103 1104 1105 1106 1107 1108 1109 1110 1111 1112 1113 1114 1115 1116 1117 1118 1119 1120 1121 1122 1123 1124 1125 1126 1127 1128 1129 1130 1131 1132 1133 1134 1135 1136 1137 1138 1139 1140 1141 1142 1143 1144 1145 1146 1147 1148 1149 1150 1151 1152 1153 1154 1155 1156 1157 1158 1159 1160 1161 1162 1163 1164 1165 1166 1167 1168 1169 1170 1171 1172 1173 1174 1175 1176 1177 1178 1179 1180 1181 1182 1183 1184 1185 1186 1187 1188 1189 1190 1191 1192 1193 1194 1195 1196 1197 1198 1199 1200 1201 1202 1203 1204 1205 1206 1207 1208 1209 1210 1211 1212 1213 1214 1215 1216 1217 1218 1219 1220 1221 1222 1223 1224 1225 1226 1227 1228 1229 1230 1231 1232 1233 1234 1235 1236 1237 1238 1239 1240 1241 1242 1243 1244 1245 1246 1247 1248 1249 1250 1251 1252 1253 1254 1255 1256 1257 1258 1259 1260 1261 1262 1263 1264 1265 1266 1267 1268 1269 1270 1271 1272 1273 1274 1275 1276 1277 1278 1279 1280 1281 1282 1283 1284 1285 1286 1287 1288 1289 1290 1291 1292 1293 1294 1295 1296 1297 1298 1299 1300 1301 1302 1303 1304 1305 1306 1307 1308 1309 1310 1311 1312 1313 1314 1315 1316 1317 1318 1319 1320 1321 1322 1323 1324 1325 1326 1327 1328 1329 1330 1331 1332 1333 1334 1335 1336 1337 1338 1339 1340 1341 1342 1343 1344 1345 1346 1347 1348 1349 1350 1351 1352 1353 1354 1355 1356 1357 1358 1359 1360 1361 1362 1363 1364 1365 1366 1367 1368 1369 1370 1371 1372 1373 1374 1375 1376 1377 1378 1379 1380 1381 1382 1383 1384 1385 1386 1387 1388 1389 1390 1391 1392 1393 1394 1395 1396 1397 1398 1399 1400 1401 1402 1403 1404 1405 1406 1407 1408 1409 1410 1411 1412 1413 1414 1415 1416 1417 1418 1419 1420 1421 1422 1423 1424 1425 1426 1427 1428 1429 1430 1431 1432 1433 1434 1435 1436 1437 1438 1439 1440 1441 1442 1443 1444 1445 1446 1447 1448 1449 1450 1451 1452 1453 1454 1455 1456 1457 1458 1459 1460 1461 1462 1463 1464 1465 1466 1467 1468 1469 1470 1471 1472 1473 1474 1475 1476 1477 1478 1479 1480 1481 1482 1483 1484 1485 1486 1487 1488 1489 1490 1491 1492 1493 1494 1495 1496 1497 1498 1499 1500 1501 1502 1503 1504 1505 1506 1507 1508 1509 1510 1511 1512 1513 1514 1515 1516 1517 1518 1519 1520 1521 1522 1523 1524 1525 1526 1527 1528 1529 1530 1531 1532 1533 1534 1535 1536 1537 1538 1539 1540 1541 1542 1543 1544 1545 1546 1547 1548 1549 1550 1551 1552 1553 1554 1555 1556 1557 1558 1559 1560 1561 1562 1563 1564 1565 1566 1567 1568 1569 1570 1571 1572 1573 1574 1575 1576 1577 1578 1579 1580 1581 1582 1583 1584 1585 1586 1587 1588 1589 1590 1591 1592 1593 1594 1595 1596 1597 1598 1599 1600 1601 1602 1603 1604 1605 1606 1607 1608 1609 1610 1611 1612 1613 1614 1615 1616 1617 1618 1619 1620 1621 1622 1623 1624 1625 1626 1627 1628 1629 1630 1631 1632 1633 1634 1635 1636 1637 1638 1639 1640 1641 1642 1643 1644 1645 1646 1647 1648 1649 1650 1651 1652 1653 1654 1655 1656 1657 1658 1659 1660 1661 1662 1663 1664 1665 1666 1667 1668 1669 1670 1671 1672 1673 1674 1675 1676 1677 1678 1679 1680 1681 1682 1683 1684 1685 1686 1687 1688 1689 1690 1691 1692 1693 1694 1695 1696 1697 1698 1699 1700 1701 1702 1703 1704 1705 1706 1707 1708 1709 1710 1711 1712 1713 1714 1715 1716 1717 1718 1719 1720 1721 1722 1723 1724 1725 1726 1727 1728 1729 1730 1731 1732 1733 1734 1735 1736 1737 1738 1739 1740 1741 1742 1743 1744 1745 1746 1747 1748 1749 1750 1751 1752 1753 1754 1755 1756 1757 1758 1759 1760 1761 1762 1763 1764 1765 1766 1767 1768 1769 1770 1771 1772 1773 1774 1775 1776 1777 1778 1779 1780 1781 1782 1783 1784 1785 1786 1787 1788 1789 1790 1791 1792 1793 1794 1795 1796 1797 1798 1799 1800 1801 1802 1803 1804 1805 1806 1807 1808 1809 1810 1811 1812 1813 1814 1815 1816 1817 1818 1819 1820 1821 1822 1823 1824 1825 1826 1827 1828 1829 1830 1831 1832 1833 1834 1835 1836 1837 1838 1839 1840 1841 1842 1843 1844 1845 1846 1847 1848 1849 1850 1851 1852 1853 1854 1855 1856 1857 1858 1859 1860 1861 1862 1863 1864 1865 1866 1867 1868 1869 1870 1871 1872 1873 1874 1875 1876 1877 1878 1879 1880 1881 1882 1883 1884 1885 1886 1887 1888 1889 1890 1891 1892 1893 1894 1895 1896 1897 1898 1899 1900 1901 1902 1903 1904 1905 1906 1907 1908 1909 1910 1911 1912 1913 1914 1915 1916 1917 1918 1919 1920 1921 1922 1923 1924 1925 1926 1927 1928 1929 1930 1931 1932 1933 1934 1935 1936 1937 1938 1939 1940 1941 1942 1943 1944 1945 1946 1947 1948 1949 1950 1951 1952 1953 1954 1955 1956 1957 1958 1959 1960 1961 1962 1963 1964 1965 1966 1967 1968 1969 1970 1971 1972 1973 1974 1975 1976 1977 1978 1979 1980 1981 1982 1983 1984 1985 1986 1987 1988 1989 1990 1991 1992 1993 1994 1995 1996 1997 1998 1999 2000 2001 2002 2003 2004 2005 2006 2007 2008 2009 2010 2011 2012 2013 2014 2015 2016 2017 2018 2019 2020 2021 2022 2023 2024 2025 2026 2027 2028 2029 2030 2031 2032 2033 2034 2035 2036 2037 2038 2039 2040 2041 2042 2043 2044 2045 2046 2047 2048 2049 2050 2051 2052 2053 2054 2055 2056 2057 2058 2059 2060 2061 2062 2063 2064 2065 2066 2067 2068 2069 2070 2071 2072 2073 2074 2075 2076 2077 2078 2079 2080 2081 2082 2083 2084 2085 2086 2087 2088 2089 2090 2091 2092 2093 2094 2095 2096 2097 2098 2099 2100 2101 2102 2103 2104 2105 2106 2107 2108 2109 2110 2111 2112 2113 2114 2115 2116 2117 2118 2119 2120 2121 2122 2123 2124 2125 2126 2127 2128 2129 2130 2131 2132 2133 2134 2135 2136 2137 2138 2139 2140 2141 2142 2143 2144 2145 2146 2147 2148 2149 2150 2151 2152 2153 2154 2155 2156 2157 2158 2159 2160 2161 2162 2163 2164 2165 2166 2167 2168 2169 2170 2171 2172 2173 2174 2175 2176 2177 2178 2179 2180 2181 2182 2183 2184 2185 2186 2187 2188 2189 2190 2191 2192 2193 2194 2195 2196 2197 2198 2199 2200 2201 2202 2203 2204 2205 2206 2207 2208 2209 2210 2211 2212 2213 2214 2215 2216 2217 2218 2219 2220 2221 2222 2223 2224 2225 2226 2227 2228 2229 2230 2231 2232 2233 2234 2235 2236 2237 2238 2239 2240 2241 2242 2243 2244 2245 2246 2247 2248 2249 2250 2251 2252 2253 2254 2255 2256 2257 2258 2259 2260 2261 2262 2263 2264 2265 2266 2267 2268 2269 2270 2271 2272 2273 2274 2275 2276 2277 2278 2279 2280 2281 2282 2283 2284 2285 2286 2287 2288 2289 2290 2291 2292 2293 2294 2295 2296 2297 2298 2299 2300 2301 2302 2303 2304 2305 2306 2307 2308 2309 2310 2311 2312 2313 2314 2315 2316 2317 2318 2319 2320 2321 2322 2323 2324 2325 2326 2327 2328 2329 2330 2331 2332 2333 2334 2335 2336 2337 2338 2339 2340 2341 2342 2343 2344 2345 2346 2347 2348 2349 2350 2351 2352 2353 2354 2355 2356 2357 2358 2359 2360 2361 2362 2363 2364 2365 2366 2367 2368 2369 2370 2371 2372 2373 2374 2375 2376 2377 2378 2379 2380 2381 2382 2383 2384 2385 2386 2387 2388 2389 2390 2391 2392 2393 2394 2395 2396 2397 2398 2399 2400 2401 2402 2403 2404 2405 2406 2407 2408 2409 2410 2411 2412 2413 2414 2415 2416 2417 2418 2419 2420 2421 2422 2423 2424 2425 2426 2427 2428 2429 2430 2431 2432 2433 2434 2435 2436 2437 2438 2439 2440 2441 2442 2443 2444 2445 2446 2447 2448 2449 2450 2451 2452 2453 2454 2455 2456 2457 2458 2459 2460 2461 2462 2463 2464 2465 2466 2467 2468 2469 2470 2471 2472 2473 2474 2475 2476 2477 2478 2479 2480 2481 2482 2483 2484 2485 2486 2487 2488 2489 2490 2491 2492 2493 2494 2495 2496 2497 2498 2499 2500 2501 2502 2503 2504 2505 2506 2507 2508 2509 2510 2511 2512 2513 2514 2515 2516 2517 2518 2519 2520 2521 2522 2523 2524 2525 2526 2527 2528 2529 2530 2531 2532 2533 2534 2535 2536 2537 2538 2539 2540 2541 2542 2543 2544 2545 2546 2547 2548 2549 2550 2551 2552 2553 2554 2555 2556 2557 2558 2559 2560 2561 2562 2563 2564 2565 2566 2567 2568 2569 2570 2571 2572 2573 2574 2575 2576 2577 2578 2579 2580 2581 2582 2583 2584 2585 2586 2587 2588 2589 2590 2591 2592 2593 2594 2595 2596 2597 2598 2599 2600 2601 2602 2603 2604 2605 2606 2607 2608 2609 2610 2611 2612 2613 2614 2615 2616 2617 2618 2619 2620 2621 2622 2623 2624 2625 2626 2627 2628 2629 2630 2631 2632 2633 2634 2635 2636 2637 2638 2639 2640 2641 2642 2643 2644 2645 2646 2647 2648 2649 2650 2651 2652 2653 2654 2655 2656 2657 2658 2659 2660 2661 2662 2663 2664 2665 2666 2667 2668 2669 2670 2671 2672 2673 2674 2675 2676 2677 2678 2679 2680 2681 2682 2683 2684 2685 2686 2687 2688 2689 2690 2691 2692 2693 2694 2695 2696 2697 2698 2699 2700 2701 2702 2703 2704 2705 2706 2707 2708 2709 2710 2711 2712 2713 2714 2715 2716 2717 2718 2719 2720 2721 2722 2723 2724 2725 2726 2727 2728 2729 2730 2731 2732 2733 2734 2735 2736 2737 2738 2739 2740 2741 2742 2743 2744 2745 2746 2747 2748 2749 2750 2751 2752 2753 2754 2755 2756 2757 2758 2759 2760 2761 2762 2763 2764 2765 2766 2767 2768 2769 2770 2771 2772 2773 2774 2775 2776 2777 2778 2779 2780 2781 2782 2783 2784 2785 2786 2787 2788 2789 2790 2791 2792 2793 2794 2795 2796 2797 2798 2799 2800 2801 2802 2803 2804 2805 2806 2807 2808 2809 2810 2811 2812 2813 2814 2815 2816 2817 2818 2819 2820 2821 2822 2823 2824 2825 2826 2827 2828 2829 2830 2831 2832 2833 2834 2835 2836 2837 2838 2839 2840 2841 2842 2843 2844 2845 2846 2847 2848 2849 2850 2851 2852 2853 2854 2855 2856 2857 2858 2859 2860 2861 2862 2863 2864 2865 2866 2867 2868 2869 2870 2871 2872 2873 2874 2875 2876 2877 2878 2879 2880 2881 2882 2883 2884 2885 2886 2887 2888 2889 2890 2891 2892 2893 2894 2895 2896 2897 2898 2899 2900 2901 2902 2903 2904 2905 2906 2907 2908 2909 2910 2911 2912 2913 2914 2915 2916 2917 2918 2919 2920 2921 2922 2923 2924 2925 2926 2927 2928 2929 2930 2931 2932 2933 2934 2935 2936 2937 2938 2939 2940 2941 2942 2943 2944 2945 2946 2947 2948 2949 2950 2951 2952 2953 2954 2955 2956 2957 2958 2959 2960 2961 2962 2963 2964 2965 2966 2967 2968 2969 2970 2971 2972 2973 2974 2975 2976 2977 2978 2979 2980 2981 2982 2983 2984 2985 2986 2987 2988 2989 2990 2991 2992 2993 2994 2995 2996 2997 2998 2999 3000 3001 3002 3003 3004 3005 3006 3007 3008 3009 3010 3011 3012 3013 3014 3015 3016 3017 3018 3019 3020 3021 3022 3023 3024 3025 3026 3027 3028 3029 3030 3031 3032 3033 3034 3035 3036 3037 3038 3039 3040 3041 3042 3043 3044 3045 3046 3047 3048 3049 3050 3051 3052 3053 3054 3055 3056 3057 3058 3059 3060 3061 3062 3063 3064 3065 3066 3067 3068 3069 3070 3071 3072 3073 3074 3075 3076 3077 3078 3079 3080 3081 3082 3083 3084 3085 3086 3087 3088 3089 3090 3091 3092 3093 3094 3095 3096 3097 3098 3099 3100 3101 3102 3103 3104 3105 3106 3107 3108 3109 3110 3111 3112 3113 3114 3115 3116 3117 3118 3119 3120 3121 3122 3123 3124 3125 3126 3127 3128 3129 3130 3131 3132 3133 3134 3135 3136 3137 3138 3139 3140 3141 3142 3143 3144 3145 3146 3147 3148 3149 3150 3151 3152 3153 3154 3155 3156 3157 3158 3159 3160 3161 3162 3163 3164 3165 3166 3167 3168 3169 3170 3171 3172 3173 3174 3175 3176 3177 3178 3179 3180 3181 3182 3183 3184 3185 3186 3187 3188 3189 3190 3191 3192 3193 3194 3195 3196 3197 3198 3199 3200 3201 3202 3203 3204 3205 3206 3207 3208 3209 3210 3211 3212 3213 3214 3215 3216 3217 3218 3219 3220 3221 3222 3223 3224 3225 3226 3227 3228 3229 3230 3231 3232 3233 3234 3235 3236 3237 3238 3239 3240 3241 3242 3243 3244 3245 3246 3247 3248 3249 3250 3251 3252 3253 3254 3255 3256 3257 3258 3259 3260 3261 3262 3263 3264 3265 3266 3267 3268 3269 3270 3271 3272 3273 3274 3275 3276 3277 3278 3279 3280 3281 3282 3283 3284 3285 3286 3287 3288 3289 3290 3291 3292 3293 3294 3295 3296 3297 3298 3299 3300 3301 3302 3303 3304 3305 3306 3307 3308 3309 3310 3311 3312 3313 3314 3315 3316 3317 3318 3319 3320 3321 3322 3323 3324 3325 3326 3327 3328 3329 3330 3331 3332 3333 3334 3335 3336 3337 3338 3339 3340 3341 3342 3343 3344 3345 3346 3347 3348 3349 3350 3351 3352 3353 3354 3355 3356 3357 3358 3359 3360 3361 3362 3363 3364 3365 3366 3367 3368 3369 3370 3371 3372 3373 3374 3375 3376 3377 3378 3379 3380 3381 3382 3383 3384 3385 3386 3387 3388 3389 3390 3391 3392 3393 3394 3395 3396 3397 3398 3399 3400 3401 3402 3403 3404 3405 3406 3407 3408 3409 3410 3411 3412 3413 3414 3415 3416 3417 3418 3419 3420 3421 3422 3423 3424 3425 3426 3427 3428 3429 3430 3431 3432 3433 3434 3435 3436 3437 3438 3439 3440 3441 3442 3443 3444 3445 3446 3447 3448 3449 3450 3451 3452 3453 3454 3455 3456 3457 3458 3459 3460 3461 3462 3463 3464 3465 3466 3467 3468 3469 3470 3471 3472 3473 3474 3475 3476 3477 3478 3479 3480 3481 3482 3483 3484 3485 3486 3487 3488 3489 3490 3491 3492 3493 3494 3495 3496 3497 3498 3499 3500 3501 3502 3503 3504 3505 3506 3507 3508 3509 3510 3511 3512 3513 3514 3515 3516 3517 3518 3519 3520 3521 3522 3523 3524 3525 3526 3527 3528 3529 3530 3531 3532 3533 3534 3535 3536 3537 3538 3539 3540 3541 3542 3543 3544 3545 3546 3547 3548 3549 3550 3551 3552 3553 3554 3555 3556 3557 3558 3559 3560 3561 3562 3563 3564 3565 3566 3567 3568 3569 3570 3571 3572 3573 3574 3575 3576 3577 3578 3579 3580 3581 3582 3583 3584 3585 3586 3587 3588 3589 3590 3591 3592 3593 3594 3595 3596 3597 3598 3599 3600 3601 3602 3603 3604 3605 3606 3607 3608 3609 3610 3611 3612 3613 3614 3615 3616 3617 3618 3619 3620 3621 3622 3623 3624 3625 3626 3627 3628 3629 3630 3631 3632 3633 3634 3635 3636 3637 3638 3639 3640 3641 3642 3643 3644 3645 3646 3647 3648 3649 3650 3651 3652 3653 3654 3655 3656 3657 3658 3659 3660 3661 3662 3663 3664 3665 3666 3667 3668 3669 3670 3671 3672 3673 3674 3675 3676 3677 3678 3679 3680 3681 3682 3683 3684 3685 3686 3687 3688 3689 3690 3691 3692 3693 3694 3695 3696 3697 3698 3699 3700 3701 3702 3703 3704 3705 3706 3707 3708 3709 3710 3711 3712 3713 3714 3715 3716 3717 3718 3719 3720 3721 3722 3723 3724 3725 3726 3727 3728 3729 3730 3731 3732 3733 3734 3735 3736 3737 3738 3739 3740 3741 3742 3743 3744 3745 3746 3747 3748 3749 3750 3751 3752 3753 3754 3755 3756 3757 3758 3759 3760 3761 3762 3763 3764 3765 3766 3767 3768 3769 3770 3771 3772 3773 3774 3775 3776 3777 3778 3779 3780 3781 3782 3783 3784 3785 3786 3787 3788 3789 3790 3791 3792 3793 3794 3795 3796 3797 3798 3799 3800 3801 3802 3803 3804 3805 3806 3807 3808 3809 3810 3811 3812 3813 3814 3815 3816 3817 3818 3819 3820 3821 3822 3823 3824 3825 3826 3827 3828 3829 3830 3831 3832 3833 3834 3835 3836 3837 3838 3839 3840 3841 3842 3843 3844 3845 3846 3847 3848 3849 3850 3851 3852 3853 3854 3855 3856 3857 3858 3859 3860 3861 3862 3863 3864 3865 3866 3867 3868 3869 3870 3871 3872 3873 3874 3875 3876 3877 3878 3879 3880 3881 3882 3883 3884 3885 3886 3887 3888 3889 3890 3891 3892 3893 3894 3895 3896 3897 3898 3899 3900 3901 3902 3903 3904 3905 3906 3907 3908 3909 3910 3911 3912 3913 3914 3915 3916 3917 3918 3919 3920 3921 3922 3923 3924 3925 3926 3927 3928 3929 3930 3931 3932 3933 3934 3935 3936 3937 3938 3939 3940 3941 3942 3943 3944 3945 3946 3947 3948 3949 3950 3951 3952 3953 3954 3955 3956 3957 3958 3959 3960 3961 3962 3963 3964 3965 3966 3967 3968 3969 3970 3971 3972 3973 3974 3975 3976 3977 3978 3979 3980 3981 3982 3983 3984 3985 3986 3987 3988 3989 3990 3991 3992 3993 3994 3995 3996 3997 3998 3999 4000 4001 4002 4003 4004 4005 4006 4007 4008 4009 4010 4011 4012 4013 4014 4015 4016 4017 4018 4019 4020 4021 4022 4023 4024 4025 4026 4027 4028 4029 4030 4031 4032 4033 4034 4035 4036 4037 4038 4039 4040 4041 4042 4043 4044 4045 4046 4047 4048 4049 4050 4051 4052 4053 4054 4055 4056 4057 4058 4059 4060 4061 4062 4063 4064 4065 4066 4067 4068 4069 4070 4071 4072 4073 4074 4075 4076 4077 4078 4079 4080 4081 4082 4083 4084 4085 4086 4087 4088 4089 4090 4091 4092 4093 4094 4095 4096 4097 4098 4099 4100 4101 4102 4103 4104 4105 4106 4107 4108 4109 4110 4111 4112 4113 4114 4115 4116 4117 4118 4119 4120 4121 4122 4123 4124 4125 4126 4127 4128 4129 4130 4131 4132 4133 4134 4135 4136 4137 4138 4139 4140 4141 4142 4143 4144 4145 4146 4147 4148 4149 4150 4151 4152 4153 4154 4155 4156 4157 4158 4159 4160 4161 4162 4163 4164 4165 4166 4167 4168 4169 4170 4171 4172 4173 4174 4175 4176 4177 4178 4179 4180 4181 4182 4183 4184 4185 4186 4187 4188 4189 4190 4191 4192 4193 4194 4195 4196 4197 4198 4199 4200 4201 4202 4203 4204 4205 4206 4207 4208 4209 4210 4211 4212 4213 4214 4215 4216 4217 4218 4219 4220 4221 4222 4223 4224 4225 4226 4227 4228 4229 4230 4231 4232 4233 4234 4235 4236 4237 4238 4239 4240 4241 4242 4243 4244 4245 4246 4247 4248 4249 4250 4251 4252 4253 4254 4255 4256 4257 4258 4259 4260 4261 4262 4263 4264 4265 4266 4267 4268 4269 4270 4271 4272 4273 4274 4275 4276 4277 4278 4279 4280 4281 4282 4283 4284 4285 4286 4287 4288 4289 4290 4291 4292 4293 4294 4295 4296 4297 4298 4299 4300 4301 4302 4303 4304 4305 4306 4307 4308 4309 4310 4311 4312 4313 4314 4315 4316 4317 4318 4319 4320 4321 4322 4323 4324 4325 4326 4327 4328 4329 4330 4331 4332 4333 4334 4335 4336 4337 4338 4339 4340 4341 4342 4343 4344 4345 4346 4347 4348 4349 4350 4351 4352 4353 4354 4355 4356 4357 4358 4359 4360 4361 4362 4363 4364 4365 4366 4367 4368 4369 4370 4371 4372 4373 4374 4375 4376 4377 4378 4379 4380 4381 4382 4383 4384 4385 4386 4387 4388 4389 4390 4391 4392 4393 4394 4395 4396 4397 4398 4399 4400 4401 4402 4403 4404 4405 4406 4407 4408 4409 4410 4411 4412 4413 4414 4415 4416 4417 4418 4419 4420 4421 4422 4423 4424 4425 4426 4427 4428 4429 4430 4431 4432 4433 4434 4435 4436 4437 4438 4439 4440 4441 4442 4443 4444 4445 4446 4447 4448 4449 4450 4451 4452 4453 4454 4455 4456 4457 4458 4459 4460 4461 4462 4463 4464 4465 4466 4467 4468 4469 4470 4471 4472 4473 4474 4475 4476 4477 4478 4479 4480 4481 4482 4483 4484 4485 4486 4487 4488 4489 4490 4491 4492 4493 4494 4495 4496 4497 4498 4499 4500 4501 4502 4503 4504 4505 4506 4507 4508 4509 4510 4511 4512 4513 4514 4515 4516 4517 4518 4519 4520 4521 4522 4523 4524 4525 4526 4527 4528 4529 4530 4531 4532 4533 4534 4535 4536 4537 4538 4539 4540 4541 4542 4543 4544 4545 4546 4547 4548 4549 4550 4551 4552 4553 4554 4555 4556 4557 4558 4559 4560 4561 4562 4563 4564 4565 4566 4567 4568 4569 4570 4571 4572 4573 4574 4575 4576 4577 4578 4579 4580 4581 4582 4583 4584 4585 4586 4587 4588 4589 4590 4591 4592 4593 4594 4595 4596 4597 4598 4599 4600 4601 4602 4603 4604 4605 4606 4607 4608 4609 4610 4611 4612 4613 4614 4615 4616 4617 4618 4619 4620 4621 4622 4623 4624 4625 4626 4627 4628 4629 4630 4631 4632 4633 4634 4635 4636 4637 4638 4639 4640 4641 4642 4643 4644 4645 4646 4647 4648 4649 4650 4651 4652 4653 4654 4655 4656 4657 4658 4659 4660 4661 4662 4663 4664 4665 4666 4667 4668 4669 4670 4671 4672 4673 4674 4675 4676 4677 4678 4679 4680 4681 4682 4683 4684 4685 4686 4687 4688 4689 4690 4691 4692 4693 4694 4695 4696 4697 4698 4699 4700 4701 4702 4703 4704 4705 4706 4707 4708 4709 4710 4711 4712 4713 4714 4715 4716 4717 4718 4719 4720 4721 4722 4723 4724 4725 4726 4727 4728 4729 4730 4731 4732 4733 4734 4735 4736 4737 4738 4739 4740 4741 4742 4743 4744 4745 4746 4747 4748 4749 4750 4751 4752 4753 4754 4755 4756 4757 4758 4759 4760 4761 4762 4763 4764 4765 4766 4767 4768 4769 4770 4771 4772 4773 4774 4775 4776 4777 4778 4779 4780 4781 4782 4783 4784 4785 4786 4787 4788 4789 4790 4791 4792 4793 4794 4795 4796 4797 4798 4799 4800 4801 4802 4803 4804 4805 4806 4807 4808 4809 4810 4811 4812 4813 4814 4815 4816 4817 4818 4819 4820 4821 4822 4823 4824 4825 4826 4827 4828 4829 4830 4831 4832 4833 4834 4835 4836 4837 4838 4839 4840 4841 4842 4843 4844 4845 4846 4847 4848 4849 4850 4851 4852 4853 4854 4855 4856 4857 4858 4859 4860 4861 4862 4863 4864 4865 4866 4867 4868 4869 4870 4871 4872 4873 4874 4875 4876 4877 4878 4879 4880 4881 4882 4883 4884 4885 4886 4887 4888 4889 4890 4891 4892 4893 4894 4895 4896 4897 4898 4899 4900 4901 4902 4903 4904 4905 4906 4907 4908 4909 4910 4911 4912 4913 4914 4915 4916 4917 4918 4919 4920 4921 4922 4923 4924 4925 4926 4927 4928 4929 4930 4931 4932 4933 4934 4935 4936 4937 4938 4939 4940 4941 4942 4943 4944 4945 4946 4947 4948 4949 4950 4951 4952 4953 4954 4955 4956 4957 4958 4959 4960 4961 4962 4963 4964 4965 4966 4967 4968 4969 4970 4971 4972 4973 4974 4975 4976 4977 4978 4979 4980 4981 4982 4983 4984 4985 4986 4987 4988 4989 4990 4991 4992 4993 4994 4995 4996 4997 4998 4999 5000 5001 5002 5003 5004 5005 5006 5007 5008 5009 5010 5011 5012 5013 5014 5015 5016 5017 5018 5019 5020 5021 5022 5023 5024 5025 5026 5027 5028 5029 5030 5031 5032 5033 5034 5035 5036 5037 5038 5039 5040 5041 5042 5043 5044 5045 5046 5047 5048 5049 5050 5051 5052 5053 5054 5055 5056 5057 5058 5059 5060 5061 5062 5063 5064 5065 5066 5067 5068 5069 5070 5071 5072 5073 5074 5075 5076 5077 5078 5079 5080 5081 5082 5083 5084 5085 5086 5087 5088 5089 5090 5091 5092 5093 5094 5095 5096 5097 5098 5099 5100 5101 5102 5103 5104 5105 5106 5107 5108 5109 5110 5111 5112 5113 5114 5115 5116 5117 5118 5119 5120 5121 5122 5123 5124 5125 5126 5127 5128 5129 5130 5131 5132 5133 5134 5135 5136 5137 5138 5139 5140 5141 5142 5143 5144 5145 5146 5147 5148 5149 5150 5151 5152 5153 5154 5155 5156 5157 5158 5159 5160 5161 5162 5163 5164 5165 5166 5167 5168 5169 5170 5171 5172 5173 5174 5175 5176 5177 5178 5179 5180 5181 5182 5183 5184 5185 5186 5187 5188 5189 5190 5191 5192 5193 5194 5195 5196 5197 5198 5199 5200 5201 5202 5203 5204 5205 5206 5207 5208 5209 5210 5211 5212 5213 5214 5215 5216 5217 5218 5219 5220 5221 5222 5223 5224 5225 5226 5227 5228 5229 5230 5231 5232 5233 5234 5235 5236 5237 5238 5239 5240 5241 5242 5243 5244 5245 5246 5247 5248 5249 5250 5251 5252 5253 5254 5255 5256 5257 5258 5259 5260 5261 5262 5263 5264 5265 5266 5267 5268 5269 5270 5271 5272 5273 5274 5275 5276 5277 5278 5279 5280 5281 5282 5283 5284 5285 5286 5287 5288 5289 5290 5291 5292 5293 5294 5295 5296 5297 5298 5299 5300 5301 5302 5303 5304 5305 5306 5307 5308 5309 5310 5311 5312 5313 5314 5315 5316 5317 5318 5319 5320 5321 5322 5323 5324 5325 5326 5327 5328 5329 5330 5331 5332 5333 5334 5335 5336 5337 5338 5339 5340 5341 5342 5343 5344 5345 5346 5347 5348 5349 5350 5351 5352 5353 5354 5355 5356 5357 5358 5359 5360 5361 5362 5363 5364 5365 5366 5367 5368 5369 5370 5371 5372 5373 5374 5375 5376 5377 5378 5379 5380 5381 5382 5383 5384 5385 5386 5387 5388 5389 5390 5391 5392 5393 5394 5395 5396 5397 5398 5399 5400 5401 5402 5403 5404 5405 5406 5407 5408 5409 5410 5411 5412 5413 5414 5415 5416 5417 5418 5419 5420 5421 5422 5423 5424 5425 5426 5427 5428 5429 5430 5431 5432 5433 5434 5435 5436 5437 5438 5439 5440 5441 5442 5443 5444 5445 5446 5447 5448 5449 5450 5451 5452 5453 5454 5455 5456 5457 5458 5459 5460 5461 5462 5463 5464 5465 5466 5467 5468 5469 5470 5471 5472 5473 5474 5475 5476 5477 5478 5479 5480 5481 5482 5483 5484 5485 5486 5487 5488 5489 5490 5491 5492 5493 5494 5495 5496 5497 5498 5499 5500 5501 5502 5503 5504 5505 5506 5507 5508 5509 5510 5511 5512 5513 5514 5515 5516 5517 5518 5519 5520 5521 5522 5523 5524 5525 5526 5527 5528 5529 5530 5531 5532 5533 5534 5535 5536 5537 5538 5539 5540 5541 5542 5543 5544 5545 5546 5547 5548 5549 5550 5551 5552 5553 5554 5555 5556 5557 5558 5559 5560 5561 5562 5563 5564 5565 5566 5567 5568 5569 5570 5571 5572 5573 5574 5575 5576 5577 5578 5579 5580 5581 5582 5583 5584 5585 5586 5587 5588 5589 5590 5591 5592 5593 5594 5595 5596 5597 5598 5599 5600 5601 5602 5603 5604 5605 5606 5607 5608 5609 5610 5611 5612 5613 5614 5615 5616 5617 5618 5619 5620 5621 5622 5623 5624 5625 5626 5627 5628 5629 5630 5631 5632 5633 5634 5635 5636 5637 5638 5639 5640 5641 5642 5643 5644 5645 5646 5647 5648 5649 5650 5651 5652 5653 5654 5655 5656 5657 5658 5659 5660 5661 5662 5663 5664 5665 5666 5667 5668 5669 5670 5671 5672 5673 5674 5675 5676 5677 5678 5679 5680 5681 5682 5683 5684 5685 5686 5687 5688 5689 5690 5691 5692 5693 5694 5695 5696 5697 5698 5699 5700 5701 5702 5703 5704 5705 5706 5707 5708 5709 5710 5711 5712 5713 5714 5715 5716 5717 5718 5719 5720 5721 5722 5723 5724 5725 5726 5727 5728 5729 5730 5731 5732 5733 5734 5735 5736 5737 5738 5739 5740 5741 5742 5743 5744 5745 5746 5747 5748 5749 5750 5751 5752 5753 5754 5755 5756 5757 5758 5759 5760 5761 5762 5763 5764 5765 5766 5767 5768 5769 5770 5771 5772 5773 5774 5775 5776 5777 5778 5779 5780 5781 5782 5783 5784 5785 5786 5787 5788 5789 5790 5791 5792 5793 5794 5795 5796 5797 5798 5799 5800 5801 5802 5803 5804 5805 5806 5807 5808 5809 5810 5811 5812 5813 5814 5815 5816 5817 5818 5819 5820 5821 5822 5823 5824 5825 5826 5827 5828 5829 5830 5831 5832 5833 5834 5835 5836 5837 5838 5839 5840 5841 5842 5843 5844 5845 5846 5847 5848 5849 5850 5851 5852 5853 5854 5855 5856 5857 5858 5859 5860 5861 5862 5863 5864 5865 5866 5867 5868 5869 5870 5871 5872 5873 5874 5875 5876 5877 5878 5879 5880 5881 5882 5883 5884 5885 5886 5887 5888 5889 5890 5891 5892 5893 5894 5895 5896 5897 5898 5899 5900 5901 5902 5903 5904 5905 5906 5907 5908 5909 5910 5911 5912 5913 5914 5915 5916 5917 5918 5919 5920 5921 5922 5923 5924 5925 5926 5927 5928 5929 5930 5931 5932 5933 5934 5935 5936 5937 5938 5939 5940 5941 5942 5943 5944 5945 5946 5947 5948 5949 5950 5951 5952 5953 5954 5955 5956 5957 5958 5959 5960 5961 5962 5963 5964 5965 5966 5967 5968 5969 5970 5971 5972 5973 5974 5975 5976 5977 5978 5979 5980 5981 5982 5983 5984 5985 5986 5987 5988 5989 5990 5991 5992 5993 5994 5995 5996 5997 5998 5999 6000 6001 6002 6003 6004 6005 6006 6007 6008 6009 6010 6011 6012 6013 6014 6015 6016 6017 6018 6019 6020 6021 6022 6023 6024 6025 6026 6027 6028 6029 6030 6031 6032 6033 6034 6035 6036 6037 6038 6039 6040 6041 6042 6043 6044 6045 6046 6047 6048 6049 6050 6051 6052 6053 6054 6055 6056 6057 6058 6059 6060 6061 6062 6063 6064 6065 6066 6067 6068 6069 6070 6071 6072 6073 6074 6075 6076 6077 6078 6079 6080 6081 6082 6083 6084 6085 6086 6087 6088 6089 6090 6091 6092 6093 6094 6095 6096 6097 6098 6099 6100 6101 6102 6103 6104 6105 6106 6107 6108 6109 6110 6111 6112 6113 6114 6115 6116 6117 6118 6119 6120 6121 6122 6123 6124 6125 6126 6127 6128 6129 6130 6131 6132 6133 6134 6135 6136 6137 6138 6139 6140 6141 6142 6143 6144 6145 6146 6147 6148 6149 6150 6151 6152 6153 6154 6155 6156 6157 6158 6159 6160 6161 6162 6163 6164 6165 6166 6167 6168 6169 6170 6171 6172 6173 6174 6175 6176 6177 6178 6179 6180 6181 6182 6183 6184 6185 6186 6187 6188 6189 6190 6191 6192 6193 6194 6195 6196 6197 6198 6199 6200 6201 6202 6203 6204 6205 6206 6207 6208 6209 6210 6211 6212 6213 6214 6215 6216 6217 6218 6219 6220 6221 6222 6223 6224 6225 6226 6227 6228 6229 6230 6231 6232 6233 6234 6235 6236 6237 6238 6239 6240 6241 6242 6243 6244 6245 6246 6247 6248 6249 6250 6251 6252 6253 6254 6255 6256 6257 6258 6259 6260 6261 6262 6263 6264 6265 6266 6267 6268 6269 6270 6271 6272 6273 6274 6275 6276 6277 6278 6279 6280 6281 6282 6283 6284 6285 6286 6287 6288 6289 6290 6291 6292 6293 6294 6295 6296 6297 6298 6299 6300 6301 6302 6303 6304 6305 6306 6307 6308 6309 6310 6311 6312 6313 6314 6315 6316 6317 6318 6319 6320 6321 6322 6323 6324 6325 6326 6327 6328 6329 6330 6331 6332 6333 6334 6335 6336 6337 6338 6339 6340 6341 6342 6343 6344 6345 6346 6347 6348 6349 6350 6351 6352 6353 6354 6355 6356 6357 6358 6359 6360 6361 6362 6363 6364 6365 6366 6367 6368 6369 6370 6371 6372 6373 6374 6375 6376 6377 6378 6379 6380 6381 6382 6383 6384 6385 6386 6387 6388 6389 6390 6391 6392 6393 6394 6395 6396 6397 6398 6399 6400 6401 6402 6403 6404 6405 6406 6407 6408 6409 6410 6411 6412 6413 6414 6415 6416 6417 6418 6419 6420 6421 6422 6423 6424 6425 6426 6427 6428 6429 6430 6431 6432 6433 6434 6435 6436 6437 6438 6439 6440 6441 6442 6443 6444 6445 6446 6447 6448 6449 6450 6451 6452 6453 6454 6455 6456 6457 6458 6459 6460 6461 6462 6463 6464 6465 6466 6467 6468 6469 6470 6471 6472 6473 6474 6475 6476 6477 6478 6479 6480 6481 6482 6483 6484 6485 6486 6487 6488 6489 6490 6491 6492 6493 6494 6495 6496 6497 6498 6499 6500 6501 6502 6503 6504 6505 6506 6507 6508 6509 6510 6511 6512 6513 6514 6515 6516 6517 6518 6519 6520 6521 6522 6523 6524 6525 6526 6527 6528 6529 6530 6531 6532 6533 6534 6535 6536 6537 6538 6539 6540 6541 6542 6543 6544 6545 6546 6547 6548 6549 6550 6551 6552 6553 6554 6555 6556 6557 6558 6559 6560 6561 6562 6563 6564 6565 6566 6567 6568 6569 6570 6571 6572 6573 6574 6575 6576 6577 6578 6579 6580 6581 6582 6583 6584 6585 6586 6587 6588 6589 6590 6591 6592 6593 6594 6595 6596 6597 6598 6599 6600 6601 6602 6603 6604 6605 6606 6607 6608 6609 6610 6611 6612 6613 6614 6615 6616 6617 6618 6619 6620 6621 6622 6623 6624 6625 6626 6627 6628 6629 6630 6631 6632 6633 6634 6635 6636 6637 6638 6639 6640 6641 6642 6643 6644 6645 6646 6647 6648 6649 6650 6651 6652 6653 6654 6655 6656 6657 6658 6659 6660 6661 6662 6663 6664 6665 6666 6667 6668 6669 6670 6671 6672 6673 6674 6675 6676 6677 6678 6679 6680 6681 6682 6683 6684 6685 6686 6687 6688 6689 6690 6691 6692 6693 6694 6695 6696 6697 6698 6699 6700 6701 6702 6703 6704 6705 6706 6707 6708 6709 6710 6711 6712 6713 6714 6715 6716 6717 6718 6719 6720 6721 6722 6723 6724 6725 6726 6727 6728 6729 6730 6731 6732 6733 6734 6735 6736 6737 6738 6739 6740 6741 6742 6743 6744 6745 6746 6747 6748 6749 6750 6751 6752 6753 6754 6755 6756 6757 6758 6759 6760 6761 6762 6763 6764 6765 6766 6767 6768 6769 6770 6771 6772 6773 6774 6775 6776 6777 6778 6779 6780 6781 6782 6783 6784 6785 6786 6787 6788 6789 6790 6791 6792 6793 6794 6795 6796 6797 6798 6799 6800 6801 6802 6803 6804 6805 6806 6807 6808 6809 6810 6811 6812 6813 6814 6815 6816 6817 6818 6819 6820 6821 6822 6823 6824 6825 6826 6827 6828 6829 6830 6831 6832 6833 6834 6835 6836 6837 6838 6839 6840 6841 6842 6843 6844 6845 6846 6847 6848 6849 6850 6851 6852 6853 6854 6855 6856 6857 6858 6859 6860 6861 6862 6863 6864 6865 6866 6867 6868 6869 6870 6871 6872 6873 6874 6875 6876 6877 6878 6879 6880 6881 6882 6883 6884 6885 6886 6887 6888 6889 6890 6891 6892 6893 6894 6895 6896 6897 6898 6899 6900 6901 6902 6903 6904 6905 6906 6907 6908 6909 6910 6911 6912 6913 6914 6915 6916 6917 6918 6919 6920 6921 6922 6923 6924 6925 6926 6927 6928 6929 6930 6931 6932 6933 6934 6935 6936 6937 6938 6939 6940 6941 6942 6943 6944 6945 6946 6947 6948 6949 6950 6951 6952 6953 6954 6955 6956 6957 6958 6959 6960 6961 6962 6963 6964 6965 6966 6967 6968 6969 6970 6971 6972 6973 6974 6975 6976 6977 6978 6979 6980 6981 6982 6983 6984 6985 6986 6987 6988 6989 6990 6991 6992 6993 6994 6995 6996 6997 6998 6999 7000 7001 7002 7003 7004 7005 7006 7007 7008 7009 7010 7011 7012 7013 7014 7015 7016 7017 7018 7019 7020 7021 7022 7023 7024 7025 7026 7027 7028 7029 7030 7031 7032 7033 7034 7035 7036 7037 7038 7039 7040 7041 7042 7043 7044 7045 7046 7047 7048 7049 7050 7051 7052 7053 7054 7055 7056 7057 7058 7059 7060 7061 7062 7063 7064 7065 7066 7067 7068 7069 7070 7071 7072 7073 7074 7075 7076 7077 7078 7079 7080 7081 7082 7083 7084 7085 7086 7087 7088 7089 7090 7091 7092 7093 7094 7095 7096 7097 7098 7099 7100 7101 7102 7103 7104 7105 7106 7107 7108 7109 7110 7111 7112 7113 7114 7115 7116 7117 7118 7119 7120 7121 7122 7123 7124 7125 7126 7127 7128 7129 7130 7131 7132 7133 7134 7135 7136 7137 7138 7139 7140 7141 7142 7143 7144 7145 7146 7147 7148 7149 7150 7151 7152 7153 7154 7155 7156 7157 7158 7159 7160 7161 7162 7163 7164 7165 7166 7167 7168 7169 7170 7171 7172 7173 7174 7175 7176 7177 7178 7179 7180 7181 7182 7183 7184 7185 7186 7187 7188 7189 7190 7191 7192 7193 7194 7195 7196 7197 7198 7199 7200 7201 7202 7203 7204 7205 7206 7207 7208 7209 7210 7211 7212 7213 7214 7215 7216 7217 7218 7219 7220 7221 7222 7223 7224 7225 7226 7227 7228 7229 7230 7231 7232 7233 7234 7235 7236 7237 7238 7239 7240 7241 7242 7243 7244 7245 7246 7247 7248 7249 7250 7251 7252 7253 7254 7255 7256 7257 7258 7259 7260 7261 7262 7263 7264 7265 7266 7267 7268 7269 7270 7271 7272 7273 7274 7275 7276 7277 7278 7279 7280 7281 7282 7283 7284 7285 7286 7287 7288 7289 7290 7291 7292 7293 7294 7295 7296 7297 7298 7299 7300 7301 7302 7303 7304 7305 7306 7307 7308 7309 7310 7311 7312 7313 7314 7315 7316 7317 7318 7319 7320 7321 7322 7323 7324 7325 7326 7327 7328 7329 7330 7331 7332 7333 7334 7335 7336 7337 7338 7339 7340 7341 7342 7343 7344 7345 7346 7347 7348 7349 7350 7351 7352 7353 7354 7355 7356 7357 7358 7359 7360 7361 7362 7363 7364 7365 7366 7367 7368 7369 7370 7371 7372 7373 7374 7375 7376 7377 7378 7379 7380 7381 7382 7383 7384 7385 7386 7387 7388 7389 7390 7391 7392 7393 7394 7395 7396 7397 7398 7399 7400 7401 7402 7403 7404 7405 7406 7407 7408 7409 7410 7411 7412 7413 7414 7415 7416 7417 7418 7419 7420 7421 7422 7423 7424 7425 7426 7427 7428 7429 7430 7431 7432 7433 7434 7435 7436 7437 7438 7439 7440 7441 7442 7443 7444 7445 7446 7447 7448 7449 7450 7451 7452 7453 7454 7455 7456 7457 7458 7459 7460 7461 7462 7463 7464 7465 7466 7467 7468 7469 7470 7471 7472 7473 7474 7475 7476 7477 7478 7479 7480 7481 7482 7483 7484 7485 7486 7487 7488 7489 7490 7491 7492 7493 7494 7495 7496 7497 7498 7499 7500 7501 7502 7503 7504 7505 7506 7507 7508 7509 7510 7511 7512 7513 7514 7515 7516 7517 7518 7519 7520 7521 7522 7523 7524 7525 7526 7527 7528 7529 7530 7531 7532 7533 7534 7535 7536 7537 7538 7539 7540 7541 7542 7543 7544 7545 7546 7547 7548 7549 7550 7551 7552 7553 7554 7555 7556 7557 7558 7559 7560 7561 7562 7563 7564 7565 7566 7567 7568 7569 7570 7571 7572 7573 7574 7575 7576 7577 7578 7579 7580 7581 7582 7583 7584 7585 7586 7587 7588 7589 7590 7591 7592 7593 7594 7595 7596 7597 7598 7599 7600 7601 7602 7603 7604 7605 7606 7607 7608 7609 7610 7611 7612 7613 7614 7615 7616 7617 7618 7619 7620 7621 7622 7623 7624 7625 7626 7627 7628 7629 7630 7631 7632 7633 7634 7635 7636 7637 7638 7639 7640 7641 7642 7643 7644 7645 7646 7647 7648 7649 7650 7651 7652 7653 7654 7655 7656 7657 7658 7659 7660 7661 7662 7663 7664 7665 7666 7667 7668 7669 7670 7671 7672 7673 7674 7675 7676 7677 7678 7679 7680 7681 7682 7683 7684 7685 7686 7687 7688 7689 7690 7691 7692 7693 7694 7695 7696 7697 7698 7699 7700 7701 7702 7703 7704 7705 7706 7707 7708 7709 7710 7711 7712 7713 7714 7715 7716 7717 7718 7719 7720 7721 7722 7723 7724 7725 7726 7727 7728 7729 7730 7731 7732 7733 7734 7735 7736 7737 7738 7739 7740 7741 7742 7743 7744 7745 7746 7747 7748 7749 7750 7751 7752 7753 7754 7755 7756 7757 7758 7759 7760 7761 7762 7763 7764 7765 7766 7767 7768 7769 7770 7771 7772 7773 7774 7775 7776 7777 7778 7779 7780 7781 7782 7783 7784 7785 7786 7787 7788 7789 7790 7791 7792 7793 7794 7795 7796 7797 7798 7799 7800 7801 7802 7803 7804 7805 7806 7807 7808 7809 7810 7811 7812 7813 7814 7815 7816 7817 7818 7819 7820 7821 7822 7823 7824 7825 7826 7827 7828 7829 7830 7831 7832 7833 7834 7835 7836 7837 7838 7839 7840 7841 7842 7843 7844 7845 7846 7847 7848 7849 7850 7851 7852 7853 7854 7855 7856 7857 7858 7859 7860 7861 7862 7863 7864 7865 7866 7867 7868 7869 7870 7871 7872 7873 7874 7875 7876 7877 7878 7879 7880 7881 7882 7883 7884 7885 7886 7887 7888 7889 7890 7891 7892 7893 7894 7895 7896 7897 7898 7899 7900 7901 7902 7903 7904 7905 7906 7907 7908 7909 7910 7911 7912 7913 7914 7915 7916 7917 7918 7919 7920 7921 7922 7923 7924 7925 7926 7927 7928 7929 7930 7931 7932 7933 7934 7935 7936 7937 7938 7939 7940 7941 7942 7943 7944 7945 7946 7947 7948 7949 7950 7951 7952 7953 7954 7955 7956 7957 7958 7959 7960 7961 7962 7963 7964 7965 7966 7967 7968 7969 7970 7971 7972 7973 7974 7975 7976 7977 7978 7979 7980 7981 7982 7983 7984 7985 7986 7987 7988 7989 7990 7991 7992 7993 7994 7995 7996 7997 7998 7999 8000 8001 8002 8003 8004 8005 8006 8007 8008 8009 8010 8011 8012 8013 8014 8015 8016 8017 8018 8019 8020 8021 8022 8023 8024 8025 8026 8027 8028 8029 8030 8031 8032 8033 8034 8035 8036 8037 8038 8039 8040 8041 8042 8043 8044 8045 8046 8047 8048 8049 8050 8051 8052 8053 8054 8055 8056 8057 8058 8059 8060 8061 8062 8063 8064 8065 8066 8067 8068 8069 8070 8071 8072 8073 8074 8075 8076 8077 8078 8079 8080 8081 8082 8083 8084 8085 8086 8087 8088 8089 8090 8091 8092 8093 8094 8095 8096 8097 8098 8099 8100 8101 8102 8103 8104 8105 8106 8107 8108 8109 8110 8111 8112 8113 8114 8115 8116 8117 8118 8119 8120 8121 8122 8123 8124 8125 8126 8127 8128 8129 8130 8131 8132 8133 8134 8135 8136 8137 8138 8139 8140 8141 8142 8143 8144 8145 8146 8147 8148 8149 8150 8151 8152 8153 8154 8155 8156 8157 8158 8159 8160 8161 8162 8163 8164 8165 8166 8167 8168 8169 8170 8171 8172 8173 8174 8175 8176 8177 8178 8179 8180 8181 8182 8183 8184 8185 8186 8187 8188 8189 8190 8191 8192 8193 8194 8195 8196 8197 8198 8199 8200 8201 8202 8203 8204 8205 8206 8207 8208 8209 8210 8211 8212 8213 8214 8215 8216 8217 8218 8219 8220 8221 8222 8223 8224 8225 8226 8227 8228 8229 8230 8231 8232 8233 8234 8235 8236 8237 8238 8239 8240 8241 8242 8243 8244 8245 8246 8247 8248 8249 8250 8251 8252 8253 8254 8255 8256 8257 8258 8259 8260 8261 8262 8263 8264 8265 8266 8267 8268 8269 8270 8271 8272 8273 8274 8275 8276 8277 8278 8279 8280 8281 8282 8283 8284 8285 8286 8287 8288 8289 8290 8291 8292 8293 8294 8295 8296 8297 8298 8299 8300 8301 8302 8303 8304 8305 8306 8307 8308 8309 8310 8311 8312 8313 8314 8315 8316 8317 8318 8319 8320 8321 8322 8323 8324 8325 8326 8327 8328 8329 8330 8331 8332 8333 8334 8335 8336 8337 8338 8339 8340 8341 8342 8343 8344 8345 8346 8347 8348 8349 8350 8351 8352 8353 8354 8355 8356 8357 8358 8359 8360 8361 8362 8363 8364 8365 8366 8367 8368 8369 8370 8371 8372 8373 8374 8375 8376 8377 8378 8379 8380 8381 8382 8383 8384 8385 8386 8387 8388 8389 8390 8391 8392 8393 8394 8395 8396 8397 8398 8399 8400 8401 8402 8403 8404 8405 8406 8407 8408 8409 8410 8411 8412 8413 8414 8415 8416 8417 8418 8419 8420 8421 8422 8423 8424 8425 8426 8427 8428 8429 8430 8431 8432 8433 8434 8435 8436 8437 8438 8439 8440 8441 8442 8443 8444 8445 8446 8447 8448 8449 8450 8451 8452 8453 8454 8455 8456 8457 8458 8459 8460 8461 8462 8463 8464 8465 8466 8467 8468 8469 8470 8471 8472 8473 8474 8475 8476 8477 8478 8479 8480 8481 8482 8483 8484 8485 8486 8487 8488 8489 8490 8491 8492 8493 8494 8495 8496 8497 8498 8499 8500 8501 8502 8503 8504 8505 8506 8507 8508 8509 8510 8511 8512 8513 8514 8515 8516 8517 8518 8519 8520 8521 8522 8523 8524 8525 8526 8527 8528 8529 8530 8531 8532 8533 8534 8535 8536 8537 8538 8539 8540 8541 8542 8543 8544 8545 8546 8547 8548 8549 8550 8551 8552 8553 8554 8555 8556 8557 8558 8559 8560 8561 8562 8563 8564 8565 8566 8567 8568 8569 8570 8571 8572 8573 8574 8575 8576 8577 8578 8579 8580 8581 8582 8583 8584 8585 8586 8587 8588 8589 8590 8591 8592 8593 8594 8595 8596 8597 8598 8599 8600 8601 8602 8603 8604 8605 8606 8607 8608 8609 8610 8611 8612 8613 8614 8615 8616 8617 8618 8619 8620 8621 8622 8623 8624 8625 8626 8627 8628 8629 8630 8631 8632 8633 8634 8635 8636 8637 8638 8639 8640 8641 8642 8643 8644 8645 8646 8647 8648 8649 8650 8651 8652 8653 8654 8655 8656 8657 8658 8659 8660 8661 8662 8663 8664 8665 8666 8667 8668 8669 8670 8671 8672 8673 8674 8675 8676 8677 8678 8679 8680 8681 8682 8683 8684 8685 8686 8687 8688 8689 8690 8691 8692 8693 8694 8695 8696 8697 8698 8699 8700 8701 8702 8703 8704 8705 8706 8707 8708 8709 8710 8711 8712 8713 8714 8715 8716 8717 8718 8719 8720 8721 8722 8723 8724 8725 8726 8727 8728 8729 8730 8731 8732 8733 8734 8735 8736 8737 8738 8739 8740 8741 8742 8743 8744 8745 8746 8747 8748 8749 8750 8751 8752 8753 8754 8755 8756 8757 8758 8759 8760 8761 8762 8763 8764 8765 8766 8767 8768 8769 8770 8771 8772 8773 8774 8775 8776 8777 8778 8779 8780 8781 8782 8783 8784 8785 8786 8787 8788 8789 8790 8791 8792 8793 8794 8795 8796 8797 8798 8799 8800 8801 8802 8803 8804 8805 8806 8807 8808 8809 8810 8811 8812 8813 8814 8815 8816 8817 8818 8819 8820 8821 8822 8823 8824 8825 8826 8827 8828 8829 8830 8831 8832 8833 8834 8835 8836 8837 8838 8839 8840 8841 8842 8843 8844 8845 8846 8847 8848 8849 8850 8851 8852 8853 8854 8855 8856 8857 8858 8859 8860 8861 8862 8863 8864 8865 8866 8867 8868 8869 8870 8871 8872 8873 8874 8875 8876 8877 8878 8879 8880 8881 8882 8883 8884 8885 8886 8887 8888 8889 8890 8891 8892 8893 8894 8895 8896 8897 8898 8899 8900 8901 8902 8903 8904 8905 8906 8907 8908 8909 8910 8911 8912 8913 8914 8915 8916 8917 8918 8919 8920 8921 8922 8923 8924 8925 8926 8927 8928 8929 8930 8931 8932 8933 8934 8935 8936 8937 8938 8939 8940 8941 8942 8943 8944 8945 8946 8947 8948 8949 8950 8951 8952 8953 8954 8955 8956 8957 8958 8959 8960 8961 8962 8963 8964 8965 8966 8967 8968 8969 8970 8971 8972 8973 8974 8975 8976 8977 8978 8979 8980 8981 8982 8983 8984 8985 8986 8987 8988 8989 8990 8991 8992 8993 8994 8995 8996 8997 8998 8999 9000 9001 9002 9003 9004 9005 9006 9007 9008 9009 9010 9011 9012 9013 9014 9015 9016 9017 9018 9019 9020 9021 9022 9023 9024 9025 9026 9027 9028 9029 9030 9031 9032 9033 9034 9035 9036 9037 9038 9039 9040 9041 9042 9043 9044 9045 9046 9047 9048 9049 9050 9051 9052 9053 9054 9055 9056 9057 9058 9059 9060 9061 9062 9063 9064 9065 9066 9067 9068 9069 9070 9071 9072 9073 9074 9075 9076 9077 9078 9079 9080 9081 9082 9083 9084 9085 9086 9087 9088 9089 9090 9091 9092 9093 9094 9095 9096 9097 9098 9099 9100 9101 9102 9103 9104 9105 9106 9107 9108 9109 9110 9111 9112 9113 9114 9115 9116 9117 9118 9119 9120 9121 9122 9123 9124 9125 9126 9127 9128 9129 9130 9131 9132 9133 9134 9135 9136 9137 9138 9139 9140 9141 9142 9143 9144 9145 9146 9147 9148 9149 9150 9151 9152 9153 9154 9155 9156 9157 9158 9159 9160 9161 9162 9163 9164 9165 9166 9167 9168 9169 9170 9171 9172 9173 9174 9175 9176 9177 9178 9179 9180 9181 9182 9183 9184 9185 9186 9187 9188 9189 9190 9191 9192 9193 9194 9195 9196 9197 9198 9199 9200 9201 9202 9203 9204 9205 9206 9207 9208 9209 9210 9211 9212 9213 9214 9215 9216 9217 9218 9219 9220 9221 9222 9223 9224 9225 9226 9227 9228 9229 9230 9231 9232 9233 9234 9235 9236 9237 9238 9239 9240 9241 9242 9243 9244 9245 9246 9247 9248 9249 9250 9251 9252 9253 9254 9255 9256 9257 9258 9259 9260 9261 9262 9263 9264 9265 9266 9267 9268 9269 9270 9271 9272 9273 9274 9275 9276 9277 9278 9279 9280 9281 9282 9283 9284 9285 9286 9287 9288 9289 9290 9291 9292 9293 9294 9295 9296 9297 9298 9299 9300 9301 9302 9303 9304 9305 9306 9307 9308 9309 9310 9311 9312 9313 9314 9315 9316 9317 9318 9319 9320 9321 9322 9323 9324 9325 9326 9327 9328 9329 9330 9331 9332 9333 9334 9335 9336 9337 9338 9339 9340 9341 9342 9343 9344 9345 9346 9347 9348 9349 9350 9351 9352 9353 9354 9355 9356 9357 9358 9359 9360 9361 9362 9363 9364 9365 9366 9367 9368 9369 9370 9371 9372 9373 9374 9375 9376 9377 9378 9379 9380 9381 9382 9383 9384 9385 9386 9387 9388 9389 9390 9391 9392 9393 9394 9395 9396 9397 9398 9399 9400 9401 9402 9403 9404 9405 9406 9407 9408 9409 9410 9411 9412 9413 9414 9415 9416 9417 9418 9419 9420 9421 9422 9423 9424 9425 9426 9427 9428 9429 9430 9431 9432 9433 9434 9435 9436 9437 9438 9439 9440 9441 9442 9443 9444 9445 9446 9447 9448 9449 9450 9451 9452 9453 9454 9455 9456 9457 9458 9459 9460 9461 9462 9463 9464 9465 9466 9467 9468 9469 9470 9471 9472 9473 9474 9475 9476 9477 9478 9479 9480 9481 9482 9483 9484 9485 9486 9487 9488 9489 9490 9491 9492 9493 9494 9495 9496 9497 9498 9499 9500 9501 9502 9503 9504 9505 9506 9507 9508 9509 9510 9511 9512 9513 9514 9515 9516 9517 9518 9519 9520 9521 9522 9523 9524 9525 9526 9527 9528 9529 9530 9531 9532 9533 9534 9535 9536 9537 9538 9539 9540 9541 9542 9543 9544 9545 9546 9547 9548 9549 9550 9551 9552 9553 9554 9555 9556 9557 9558 9559 9560 9561 9562 9563 9564 9565 9566 9567 9568 9569 9570 9571 9572 9573 9574 9575 9576 9577 9578 9579 9580 9581 9582 9583 9584 9585 9586 9587 9588 9589 9590 9591 9592 9593 9594 9595 9596 9597 9598 9599 9600 9601 9602 9603 9604 9605 9606 9607 9608 9609 9610 9611 9612 9613 9614 9615 9616 9617 9618 9619 9620 9621 9622 9623 9624 9625 9626 9627 9628 9629 9630 9631 9632 9633 9634 9635 9636 9637 9638 9639 9640 9641 9642 9643 9644 9645 9646 9647 9648 9649 9650 9651 9652 9653 9654 9655 9656 9657 9658 9659 9660 9661 9662 9663 9664 9665 9666 9667 9668 9669 9670 9671 9672 9673 9674 9675 9676 9677 9678 9679 9680 9681 9682 9683 9684 9685 9686 9687 9688 9689 9690 9691 9692 9693 9694 9695 9696 9697 9698 9699 9700 9701 9702 9703 9704 9705 9706 9707 9708 9709 9710 9711 9712 9713 9714 9715 9716 9717 9718 9719 9720 9721 9722 9723 9724 9725 9726 9727 9728 9729 9730 9731 9732 9733 9734 9735 9736 9737 9738 9739 9740 9741 9742 9743 9744 9745 9746 9747 9748 9749 9750 9751 9752 9753 9754 9755 9756 9757 9758 9759 9760 9761 9762 9763 9764 9765 9766 9767 9768 9769 9770 9771 9772 9773 9774 9775 9776 9777 9778 9779 9780 9781 9782 9783 9784 9785 9786 9787 9788 9789 9790 9791 9792 9793 9794 9795 9796 9797 9798 9799 9800 9801 9802 9803 9804 9805 9806 9807 9808 9809 9810 9811 9812 9813 9814 9815 9816 9817 9818 9819 9820 9821 9822 9823 9824 9825 9826 9827 9828 9829 9830 9831 9832 9833 9834 9835 9836 9837 9838 9839 9840 9841 9842 9843 9844 9845 9846 9847 9848 9849 9850 9851 9852 9853 9854 9855 9856 9857 9858 9859 9860 9861 9862 9863 9864 9865 9866 9867 9868 9869 9870 9871 9872 9873 9874 9875 9876 9877 9878 9879 9880 9881 9882 9883 9884 9885 9886 9887 9888 9889 9890 9891 9892 9893 9894 9895 9896 9897 9898 9899 9900 9901 9902 9903 9904 9905 9906 9907 9908 9909 9910 9911 9912 9913 9914 9915 9916 9917 9918 9919 9920 9921 9922 9923 9924 9925 9926 9927 9928 9929 9930 9931 9932 9933 9934 9935 9936 9937 9938 9939 9940 9941 9942 9943 9944 9945 9946 9947 9948 9949 9950 9951 9952 9953 9954 9955 9956 9957 9958 9959 9960 9961 9962 9963 9964 9965 9966 9967 9968 9969 9970 9971 9972 9973 9974 9975 9976 9977 9978 9979 9980 9981 9982 9983 9984 9985 9986 9987 9988 9989 9990 9991 9992 9993 9994 9995 9996 9997 9998 9999 10000 10001 10002 10003 10004 10005 10006 10007 10008 10009 10010 10011 10012 10013 10014 10015 10016 10017 10018 10019 10020 10021 10022 10023 10024 10025 10026 10027 10028 10029 10030 10031 10032 10033 10034 10035 10036 10037 10038 10039 10040 10041 10042 10043 10044 10045 10046 10047 10048 10049 10050 10051 10052 10053 10054 10055 10056 10057 10058 10059 10060 10061 10062 10063 10064 10065 10066 10067 10068 10069 10070 10071 10072 10073 10074 10075 10076 10077 10078 10079 10080 10081 10082 10083 10084 10085 10086 10087 10088 10089 10090 10091 10092 10093 10094 10095 10096 10097 10098 10099 10100 10101 10102 10103 10104 10105 10106 10107 10108 10109 10110 10111 10112 10113 10114 10115 10116 10117 10118 10119 10120 10121 10122 10123 10124 10125 10126 10127 10128 10129 10130 10131 10132 10133 10134 10135 10136 10137 10138 10139 10140 10141 10142 10143 10144 10145 10146 10147 10148 10149 10150 10151 10152 10153 10154 10155 10156 10157 10158 10159 10160 10161 10162 10163 10164 10165 10166 10167 10168 10169 10170 10171 10172 10173 10174 10175 10176 10177 10178 10179 10180 10181 10182 10183 10184 10185 10186 10187 10188 10189 10190 10191 10192 10193 10194 10195 10196 10197 10198 10199 10200 10201 10202 10203 10204 10205 10206 10207 10208 10209 10210 10211 10212 10213 10214 10215 10216 10217 10218 10219 10220 10221 10222 10223 10224 10225 10226 10227 10228 10229 10230 10231 10232 10233 10234 10235 10236 10237 10238 10239 10240 10241 10242 10243 10244 10245 10246 10247 10248 10249 10250 10251 10252 10253 10254 10255 10256 10257 10258 10259 10260 10261 10262 10263 10264 10265 10266 10267 10268 10269 10270 10271 10272 10273 10274 10275 10276 10277 10278 10279 10280 10281 10282 10283 10284 10285 10286 10287 10288 10289 10290 10291 10292 10293 10294 10295 10296 10297 10298 10299 10300 10301 10302 10303 10304 10305 10306 10307 10308 10309 10310 10311 10312 10313 10314 10315 10316 10317 10318 10319 10320 10321 10322 10323 10324 10325 10326 10327 10328 10329 10330 10331 10332 10333 10334 10335 10336 10337 10338 10339 10340 10341 10342 10343 10344 10345 10346 10347 10348 10349 10350 10351 10352 10353 10354 10355 10356 10357 10358 10359 10360 10361 10362 10363 10364 10365 10366 10367 10368 10369 10370 10371 10372 10373 10374 10375 10376 10377 10378 10379 10380 10381 10382 10383 10384 10385 10386 10387 10388 10389 10390 10391 10392 10393 10394 10395 10396 10397 10398 10399 10400 10401 10402 10403 10404 10405 10406 10407 10408 10409 10410 10411 10412 10413 10414 10415 10416 10417 10418 10419 10420 10421 10422 10423 10424 10425 10426 10427 10428 10429 10430 10431 10432 10433 10434 10435 10436 10437 10438 10439 10440 10441 10442 10443 10444 10445 10446 10447 10448 10449 10450 10451 10452 10453 10454 10455 10456 10457 10458 10459 10460 10461 10462 10463 10464 10465 10466 10467 10468 10469 10470 10471 10472 10473 10474 10475 10476 10477 10478 10479 10480 10481 10482 10483 10484 10485 10486 10487 10488 10489 10490 10491 10492 10493 10494 10495 10496 10497 10498 10499 10500 10501 10502 10503 10504 10505 10506 10507 10508 10509 10510 10511 10512 10513 10514 10515 10516 10517 10518 10519 10520 10521 10522 10523 10524 10525 10526 10527 10528 10529 10530 10531 10532 10533 10534 10535 10536 10537 10538 10539 10540 10541 10542 10543 10544 10545 10546 10547 10548 10549 10550 10551 10552 10553 10554 10555 10556 10557 10558 10559 10560 10561 10562 10563 10564 10565 10566 10567 10568 10569 10570 10571 10572 10573 10574 10575 10576 10577 10578 10579 10580 10581 10582 10583 10584 10585 10586 10587 10588 10589 10590 10591 10592 10593 10594 10595 10596 10597 10598 10599 10600 10601 10602 10603 10604 10605 10606 10607 10608 10609 10610 10611 10612 10613 10614 10615 10616 10617 10618 10619 10620 10621 10622 10623 10624 10625 10626 10627 10628 10629 10630 10631 10632 10633 10634 10635 10636 10637 10638 10639 10640 10641 10642 10643 10644 10645 10646 10647 10648 10649 10650 10651 10652 10653 10654 10655 10656 10657 10658 10659 10660 10661 10662 10663 10664 10665 10666 10667 10668 10669 10670 10671 10672 10673 10674 10675 10676 10677 10678 10679 10680 10681 10682 10683 10684 10685 10686 10687 10688 10689 10690 10691 10692 10693 10694 10695 10696 10697 10698 10699 10700 10701 10702 10703 10704 10705 10706 10707 10708 10709 10710 10711 10712 10713 10714 10715 10716 10717 10718 10719 10720 10721 10722 10723 10724 10725 10726 10727 10728 10729 10730 10731 10732 10733 10734 10735 10736 10737 10738 10739 10740 10741 10742 10743 10744 10745 10746 10747 10748 10749 10750 10751 10752 10753 10754 10755 10756 10757 10758 10759 10760 10761 10762 10763 10764 10765 10766 10767 10768 10769 10770 10771 10772 10773 10774 10775 10776 10777 10778 10779 10780 10781 10782 10783 10784 10785 10786 10787 10788 10789 10790 10791 10792 10793 10794 10795 10796 10797 10798 10799 10800 10801 10802 10803 10804 10805 10806 10807 10808 10809 10810 10811 10812 10813 10814 10815 10816 10817 10818 10819 10820 10821 10822 10823 10824 10825 10826 10827 10828 10829 10830 10831 10832 10833 10834 10835 10836 10837 10838 10839 10840 10841 10842 10843 10844 10845 10846 10847 10848 10849 10850 10851 10852 10853 10854 10855 10856 10857 10858 10859 10860 10861 10862 10863 10864 10865 10866 10867 10868 10869 10870 10871 10872 10873 10874 10875 10876 10877 10878 10879 10880 10881 10882 10883 10884 10885 10886 10887 10888 10889 10890 10891 10892 10893 10894 10895 10896 10897 10898 10899 10900 10901 10902 10903 10904 10905 10906 10907 10908 10909 10910 10911 10912 10913 10914 10915 10916 10917 10918 10919 10920 10921 10922 10923 10924 10925 10926 10927 10928 10929 10930 10931 10932 10933 10934 10935 10936 10937 10938 10939 10940 10941 10942 10943 10944 10945 10946 10947 10948 10949 10950 10951 10952 10953 10954 10955 10956 10957 10958 10959 10960 10961 10962 10963 10964 10965 10966 10967 10968 10969 10970 10971 10972 10973 10974 10975 10976 10977 10978 10979 10980 10981 10982 10983 10984 10985 10986 10987 10988 10989 10990 10991 10992 10993 10994 10995 10996 10997 10998 10999 11000 11001 11002 11003 11004 11005 11006 11007 11008 11009 11010 11011 11012 11013 11014 11015 11016 11017 11018 11019 11020 11021 11022 11023 11024 11025 11026 11027 11028 11029 11030 11031 11032 11033 11034 11035 11036 11037 11038 11039 11040 11041 11042 11043 11044 11045 11046 11047 11048 11049 11050 11051 11052 11053 11054 11055 11056 11057 11058 11059 11060 11061 11062 11063 11064 11065 11066 11067 11068 11069 11070 11071 11072 11073 11074 11075 11076 11077 11078 11079 11080 11081 11082 11083 11084 11085 11086 11087 11088 11089 11090 11091 11092 11093 11094 11095 11096 11097 11098 11099 11100 11101 11102 11103 11104 11105 11106 11107 11108 11109 11110 11111 11112 11113 11114 11115 11116 11117 11118 11119 11120 11121 11122 11123 11124 11125 11126 11127 11128 11129 11130 11131 11132 11133 11134 11135 11136 11137 11138 11139 11140 11141 11142 11143 11144 11145 11146 11147 11148 11149 11150 11151 11152 11153 11154 11155 11156 11157 11158 11159 11160 11161 11162 11163 11164 11165 11166 11167 11168 11169 11170 11171 11172 11173 11174 11175 11176 11177 11178 11179 11180 11181 11182 11183 11184 11185 11186 11187 11188 11189 11190 11191 11192 11193 11194 11195 11196 11197 11198 11199 11200 11201 11202 11203 11204 11205 11206 11207 11208 11209 11210 11211 11212 11213 11214 11215 11216 11217 11218 11219 11220 11221 11222 11223 11224 11225 11226 11227 11228 11229 11230 11231 11232 11233 11234 11235 11236 11237 11238 11239 11240 11241 11242 11243 11244 11245 11246 11247 11248 11249 11250 11251 11252 11253 11254 11255 11256 11257 11258 11259 11260 11261 11262 11263 11264 11265 11266 11267 11268 11269 11270 11271 11272 11273 11274 11275 11276 11277 11278 11279 11280 11281 11282 11283 11284 11285 11286 11287 11288 11289 11290 11291 11292 11293 11294 11295 11296 11297 11298 11299 11300 11301 11302 11303 11304 11305 11306 11307 11308 11309 11310 11311 11312 11313 11314 11315 11316 11317 11318 11319 11320 11321 11322 11323 11324 11325 11326 11327 11328 11329 11330 11331 11332 11333 11334 11335 11336 11337 11338 11339 11340 11341 11342 11343 11344 11345 11346 11347 11348 11349 11350 11351 11352 11353 11354 11355 11356 11357 11358 11359 11360 11361 11362 11363 11364 11365 11366 11367 11368 11369 11370 11371 11372 11373 11374 11375 11376 11377 11378 11379 11380 11381 11382 11383 11384 11385 11386 11387 11388 11389 11390 11391 11392 11393 11394 11395 11396 11397 11398 11399 11400 11401 11402 11403 11404 11405 11406 11407 11408 11409 11410 11411 11412 11413 11414 11415 11416 11417 11418 11419 11420 11421 11422 11423 11424 11425 11426 11427 11428 11429 11430 11431 11432 11433 11434 11435 11436 11437 11438 11439 11440 11441 11442 11443 11444 11445 11446 11447 11448 11449 11450 11451 11452 11453 11454 11455 11456 11457 11458 11459 11460 11461 11462 11463 11464 11465 11466 11467 11468 11469 11470 11471 11472 11473 11474 11475 11476 11477 11478 11479 11480 11481 11482 11483 11484 11485 11486 11487 11488 11489 11490 11491 11492 11493 11494 11495 11496 11497 11498 11499 11500 11501 11502 11503 11504 11505 11506 11507 11508 11509 11510 11511 11512 11513 11514 11515 11516 11517 11518 11519 11520 11521 11522 11523 11524 11525 11526 11527 11528 11529 11530 11531 11532 11533 11534 11535 11536 11537 11538 11539 11540 11541 11542 11543 11544 11545 11546 11547 11548 11549 11550 11551 11552 11553 11554 11555 11556 11557 11558 11559 11560 11561 11562 11563 11564 11565 11566 11567 11568 11569 11570 11571 11572 11573 11574 11575 11576 11577 11578 11579 11580 11581 11582 11583 11584 11585 11586 11587 11588 11589 11590 11591 11592 11593 11594 11595 11596 11597 11598 11599 11600 11601 11602 11603 11604 11605 11606 11607 11608 11609 11610 11611 11612 11613 11614 11615 11616 11617 11618 11619 11620 11621 11622 11623 11624 11625 11626 11627 11628 11629 11630 11631 11632 11633 11634 11635 11636 11637 11638 11639 11640 11641 11642 11643 11644 11645 11646 11647 11648 11649 11650 11651 11652 11653 11654 11655 11656 11657 11658 11659 11660 11661 11662 11663 11664 11665 11666 11667 11668 11669 11670 11671 11672 11673 11674 11675 11676 11677 11678 11679 11680 11681 11682 11683 11684 11685 11686 11687 11688 11689 11690 11691 11692 11693 11694 11695 11696 11697 11698 11699 11700 11701 11702 11703 11704 11705 11706 11707 11708 11709 11710 11711 11712 11713 11714 11715 11716 11717 11718 11719 11720 11721 11722 11723 11724 11725 11726 11727 11728 11729 11730 11731 11732 11733 11734 11735 11736 11737 11738 11739 11740 11741 11742 11743 11744 11745 11746 11747 11748 11749 11750 11751 11752 11753 11754 11755 11756 11757 11758 11759 11760 11761 11762 11763 11764 11765 11766 11767 11768 11769 11770 11771 11772 11773 11774 11775 11776 11777 11778 11779 11780 11781 11782 11783 11784 11785 11786 11787 11788 11789 11790 11791 11792 11793 11794 11795 11796 11797 11798 11799 11800 11801 11802 11803 11804 11805 11806 11807 11808 11809 11810 11811 11812 11813 11814 11815 11816 11817 11818 11819 11820 11821 11822 11823 11824 11825 11826 11827 11828 11829 11830 11831 11832 11833 11834 11835 11836 11837 11838 11839 11840 11841 11842 11843 11844 11845 11846 11847 11848 11849 11850 11851 11852 11853 11854 11855 11856 11857 11858 11859 11860 11861 11862 11863 11864 11865 11866 11867 11868 11869 11870 11871 11872 11873 11874 11875 11876 11877 11878 11879 11880 11881 11882 11883 11884 11885 11886 11887 11888 11889 11890 11891 11892 11893 11894 11895 11896 11897 11898 11899 11900 11901 11902 11903 11904 11905 11906 11907 11908 11909 11910 11911 11912 11913 11914 11915 11916 11917 11918 11919 11920 11921 11922 11923 11924 11925 11926 11927 11928 11929 11930 11931 11932 11933 11934 11935 11936 11937 11938 11939 11940 11941 11942 11943 11944 11945 11946 11947 11948 11949 11950 11951 11952 11953 11954 11955 11956 11957 11958 11959 11960 11961 11962 11963 11964 11965 11966 11967 11968 11969 11970 11971 11972 11973 11974 11975 11976 11977 11978 11979 11980 11981 11982 11983 11984 11985 11986 11987 11988 11989 11990 11991 11992 11993 11994 11995 11996 11997 11998 11999 12000 12001 12002 12003 12004 12005 12006 12007 12008 12009 12010 12011 12012 12013 12014 12015 12016 12017 12018 12019 12020 12021 12022 12023 12024 12025 12026 12027 12028 12029 12030 12031 12032 12033 12034 12035 12036 12037 12038 12039 12040 12041 12042 12043 12044 12045 12046 12047 12048 12049 12050 12051 12052 12053 12054 12055 12056 12057 12058 12059 12060 12061 12062 12063 12064 12065 12066 12067 12068 12069 12070 12071 12072 12073 12074 12075 12076 12077 12078 12079 12080 12081 12082 12083 12084 12085 12086 12087 12088 12089 12090 12091 12092 12093 12094 12095 12096 12097 12098 12099 12100 12101 12102 12103 12104 12105 12106 12107 12108 12109 12110 12111 12112 12113 12114 12115 12116 12117 12118 12119 12120 12121 12122 12123 12124 12125 12126 12127 12128 12129 12130 12131 12132 12133 12134 12135 12136 12137 12138 12139 12140 12141 12142 12143 12144 12145 12146 12147 12148 12149 12150 12151 12152 12153 12154 12155 12156 12157 12158 12159 12160 12161 12162 12163 12164 12165 12166 12167 12168 12169 12170 12171 12172 12173 12174 12175 12176 12177 12178 12179 12180 12181 12182 12183 12184 12185 12186 12187 12188 12189 12190 12191 12192 12193 12194 12195 12196 12197 12198 12199 12200 12201 12202 12203 12204 12205 12206 12207 12208 12209 12210 12211 12212 12213 12214 12215 12216 12217 12218 12219 12220 12221 12222 12223 12224 12225 12226 12227 12228 12229 12230 12231 12232 12233 12234 12235 12236 12237 12238 12239 12240 12241 12242 12243 12244 12245 12246 12247 12248 12249 12250 12251 12252 12253 12254 12255 12256 12257 12258 12259 12260 12261 12262 12263 12264 12265 12266 12267 12268 12269 12270 12271 12272 12273 12274 12275 12276 12277 12278 12279 12280 12281 12282 12283 12284 12285 12286 12287 12288 12289 12290 12291 12292 12293 12294 12295 12296 12297 12298 12299 12300 12301 12302 12303 12304 12305 12306 12307 12308 12309 12310 12311 12312 12313 12314 12315 12316 12317 12318 12319 12320 12321 12322 12323 12324 12325 12326 12327 12328 12329 12330 12331 12332 12333 12334 12335 12336 12337 12338 12339 12340 12341 12342 12343 12344 12345 12346 12347 12348 12349 12350 12351 12352 12353 12354 12355 12356 12357 12358 12359 12360 12361 12362 12363 12364 12365 12366 12367 12368 12369 12370 12371 12372 12373 12374 12375 12376 12377 12378 12379 12380 12381 12382 12383 12384 12385 12386 12387 12388 12389 12390 12391 12392 12393 12394 12395 12396 12397 12398 12399 12400 12401 12402 12403 12404 12405 12406 12407 12408 12409 12410 12411 12412 12413 12414 12415 12416 12417 12418 12419 12420 12421 12422 12423 12424 12425 12426 12427 12428 12429 12430 12431 12432 12433 12434 12435 12436 12437 12438 12439 12440 12441 12442 12443 12444 12445 12446 12447 12448 12449 12450 12451 12452 12453 12454 12455 12456 12457 12458 12459 12460 12461 12462 12463 12464 12465 12466 12467 12468 12469 12470 12471 12472 12473 12474 12475 12476 12477 12478 12479 12480 12481 12482 12483 12484 12485 12486 12487 12488 12489 12490 12491 12492 12493 12494 12495 12496 12497 12498 12499 12500 12501 12502 12503 12504 12505 12506 12507 12508 12509 12510 12511 12512 12513 12514 12515 12516 12517 12518 12519 12520 12521 12522 12523 12524 12525 12526 12527 12528 12529 12530 12531 12532 12533 12534 12535 12536 12537 12538 12539 12540 12541 12542 12543 12544 12545 12546 12547 12548 12549 12550 12551 12552 12553 12554 12555 12556 12557 12558 12559 12560 12561 12562 12563 12564 12565 12566 12567 12568 12569 12570 12571 12572 12573 12574 12575 12576 12577 12578 12579 12580 12581 12582 12583 12584 12585 12586 12587 12588 12589 12590 12591 12592 12593 12594 12595 12596 12597 12598 12599 12600 12601 12602 12603 12604 12605 12606 12607 12608 12609 12610 12611 12612 12613 12614 12615 12616 12617 12618 12619 12620 12621 12622 12623 12624 12625 12626 12627 12628 12629 12630 12631 12632 12633 12634 12635 12636 12637 12638 12639 12640 12641 12642 12643 12644 12645 12646 12647 12648 12649 12650 12651 12652 12653 12654 12655 12656 12657 12658 12659 12660 12661 12662 12663 12664 12665 12666 12667 12668 12669 12670 12671 12672 12673 12674 12675 12676 12677 12678 12679 12680 12681 12682 12683 12684 12685 12686 12687 12688 12689 12690 12691 12692 12693 12694 12695 12696 12697 12698 12699 12700 12701 12702 12703 12704 12705 12706 12707 12708 12709 12710 12711 12712 12713 12714 12715 12716 12717 12718 12719 12720 12721 12722 12723 12724 12725 12726 12727 12728 12729 12730 12731 12732 12733 12734 12735 12736 12737 12738 12739 12740 12741 12742 12743 12744 12745 12746 12747 12748 12749 12750 12751 12752 12753 12754 12755 12756 12757 12758 12759 12760 12761 12762 12763 12764 12765 12766 12767 12768 12769 12770 12771 12772 12773 12774 12775 12776 12777 12778 12779 12780 12781 12782 12783 12784 12785 12786 12787 12788 12789 12790 12791 12792 12793 12794 12795 12796 12797 12798 12799 12800 12801 12802 12803 12804 12805 12806 12807 12808 12809 12810 12811 12812 12813 12814 12815 12816 12817 12818 12819 12820 12821 12822 12823 12824 12825 12826 12827 12828 12829 12830 12831 12832 12833 12834 12835 12836 12837 12838 12839 12840 12841 12842 12843 12844 12845 12846 12847 12848 12849 12850 12851 12852 12853 12854 12855 12856 12857 12858 12859 12860 12861 12862 12863 12864 12865 12866 12867 12868 12869 12870 12871 12872 12873 12874 12875 12876 12877 12878 12879 12880 12881 12882 12883 12884 12885 12886 12887 12888 12889 12890 12891 12892 12893 12894 12895 12896 12897 12898 12899 12900 12901 12902 12903 12904 12905 12906 12907 12908 12909 12910 12911 12912 12913 12914 12915 12916 12917 12918 12919 12920 12921 12922 12923 12924 12925 12926 12927 12928 12929 12930 12931 12932 12933 12934 12935 12936 12937 12938 12939 12940 12941 12942 12943 12944 12945 12946 12947 12948 12949 12950 12951 12952 12953 12954 12955 12956 12957 12958 12959 12960 12961 12962 12963 12964 12965 12966 12967 12968 12969 12970 12971 12972 12973 12974 12975 12976 12977 12978 12979 12980 12981 12982 12983 12984 12985 12986 12987 12988 12989 12990 12991 12992 12993 12994 12995 12996 12997 12998 12999 13000 13001 13002 13003 13004 13005 13006 13007 13008 13009 13010 13011 13012 13013 13014 13015 13016 13017 13018 13019 13020 13021 13022 13023 13024 13025 13026 13027 13028 13029 13030 13031 13032 13033 13034 13035 13036 13037 13038 13039 13040 13041 13042 13043 13044 13045 13046 13047 13048 13049 13050 13051 13052 13053 13054 13055 13056 13057 13058 13059 13060 13061 13062 13063 13064 13065 13066 13067 13068 13069 13070 13071 13072 13073 13074 13075 13076 13077 13078 13079 13080 13081 13082 13083 13084 13085 13086 13087 13088 13089 13090 13091 13092 13093 13094 13095 13096 13097 13098 13099 13100 13101 13102 13103 13104 13105 13106 13107 13108 13109 13110 13111 13112 13113 13114 13115 13116 13117 13118 13119 13120 13121 13122 13123 13124 13125 13126 13127 13128 13129 13130 13131 13132 13133 13134 13135 13136 13137 13138 13139 13140 13141 13142 13143 13144 13145 13146 13147 13148 13149 13150 13151 13152 13153 13154 13155 13156 13157 13158 13159 13160 13161 13162 13163 13164 13165 13166 13167 13168 13169 13170 13171 13172 13173 13174 13175 13176 13177 13178 13179 13180 13181 13182 13183 13184 13185 13186 13187 13188 13189 13190 13191 13192 13193 13194 13195 13196 13197 13198 13199 13200 13201 13202 13203 13204 13205 13206 13207 13208 13209 13210 13211 13212 13213 13214 13215 13216 13217 13218 13219 13220 13221 13222 13223 13224 13225 13226 13227 13228 13229 13230 13231 13232 13233 13234 13235 13236 13237 13238 13239 13240 13241 13242 13243 13244 13245 13246 13247 13248 13249 13250 13251 13252 13253 13254 13255 13256 13257 13258 13259 13260 13261 13262 13263 13264 13265 13266 13267 13268 13269 13270 13271 13272 13273 13274 13275 13276 13277 13278 13279 13280 13281 13282 13283 13284 13285 13286 13287 13288 13289 13290 13291 13292 13293 13294 13295 13296 13297 13298 13299 13300 13301 13302 13303 13304 13305 13306 13307 13308 13309 13310 13311 13312 13313 13314 13315 13316 13317 13318 13319 13320 13321 13322 13323 13324 13325 13326 13327 13328 13329 13330 13331 13332 13333 13334 13335 13336 13337 13338 13339 13340 13341 13342 13343 13344 13345 13346 13347 13348 13349 13350 13351 13352 13353 13354 13355 13356 13357 13358 13359 13360 13361 13362 13363 13364 13365 13366 13367 13368 13369 13370 13371 13372 13373 13374 13375 13376 13377 13378 13379 13380 13381 13382 13383 13384 13385 13386 13387 13388 13389 13390 13391 13392 13393 13394 13395 13396 13397 13398 13399 13400 13401 13402 13403 13404 13405 13406 13407 13408 13409 13410 13411 13412 13413 13414 13415 13416 13417 13418 13419 13420 13421 13422 13423 13424 13425 13426 13427 13428 13429 13430 13431 13432 13433 13434 13435 13436 13437 13438 13439 13440 13441 13442 13443 13444 13445 13446 13447 13448 13449 13450 13451 13452 13453 13454 13455 13456 13457 13458 13459 13460 13461 13462 13463 13464 13465 13466 13467 13468 13469 13470 13471 13472 13473 13474 13475 13476 13477 13478 13479 13480 13481 13482 13483 13484 13485 13486 13487 13488 13489 13490 13491 13492 13493 13494 13495 13496 13497 13498 13499 13500 13501 13502 13503 13504 13505 13506 13507 13508 13509 13510 13511 13512 13513 13514 13515 13516 13517 13518 13519 13520 13521 13522 13523 13524 13525 13526 13527 13528 13529 13530 13531 13532 13533 13534 13535 13536 13537 13538 13539 13540 13541 13542 13543 13544 13545 13546 13547 13548 13549 13550 13551 13552 13553 13554 13555 13556 13557 13558 13559 13560 13561 13562 13563 13564 13565 13566 13567 13568 13569 13570 13571 13572 13573 13574 13575 13576 13577 13578 13579 13580 13581 13582 13583 13584 13585 13586 13587 13588 13589 13590 13591 13592 13593 13594 13595 13596 13597 13598 13599 13600 13601 13602 13603 13604 13605 13606 13607 13608 13609 13610 13611 13612 13613 13614 13615 13616 13617 13618 13619 13620 13621 13622 13623 13624 13625 13626 13627 13628 13629 13630 13631 13632 13633 13634 13635 13636 13637 13638 13639 13640 13641 13642 13643 13644 13645 13646 13647 13648 13649 13650 13651 13652 13653 13654 13655 13656 13657 13658 13659 13660 13661 13662 13663 13664 13665 13666 13667 13668 13669 13670 13671 13672 13673 13674 13675 13676 13677 13678 13679 13680 13681 13682 13683 13684 13685 13686 13687 13688 13689 13690 13691 13692 13693 13694 13695 13696 13697 13698 13699 13700 13701 13702 13703 13704 13705 13706 13707 13708 13709 13710 13711 13712 13713 13714 13715 13716 13717 13718 13719 13720 13721 13722 13723 13724 13725 13726 13727 13728 13729 13730 13731 13732 13733 13734 13735 13736 13737 13738 13739 13740 13741 13742 13743 13744 13745 13746 13747 13748 13749 13750 13751 13752 13753 13754 13755 13756 13757 13758 13759 13760 13761 13762 13763 13764 13765 13766 13767 13768 13769 13770 13771 13772 13773 13774 13775 13776 13777 13778 13779 13780 13781 13782 13783 13784 13785 13786 13787 13788 13789 13790 13791 13792 13793 13794 13795 13796 13797 13798 13799 13800 13801 13802 13803 13804 13805 13806 13807 13808 13809 13810 13811 13812 13813 13814 13815 13816 13817 13818 13819 13820 13821 13822 13823 13824 13825 13826 13827 13828 13829 13830 13831 13832 13833 13834 13835 13836 13837 13838 13839 13840 13841 13842 13843 13844 13845 13846 13847 13848 13849 13850 13851 13852 13853 13854 13855 13856 13857 13858 13859 13860 13861 13862 13863 13864 13865 13866 13867 13868 13869 13870 13871 13872 13873 13874 13875 13876 13877 13878 13879 13880 13881 13882 13883 13884 13885 13886 13887 13888 13889 13890 13891 13892 13893 13894 13895 13896 13897 13898 13899 13900 13901 13902 13903 13904 13905 13906 13907 13908 13909 13910 13911 13912 13913 13914 13915 13916 13917 13918 13919 13920 13921 13922 13923 13924 13925 13926 13927 13928 13929 13930 13931 13932 13933 13934 13935 13936 13937 13938 13939 13940 13941 13942 13943 13944 13945 13946 13947 13948 13949 13950 13951 13952 13953 13954 13955 13956 13957 13958 13959 13960 13961 13962 13963 13964 13965 13966 13967 13968 13969 13970 13971 13972 13973 13974 13975 13976 13977 13978 13979 13980 13981 13982 13983 13984 13985 13986 13987 13988 13989 13990 13991 13992 13993 13994 13995 13996 13997 13998 13999 14000 14001 14002 14003 14004 14005 14006 14007 14008 14009 14010 14011 14012 14013 14014 14015 14016 14017 14018 14019 14020 14021 14022 14023 14024 14025 14026 14027 14028 14029 14030 14031 14032 14033 14034 14035 14036 14037 14038 14039 14040 14041 14042 14043 14044 14045 14046 14047 14048 14049 14050 14051 14052 14053 14054 14055 14056 14057 14058 14059 14060 14061 14062 14063 14064 14065 14066 14067 14068 14069 14070 14071 14072 14073 14074 14075 14076 14077 14078 14079 14080 14081 14082 14083 14084 14085 14086 14087 14088 14089 14090 14091 14092 14093 14094 14095 14096 14097 14098 14099 14100 14101 14102 14103 14104 14105 14106 14107 14108 14109 14110 14111 14112 14113 14114 14115 14116 14117 14118 14119 14120 14121 14122 14123 14124 14125 14126 14127 14128 14129 14130 14131 14132 14133 14134 14135 14136 14137 14138 14139 14140 14141 14142 14143 14144 14145 14146 14147 14148 14149 14150 14151 14152 14153 14154 14155 14156 14157 14158 14159 14160 14161 14162 14163 14164 14165 14166 14167 14168 14169 14170 14171 14172 14173 14174 14175 14176 14177 14178 14179 14180 14181 14182 14183 14184 14185 14186 14187 14188 14189 14190 14191 14192 14193 14194 14195 14196 14197 14198 14199 14200 14201 14202 14203 14204 14205 14206 14207 14208 14209 14210 14211 14212 14213 14214 14215 14216 14217 14218 14219 14220 14221 14222 14223 14224 14225 14226 14227 14228 14229 14230 14231 14232 14233 14234 14235 14236 14237 14238 14239 14240 14241 14242 14243 14244 14245 14246 14247 14248 14249 14250 14251 14252 14253 14254 14255 14256 14257 14258 14259 14260 14261 14262 14263 14264 14265 14266 14267 14268 14269 14270 14271 14272 14273 14274 14275 14276 14277 14278 14279 14280 14281 14282 14283 14284 14285 14286 14287 14288 14289 14290 14291 14292 14293 14294 14295 14296 14297 14298 14299 14300 14301 14302 14303 14304 14305 14306 14307 14308 14309 14310 14311 14312 14313 14314 14315 14316 14317 14318 14319 14320 14321 14322 14323 14324 14325 14326 14327 14328 14329 14330 14331 14332 14333 14334 14335 14336 14337 14338 14339 14340 14341 14342 14343 14344 14345 14346 14347 14348 14349 14350 14351 14352 14353 14354 14355 14356 14357 14358 14359 14360 14361 14362 14363 14364 14365 14366 14367 14368 14369 14370 14371 14372 14373 14374 14375 14376 14377 14378 14379 14380 14381 14382 14383 14384 14385 14386 14387 14388 14389 14390 14391 14392 14393 14394 14395 14396 14397 14398 14399 14400 14401 14402 14403 14404 14405 14406 14407 14408 14409 14410 14411 14412 14413 14414 14415 14416 14417 14418 14419 14420 14421 14422 14423 14424 14425 14426 14427 14428 14429 14430 14431 14432 14433 14434 14435 14436 14437 14438 14439 14440 14441 14442 14443 14444 14445 14446 14447 14448 14449 14450 14451 14452 14453 14454 14455 14456 14457 14458 14459 14460 14461 14462 14463 14464 14465 14466 14467 14468 14469 14470 14471 14472 14473 14474 14475 14476 14477 14478 14479 14480 14481 14482 14483 14484 14485 14486 14487 14488 14489 14490 14491 14492 14493 14494 14495 14496 14497 14498 14499 14500 14501 14502 14503 14504 14505 14506 14507 14508 14509 14510 14511 14512 14513 14514 14515 14516 14517 14518 14519 14520 14521 14522 14523 14524 14525 14526 14527 14528 14529 14530 14531 14532 14533 14534 14535 14536 14537 14538 14539 14540 14541 14542 14543 14544 14545 14546 14547 14548 14549 14550 14551 14552 14553 14554 14555 14556 14557 14558 14559 14560 14561 14562 14563 14564 14565 14566 14567 14568 14569 14570 14571 14572 14573 14574 14575 14576 14577 14578 14579 14580 14581 14582 14583 14584 14585 14586 14587 14588 14589 14590 14591 14592 14593 14594 14595 14596 14597 14598 14599 14600 14601 14602 14603 14604 14605 14606 14607 14608 14609 14610 14611 14612 14613 14614 14615 14616 14617 14618 14619 14620 14621 14622 14623 14624 14625 14626 14627 14628 14629 14630 14631 14632 14633 14634 14635 14636 14637 14638 14639 14640 14641 14642 14643 14644 14645 14646 14647 14648 14649 14650 14651 14652 14653 14654 14655 14656 14657 14658 14659 14660 14661 14662 14663 14664 14665 14666 14667 14668 14669 14670 14671 14672 14673 14674 14675 14676 14677 14678 14679 14680 14681 14682 14683 14684 14685 14686 14687 14688 14689 14690 14691 14692 14693 14694 14695 14696 14697 14698 14699 14700 14701 14702 14703 14704 14705 14706 14707 14708 14709 14710 14711 14712 14713 14714 14715 14716 14717 14718 14719 14720 14721 14722 14723 14724 14725 14726 14727 14728 14729 14730 14731 14732 14733 14734 14735 14736 14737 14738 14739 14740 14741 14742 14743 14744 14745 14746 14747 14748 14749 14750 14751 14752 14753 14754 14755 14756 14757 14758 14759 14760 14761 14762 14763 14764 14765 14766 14767 14768 14769 14770 14771 14772 14773 14774 14775 14776 14777 14778 14779 14780 14781 14782 14783 14784 14785 14786 14787 14788 14789 14790 14791 14792 14793 14794 14795 14796 14797 14798 14799 14800 14801 14802 14803 14804 14805 14806 14807 14808 14809 14810 14811 14812 14813 14814 14815 14816 14817 14818 14819 14820 14821 14822 14823 14824 14825 14826 14827 14828 14829 14830 14831 14832 14833 14834 14835 14836 14837 14838 14839 14840 14841 14842 14843 14844 14845 14846 14847 14848 14849 14850 14851 14852 14853 14854 14855 14856 14857 14858 14859 14860 14861 14862 14863 14864 14865 14866 14867 14868 14869 14870 14871 14872 14873 14874 14875 14876 14877 14878 14879 14880 14881 14882 14883 14884 14885 14886 14887 14888 14889 14890 14891 14892 14893 14894 14895 14896 14897 14898 14899 14900 14901 14902 14903 14904 14905 14906 14907 14908 14909 14910 14911 14912 14913 14914 14915 14916 14917 14918 14919 14920 14921 14922 14923 14924 14925 14926 14927 14928 14929 14930 14931 14932 14933 14934 14935 14936 14937 14938 14939 14940 14941 14942 14943 14944 14945 14946 14947 14948 14949 14950 14951 14952 14953 14954 14955 14956 14957 14958 14959 14960 14961 14962 14963 14964 14965 14966 14967 14968 14969 14970 14971 14972 14973 14974 14975 14976 14977 14978 14979 14980 14981 14982 14983 14984 14985 14986 14987 14988 14989 14990 14991 14992 14993 14994 14995 14996 14997 14998 14999 15000 15001 15002 15003 15004 15005 15006 15007 15008 15009 15010 15011 15012 15013 15014 15015 15016 15017 15018 15019 15020 15021 15022 15023 15024 15025 15026 15027 15028 15029 15030 15031 15032 15033 15034 15035 15036 15037 15038 15039 15040 15041 15042 15043 15044 15045 15046 15047 15048 15049 15050 15051 15052 15053 15054 15055 15056 15057 15058 15059 15060 15061 15062 15063 15064 15065 15066 15067 15068 15069 15070 15071 15072 15073 15074 15075 15076 15077 15078 15079 15080 15081 15082 15083 15084 15085 15086 15087 15088 15089 15090 15091 15092 15093 15094 15095 15096 15097 15098 15099 15100 15101 15102 15103 15104 15105 15106 15107 15108 15109 15110 15111 15112 15113 15114 15115 15116 15117 15118 15119 15120 15121 15122 15123 15124 15125 15126 15127 15128 15129 15130 15131 15132 15133 15134 15135 15136 15137 15138 15139 15140 15141 15142 15143 15144 15145 15146 15147 15148 15149 15150 15151 15152 15153 15154 15155 15156 15157 15158 15159 15160 15161 15162 15163 15164 15165 15166 15167 15168 15169 15170 15171 15172 15173 15174 15175 15176 15177 15178 15179 15180 15181 15182 15183 15184 15185 15186 15187 15188 15189 15190 15191 15192 15193 15194 15195 15196 15197 15198 15199 15200 15201 15202 15203 15204 15205 15206 15207 15208 15209 15210 15211 15212 15213 15214 15215 15216 15217 15218 15219 15220 15221 15222 15223 15224 15225 15226 15227 15228 15229 15230 15231 15232 15233 15234 15235 15236 15237 15238 15239 15240 15241 15242 15243 15244 15245 15246 15247 15248 15249 15250 15251 15252 15253 15254 15255 15256 15257 15258 15259 15260 15261 15262 15263 15264 15265 15266 15267 15268 15269 15270 15271 15272 15273 15274 15275 15276 15277 15278 15279 15280 15281 15282 15283 15284 15285 15286 15287 15288 15289 15290 15291 15292 15293 15294 15295 15296 15297 15298 15299 15300 15301 15302 15303 15304 15305 15306 15307 15308 15309 15310 15311 15312 15313 15314 15315 15316 15317 15318 15319 15320 15321 15322 15323 15324 15325 15326 15327 15328 15329 15330 15331 15332 15333 15334 15335 15336 15337 15338 15339 15340 15341 15342 15343 15344 15345 15346 15347 15348 15349 15350 15351 15352 15353 15354 15355 15356 15357 15358 15359 15360 15361 15362 15363 15364 15365 15366 15367 15368 15369 15370 15371 15372 15373 15374 15375 15376 15377 15378 15379 15380 15381 15382 15383 15384 15385 15386 15387 15388 15389 15390 15391 15392 15393 15394 15395 15396 15397 15398 15399 15400 15401 15402 15403 15404 15405 15406 15407 15408 15409 15410 15411 15412 15413 15414 15415 15416 15417 15418 15419 15420 15421 15422 15423 15424 15425 15426 15427 15428 15429 15430 15431 15432 15433 15434 15435 15436 15437 15438 15439 15440 15441 15442 15443 15444 15445 15446 15447 15448 15449 15450 15451 15452 15453 15454 15455 15456 15457 15458 15459 15460 15461 15462 15463 15464 15465 15466 15467 15468 15469 15470 15471 15472 15473 15474 15475 15476 15477 15478 15479 15480 15481 15482 15483 15484 15485 15486 15487 15488 15489 15490 15491 15492 15493 15494 15495 15496 15497 15498 15499 15500 15501 15502 15503 15504 15505 15506 15507 15508 15509 15510 15511 15512 15513 15514 15515 15516 15517 15518 15519 15520 15521 15522 15523 15524 15525 15526 15527 15528 15529 15530 15531 15532 15533 15534 15535 15536 15537 15538 15539 15540 15541 15542 15543 15544 15545 15546 15547 15548 15549 15550 15551 15552 15553 15554 15555 15556 15557 15558 15559 15560 15561 15562 15563 15564 15565 15566 15567 15568 15569 15570 15571 15572 15573 15574 15575 15576 15577 15578 15579 15580 15581 15582 15583 15584 15585 15586 15587 15588 15589 15590 15591 15592 15593 15594 15595 15596 15597 15598 15599 15600 15601 15602 15603 15604 15605 15606 15607 15608 15609 15610 15611 15612 15613 15614 15615 15616 15617 15618 15619 15620 15621 15622 15623 15624 15625 15626 15627 15628 15629 15630 15631 15632 15633 15634 15635 15636 15637 15638 15639 15640 15641 15642 15643 15644 15645 15646 15647 15648 15649 15650 15651 15652 15653 15654 15655 15656 15657 15658 15659 15660 15661 15662 15663 15664 15665 15666 15667 15668 15669 15670 15671 15672 15673 15674 15675 15676 15677 15678 15679 15680 15681 15682 15683 15684 15685 15686 15687 15688 15689 15690 15691 15692 15693 15694 15695 15696 15697 15698 15699 15700 15701 15702 15703 15704 15705 15706 15707 15708 15709 15710 15711 15712 15713 15714 15715 15716 15717 15718 15719 15720 15721 15722 15723 15724 15725 15726 15727 15728 15729 15730 15731 15732 15733 15734 15735 15736 15737 15738 15739 15740 15741 15742 15743 15744 15745 15746 15747 15748 15749 15750 15751 15752 15753 15754 15755 15756 15757 15758 15759 15760 15761 15762 15763 15764 15765 15766 15767 15768 15769 15770 15771 15772 15773 15774 15775 15776 15777 15778 15779 15780 15781 15782 15783 15784 15785 15786 15787 15788 15789 15790 15791 15792 15793 15794 15795 15796 15797 15798 15799 15800 15801 15802 15803 15804 15805 15806 15807 15808 15809 15810 15811 15812 15813 15814 15815 15816 15817 15818 15819 15820 15821 15822 15823 15824 15825 15826 15827 15828 15829 15830 15831 15832 15833 15834 15835 15836 15837 15838 15839 15840 15841 15842 15843 15844 15845 15846 15847 15848 15849 15850 15851 15852 15853 15854 15855 15856 15857 15858 15859 15860 15861 15862 15863 15864 15865 15866 15867 15868 15869 15870 15871 15872 15873 15874 15875 15876 15877 15878 15879 15880 15881 15882 15883 15884 15885 15886 15887 15888 15889 15890 15891 15892 15893 15894 15895 15896 15897 15898 15899 15900 15901 15902 15903 15904 15905 15906 15907 15908 15909 15910 15911 15912 15913 15914 15915 15916 15917 15918 15919 15920 15921 15922 15923 15924 15925 15926 15927 15928 15929 15930 15931 15932 15933 15934 15935 15936 15937 15938 15939 15940 15941 15942 15943 15944 15945 15946 15947 15948 15949 15950 15951 15952 15953 15954 15955 15956 15957 15958 15959 15960 15961 15962 15963 15964 15965 15966 15967 15968 15969 15970 15971 15972 15973 15974 15975 15976 15977 15978 15979 15980 15981 15982 15983 15984 15985 15986 15987 15988 15989 15990 15991 15992 15993 15994 15995 15996 15997 15998 15999 16000 16001 16002 16003 16004 16005 16006 16007 16008 16009 16010 16011 16012 16013 16014 16015 16016 16017 16018 16019 16020 16021 16022 16023 16024 16025 16026 16027 16028 16029 16030 16031 16032 16033 16034 16035 16036 16037 16038 16039 16040 16041 16042 16043 16044 16045 16046 16047 16048 16049 16050 16051 16052 16053 16054 16055 16056 16057 16058 16059 16060 16061 16062 16063 16064 16065 16066 16067 16068 16069 16070 16071 16072 16073 16074 16075 16076 16077 16078 16079 16080 16081 16082 16083 16084 16085 16086 16087 16088 16089 16090 16091 16092 16093 16094 16095 16096 16097 16098 16099 16100 16101 16102 16103 16104 16105 16106 16107 16108 16109 16110 16111 16112 16113 16114 16115 16116 16117 16118 16119 16120 16121 16122 16123 16124 16125 16126 16127 16128 16129 16130 16131 16132 16133 16134 16135 16136 16137 16138 16139 16140 16141 16142 16143 16144 16145 16146 16147 16148 16149 16150 16151 16152 16153 16154 16155 16156 16157 16158 16159 16160 16161 16162 16163 16164 16165 16166 16167 16168 16169 16170 16171 16172 16173 16174 16175 16176 16177 16178 16179 16180 16181 16182 16183 16184 16185 16186 16187 16188 16189 16190 16191 16192 16193 16194 16195 16196 16197 16198 16199 16200 16201 16202 16203 16204 16205 16206 16207 16208 16209 16210 16211 16212 16213 16214 16215 16216 16217 16218 16219 16220 16221 16222 16223 16224 16225 16226 16227 16228 16229 16230 16231 16232 16233 16234 16235 16236 16237 16238 16239 16240 16241 16242 16243 16244 16245 16246 16247 16248 16249 16250 16251 16252 16253 16254 16255 16256 16257 16258 16259 16260 16261 16262 16263 16264 16265 16266 16267 16268 16269 16270 16271 16272 16273 16274 16275 16276 16277 16278 16279 16280 16281 16282 16283 16284 16285 16286 16287 16288 16289 16290 16291 16292 16293 16294 16295 16296 16297 16298 16299 16300 16301 16302 16303 16304 16305 16306 16307 16308 16309 16310 16311 16312 16313 16314 16315 16316 16317 16318 16319 16320 16321 16322 16323 16324 16325 16326 16327 16328 16329 16330 16331 16332 16333 16334 16335 16336 16337 16338 16339 16340 16341 16342 16343 16344 16345 16346 16347 16348 16349 16350 16351 16352 16353 16354 16355 16356 16357 16358 16359 16360 16361 16362 16363 16364 16365 16366 16367 16368 16369 16370 16371 16372 16373 16374 16375 16376 16377 16378 16379 16380 16381 16382 16383 16384 16385 16386 16387 16388 16389 16390 16391 16392 16393 16394 16395 16396 16397 16398 16399 16400 16401 16402 16403 16404 16405 16406 16407 16408 16409 16410 16411 16412 16413 16414 16415 16416 16417 16418 16419 16420 16421 16422 16423 16424 16425 16426 16427 16428 16429 16430 16431 16432 16433 16434 16435 16436 16437 16438 16439 16440 16441 16442 16443 16444 16445 16446 16447 16448 16449 16450 16451 16452 16453 16454 16455 16456 16457 16458 16459 16460 16461 16462 16463 16464 16465 16466 16467 16468 16469 16470 16471 16472 16473 16474 16475 16476 16477 16478 16479 16480 16481 16482 16483 16484 16485 16486 16487 16488 16489 16490 16491 16492 16493 16494 16495 16496 16497 16498 16499 16500 16501 16502 16503 16504 16505 16506 16507 16508 16509 16510 16511 16512 16513 16514 16515 16516 16517 16518 16519 16520 16521 16522 16523 16524 16525 16526 16527 16528 16529 16530 16531 16532 16533 16534 16535 16536 16537 16538 16539 16540 16541 16542 16543 16544 16545 16546 16547 16548 16549 16550 16551 16552 16553 16554 16555 16556 16557 16558 16559 16560 16561 16562 16563 16564 16565 16566 16567 16568 16569 16570 16571 16572 16573 16574 16575 16576 16577 16578 16579 16580 16581 16582 16583 16584 16585 16586 16587 16588 16589 16590 16591 16592 16593 16594 16595 16596 16597 16598 16599 16600 16601 16602 16603 16604 16605 16606 16607 16608 16609 16610 16611 16612 16613 16614 16615 16616 16617 16618 16619 16620 16621 16622 16623 16624 16625 16626 16627 16628 16629 16630 16631 16632 16633 16634 16635 16636 16637 16638 16639 16640 16641 16642 16643 16644 16645 16646 16647 16648 16649 16650 16651 16652 16653 16654 16655 16656 16657 16658 16659 16660 16661 16662 16663 16664 16665 16666 16667 16668 16669 16670 16671 16672 16673 16674 16675 16676 16677 16678 16679 16680 16681 16682 16683 16684 16685 16686 16687 16688 16689 16690 16691 16692 16693 16694 16695 16696 16697 16698 16699 16700 16701 16702 16703 16704 16705 16706 16707 16708 16709 16710 16711 16712 16713 16714 16715 16716 16717 16718 16719 16720 16721 16722 16723 16724 16725 16726 16727 16728 16729 16730 16731 16732 16733 16734 16735 16736 16737 16738 16739 16740 16741 16742 16743 16744 16745 16746 16747 16748 16749 16750 16751 16752 16753 16754 16755 16756 16757 16758 16759 16760 16761 16762 16763 16764 16765 16766 16767 16768 16769 16770 16771 16772 16773 16774 16775 16776 16777 16778 16779 16780 16781 16782 16783 16784 16785 16786 16787 16788 16789 16790 16791 16792 16793 16794 16795 16796 16797 16798 16799 16800 16801 16802 16803 16804 16805 16806 16807 16808 16809 16810 16811 16812 16813 16814 16815 16816 16817 16818 16819 16820 16821 16822 16823 16824 16825 16826 16827 16828 16829 16830 16831 16832 16833 16834 16835 16836 16837 16838 16839 16840 16841 16842 16843 16844 16845 16846 16847 16848 16849 16850 16851 16852 16853 16854 16855 16856 16857 16858 16859 16860 16861 16862 16863 16864 16865 16866 16867 16868 16869 16870 16871 16872 16873 16874 16875 16876 16877 16878 16879 16880 16881 16882 16883 16884 16885 16886 16887 16888 16889 16890 16891 16892 16893 16894 16895 16896 16897 16898 16899 16900 16901 16902 16903 16904 16905 16906 16907 16908 16909 16910 16911 16912 16913 16914 16915 16916 16917 16918 16919 16920 16921 16922 16923 16924 16925 16926 16927 16928 16929 16930 16931 16932 16933 16934 16935 16936 16937 16938 16939 16940 16941 16942 16943 16944 16945 16946 16947 16948 16949 16950 16951 16952 16953 16954 16955 16956 16957 16958 16959 16960 16961 16962 16963 16964 16965 16966 16967 16968 16969 16970 16971 16972 16973 16974 16975 16976 16977 16978 16979 16980 16981 16982 16983 16984 16985 16986 16987 16988 16989 16990 16991 16992 16993 16994 16995 16996 16997 16998 16999 17000 17001 17002 17003 17004 17005 17006 17007 17008 17009 17010 17011 17012 17013 17014 17015 17016 17017 17018 17019 17020 17021 17022 17023 17024 17025 17026 17027 17028 17029 17030 17031 17032 17033 17034 17035 17036 17037 17038 17039 17040 17041 17042 17043 17044 17045 17046 17047 17048 17049 17050 17051 17052 17053 17054 17055 17056 17057 17058 17059 17060 17061 17062 17063 17064 17065 17066 17067 17068 17069 17070 17071 17072 17073 17074 17075 17076 17077 17078 17079 17080 17081 17082 17083 17084 17085 17086 17087 17088 17089 17090 17091 17092 17093 17094 17095 17096 17097 17098 17099 17100 17101 17102 17103 17104 17105 17106 17107 17108 17109 17110 17111 17112 17113 17114 17115 17116 17117 17118 17119 17120 17121 17122 17123 17124 17125 17126 17127 17128 17129 17130 17131 17132 17133 17134 17135 17136 17137 17138 17139 17140 17141 17142 17143 17144 17145 17146 17147 17148 17149 17150 17151 17152 17153 17154 17155 17156 17157 17158 17159 17160 17161 17162 17163 17164 17165 17166 17167 17168 17169 17170 17171 17172 17173 17174 17175 17176 17177 17178 17179 17180 17181 17182 17183 17184 17185 17186 17187 17188 17189 17190 17191 17192 17193 17194 17195 17196 17197 17198 17199 17200 17201 17202 17203 17204 17205 17206 17207 17208 17209 17210 17211 17212 17213 17214 17215 17216 17217 17218 17219 17220 17221 17222 17223 17224 17225 17226 17227 17228 17229 17230 17231 17232 17233 17234 17235 17236 17237 17238 17239 17240 17241 17242 17243 17244 17245 17246 17247 17248 17249 17250 17251 17252 17253 17254 17255 17256 17257 17258 17259 17260 17261 17262 17263 17264 17265 17266 17267 17268 17269 17270 17271 17272 17273 17274 17275 17276 17277 17278 17279 17280 17281 17282 17283 17284 17285 17286 17287 17288 17289 17290 17291 17292 17293 17294 17295 17296 17297 17298 17299 17300 17301 17302 17303 17304 17305 17306 17307 17308 17309 17310 17311 17312 17313 17314 17315 17316 17317 17318 17319 17320 17321 17322 17323 17324 17325 17326 17327 17328 17329 17330 17331 17332 17333 17334 17335 17336 17337 17338 17339 17340 17341 17342 17343 17344 17345 17346 17347 17348 17349 17350 17351 17352 17353 17354 17355 17356 17357 17358 17359 17360 17361 17362 17363 17364 17365 17366 17367 17368 17369 17370 17371 17372 17373 17374 17375 17376 17377 17378 17379 17380 17381 17382 17383 17384 17385 17386 17387 17388 17389 17390 17391 17392 17393 17394 17395 17396 17397 17398 17399 17400 17401 17402 17403 17404 17405 17406 17407 17408 17409 17410 17411 17412 17413 17414 17415 17416 17417 17418 17419 17420 17421 17422 17423 17424 17425 17426 17427 17428 17429 17430 17431 17432 17433 17434 17435 17436 17437 17438 17439 17440 17441 17442 17443 17444 17445 17446 17447 17448 17449 17450 17451 17452 17453 17454 17455 17456 17457 17458 17459 17460 17461 17462 17463 17464 17465 17466 17467 17468 17469 17470 17471 17472 17473 17474 17475 17476 17477 17478 17479 17480 17481 17482 17483 17484 17485 17486 17487 17488 17489 17490 17491 17492 17493 17494 17495 17496 17497 17498 17499 17500 17501 17502 17503 17504 17505 17506 17507 17508 17509 17510 17511 17512 17513 17514 17515 17516 17517 17518 17519 17520 17521 17522 17523 17524 17525 17526 17527 17528 17529 17530 17531 17532 17533 17534 17535 17536 17537 17538 17539 17540 17541 17542 17543 17544 17545 17546 17547 17548 17549 17550 17551 17552 17553 17554 17555 17556 17557 17558 17559 17560 17561 17562 17563 17564 17565 17566 17567 17568 17569 17570 17571 17572 17573 17574 17575 17576 17577 17578 17579 17580 17581 17582 17583 17584 17585 17586 17587 17588 17589 17590 17591 17592 17593 17594 17595 17596 17597 17598 17599 17600 17601 17602 17603 17604 17605 17606 17607 17608 17609 17610 17611 17612 17613 17614 17615 17616 17617 17618 17619 17620 17621 17622 17623 17624 17625 17626 17627 17628 17629 17630 17631 17632 17633 17634 17635 17636 17637 17638 17639 17640 17641 17642 17643 17644 17645 17646 17647 17648 17649 17650 17651 17652 17653 17654 17655 17656 17657 17658 17659 17660 17661 17662 17663 17664 17665 17666 17667 17668 17669 17670 17671 17672 17673 17674 17675 17676 17677 17678 17679 17680 17681 17682 17683 17684 17685 17686 17687 17688 17689 17690 17691 17692 17693 17694 17695 17696 17697 17698 17699 17700 17701 17702 17703 17704 17705 17706 17707 17708 17709 17710 17711 17712 17713 17714 17715 17716 17717 17718 17719 17720 17721 17722 17723 17724 17725 17726 17727 17728 17729 17730 17731 17732 17733 17734 17735 17736 17737 17738 17739 17740 17741 17742 17743 17744 17745 17746 17747 17748 17749 17750 17751 17752 17753 17754 17755 17756 17757 17758 17759 17760 17761 17762 17763 17764 17765 17766 17767 17768 17769 17770 17771 17772 17773 17774 17775 17776 17777 17778 17779 17780 17781 17782 17783 17784 17785 17786 17787 17788 17789 17790 17791 17792 17793 17794 17795 17796 17797 17798 17799 17800 17801 17802 17803 17804 17805 17806 17807 17808 17809 17810 17811 17812 17813 17814 17815 17816 17817 17818 17819 17820 17821 17822 17823 17824 17825 17826 17827 17828 17829 17830 17831 17832 17833 17834 17835 17836 17837 17838 17839 17840 17841 17842 17843 17844 17845 17846 17847 17848 17849 17850 17851 17852 17853 17854 17855 17856 17857 17858 17859 17860 17861 17862 17863 17864 17865 17866 17867 17868 17869 17870 17871 17872 17873 17874 17875 17876 17877 17878 17879 17880 17881 17882 17883 17884 17885 17886 17887 17888 17889 17890 17891 17892 17893 17894 17895 17896 17897 17898 17899 17900 17901 17902 17903 17904 17905 17906 17907 17908 17909 17910 17911 17912 17913 17914 17915 17916 17917 17918 17919 17920 17921 17922 17923 17924 17925 17926 17927 17928 17929 17930 17931 17932 17933 17934 17935 17936 17937 17938 17939 17940 17941 17942 17943 17944 17945 17946 17947 17948 17949 17950 17951 17952 17953 17954 17955 17956 17957 17958 17959 17960 17961 17962 17963 17964 17965 17966 17967 17968 17969 17970 17971 17972 17973 17974 17975 17976 17977 17978 17979 17980 17981 17982 17983 17984 17985 17986 17987 17988 17989 17990 17991 17992 17993 17994 17995 17996 17997 17998 17999 18000 18001 18002 18003 18004 18005 18006 18007 18008 18009 18010 18011 18012 18013 18014 18015 18016 18017 18018 18019 18020 18021 18022 18023 18024 18025 18026 18027 18028 18029 18030 18031 18032 18033 18034 18035 18036 18037 18038 18039 18040 18041 18042 18043 18044 18045 18046 18047 18048 18049 18050 18051 18052 18053 18054 18055 18056 18057 18058 18059 18060 18061 18062 18063 18064 18065 18066 18067 18068 18069 18070 18071 18072 18073 18074 18075 18076 18077 18078 18079 18080 18081 18082 18083 18084 18085 18086 18087 18088 18089 18090 18091 18092 18093 18094 18095 18096 18097 18098 18099 18100 18101 18102 18103 18104 18105 18106 18107 18108 18109 18110 18111 18112 18113 18114 18115 18116 18117 18118 18119 18120 18121 18122 18123 18124 18125 18126 18127 18128 18129 18130 18131 18132 18133 18134 18135 18136 18137 18138 18139 18140 18141 18142 18143 18144 18145 18146 18147 18148 18149 18150 18151 18152 18153 18154 18155 18156 18157 18158 18159 18160 18161 18162 18163 18164 18165 18166 18167 18168 18169 18170 18171 18172 18173 18174 18175 18176 18177 18178 18179 18180 18181 18182 18183 18184 18185 18186 18187 18188 18189 18190 18191 18192 18193 18194 18195 18196 18197 18198 18199 18200 18201 18202 18203 18204 18205 18206 18207 18208 18209 18210 18211 18212 18213 18214 18215 18216 18217 18218 18219 18220 18221 18222 18223 18224 18225 18226 18227 18228 18229 18230 18231 18232 18233 18234 18235 18236 18237 18238 18239 18240 18241 18242 18243 18244 18245 18246 18247 18248 18249 18250 18251 18252 18253 18254 18255 18256 18257 18258 18259 18260 18261 18262 18263 18264 18265 18266 18267 18268 18269 18270 18271 18272 18273 18274 18275 18276 18277 18278 18279 18280 18281 18282 18283 18284 18285 18286 18287 18288 18289 18290 18291 18292 18293 18294 18295 18296 18297 18298 18299 18300 18301 18302 18303 18304 18305 18306 18307 18308 18309 18310 18311 18312 18313 18314 18315 18316 18317 18318 18319 18320 18321 18322 18323 18324 18325 18326 18327 18328 18329 18330 18331 18332 18333 18334 18335 18336 18337 18338 18339 18340 18341 18342 18343 18344 18345 18346 18347 18348 18349 18350 18351 18352 18353 18354 18355 18356 18357 18358 18359 18360 18361 18362 18363 18364 18365 18366 18367 18368 18369 18370 18371 18372 18373 18374 18375 18376 18377 18378 18379 18380 18381 18382 18383 18384 18385 18386 18387 18388 18389 18390 18391 18392 18393 18394 18395 18396 18397 18398 18399 18400 18401 18402 18403 18404 18405 18406 18407 18408 18409 18410 18411 18412 18413 18414 18415 18416 18417 18418 18419 18420 18421 18422 18423 18424 18425 18426 18427 18428 18429 18430 18431 18432 18433 18434 18435 18436 18437 18438 18439 18440 18441 18442 18443 18444 18445 18446 18447 18448 18449 18450 18451 18452 18453 18454 18455 18456 18457 18458 18459 18460 18461 18462 18463 18464 18465 18466 18467 18468 18469 18470 18471 18472 18473 18474 18475 18476 18477 18478 18479 18480 18481 18482 18483 18484 18485 18486 18487 18488 18489 18490 18491 18492 18493 18494 18495 18496 18497 18498 18499 18500 18501 18502 18503 18504 18505 18506 18507 18508 18509 18510 18511 18512 18513 18514 18515 18516 18517 18518 18519 18520 18521 18522 18523 18524 18525 18526 18527 18528 18529 18530 18531 18532 18533 18534 18535 18536 18537 18538 18539 18540 18541 18542 18543 18544 18545 18546 18547 18548 18549 18550 18551 18552 18553 18554 18555 18556 18557 18558 18559 18560 18561 18562 18563 18564 18565 18566 18567 18568 18569 18570 18571 18572 18573 18574 18575 18576 18577 18578 18579 18580 18581 18582 18583 18584 18585 18586 18587 18588 18589 18590 18591 18592 18593 18594 18595 18596 18597 18598 18599 18600 18601 18602 18603 18604 18605 18606 18607 18608 18609 18610 18611 18612 18613 18614 18615 18616 18617 18618 18619 18620 18621 18622 18623 18624 18625 18626 18627 18628 18629 18630 18631 18632 18633 18634 18635 18636 18637 18638 18639 18640 18641 18642 18643 18644 18645 18646 18647 18648 18649 18650 18651 18652 18653 18654 18655 18656 18657 18658 18659 18660 18661 18662 18663 18664 18665 18666 18667 18668 18669 18670 18671 18672 18673 18674 18675 18676 18677 18678 18679 18680 18681 18682 18683 18684 18685 18686 18687 18688 18689 18690 18691 18692 18693 18694 18695 18696 18697 18698 18699 18700 18701 18702 18703 18704 18705 18706 18707 18708 18709 18710 18711 18712 18713 18714 18715 18716 18717 18718 18719 18720 18721 18722 18723 18724 18725 18726 18727 18728 18729 18730 18731 18732 18733 18734 18735 18736 18737 18738 18739 18740 18741 18742 18743 18744 18745 18746 18747 18748 18749 18750 18751 18752 18753 18754 18755 18756 18757 18758 18759 18760 18761 18762 18763 18764 18765 18766 18767 18768 18769 18770 18771 18772 18773 18774 18775 18776 18777 18778 18779 18780 18781 18782 18783 18784 18785 18786 18787 18788 18789 18790 18791 18792 18793 18794 18795 18796 18797 18798 18799 18800 18801 18802 18803 18804 18805 18806 18807 18808 18809 18810 18811 18812 18813 18814 18815 18816 18817 18818 18819 18820 18821 18822 18823 18824 18825 18826 18827 18828 18829 18830 18831 18832 18833 18834 18835 18836 18837 18838 18839 18840 18841 18842 18843 18844 18845 18846 18847 18848 18849 18850 18851 18852 18853 18854 18855 18856 18857 18858 18859 18860 18861 18862 18863 18864 18865 18866 18867 18868 18869 18870 18871 18872 18873 18874 18875 18876 18877 18878 18879 18880 18881 18882 18883 18884 18885 18886 18887 18888 18889 18890 18891 18892 18893 18894 18895 18896 18897 18898 18899 18900 18901 18902 18903 18904 18905 18906 18907 18908 18909 18910 18911 18912 18913 18914 18915 18916 18917 18918 18919 18920 18921 18922 18923 18924 18925 18926 18927 18928 18929 18930 18931 18932 18933 18934 18935 18936 18937 18938 18939 18940 18941 18942 18943 18944 18945 18946 18947 18948 18949 18950 18951 18952 18953 18954 18955 18956 18957 18958 18959 18960 18961 18962 18963 18964 18965 18966 18967 18968 18969 18970 18971 18972 18973 18974 18975 18976 18977 18978 18979 18980 18981 18982 18983 18984 18985 18986 18987 18988 18989 18990 18991 18992 18993 18994 18995 18996 18997 18998 18999 19000 19001 19002 19003 19004 19005 19006 19007 19008 19009 19010 19011 19012 19013 19014 19015 19016 19017 19018 19019 19020 19021 19022 19023 19024 19025 19026 19027 19028 19029 19030 19031 19032 19033 19034 19035 19036 19037 19038 19039 19040 19041 19042 19043 19044 19045 19046 19047 19048 19049 19050 19051 19052 19053 19054 19055 19056 19057 19058 19059 19060 19061 19062 19063 19064 19065 19066 19067 19068 19069 19070 19071 19072 19073 19074 19075 19076 19077 19078 19079 19080 19081 19082 19083 19084 19085 19086 19087 19088 19089 19090 19091 19092 19093 19094 19095 19096 19097 19098 19099 19100 19101 19102 19103 19104 19105 19106 19107 19108 19109 19110 19111 19112 19113 19114 19115 19116 19117 19118 19119 19120 19121 19122 19123 19124 19125 19126 19127 19128 19129 19130 19131 19132 19133 19134 19135 19136 19137 19138 19139 19140 19141 19142 19143 19144 19145 19146 19147 19148 19149 19150 19151 19152 19153 19154 19155 19156 19157 19158 19159 19160 19161 19162 19163 19164 19165 19166 19167 19168 19169 19170 19171 19172 19173 19174 19175 19176 19177 19178 19179 19180 19181 19182 19183 19184 19185 19186 19187 19188 19189 19190 19191 19192 19193 19194 19195 19196 19197 19198 19199 19200 19201 19202 19203 19204 19205 19206 19207 19208 19209 19210 19211 19212 19213 19214 19215 19216 19217 19218 19219 19220 19221 19222 19223 19224 19225 19226 19227 19228 19229 19230 19231 19232 19233 19234 19235 19236 19237 19238 19239 19240 19241 19242 19243 19244 19245 19246 19247 19248 19249 19250 19251 19252 19253 19254 19255 19256 19257 19258 19259 19260 19261 19262 19263 19264 19265 19266 19267 19268 19269 19270 19271 19272 19273 19274 19275 19276 19277 19278 19279 19280 19281 19282 19283 19284 19285 19286 19287 19288 19289 19290 19291 19292 19293 19294 19295 19296 19297 19298 19299 19300 19301 19302 19303 19304 19305 19306 19307 19308 19309 19310 19311 19312 19313 19314 19315 19316 19317 19318 19319 19320 19321 19322 19323 19324 19325 19326 19327 19328 19329 19330 19331 19332 19333 19334 19335 19336 19337 19338 19339 19340 19341 19342 19343 19344 19345 19346 19347 19348 19349 19350 19351 19352 19353 19354 19355 19356 19357 19358 19359 19360 19361 19362 19363 19364 19365 19366 19367 19368 19369 19370 19371 19372 19373 19374 19375 19376 19377 19378 19379 19380 19381 19382 19383 19384 19385 19386 19387 19388 19389 19390 19391 19392 19393 19394 19395 19396 19397 19398 19399 19400 19401 19402 19403 19404 19405 19406 19407 19408 19409 19410 19411 19412 19413 19414 19415 19416 19417 19418 19419 19420 19421 19422 19423 19424 19425 19426 19427 19428 19429 19430 19431 19432 19433 19434 19435 19436 19437 19438 19439 19440 19441 19442 19443 19444 19445 19446 19447 19448 19449 19450 19451 19452 19453 19454 19455 19456 19457 19458 19459 19460 19461 19462 19463 19464 19465 19466 19467 19468 19469 19470 19471 19472 19473 19474 19475 19476 19477 19478 19479 19480 19481 19482 19483 19484 19485 19486 19487 19488 19489 19490 19491 19492 19493 19494 19495 19496 19497 19498 19499 19500 19501 19502 19503 19504 19505 19506 19507 19508 19509 19510 19511 19512 19513 19514 19515 19516 19517 19518 19519 19520 19521 19522 19523 19524 19525 19526 19527 19528 19529 19530 19531 19532 19533 19534 19535 19536 19537 19538 19539 19540 19541 19542 19543 19544 19545 19546 19547 19548 19549 19550 19551 19552 19553 19554 19555 19556 19557 19558 19559 19560 19561 19562 19563 19564 19565 19566 19567 19568 19569 19570 19571 19572 19573 19574 19575 19576 19577 19578 19579 19580 19581 19582 19583 19584 19585 19586 19587 19588 19589 19590 19591 19592 19593 19594 19595 19596 19597 19598 19599 19600 19601 19602 19603 19604 19605 19606 19607 19608 19609 19610 19611 19612 19613 19614 19615 19616 19617 19618 19619 19620 19621 19622 19623 19624 19625 19626 19627 19628 19629 19630 19631 19632 19633 19634 19635 19636 19637 19638 19639 19640 19641 19642 19643 19644 19645 19646 19647 19648 19649 19650 19651 19652 19653 19654 19655 19656 19657 19658 19659 19660 19661 19662 19663 19664 19665 19666 19667 19668 19669 19670 19671 19672 19673 19674 19675 19676 19677 19678 19679 19680 19681 19682 19683 19684 19685 19686 19687 19688 19689 19690 19691 19692 19693 19694 19695 19696 19697 19698 19699 19700 19701 19702 19703 19704 19705 19706 19707 19708 19709 19710 19711 19712 19713 19714 19715 19716 19717 19718 19719 19720 19721 19722 19723 19724 19725 19726 19727 19728 19729 19730 19731 19732 19733 19734 19735 19736 19737 19738 19739 19740 19741 19742 19743 19744 19745 19746 19747 19748 19749 19750 19751 19752 19753 19754 19755 19756 19757 19758 19759 19760 19761 19762 19763 19764 19765 19766 19767 19768 19769 19770 19771 19772 19773 19774 19775 19776 19777 19778 19779 19780 19781 19782 19783 19784 19785 19786 19787 19788 19789 19790 19791 19792 19793 19794 19795 19796 19797 19798 19799 19800 19801 19802 19803 19804 19805 19806 19807 19808 19809 19810 19811 19812 19813 19814 19815 19816 19817 19818 19819 19820 19821 19822 19823 19824 19825 19826 19827 19828 19829 19830 19831 19832 19833 19834 19835 19836 19837 19838 19839 19840 19841 19842 19843 19844 19845 19846 19847 19848 19849 19850 19851 19852 19853 19854 19855 19856 19857 19858 19859 19860 19861 19862 19863 19864 19865 19866 19867 19868 19869 19870 19871 19872 19873 19874 19875 19876 19877 19878 19879 19880 19881 19882 19883 19884 19885 19886 19887 19888 19889 19890 19891 19892 19893 19894 19895 19896 19897 19898 19899 19900 19901 19902 19903 19904 19905 19906 19907 19908 19909 19910 19911 19912 19913 19914 19915 19916 19917 19918 19919 19920 19921 19922 19923 19924 19925 19926 19927 19928 19929 19930 19931 19932 19933 19934 19935 19936 19937 19938 19939 19940 19941 19942 19943 19944 19945 19946 19947 19948 19949 19950 19951 19952 19953 19954 19955 19956 19957 19958 19959 19960 19961 19962 19963 19964 19965 19966 19967 19968 19969 19970 19971 19972 19973 19974 19975 19976 19977 19978 19979 19980 19981 19982 19983 19984 19985 19986 19987 19988 19989 19990 19991 19992 19993 19994 19995 19996 19997 19998 19999 20000 20001 20002 20003 20004 20005 20006 20007 20008 20009 20010 20011 20012 20013 20014 20015 20016 20017 20018 20019 20020 20021 20022 20023 20024 20025 20026 20027 20028 20029 20030 20031 20032 20033 20034 20035 20036 20037 20038 20039 20040 20041 20042 20043 20044 20045 20046 20047 20048 20049 20050 20051 20052 20053 20054 20055 20056 20057 20058 20059 20060 20061 20062 20063 20064 20065 20066 20067 20068 20069 20070 20071 20072 20073 20074 20075 20076 20077 20078 20079 20080 20081 20082 20083 20084 20085 20086 20087 20088 20089 20090 20091 20092 20093 20094 20095 20096 20097 20098 20099 20100 20101 20102 20103 20104 20105 20106 20107 20108 20109 20110 20111 20112 20113 20114 20115 20116 20117 20118 20119 20120 20121 20122 20123 20124 20125 20126 20127 20128 20129 20130 20131 20132 20133 20134 20135 20136 20137 20138 20139 20140 20141 20142 20143 20144 20145 20146 20147 20148 20149 20150 20151 20152 20153 20154 20155 20156 20157 20158 20159 20160 20161 20162 20163 20164 20165 20166 20167 20168 20169 20170 20171 20172 20173 20174 20175 20176 20177 20178 20179 20180 20181 20182 20183 20184 20185 20186 20187 20188 20189 20190 20191 20192 20193 20194 20195 20196 20197 20198 20199 20200 20201 20202 20203 20204 20205 20206 20207 20208 20209 20210 20211 20212 20213 20214 20215 20216 20217 20218 20219 20220 20221 20222 20223 20224 20225 20226 20227 20228 20229 20230 20231 20232 20233 20234 20235 20236 20237 20238 20239 20240 20241 20242 20243 20244 20245 20246 20247 20248 20249 20250 20251 20252 20253 20254 20255 20256 20257 20258 20259 20260 20261 20262 20263 20264 20265 20266 20267 20268 20269 20270 20271 20272 20273 20274 20275 20276 20277 20278 20279 20280 20281 20282 20283 20284 20285 20286 20287 20288 20289 20290 20291 20292 20293 20294 20295 20296 20297 20298 20299 20300 20301 20302 20303 20304 20305 20306 20307 20308 20309 20310 20311 20312 20313 20314 20315 20316 20317 20318 20319 20320 20321 20322 20323 20324 20325 20326 20327 20328 20329 20330 20331 20332 20333 20334 20335 20336 20337 20338 20339 20340 20341 20342 20343 20344 20345 20346 20347 20348 20349 20350 20351 20352 20353 20354 20355 20356 20357 20358 20359 20360 20361 20362 20363 20364 20365 20366 20367 20368 20369 20370 20371 20372 20373 20374 20375 20376 20377 20378 20379 20380 20381 20382 20383 20384 20385 20386 20387 20388 20389 20390 20391 20392 20393 20394 20395 20396 20397 20398 20399 20400 20401 20402 20403 20404 20405 20406 20407 20408 20409 20410 20411 20412 20413 20414 20415 20416 20417 20418 20419 20420 20421 20422 20423 20424 20425 20426 20427 20428 20429 20430 20431 20432 20433 20434 20435 20436 20437 20438 20439 20440 20441 20442 20443 20444 20445 20446 20447 20448 20449 20450 20451 20452 20453 20454 20455 20456 20457 20458 20459 20460 20461 20462 20463 20464 20465 20466 20467 20468 20469 20470 20471 20472 20473 20474 20475 20476 20477 20478 20479 20480 20481 20482 20483 20484 20485 20486 20487 20488 20489 20490 20491 20492 20493 20494 20495 20496 20497 20498 20499 20500 20501 20502 20503 20504 20505 20506 20507 20508 20509 20510 20511 20512 20513 20514 20515 20516 20517 20518 20519 20520 20521 20522 20523 20524 20525 20526 20527 20528 20529 20530 20531 20532 20533 20534 20535 20536 20537 20538 20539 20540 20541 20542 20543 20544 20545 20546 20547 20548 20549 20550 20551 20552 20553 20554 20555 20556 20557 20558 20559 20560 20561 20562 20563 20564 20565 20566 20567 20568 20569 20570 20571 20572 20573 20574 20575 20576 20577 20578 20579 20580 20581 20582 20583 20584 20585 20586 20587 20588 20589 20590 20591 20592 20593 20594 20595 20596 20597 20598 20599 20600 20601 20602 20603 20604 20605 20606 20607 20608 20609 20610 20611 20612 20613 20614 20615 20616 20617 20618 20619 20620 20621 20622 20623 20624 20625 20626 20627 20628 20629 20630 20631 20632 20633 20634 20635 20636 20637 20638 20639 20640 20641 20642 20643 20644 20645 20646 20647 20648 20649 20650 20651 20652 20653 20654 20655 20656 20657 20658 20659 20660 20661 20662 20663 20664 20665 20666 20667 20668 20669 20670 20671 20672 20673 20674 20675 20676 20677 20678 20679 20680 20681 20682 20683 20684 20685 20686 20687 20688 20689 20690 20691 20692 20693 20694 20695 20696 20697 20698 20699 20700 20701 20702 20703 20704 20705 20706 20707 20708 20709 20710 20711 20712 20713 20714 20715 20716 20717 20718 20719 20720 20721 20722 20723 20724 20725 20726 20727 20728 20729 20730 20731 20732 20733 20734 20735 20736 20737 20738 20739 20740 20741 20742 20743 20744 20745 20746 20747 20748 20749 20750 20751 20752 20753 20754 20755 20756 20757 20758 20759 20760 20761 20762 20763 20764 20765 20766 20767 20768 20769 20770 20771 20772 20773 20774 20775 20776 20777 20778 20779 20780 20781 20782 20783 20784 20785 20786 20787 20788 20789 20790 20791 20792 20793 20794 20795 20796 20797 20798 20799 20800 20801 20802 20803 20804 20805 20806 20807 20808 20809 20810 20811 20812 20813 20814 20815 20816 20817 20818 20819 20820 20821 20822 20823 20824 20825 20826 20827 20828 20829 20830 20831 20832 20833 20834 20835 20836 20837 20838 20839 20840 20841 20842 20843 20844 20845 20846 20847 20848 20849 20850 20851 20852 20853 20854 20855 20856 20857 20858 20859 20860 20861 20862 20863 20864 20865 20866 20867 20868 20869 20870 20871 20872 20873 20874 20875 20876 20877 20878 20879 20880 20881 20882 20883 20884 20885 20886 20887 20888 20889 20890 20891 20892 20893 20894 20895 20896 20897 20898 20899 20900 20901 20902 20903 20904 20905 20906 20907 20908 20909 20910 20911 20912 20913 20914 20915 20916 20917 20918 20919 20920 20921 20922 20923 20924 20925 20926 20927 20928 20929 20930 20931 20932 20933 20934 20935 20936 20937 20938 20939 20940 20941 20942 20943 20944 20945 20946 20947 20948 20949 20950 20951 20952 20953 20954 20955 20956 20957 20958 20959 20960 20961 20962 20963 20964 20965 20966 20967 20968 20969 20970 20971 20972 20973 20974 20975 20976 20977 20978 20979 20980 20981 20982 20983 20984 20985 20986 20987 20988 20989 20990 20991 20992 20993 20994 20995 20996 20997 20998 20999 21000 21001 21002 21003 21004 21005 21006 21007 21008 21009 21010 21011 21012 21013 21014 21015 21016 21017 21018 21019 21020 21021 21022 21023 21024 21025 21026 21027 21028 21029 21030 21031 21032 21033 21034 21035 21036 21037 21038 21039 21040 21041 21042 21043 21044 21045 21046 21047 21048 21049 21050 21051 21052 21053 21054 21055 21056 21057 21058 21059 21060 21061 21062 21063 21064 21065 21066 21067 21068 21069 21070 21071 21072 21073 21074 21075 21076 21077 21078 21079 21080 21081 21082 21083 21084 21085 21086 21087 21088 21089 21090 21091 21092 21093 21094 21095 21096 21097 21098 21099 21100 21101 21102 21103 21104 21105 21106 21107 21108 21109 21110 21111 21112 21113 21114 21115 21116 21117 21118 21119 21120 21121 21122 21123 21124 21125 21126 21127 21128 21129 21130 21131 21132 21133 21134 21135 21136 21137 21138 21139 21140 21141 21142 21143 21144 21145 21146 21147 21148 21149 21150 21151 21152 21153 21154 21155 21156 21157 21158 21159 21160 21161 21162 21163 21164 21165 21166 21167 21168 21169 21170 21171 21172 21173 21174 21175 21176 21177 21178 21179 21180 21181 21182 21183 21184 21185 21186 21187 21188 21189 21190 21191 21192 21193 21194 21195 21196 21197 21198 21199 21200 21201 21202 21203 21204 21205 21206 21207 21208 21209 21210 21211 21212 21213 21214 21215 21216 21217 21218 21219 21220 21221 21222 21223 21224 21225 21226 21227 21228 21229 21230 21231 21232 21233 21234 21235 21236 21237 21238 21239 21240 21241 21242 21243 21244 21245 21246 21247 21248 21249 21250 21251 21252 21253 21254 21255 21256 21257 21258 21259 21260 21261 21262 21263 21264 21265 21266 21267 21268 21269 21270 21271 21272 21273 21274 21275 21276 21277 21278 21279 21280 21281 21282 21283 21284 21285 21286 21287 21288 21289 21290 21291 21292 21293 21294 21295 21296 21297 21298 21299 21300 21301 21302 21303 21304 21305 21306 21307 21308 21309 21310 21311 21312 21313 21314 21315 21316 21317 21318 21319 21320 21321 21322 21323 21324 21325 21326 21327 21328 21329 21330 21331 21332 21333 21334 21335 21336 21337 21338 21339 21340 21341 21342 21343 21344 21345 21346 21347 21348 21349 21350 21351 21352 21353 21354 21355 21356 21357 21358 21359 21360 21361 21362 21363 21364 21365 21366 21367 21368 21369 21370 21371 21372 21373 21374 21375 21376 21377 21378 21379 21380 21381 21382 21383 21384 21385 21386 21387 21388 21389 21390 21391 21392 21393 21394 21395 21396 21397 21398 21399 21400 21401 21402 21403 21404 21405 21406 21407 21408 21409 21410 21411 21412 21413 21414 21415 21416 21417 21418 21419 21420 21421 21422 21423 21424 21425 21426 21427 21428 21429 21430 21431 21432 21433 21434 21435 21436 21437 21438 21439 21440 21441 21442 21443 21444 21445 21446 21447 21448 21449 21450 21451 21452 21453 21454 21455 21456 21457 21458 21459 21460 21461 21462 21463 21464 21465 21466 21467 21468 21469 21470 21471 21472 21473 21474 21475 21476 21477 21478 21479 21480 21481 21482 21483 21484 21485 21486 21487 21488 21489 21490 21491 21492 21493 21494 21495 21496 21497 21498 21499 21500 21501 21502 21503 21504 21505 21506 21507 21508 21509 21510 21511 21512 21513 21514 21515 21516 21517 21518 21519 21520 21521 21522 21523 21524 21525 21526 21527 21528 21529 21530 21531 21532 21533 21534 21535 21536 21537 21538 21539 21540 21541 21542 21543 21544 21545 21546 21547 21548 21549 21550 21551 21552 21553 21554 21555 21556 21557 21558 21559 21560 21561 21562 21563 21564 21565 21566 21567 21568 21569 21570 21571 21572 21573 21574 21575 21576 21577 21578 21579 21580 21581 21582 21583 21584 21585 21586 21587 21588 21589 21590 21591 21592 21593 21594 21595 21596 21597 21598 21599 21600 21601 21602 21603 21604 21605 21606 21607 21608 21609 21610 21611 21612 21613 21614 21615 21616 21617 21618 21619 21620 21621 21622 21623 21624 21625 21626 21627 21628 21629 21630 21631 21632 21633 21634 21635 21636 21637 21638 21639 21640 21641 21642 21643 21644 21645 21646 21647 21648 21649 21650 21651 21652 21653 21654 21655 21656 21657 21658 21659 21660 21661 21662 21663 21664 21665 21666 21667 21668 21669 21670 21671 21672 21673 21674 21675 21676 21677 21678 21679 21680 21681 21682 21683 21684 21685 21686 21687 21688 21689 21690 21691 21692 21693 21694 21695 21696 21697 21698 21699 21700 21701 21702 21703 21704 21705 21706 21707 21708 21709 21710 21711 21712 21713 21714 21715 21716 21717 21718 21719 21720 21721 21722 21723 21724 21725 21726 21727 21728 21729 21730 21731 21732 21733 21734 21735 21736 21737 21738 21739 21740 21741 21742 21743 21744 21745 21746 21747 21748 21749 21750 21751 21752 21753 21754 21755 21756 21757 21758 21759 21760 21761 21762 21763 21764 21765 21766 21767 21768 21769 21770 21771 21772 21773 21774 21775 21776 21777 21778 21779 21780 21781 21782 21783 21784 21785 21786 21787 21788 21789 21790 21791 21792 21793 21794 21795 21796 21797 21798 21799 21800 21801 21802 21803 21804 21805 21806 21807 21808 21809 21810 21811 21812 21813 21814 21815 21816 21817 21818 21819 21820 21821 21822 21823 21824 21825 21826 21827 21828 21829 21830 21831 21832 21833 21834 21835 21836 21837 21838 21839 21840 21841 21842 21843 21844 21845 21846 21847 21848 21849 21850 21851 21852 21853 21854 21855 21856 21857 21858 21859 21860 21861 21862 21863 21864 21865 21866 21867 21868 21869 21870 21871 21872 21873 21874 21875 21876 21877 21878 21879 21880 21881 21882 21883 21884 21885 21886 21887 21888 21889 21890 21891 21892 21893 21894 21895 21896 21897 21898 21899 21900 21901 21902 21903 21904 21905 21906 21907 21908 21909 21910 21911 21912 21913 21914 21915 21916 21917 21918 21919 21920 21921 21922 21923 21924 21925 21926 21927 21928 21929 21930 21931 21932 21933 21934 21935 21936 21937 21938 21939 21940 21941 21942 21943 21944 21945 21946 21947 21948 21949 21950 21951 21952 21953 21954 21955 21956 21957 21958 21959 21960 21961 21962 21963 21964 21965 21966 21967 21968 21969 21970 21971 21972 21973 21974 21975 21976 21977 21978 21979 21980 21981 21982 21983 21984 21985 21986 21987 21988 21989 21990 21991 21992 21993 21994 21995 21996 21997 21998 21999 22000 22001 22002 22003 22004 22005 22006 22007 22008 22009 22010 22011 22012 22013 22014 22015 22016 22017 22018 22019 22020 22021 22022 22023 22024 22025 22026 22027 22028 22029 22030 22031 22032 22033 22034 22035 22036 22037 22038 22039 22040 22041 22042 22043 22044 22045 22046 22047 22048 22049 22050 22051 22052 22053 22054 22055 22056 22057 22058 22059 22060 22061 22062 22063 22064 22065 22066 22067 22068 22069 22070 22071 22072 22073 22074 22075 22076 22077 22078 22079 22080 22081 22082 22083 22084 22085 22086 22087 22088 22089 22090 22091 22092 22093 22094 22095 22096 22097 22098 22099 22100 22101 22102 22103 22104 22105 22106 22107 22108 22109 22110 22111 22112 22113 22114 22115 22116 22117 22118 22119 22120 22121 22122 22123 22124 22125 22126 22127 22128 22129 22130 22131 22132 22133 22134 22135 22136 22137 22138 22139 22140 22141 22142 22143 22144 22145 22146 22147 22148 22149 22150 22151 22152 22153 22154 22155 22156 22157 22158 22159 22160 22161 22162 22163 22164 22165 22166 22167 22168 22169 22170 22171 22172 22173 22174 22175 22176 22177 22178 22179 22180 22181 22182 22183 22184 22185 22186 22187 22188 22189 22190 22191 22192 22193 22194 22195 22196 22197 22198 22199 22200 22201 22202 22203 22204 22205 22206 22207 22208 22209 22210 22211 22212 22213 22214 22215 22216 22217 22218 22219 22220 22221 22222 22223 22224 22225 22226 22227 22228 22229 22230 22231 22232 22233 22234 22235 22236 22237 22238 22239 22240 22241 22242 22243 22244 22245 22246 22247 22248 22249 22250 22251 22252 22253 22254 22255 22256 22257 22258 22259 22260 22261 22262 22263 22264 22265 22266 22267 22268 22269 22270 22271 22272 22273 22274 22275 22276 22277 22278 22279 22280 22281 22282 22283 22284 22285 22286 22287 22288 22289 22290 22291 22292 22293 22294 22295 22296 22297 22298 22299 22300 22301 22302 22303 22304 22305 22306 22307 22308 22309 22310 22311 22312 22313 22314 22315 22316 22317 22318 22319 22320 22321 22322 22323 22324 22325 22326 22327 22328 22329 22330 22331 22332 22333 22334 22335 22336 22337 22338 22339 22340 22341 22342 22343 22344 22345 22346 22347 22348 22349 22350 22351 22352 22353 22354 22355 22356 22357 22358 22359 22360 22361 22362 22363 22364 22365 22366 22367 22368 22369 22370 22371 22372 22373 22374 22375 22376 22377 22378 22379 22380 22381 22382 22383 22384 22385 22386 22387 22388 22389 22390 22391 22392 22393 22394 22395 22396 22397 22398 22399 22400 22401 22402 22403 22404 22405 22406 22407 22408 22409 22410 22411 22412 22413 22414 22415 22416 22417 22418 22419 22420 22421 22422 22423 22424 22425 22426 22427 22428 22429 22430 22431 22432 22433 22434 22435 22436 22437 22438 22439 22440 22441 22442 22443 22444 22445 22446 22447 22448 22449 22450 22451 22452 22453 22454 22455 22456 22457 22458 22459 22460 22461 22462 22463 22464 22465 22466 22467 22468 22469 22470 22471 22472 22473 22474 22475 22476 22477 22478 22479 22480 22481 22482 22483 22484 22485 22486 22487 22488 22489 22490 22491 22492 22493 22494 22495 22496 22497 22498 22499 22500 22501 22502 22503 22504 22505 22506 22507 22508 22509 22510 22511 22512 22513 22514 22515 22516 22517 22518 22519 22520 22521 22522 22523 22524 22525 22526 22527 22528 22529 22530 22531 22532 22533 22534 22535 22536 22537 22538 22539 22540 22541 22542 22543 22544 22545 22546 22547 22548 22549 22550 22551 22552 22553 22554 22555 22556 22557 22558 22559 22560 22561 22562 22563 22564 22565 22566 22567 22568 22569 22570 22571 22572 22573 22574 22575 22576 22577 22578 22579 22580 22581 22582 22583 22584 22585 22586 22587 22588 22589 22590 22591 22592 22593 22594 22595 22596 22597 22598 22599 22600 22601 22602 22603 22604 22605 22606 22607 22608 22609 22610 22611 22612 22613 22614 22615 22616 22617 22618 22619 22620 22621 22622 22623 22624 22625 22626 22627 22628 22629 22630 22631 22632 22633 22634 22635 22636 22637 22638 22639 22640 22641 22642 22643 22644 22645 22646 22647 22648 22649 22650 22651 22652 22653 22654 22655 22656 22657 22658 22659 22660 22661 22662 22663 22664 22665 22666 22667 22668 22669 22670 22671 22672 22673 22674 22675 22676 22677 22678 22679 22680 22681 22682 22683 22684 22685 22686 22687 22688 22689 22690 22691 22692 22693 22694 22695 22696 22697 22698 22699 22700 22701 22702 22703 22704 22705 22706 22707 22708 22709 22710 22711 22712 22713 22714 22715 22716 22717 22718 22719 22720 22721 22722 22723 22724 22725 22726 22727 22728 22729 22730 22731 22732 22733 22734 22735 22736 22737 22738 22739 22740 22741 22742 22743 22744 22745 22746 22747 22748 22749 22750 22751 22752 22753 22754 22755 22756 22757 22758 22759 22760 22761 22762 22763 22764 22765 22766 22767 22768 22769 22770 22771 22772 22773 22774 22775 22776 22777 22778 22779 22780 22781 22782 22783 22784 22785 22786 22787 22788 22789 22790 22791 22792 22793 22794 22795 22796 22797 22798 22799 22800 22801 22802 22803 22804 22805 22806 22807 22808 22809 22810 22811 22812 22813 22814 22815 22816 22817 22818 22819 22820 22821 22822 22823 22824 22825 22826 22827 22828 22829 22830 22831 22832 22833 22834 22835 22836 22837 22838 22839 22840 22841 22842 22843 22844 22845 22846 22847 22848 22849 22850 22851 22852 22853 22854 22855 22856 22857 22858 22859 22860 22861 22862 22863 22864 22865 22866 22867 22868 22869 22870 22871 22872 22873 22874 22875 22876 22877 22878 22879 22880 22881 22882 22883 22884 22885 22886 22887 22888 22889 22890 22891 22892 22893 22894 22895 22896 22897 22898 22899 22900 22901 22902 22903 22904 22905 22906 22907 22908 22909 22910 22911 22912 22913 22914 22915 22916 22917 22918 22919 22920 22921 22922 22923 22924 22925 22926 22927 22928 22929 22930 22931 22932 22933 22934 22935 22936 22937 22938 22939 22940 22941 22942 22943 22944 22945 22946 22947 22948 22949 22950 22951 22952 22953 22954 22955 22956 22957 22958 22959 22960 22961 22962 22963 22964 22965 22966 22967 22968 22969 22970 22971 22972 22973 22974 22975 22976 22977 22978 22979 22980 22981 22982 22983 22984 22985 22986 22987 22988 22989 22990 22991 22992 22993 22994 22995 22996 22997 22998 22999 23000 23001 23002 23003 23004 23005 23006 23007 23008 23009 23010 23011 23012 23013 23014 23015 23016 23017 23018 23019 23020 23021 23022 23023 23024 23025 23026 23027 23028 23029 23030 23031 23032 23033 23034 23035 23036 23037 23038 23039 23040 23041 23042 23043 23044 23045 23046 23047 23048 23049 23050 23051 23052 23053 23054 23055 23056 23057 23058 23059 23060 23061 23062 23063 23064 23065 23066 23067 23068 23069 23070 23071 23072 23073 23074 23075 23076 23077 23078 23079 23080 23081 23082 23083 23084 23085 23086 23087 23088 23089 23090 23091 23092 23093 23094 23095 23096 23097 23098 23099 23100 23101 23102 23103 23104 23105 23106 23107 23108 23109 23110 23111 23112 23113 23114 23115 23116 23117 23118 23119 23120 23121 23122 23123 23124 23125 23126 23127 23128 23129 23130 23131 23132 23133 23134 23135 23136 23137 23138 23139 23140 23141 23142 23143 23144 23145 23146 23147 23148 23149 23150 23151 23152 23153 23154 23155 23156 23157 23158 23159 23160 23161 23162 23163 23164 23165 23166 23167 23168 23169 23170 23171 23172 23173 23174 23175 23176 23177 23178 23179 23180 23181 23182 23183 23184 23185 23186 23187 23188 23189 23190 23191 23192 23193 23194 23195 23196 23197 23198 23199 23200 23201 23202 23203 23204 23205 23206 23207 23208 23209 23210 23211 23212 23213 23214 23215 23216 23217 23218 23219 23220 23221 23222 23223 23224 23225 23226 23227 23228 23229 23230 23231 23232 23233 23234 23235 23236 23237 23238 23239 23240 23241 23242 23243 23244 23245 23246 23247 23248 23249 23250 23251 23252 23253 23254 23255 23256 23257 23258 23259 23260 23261 23262 23263 23264 23265 23266 23267 23268 23269 23270 23271 23272 23273 23274 23275 23276 23277 23278 23279 23280 23281 23282 23283 23284 23285 23286 23287 23288 23289 23290 23291 23292 23293 23294 23295 23296 23297 23298 23299 23300 23301 23302 23303 23304 23305 23306 23307 23308 23309 23310 23311 23312 23313 23314 23315 23316 23317 23318 23319 23320 23321 23322 23323 23324 23325 23326 23327 23328 23329 23330 23331 23332 23333 23334 23335 23336 23337 23338 23339 23340 23341 23342 23343 23344 23345 23346 23347 23348 23349 23350 23351 23352 23353 23354 23355 23356 23357 23358 23359 23360 23361 23362 23363 23364 23365 23366 23367 23368 23369 23370 23371 23372 23373 23374 23375 23376 23377 23378 23379 23380 23381 23382 23383 23384 23385 23386 23387 23388 23389 23390 23391 23392 23393 23394 23395 23396 23397 23398 23399 23400 23401 23402 23403 23404 23405 23406 23407 23408 23409 23410 23411 23412 23413 23414 23415 23416 23417 23418 23419 23420 23421 23422 23423 23424 23425 23426 23427 23428 23429 23430 23431 23432 23433 23434 23435 23436 23437 23438 23439 23440 23441 23442 23443 23444 23445 23446 23447 23448 23449 23450 23451 23452 23453 23454 23455 23456 23457 23458 23459 23460 23461 23462 23463 23464 23465 23466 23467 23468 23469 23470 23471 23472 23473 23474 23475 23476 23477 23478 23479 23480 23481 23482 23483 23484 23485 23486 23487 23488 23489 23490 23491 23492 23493 23494 23495 23496 23497 23498 23499 23500 23501 23502 23503 23504 23505 23506 23507 23508 23509 23510 23511 23512 23513 23514 23515 23516 23517 23518 23519 23520 23521 23522 23523 23524 23525 23526 23527 23528 23529 23530 23531 23532 23533 23534 23535 23536 23537 23538 23539 23540 23541 23542 23543 23544 23545 23546 23547 23548 23549 23550 23551 23552 23553 23554 23555 23556 23557 23558 23559 23560 23561 23562 23563 23564 23565 23566 23567 23568 23569 23570 23571 23572 23573 23574 23575 23576 23577 23578 23579 23580 23581 23582 23583 23584 23585 23586 23587 23588 23589 23590 23591 23592 23593 23594 23595 23596 23597 23598 23599 23600 23601 23602 23603 23604 23605 23606 23607 23608 23609 23610 23611 23612 23613 23614 23615 23616 23617 23618 23619 23620 23621 23622 23623 23624 23625 23626 23627 23628 23629 23630 23631 23632 23633 23634 23635 23636 23637 23638 23639 23640 23641 23642 23643 23644 23645 23646 23647 23648 23649 23650 23651 23652 23653 23654 23655 23656 23657 23658 23659 23660 23661 23662 23663 23664 23665 23666 23667 23668 23669 23670 23671 23672 23673 23674 23675 23676 23677 23678 23679 23680 23681 23682 23683 23684 23685 23686 23687 23688 23689 23690 23691 23692 23693 23694 23695 23696 23697 23698 23699 23700 23701 23702 23703 23704 23705 23706 23707 23708 23709 23710 23711 23712 23713 23714 23715 23716 23717 23718 23719 23720 23721 23722 23723 23724 23725 23726 23727 23728 23729 23730 23731 23732 23733 23734 23735 23736 23737 23738 23739 23740 23741 23742 23743 23744 23745 23746 23747 23748 23749 23750 23751 23752 23753 23754 23755 23756 23757 23758 23759 23760 23761 23762 23763 23764 23765 23766 23767 23768 23769 23770 23771 23772 23773 23774 23775 23776 23777 23778 23779 23780 23781 23782 23783 23784 23785 23786 23787 23788 23789 23790 23791 23792 23793 23794 23795 23796 23797 23798 23799 23800 23801 23802 23803 23804 23805 23806 23807 23808 23809 23810 23811 23812 23813 23814 23815 23816 23817 23818 23819 23820 23821 23822 23823 23824 23825 23826 23827 23828 23829 23830 23831 23832 23833 23834 23835 23836 23837 23838 23839 23840 23841 23842 23843 23844 23845 23846 23847 23848 23849 23850 23851 23852 23853 23854 23855 23856 23857 23858 23859 23860 23861 23862 23863 23864 23865 23866 23867 23868 23869 23870 23871 23872 23873 23874 23875 23876 23877 23878 23879 23880 23881 23882 23883 23884 23885 23886 23887 23888 23889 23890 23891 23892 23893 23894 23895 23896 23897 23898 23899 23900 23901 23902 23903 23904 23905 23906 23907 23908 23909 23910 23911 23912 23913 23914 23915 23916 23917 23918 23919 23920 23921 23922 23923 23924 23925 23926 23927 23928 23929 23930 23931 23932 23933 23934 23935 23936 23937 23938 23939 23940 23941 23942 23943 23944 23945 23946 23947 23948 23949 23950 23951 23952 23953 23954 23955 23956 23957 23958 23959 23960 23961 23962 23963 23964 23965 23966 23967 23968 23969 23970 23971 23972 23973 23974 23975 23976 23977 23978 23979 23980 23981 23982 23983 23984 23985 23986 23987 23988 23989 23990 23991 23992 23993 23994 23995 23996 23997 23998 23999 24000 24001 24002 24003 24004 24005 24006 24007 24008 24009 24010 24011 24012 24013 24014 24015 24016 24017 24018 24019 24020 24021 24022 24023 24024 24025 24026 24027 24028 24029 24030 24031 24032 24033 24034 24035 24036 24037 24038 24039 24040 24041 24042 24043 24044 24045 24046 24047 24048 24049 24050 24051 24052 24053 24054 24055 24056 24057 24058 24059 24060 24061 24062 24063 24064 24065 24066 24067 24068 24069 24070 24071 24072 24073 24074 24075 24076 24077 24078 24079 24080 24081 24082 24083 24084 24085 24086 24087 24088 24089 24090 24091 24092 24093 24094 24095 24096 24097 24098 24099 24100 24101 24102 24103 24104 24105 24106 24107 24108 24109 24110 24111 24112 24113 24114 24115 24116 24117 24118 24119 24120 24121 24122 24123 24124 24125 24126 24127 24128 24129 24130 24131 24132 24133 24134 24135 24136 24137 24138 24139 24140 24141 24142 24143 24144 24145 24146 24147 24148 24149 24150 24151 24152 24153 24154 24155 24156 24157 24158 24159 24160 24161 24162 24163 24164 24165 24166 24167 24168 24169 24170 24171 24172 24173 24174 24175 24176 24177 24178 24179 24180 24181 24182 24183 24184 24185 24186 24187 24188 24189 24190 24191 24192 24193 24194 24195 24196 24197 24198 24199 24200 24201 24202 24203 24204 24205 24206 24207 24208 24209 24210 24211 24212 24213 24214 24215 24216 24217 24218 24219 24220 24221 24222 24223 24224 24225 24226 24227 24228 24229 24230 24231 24232 24233 24234 24235 24236 24237 24238 24239 24240 24241 24242 24243 24244 24245 24246 24247 24248 24249 24250 24251 24252 24253 24254 24255 24256 24257 24258 24259 24260 24261 24262 24263 24264 24265 24266 24267 24268 24269 24270 24271 24272 24273 24274 24275 24276 24277 24278 24279 24280 24281 24282 24283 24284 24285 24286 24287 24288 24289 24290 24291 24292 24293 24294 24295 24296 24297 24298 24299 24300 24301 24302 24303 24304 24305 24306 24307 24308 24309 24310 24311 24312 24313 24314 24315 24316 24317 24318 24319 24320 24321 24322 24323 24324 24325 24326 24327 24328 24329 24330 24331 24332 24333 24334 24335 24336 24337 24338 24339 24340 24341 24342 24343 24344 24345 24346 24347 24348 24349 24350 24351 24352 24353 24354 24355 24356 24357 24358 24359 24360 24361 24362 24363 24364 24365 24366 24367 24368 24369 24370 24371 24372 24373 24374 24375 24376 24377 24378 24379 24380 24381 24382 24383 24384 24385 24386 24387 24388 24389 24390 24391 24392 24393 24394 24395 24396 24397 24398 24399 24400 24401 24402 24403 24404 24405 24406 24407 24408 24409 24410 24411 24412 24413 24414 24415 24416 24417 24418 24419 24420 24421 24422 24423 24424 24425 24426 24427 24428 24429 24430 24431 24432 24433 24434 24435 24436 24437 24438 24439 24440 24441 24442 24443 24444 24445 24446 24447 24448 24449 24450 24451 24452 24453 24454 24455 24456 24457 24458 24459 24460 24461 24462 24463 24464 24465 24466 24467 24468 24469 24470 24471 24472 24473 24474 24475 24476 24477 24478 24479 24480 24481 24482 24483 24484 24485 24486 24487 24488 24489 24490 24491 24492 24493 24494 24495 24496 24497 24498 24499 24500 24501 24502 24503 24504 24505 24506 24507 24508 24509 24510 24511 24512 24513 24514 24515 24516 24517 24518 24519 24520 24521 24522 24523 24524 24525 24526 24527 24528 24529 24530 24531 24532 24533 24534 24535 24536 24537 24538 24539 24540 24541 24542 24543 24544 24545 24546 24547 24548 24549 24550 24551 24552 24553 24554 24555 24556 24557 24558 24559 24560 24561 24562 24563 24564 24565 24566 24567 24568 24569 24570 24571 24572 24573 24574 24575 24576 24577 24578 24579 24580 24581 24582 24583 24584 24585 24586 24587 24588 24589 24590 24591 24592 24593 24594 24595 24596 24597 24598 24599 24600 24601 24602 24603 24604 24605 24606 24607 24608 24609 24610 24611 24612 24613 24614 24615 24616 24617 24618 24619 24620 24621 24622 24623 24624 24625 24626 24627 24628 24629 24630 24631 24632 24633 24634 24635 24636 24637 24638 24639 24640 24641 24642 24643 24644 24645 24646 24647 24648 24649 24650 24651 24652 24653 24654 24655 24656 24657 24658 24659 24660 24661 24662 24663 24664 24665 24666 24667 24668 24669 24670 24671 24672 24673 24674 24675 24676 24677 24678 24679 24680 24681 24682 24683 24684 24685 24686 24687 24688 24689 24690 24691 24692 24693 24694 24695 24696 24697 24698 24699 24700 24701 24702 24703 24704 24705 24706 24707 24708 24709 24710 24711 24712 24713 24714 24715 24716 24717 24718 24719 24720 24721 24722 24723 24724 24725 24726 24727 24728 24729 24730 24731 24732 24733 24734 24735 24736 24737 24738 24739 24740 24741 24742 24743 24744 24745 24746 24747 24748 24749 24750 24751 24752 24753 24754 24755 24756 24757 24758 24759 24760 24761 24762 24763 24764 24765 24766 24767 24768 24769 24770 24771 24772 24773 24774 24775 24776 24777 24778 24779 24780 24781 24782 24783 24784 24785 24786 24787 24788 24789 24790 24791 24792 24793 24794 24795 24796 24797 24798 24799 24800 24801 24802 24803 24804 24805 24806 24807 24808 24809 24810 24811 24812 24813 24814 24815 24816 24817 24818 24819 24820 24821 24822 24823 24824 24825 24826 24827 24828 24829 24830 24831 24832 24833 24834 24835 24836 24837 24838 24839 24840 24841 24842 24843 24844 24845 24846 24847 24848 24849 24850 24851 24852 24853 24854 24855 24856 24857 24858 24859 24860 24861 24862 24863 24864 24865 24866 24867 24868 24869 24870 24871 24872 24873 24874 24875 24876 24877 24878 24879 24880 24881 24882 24883 24884 24885 24886 24887 24888 24889 24890 24891 24892 24893 24894 24895 24896 24897 24898 24899 24900 24901 24902 24903 24904 24905 24906 24907 24908 24909 24910 24911 24912 24913 24914 24915 24916 24917 24918 24919 24920 24921 24922 24923 24924 24925 24926 24927 24928 24929 24930 24931 24932 24933 24934 24935 24936 24937 24938 24939 24940 24941 24942 24943 24944 24945 24946 24947 24948 24949 24950 24951 24952 24953 24954 24955 24956 24957 24958 24959 24960 24961 24962 24963 24964 24965 24966 24967 24968 24969 24970 24971 24972 24973 24974 24975 24976 24977 24978 24979 24980 24981 24982 24983 24984 24985 24986 24987 24988 24989 24990 24991 24992 24993 24994 24995 24996 24997 24998 24999 25000 25001 25002 25003 25004 25005 25006 25007 25008 25009 25010 25011 25012 25013 25014 25015 25016 25017 25018 25019 25020 25021 25022 25023 25024 25025 25026 25027 25028 25029 25030 25031 25032 25033 25034 25035 25036 25037 25038 25039 25040 25041 25042 25043 25044 25045 25046 25047 25048 25049 25050 25051 25052 25053 25054 25055 25056 25057 25058 25059 25060 25061 25062 25063 25064 25065 25066 25067 25068 25069 25070 25071 25072 25073 25074 25075 25076 25077 25078 25079 25080 25081 25082 25083 25084 25085 25086 25087 25088 25089 25090 25091 25092 25093 25094 25095 25096 25097 25098 25099 25100 25101 25102 25103 25104 25105 25106 25107 25108 25109 25110 25111 25112 25113 25114 25115 25116 25117 25118 25119 25120 25121 25122 25123 25124 25125 25126 25127 25128 25129 25130 25131 25132 25133 25134 25135 25136 25137 25138 25139 25140 25141 25142 25143 25144 25145 25146 25147 25148 25149 25150 25151 25152 25153 25154 25155 25156 25157 25158 25159 25160 25161 25162 25163 25164 25165 25166 25167 25168 25169 25170 25171 25172 25173 25174 25175 25176 25177 25178 25179 25180 25181 25182 25183 25184 25185 25186 25187 25188 25189 25190 25191 25192 25193 25194 25195 25196 25197 25198 25199 25200 25201 25202 25203 25204 25205 25206 25207 25208 25209 25210 25211 25212 25213 25214 25215 25216 25217 25218 25219 25220 25221 25222 25223 25224 25225 25226 25227 25228 25229 25230 25231 25232 25233 25234 25235 25236 25237 25238 25239 25240 25241 25242 25243 25244 25245 25246 25247 25248 25249 25250 25251 25252 25253 25254 25255 25256 25257 25258 25259 25260 25261 25262 25263 25264 25265 25266 25267 25268 25269 25270 25271 25272 25273 25274 25275 25276 25277 25278 25279 25280 25281 25282 25283 25284 25285 25286 25287 25288 25289 25290 25291 25292 25293 25294 25295 25296 25297 25298 25299 25300 25301 25302 25303 25304 25305 25306 25307 25308 25309 25310 25311 25312 25313 25314 25315 25316 25317 25318 25319 25320 25321 25322 25323 25324 25325 25326 25327 25328 25329 25330 25331 25332 25333 25334 25335 25336 25337 25338 25339 25340 25341 25342 25343 25344 25345 25346 25347 25348 25349 25350 25351 25352 25353 25354 25355 25356 25357 25358 25359 25360 25361 25362 25363 25364 25365 25366 25367 25368 25369 25370 25371 25372 25373 25374 25375 25376 25377 25378 25379 25380 25381 25382 25383 25384 25385 25386 25387 25388 25389 25390 25391 25392 25393 25394 25395 25396 25397 25398 25399 25400 25401 25402 25403 25404 25405 25406 25407 25408 25409 25410 25411 25412 25413 25414 25415 25416 25417 25418 25419 25420 25421 25422 25423 25424 25425 25426 25427 25428 25429 25430 25431 25432 25433 25434 25435 25436 25437 25438 25439 25440 25441 25442 25443 25444 25445 25446 25447 25448 25449 25450 25451 25452 25453 25454 25455 25456 25457 25458 25459 25460 25461 25462 25463 25464 25465 25466 25467 25468 25469 25470 25471 25472 25473 25474 25475 25476 25477 25478 25479 25480 25481 25482 25483 25484 25485 25486 25487 25488 25489 25490 25491 25492 25493 25494 25495 25496 25497 25498 25499 25500 25501 25502 25503 25504 25505 25506 25507 25508 25509 25510 25511 25512 25513 25514 25515 25516 25517 25518 25519 25520 25521 25522 25523 25524 25525 25526 25527 25528 25529 25530 25531 25532 25533 25534 25535 25536 25537 25538 25539 25540 25541 25542 25543 25544 25545 25546 25547 25548 25549 25550 25551 25552 25553 25554 25555 25556 25557 25558 25559 25560 25561 25562 25563 25564 25565 25566 25567 25568 25569 25570 25571 25572 25573 25574 25575 25576 25577 25578 25579 25580 25581 25582 25583 25584 25585 25586 25587 25588 25589 25590 25591 25592 25593 25594 25595 25596 25597 25598 25599 25600 25601 25602 25603 25604 25605 25606 25607 25608 25609 25610 25611 25612 25613 25614 25615 25616 25617 25618 25619 25620 25621 25622 25623 25624 25625 25626 25627 25628 25629 25630 25631 25632 25633 25634 25635 25636 25637 25638 25639 25640 25641 25642 25643 25644 25645 25646 25647 25648 25649 25650 25651 25652 25653 25654 25655 25656 25657 25658 25659 25660 25661 25662 25663 25664 25665 25666 25667 25668 25669 25670 25671 25672 25673 25674 25675 25676 25677 25678 25679 25680 25681 25682 25683 25684 25685 25686 25687 25688 25689 25690 25691 25692 25693 25694 25695 25696 25697 25698 25699 25700 25701 25702 25703 25704 25705 25706 25707 25708 25709 25710 25711 25712 25713 25714 25715 25716 25717 25718 25719 25720 25721 25722 25723 25724 25725 25726 25727 25728 25729 25730 25731 25732 25733 25734 25735 25736 25737 25738 25739 25740 25741 25742 25743 25744 25745 25746 25747 25748 25749 25750 25751 25752 25753 25754 25755 25756 25757 25758 25759 25760 25761 25762 25763 25764 25765 25766 25767 25768 25769 25770 25771 25772 25773 25774 25775 25776 25777 25778 25779 25780 25781 25782 25783 25784 25785 25786 25787 25788 25789 25790 25791 25792 25793 25794 25795 25796 25797 25798 25799 25800 25801 25802 25803 25804 25805 25806 25807 25808 25809 25810 25811 25812 25813 25814 25815 25816 25817 25818 25819 25820 25821 25822 25823 25824 25825 25826 25827 25828 25829 25830 25831 25832 25833 25834 25835 25836 25837 25838 25839 25840 25841 25842 25843 25844 25845 25846 25847 25848 25849 25850 25851 25852 25853 25854 25855 25856 25857 25858 25859 25860 25861 25862 25863 25864 25865 25866 25867 25868 25869 25870 25871 25872 25873 25874 25875 25876 25877 25878 25879 25880 25881 25882 25883 25884 25885 25886 25887 25888 25889 25890 25891 25892 25893 25894 25895 25896 25897 25898 25899 25900 25901 25902 25903 25904 25905 25906 25907 25908 25909 25910 25911 25912 25913 25914 25915 25916 25917 25918 25919 25920 25921 25922 25923 25924 25925 25926 25927 25928 25929 25930 25931 25932 25933 25934 25935 25936 25937 25938 25939 25940 25941 25942 25943 25944 25945 25946 25947 25948 25949 25950 25951 25952 25953 25954 25955 25956 25957 25958 25959 25960 25961 25962 25963 25964 25965 25966 25967 25968 25969 25970 25971 25972 25973 25974 25975 25976 25977 25978 25979 25980 25981 25982 25983 25984 25985 25986 25987 25988 25989 25990 25991 25992 25993 25994 25995 25996 25997 25998 25999 26000 26001 26002 26003 26004 26005 26006 26007 26008 26009 26010 26011 26012 26013 26014 26015 26016 26017 26018 26019 26020 26021 26022 26023 26024 26025 26026 26027 26028 26029 26030 26031 26032 26033 26034 26035 26036 26037 26038 26039 26040 26041 26042 26043 26044 26045 26046 26047 26048 26049 26050 26051 26052 26053 26054 26055 26056 26057 26058 26059 26060 26061 26062 26063 26064 26065 26066 26067 26068 26069 26070 26071 26072 26073 26074 26075 26076 26077 26078 26079 26080 26081 26082 26083 26084 26085 26086 26087 26088 26089 26090 26091 26092 26093 26094 26095 26096 26097 26098 26099 26100 26101 26102 26103 26104 26105 26106 26107 26108 26109 26110 26111 26112 26113 26114 26115 26116 26117 26118 26119 26120 26121 26122 26123 26124 26125 26126 26127 26128 26129 26130 26131 26132 26133 26134 26135 26136 26137 26138 26139 26140 26141 26142 26143 26144 26145 26146 26147 26148 26149 26150 26151 26152 26153 26154 26155 26156 26157 26158 26159 26160 26161 26162 26163 26164 26165 26166 26167 26168 26169 26170 26171 26172 26173 26174 26175 26176 26177 26178 26179 26180 26181 26182 26183 26184 26185 26186 26187 26188 26189 26190 26191 26192 26193 26194 26195 26196 26197 26198 26199 26200 26201 26202 26203 26204 26205 26206 26207 26208 26209 26210 26211 26212 26213 26214 26215 26216 26217 26218 26219 26220 26221 26222 26223 26224 26225 26226 26227 26228 26229 26230 26231 26232 26233 26234 26235 26236 26237 26238 26239 26240 26241 26242 26243 26244 26245 26246 26247 26248 26249 26250 26251 26252 26253 26254 26255 26256 26257 26258 26259 26260 26261 26262 26263 26264 26265 26266 26267 26268 26269 26270 26271 26272 26273 26274 26275 26276 26277 26278 26279 26280 26281 26282 26283 26284 26285 26286 26287 26288 26289 26290 26291 26292 26293 26294 26295 26296 26297 26298 26299 26300 26301 26302 26303 26304 26305 26306 26307 26308 26309 26310 26311 26312 26313 26314 26315 26316 26317 26318 26319 26320 26321 26322 26323 26324 26325 26326 26327 26328 26329 26330 26331 26332 26333 26334 26335 26336 26337 26338 26339 26340 26341 26342 26343 26344 26345 26346 26347 26348 26349 26350 26351 26352 26353 26354 26355 26356 26357 26358 26359 26360 26361 26362 26363 26364 26365 26366 26367 26368 26369 26370 26371 26372 26373 26374 26375 26376 26377 26378 26379 26380 26381 26382 26383 26384 26385 26386 26387 26388 26389 26390 26391 26392 26393 26394 26395 26396 26397 26398 26399 26400 26401 26402 26403 26404 26405 26406 26407 26408 26409 26410 26411 26412 26413 26414 26415 26416 26417 26418 26419 26420 26421 26422 26423 26424 26425 26426 26427 26428 26429 26430 26431 26432 26433 26434 26435 26436 26437 26438 26439 26440 26441 26442 26443 26444 26445 26446 26447 26448 26449 26450 26451 26452 26453 26454 26455 26456 26457 26458 26459 26460 26461 26462 26463 26464 26465 26466 26467 26468 26469 26470 26471 26472 26473 26474 26475 26476 26477 26478 26479 26480 26481 26482 26483 26484 26485 26486 26487 26488 26489 26490 26491 26492 26493 26494 26495 26496 26497 26498 26499 26500 26501 26502 26503 26504 26505 26506 26507 26508 26509 26510 26511 26512 26513 26514 26515 26516 26517 26518 26519 26520 26521 26522 26523 26524 26525 26526 26527 26528 26529 26530 26531 26532 26533 26534 26535 26536 26537 26538 26539 26540 26541 26542 26543 26544 26545 26546 26547 26548 26549 26550 26551 26552 26553 26554 26555 26556 26557 26558 26559 26560 26561 26562 26563 26564 26565 26566 26567 26568 26569 26570 26571 26572 26573 26574 26575 26576 26577 26578 26579 26580 26581 26582 26583 26584 26585 26586 26587 26588 26589 26590 26591 26592 26593 26594 26595 26596 26597 26598 26599 26600 26601 26602 26603 26604 26605 26606 26607 26608 26609 26610 26611 26612 26613 26614 26615 26616 26617 26618 26619 26620 26621 26622 26623 26624 26625 26626 26627 26628 26629 26630 26631 26632 26633 26634 26635 26636 26637 26638 26639 26640 26641 26642 26643 26644 26645 26646 26647 26648 26649 26650 26651 26652 26653 26654 26655 26656 26657 26658 26659 26660 26661 26662 26663 26664 26665 26666 26667 26668 26669 26670 26671 26672 26673 26674 26675 26676 26677 26678 26679 26680 26681 26682 26683 26684 26685 26686 26687 26688 26689 26690 26691 26692 26693 26694 26695 26696 26697 26698 26699 26700 26701 26702 26703 26704 26705 26706 26707 26708 26709 26710 26711 26712 26713 26714 26715 26716 26717 26718 26719 26720 26721 26722 26723 26724 26725 26726 26727 26728 26729 26730 26731 26732 26733 26734 26735 26736 26737 26738 26739 26740 26741 26742 26743 26744 26745 26746 26747 26748 26749 26750 26751 26752 26753 26754 26755 26756 26757 26758 26759 26760 26761 26762 26763 26764 26765 26766 26767 26768 26769 26770 26771 26772 26773 26774 26775 26776 26777 26778 26779 26780 26781 26782 26783 26784 26785 26786 26787 26788 26789 26790 26791 26792 26793 26794 26795 26796 26797 26798 26799 26800 26801 26802 26803 26804 26805 26806 26807 26808 26809 26810 26811 26812 26813 26814 26815 26816 26817 26818 26819 26820 26821 26822 26823 26824 26825 26826 26827 26828 26829 26830 26831 26832 26833 26834 26835 26836 26837 26838 26839 26840 26841 26842 26843 26844 26845 26846 26847 26848 26849 26850 26851 26852 26853 26854 26855 26856 26857 26858 26859 26860 26861 26862 26863 26864 26865 26866 26867 26868 26869 26870 26871 26872 26873 26874 26875 26876 26877 26878 26879 26880 26881 26882 26883 26884 26885 26886 26887 26888 26889 26890 26891 26892 26893 26894 26895 26896 26897 26898 26899 26900 26901 26902 26903 26904 26905 26906 26907 26908 26909 26910 26911 26912 26913 26914 26915 26916 26917 26918 26919 26920 26921 26922 26923 26924 26925 26926 26927 26928 26929 26930 26931 26932 26933 26934 26935 26936 26937 26938 26939 26940 26941 26942 26943 26944 26945 26946 26947 26948 26949 26950 26951 26952 26953 26954 26955 26956 26957 26958 26959 26960 26961 26962 26963 26964 26965 26966 26967 26968 26969 26970 26971 26972 26973 26974 26975 26976 26977 26978 26979 26980 26981 26982 26983 26984 26985 26986 26987 26988 26989 26990 26991 26992 26993 26994 26995 26996 26997 26998 26999 27000 27001 27002 27003 27004 27005 27006 27007 27008 27009 27010 27011 27012 27013 27014 27015 27016 27017 27018 27019 27020 27021 27022 27023 27024 27025 27026 27027 27028 27029 27030 27031 27032 27033 27034 27035 27036 27037 27038 27039 27040 27041 27042 27043 27044 27045 27046 27047 27048 27049 27050 27051 27052 27053 27054 27055 27056 27057 27058 27059 27060 27061 27062 27063 27064 27065 27066 27067 27068 27069 27070 27071 27072 27073 27074 27075 27076 27077 27078 27079 27080 27081 27082 27083 27084 27085 27086 27087 27088 27089 27090 27091 27092 27093 27094 27095 27096 27097 27098 27099 27100 27101 27102 27103 27104 27105 27106 27107 27108 27109 27110 27111 27112 27113 27114 27115 27116 27117 27118 27119 27120 27121 27122 27123 27124 27125 27126 27127 27128 27129 27130 27131 27132 27133 27134 27135 27136 27137 27138 27139 27140 27141 27142 27143 27144 27145 27146 27147 27148 27149 27150 27151 27152 27153 27154 27155 27156 27157 27158 27159 27160 27161 27162 27163 27164 27165 27166 27167 27168 27169 27170 27171 27172 27173 27174 27175 27176 27177 27178 27179 27180 27181 27182 27183 27184 27185 27186 27187 27188 27189 27190 27191 27192 27193 27194 27195 27196 27197 27198 27199 27200 27201 27202 27203 27204 27205 27206 27207 27208 27209 27210 27211 27212 27213 27214 27215 27216 27217 27218 27219 27220 27221 27222 27223 27224 27225 27226 27227 27228 27229 27230 27231 27232 27233 27234 27235 27236 27237 27238 27239 27240 27241 27242 27243 27244 27245 27246 27247 27248 27249 27250 27251 27252 27253 27254 27255 27256 27257 27258 27259 27260 27261 27262 27263 27264 27265 27266 27267 27268 27269 27270 27271 27272 27273 27274 27275 27276 27277 27278 27279 27280 27281 27282 27283 27284 27285 27286 27287 27288 27289 27290 27291 27292 27293 27294 27295 27296 27297 27298 27299 27300 27301 27302 27303 27304 27305 27306 27307 27308 27309 27310 27311 27312 27313 27314 27315 27316 27317 27318 27319 27320 27321 27322 27323 27324 27325 27326 27327 27328 27329 27330 27331 27332 27333 27334 27335 27336 27337 27338 27339 27340 27341 27342 27343 27344 27345 27346 27347 27348 27349 27350 27351 27352 27353 27354 27355 27356 27357 27358 27359 27360 27361 27362 27363 27364 27365 27366 27367 27368 27369 27370 27371 27372 27373 27374 27375 27376 27377 27378 27379 27380 27381 27382 27383 27384 27385 27386 27387 27388 27389 27390 27391 27392 27393 27394 27395 27396 27397 27398 27399 27400 27401 27402 27403 27404 27405 27406 27407 27408 27409 27410 27411 27412 27413 27414 27415 27416 27417 27418 27419 27420 27421 27422 27423 27424 27425 27426 27427 27428 27429 27430 27431 27432 27433 27434 27435 27436 27437 27438 27439 27440 27441 27442 27443 27444 27445 27446 27447 27448 27449 27450 27451 27452 27453 27454 27455 27456 27457 27458 27459 27460 27461 27462 27463 27464 27465 27466 27467 27468 27469 27470 27471 27472 27473 27474 27475 27476 27477 27478 27479 27480 27481 27482 27483 27484 27485 27486 27487 27488 27489 27490 27491 27492 27493 27494 27495 27496 27497 27498 27499 27500 27501 27502 27503 27504 27505 27506 27507 27508 27509 27510 27511 27512 27513 27514 27515 27516 27517 27518 27519 27520 27521 27522 27523 27524 27525 27526 27527 27528 27529 27530 27531 27532 27533 27534 27535 27536 27537 27538 27539 27540 27541 27542 27543 27544 27545 27546 27547 27548 27549 27550 27551 27552 27553 27554 27555 27556 27557 27558 27559 27560 27561 27562 27563 27564 27565 27566 27567 27568 27569 27570 27571 27572 27573 27574 27575 27576 27577 27578 27579 27580 27581 27582 27583 27584 27585 27586 27587 27588 27589 27590 27591 27592 27593 27594 27595 27596 27597 27598 27599 27600 27601 27602 27603 27604 27605 27606 27607 27608 27609 27610 27611 27612 27613 27614 27615 27616 27617 27618 27619 27620 27621 27622 27623 27624 27625 27626 27627 27628 27629 27630 27631 27632 27633 27634 27635 27636 27637 27638 27639 27640 27641 27642 27643 27644 27645 27646 27647 27648 27649 27650 27651 27652 27653 27654 27655 27656 27657 27658 27659 27660 27661 27662 27663 27664 27665 27666 27667 27668 27669 27670 27671 27672 27673 27674 27675 27676 27677 27678 27679 27680 27681 27682 27683 27684 27685 27686 27687 27688 27689 27690 27691 27692 27693 27694 27695 27696 27697 27698 27699 27700 27701 27702 27703 27704 27705 27706 27707 27708 27709 27710 27711 27712 27713 27714 27715 27716 27717 27718 27719 27720 27721 27722 27723 27724 27725 27726 27727 27728 27729 27730 27731 27732 27733 27734 27735 27736 27737 27738 27739 27740 27741 27742 27743 27744 27745 27746 27747 27748 27749 27750 27751 27752 27753 27754 27755 27756 27757 27758 27759 27760 27761 27762 27763 27764 27765 27766 27767 27768 27769 27770 27771 27772 27773 27774 27775 27776 27777 27778 27779 27780 27781 27782 27783 27784 27785 27786 27787 27788 27789 27790 27791 27792 27793 27794 27795 27796 27797 27798 27799 27800 27801 27802 27803 27804 27805 27806 27807 27808 27809 27810 27811 27812 27813 27814 27815 27816 27817 27818 27819 27820 27821 27822 27823 27824 27825 27826 27827 27828 27829 27830 27831 27832 27833 27834 27835 27836 27837 27838 27839 27840 27841 27842 27843 27844 27845 27846 27847 27848 27849 27850 27851 27852 27853 27854 27855 27856 27857 27858 27859 27860 27861 27862 27863 27864 27865 27866 27867 27868 27869 27870 27871 27872 27873 27874 27875 27876 27877 27878 27879 27880 27881 27882 27883 27884 27885 27886 27887 27888 27889 27890 27891 27892 27893 27894 27895 27896 27897 27898 27899 27900 27901 27902 27903 27904 27905 27906 27907 27908 27909 27910 27911 27912 27913 27914 27915 27916 27917 27918 27919 27920 27921 27922 27923 27924 27925 27926 27927 27928 27929 27930 27931 27932 27933 27934 27935 27936 27937 27938 27939 27940 27941 27942 27943 27944 27945 27946 27947 27948 27949 27950 27951 27952 27953 27954 27955 27956 27957 27958 27959 27960 27961 27962 27963 27964 27965 27966 27967 27968 27969 27970 27971 27972 27973 27974 27975 27976 27977 27978 27979 27980 27981 27982 27983 27984 27985 27986 27987 27988 27989 27990 27991 27992 27993 27994 27995 27996 27997 27998 27999 28000 28001 28002 28003 28004 28005 28006 28007 28008 28009 28010 28011 28012 28013 28014 28015 28016 28017 28018 28019 28020 28021 28022 28023 28024 28025 28026 28027 28028 28029 28030 28031 28032 28033 28034 28035 28036 28037 28038 28039 28040 28041 28042 28043 28044 28045 28046 28047 28048 28049 28050 28051 28052 28053 28054 28055 28056 28057 28058 28059 28060 28061 28062 28063 28064 28065 28066 28067 28068 28069 28070 28071 28072 28073 28074 28075 28076 28077 28078 28079 28080 28081 28082 28083 28084 28085 28086 28087 28088 28089 28090 28091 28092 28093 28094 28095 28096 28097 28098 28099 28100 28101 28102 28103 28104 28105 28106 28107 28108 28109 28110 28111 28112 28113 28114 28115 28116 28117 28118 28119 28120 28121 28122 28123 28124 28125 28126 28127 28128 28129 28130 28131 28132 28133 28134 28135 28136 28137 28138 28139 28140 28141 28142 28143 28144 28145 28146 28147 28148 28149 28150 28151 28152 28153 28154 28155 28156 28157 28158 28159 28160 28161 28162 28163 28164 28165 28166 28167 28168 28169 28170 28171 28172 28173 28174 28175 28176 28177 28178 28179 28180 28181 28182 28183 28184 28185 28186 28187 28188 28189 28190 28191 28192 28193 28194 28195 28196 28197 28198 28199 28200 28201 28202 28203 28204 28205 28206 28207 28208 28209 28210 28211 28212 28213 28214 28215 28216 28217 28218 28219 28220 28221 28222 28223 28224 28225 28226 28227 28228 28229 28230 28231 28232 28233 28234 28235 28236 28237 28238 28239 28240 28241 28242 28243 28244 28245 28246 28247 28248 28249 28250 28251 28252 28253 28254 28255 28256 28257 28258 28259 28260 28261 28262 28263 28264 28265 28266 28267 28268 28269 28270 28271 28272 28273 28274 28275 28276 28277 28278 28279 28280 28281 28282 28283 28284 28285 28286 28287 28288 28289 28290 28291 28292 28293 28294 28295 28296 28297 28298 28299 28300 28301 28302 28303 28304 28305 28306 28307 28308 28309 28310 28311 28312 28313 28314 28315 28316 28317 28318 28319 28320 28321 28322 28323 28324 28325 28326 28327 28328 28329 28330 28331 28332 28333 28334 28335 28336 28337 28338 28339 28340 28341 28342 28343 28344 28345 28346 28347 28348 28349 28350 28351 28352 28353 28354 28355 28356 28357 28358 28359 28360 28361 28362 28363 28364 28365 28366 28367 28368 28369 28370 28371 28372 28373 28374 28375 28376 28377 28378 28379 28380 28381 28382 28383 28384 28385 28386 28387 28388 28389 28390 28391 28392 28393 28394 28395 28396 28397 28398 28399 28400 28401 28402 28403 28404 28405 28406 28407 28408 28409 28410 28411 28412 28413 28414 28415 28416 28417 28418 28419 28420 28421 28422 28423 28424 28425 28426 28427 28428 28429 28430 28431 28432 28433 28434 28435 28436 28437 28438 28439 28440 28441 28442 28443 28444 28445 28446 28447 28448 28449 28450 28451 28452 28453 28454 28455 28456 28457 28458 28459 28460 28461 28462 28463 28464 28465 28466 28467 28468 28469 28470 28471 28472 28473 28474 28475 28476 28477 28478 28479 28480 28481 28482 28483 28484 28485 28486 28487 28488 28489 28490 28491 28492 28493 28494 28495 28496 28497 28498 28499 28500 28501 28502 28503 28504 28505 28506 28507 28508 28509 28510 28511 28512 28513 28514 28515 28516 28517 28518 28519 28520 28521 28522 28523 28524 28525 28526 28527 28528 28529 28530 28531 28532 28533 28534 28535 28536 28537 28538 28539 28540 28541 28542 28543 28544 28545 28546 28547 28548 28549 28550 28551 28552 28553 28554 28555 28556 28557 28558 28559 28560 28561 28562 28563 28564 28565 28566 28567 28568 28569 28570 28571 28572 28573 28574 28575 28576 28577 28578 28579 28580 28581 28582 28583 28584 28585 28586 28587 28588 28589 28590 28591 28592 28593 28594 28595 28596 28597 28598 28599 28600 28601 28602 28603 28604 28605 28606 28607 28608 28609 28610 28611 28612 28613 28614 28615 28616 28617 28618 28619 28620 28621 28622 28623 28624 28625 28626 28627 28628 28629 28630 28631 28632 28633 28634 28635 28636 28637 28638 28639 28640 28641 28642 28643 28644 28645 28646 28647 28648 28649 28650 28651 28652 28653 28654 28655 28656 28657 28658 28659 28660 28661 28662 28663 28664 28665 28666 28667 28668 28669 28670 28671 28672 28673 28674 28675 28676 28677 28678 28679 28680 28681 28682 28683 28684 28685 28686 28687 28688 28689 28690 28691 28692 28693 28694 28695 28696 28697 28698 28699 28700 28701 28702 28703 28704 28705 28706 28707 28708 28709 28710 28711 28712 28713 28714 28715 28716 28717 28718 28719 28720 28721 28722 28723 28724 28725 28726 28727 28728 28729 28730 28731 28732 28733 28734 28735 28736 28737 28738 28739 28740 28741 28742 28743 28744 28745 28746 28747 28748 28749 28750 28751 28752 28753 28754 28755 28756 28757 28758 28759 28760 28761 28762 28763 28764 28765 28766 28767 28768 28769 28770 28771 28772 28773 28774 28775 28776 28777 28778 28779 28780 28781 28782 28783 28784 28785 28786 28787 28788 28789 28790 28791 28792 28793 28794 28795 28796 28797 28798 28799 28800 28801 28802 28803 28804 28805 28806 28807 28808 28809 28810 28811 28812 28813 28814 28815 28816 28817 28818 28819 28820 28821 28822 28823 28824 28825 28826 28827 28828 28829 28830 28831 28832 28833 28834 28835 28836 28837 28838 28839 28840 28841 28842 28843 28844 28845 28846 28847 28848 28849 28850 28851 28852 28853 28854 28855 28856 28857 28858 28859 28860 28861 28862 28863 28864 28865 28866 28867 28868 28869 28870 28871 28872 28873 28874 28875 28876 28877 28878 28879 28880 28881 28882 28883 28884 28885 28886 28887 28888 28889 28890 28891 28892 28893 28894 28895 28896 28897 28898 28899 28900 28901 28902 28903 28904 28905 28906 28907 28908 28909 28910 28911 28912 28913 28914 28915 28916 28917 28918 28919 28920 28921 28922 28923 28924 28925 28926 28927 28928 28929 28930 28931 28932 28933 28934 28935 28936 28937 28938 28939 28940 28941 28942 28943 28944 28945 28946 28947 28948 28949 28950 28951 28952 28953 28954 28955 28956 28957 28958 28959 28960 28961 28962 28963 28964 28965 28966 28967 28968 28969 28970 28971 28972 28973 28974 28975 28976 28977 28978 28979 28980 28981 28982 28983 28984 28985 28986 28987 28988 28989 28990 28991 28992 28993 28994 28995 28996 28997 28998 28999 29000 29001 29002 29003 29004 29005 29006 29007 29008 29009 29010 29011 29012 29013 29014 29015 29016 29017 29018 29019 29020 29021 29022 29023 29024 29025 29026 29027 29028 29029 29030 29031 29032 29033 29034 29035 29036 29037 29038 29039 29040 29041 29042 29043 29044 29045 29046 29047 29048 29049 29050 29051 29052 29053 29054 29055 29056 29057 29058 29059 29060 29061 29062 29063 29064 29065 29066 29067 29068 29069 29070 29071 29072 29073 29074 29075 29076 29077 29078 29079 29080 29081 29082 29083 29084 29085 29086 29087 29088 29089 29090 29091 29092 29093 29094 29095 29096 29097 29098 29099 29100 29101 29102 29103 29104 29105 29106 29107 29108 29109 29110 29111 29112 29113 29114 29115 29116 29117 29118 29119 29120 29121 29122 29123 29124 29125 29126 29127 29128 29129 29130 29131 29132 29133 29134 29135 29136 29137 29138 29139 29140 29141 29142 29143 29144 29145 29146 29147 29148 29149 29150 29151 29152 29153 29154 29155 29156 29157 29158 29159 29160 29161 29162 29163 29164 29165 29166 29167 29168 29169 29170 29171 29172 29173 29174 29175 29176 29177 29178 29179 29180 29181 29182 29183 29184 29185 29186 29187 29188 29189 29190 29191 29192 29193 29194 29195 29196 29197 29198 29199 29200 29201 29202 29203 29204 29205 29206 29207 29208 29209 29210 29211 29212 29213 29214 29215 29216 29217 29218 29219 29220 29221 29222 29223 29224 29225 29226 29227 29228 29229 29230 29231 29232 29233 29234 29235 29236 29237 29238 29239 29240 29241 29242 29243 29244 29245 29246 29247 29248 29249 29250 29251 29252 29253 29254 29255 29256 29257 29258 29259 29260 29261 29262 29263 29264 29265 29266 29267 29268 29269 29270 29271 29272 29273 29274 29275 29276 29277 29278 29279 29280 29281 29282 29283 29284 29285 29286 29287 29288 29289 29290 29291 29292 29293 29294 29295 29296 29297 29298 29299 29300 29301 29302 29303 29304 29305 29306 29307 29308 29309 29310 29311 29312 29313 29314 29315 29316 29317 29318 29319 29320 29321 29322 29323 29324 29325 29326 29327 29328 29329 29330 29331 29332 29333 29334 29335 29336 29337 29338 29339 29340 29341 29342 29343 29344 29345 29346 29347 29348 29349 29350 29351 29352 29353 29354 29355 29356 29357 29358 29359 29360 29361 29362 29363 29364 29365 29366 29367 29368 29369 29370 29371 29372 29373 29374 29375 29376 29377 29378 29379 29380 29381 29382 29383 29384 29385 29386 29387 29388 29389 29390 29391 29392 29393 29394 29395 29396 29397 29398 29399 29400 29401 29402 29403 29404 29405 29406 29407 29408 29409 29410 29411 29412 29413 29414 29415 29416 29417 29418 29419 29420 29421 29422 29423 29424 29425 29426 29427 29428 29429 29430 29431 29432 29433 29434 29435 29436 29437 29438 29439 29440 29441 29442 29443 29444 29445 29446 29447 29448 29449 29450 29451 29452 29453 29454 29455 29456 29457 29458 29459 29460 29461 29462 29463 29464 29465 29466 29467 29468 29469 29470 29471 29472 29473 29474 29475 29476 29477 29478 29479 29480 29481 29482 29483 29484 29485 29486 29487 29488 29489 29490 29491 29492 29493 29494 29495 29496 29497 29498 29499 29500 29501 29502 29503 29504 29505 29506 29507 29508 29509 29510 29511 29512 29513 29514 29515 29516 29517 29518 29519 29520 29521 29522 29523 29524 29525 29526 29527 29528 29529 29530 29531 29532 29533 29534 29535 29536 29537 29538 29539 29540 29541 29542 29543 29544 29545 29546 29547 29548 29549 29550 29551 29552 29553 29554 29555 29556 29557 29558 29559 29560 29561 29562 29563 29564 29565 29566 29567 29568 29569 29570 29571 29572 29573 29574 29575 29576 29577 29578 29579 29580 29581 29582 29583 29584 29585 29586 29587 29588 29589 29590 29591 29592 29593 29594 29595 29596 29597 29598 29599 29600 29601 29602 29603 29604 29605 29606 29607 29608 29609 29610 29611 29612 29613 29614 29615 29616 29617 29618 29619 29620 29621 29622 29623 29624 29625 29626 29627 29628 29629 29630 29631 29632 29633 29634 29635 29636 29637 29638 29639 29640 29641 29642 29643 29644 29645 29646 29647 29648 29649 29650 29651 29652 29653 29654 29655 29656 29657 29658 29659 29660 29661 29662 29663 29664 29665 29666 29667 29668 29669 29670 29671 29672 29673 29674 29675 29676 29677 29678 29679 29680 29681 29682 29683 29684 29685 29686 29687 29688 29689 29690 29691 29692 29693 29694 29695 29696 29697 29698 29699 29700 29701 29702 29703 29704 29705 29706 29707 29708 29709 29710 29711 29712 29713 29714 29715 29716 29717 29718 29719 29720 29721 29722 29723 29724 29725 29726 29727 29728 29729 29730 29731 29732 29733 29734 29735 29736 29737 29738 29739 29740 29741 29742 29743 29744 29745 29746 29747 29748 29749 29750 29751 29752 29753 29754 29755 29756 29757 29758 29759 29760 29761 29762 29763 29764 29765 29766 29767 29768 29769 29770 29771 29772 29773 29774 29775 29776 29777 29778 29779 29780 29781 29782 29783 29784 29785 29786 29787 29788 29789 29790 29791 29792 29793 29794 29795 29796 29797 29798 29799 29800 29801 29802 29803 29804 29805 29806 29807 29808 29809 29810 29811 29812 29813 29814 29815 29816 29817 29818 29819 29820 29821 29822 29823 29824 29825 29826 29827 29828 29829 29830 29831 29832 29833 29834 29835 29836 29837 29838 29839 29840 29841 29842 29843 29844 29845 29846 29847 29848 29849 29850 29851 29852 29853 29854 29855 29856 29857 29858 29859 29860 29861 29862 29863 29864 29865 29866 29867 29868 29869 29870 29871 29872 29873 29874 29875 29876 29877 29878 29879 29880 29881 29882 29883 29884 29885 29886 29887 29888 29889 29890 29891 29892 29893 29894 29895 29896 29897 29898 29899 29900 29901 29902 29903 29904 29905 29906 29907 29908 29909 29910 29911 29912 29913 29914 29915 29916 29917 29918 29919 29920 29921 29922 29923 29924 29925 29926 29927 29928 29929 29930 29931 29932 29933 29934 29935 29936 29937 29938 29939 29940 29941 29942 29943 29944 29945 29946 29947 29948 29949 29950 29951 29952 29953 29954 29955 29956 29957 29958 29959 29960 29961 29962 29963 29964 29965 29966 29967 29968 29969 29970 29971 29972 29973 29974 29975 29976 29977 29978 29979 29980 29981 29982 29983 29984 29985 29986 29987 29988 29989 29990 29991 29992 29993 29994 29995 29996 29997 29998 29999 30000 30001 30002 30003 30004 30005 30006 30007 30008 30009 30010 30011 30012 30013 30014 30015 30016 30017 30018 30019 30020 30021 30022 30023 30024 30025 30026 30027 30028 30029 30030 30031 30032 30033 30034 30035 30036 30037 30038 30039 30040 30041 30042 30043 30044 30045 30046 30047 30048 30049 30050 30051 30052 30053 30054 30055 30056 30057 30058 30059 30060 30061 30062 30063 30064 30065 30066 30067 30068 30069 30070 30071 30072 30073 30074 30075 30076 30077 30078 30079 30080 30081 30082 30083 30084 30085 30086 30087 30088 30089 30090 30091 30092 30093 30094 30095 30096 30097 30098 30099 30100 30101 30102 30103 30104 30105 30106 30107 30108 30109 30110 30111 30112 30113 30114 30115 30116 30117 30118 30119 30120 30121 30122 30123 30124 30125 30126 30127 30128 30129 30130 30131 30132 30133 30134 30135 30136 30137 30138 30139 30140 30141 30142 30143 30144 30145 30146 30147 30148 30149 30150 30151 30152 30153 30154 30155 30156 30157 30158 30159 30160 30161 30162 30163 30164 30165 30166 30167 30168 30169 30170 30171 30172 30173 30174 30175 30176 30177 30178 30179 30180 30181 30182 30183 30184 30185 30186 30187 30188 30189 30190 30191 30192 30193 30194 30195 30196 30197 30198 30199 30200 30201 30202 30203 30204 30205 30206 30207 30208 30209 30210 30211 30212 30213 30214 30215 30216 30217 30218 30219 30220 30221 30222 30223 30224 30225 30226 30227 30228 30229 30230 30231 30232 30233 30234 30235 30236 30237 30238 30239 30240 30241 30242 30243 30244 30245 30246 30247 30248 30249 30250 30251 30252 30253 30254 30255 30256 30257 30258 30259 30260 30261 30262 30263 30264 30265 30266 30267 30268 30269 30270 30271 30272 30273 30274 30275 30276 30277 30278 30279 30280 30281 30282 30283 30284 30285 30286 30287 30288 30289 30290 30291 30292 30293 30294 30295 30296 30297 30298 30299 30300 30301 30302 30303 30304 30305 30306 30307 30308 30309 30310 30311 30312 30313 30314 30315 30316 30317 30318 30319 30320 30321 30322 30323 30324 30325 30326 30327 30328 30329 30330 30331 30332 30333 30334 30335 30336 30337 30338 30339 30340 30341 30342 30343 30344 30345 30346 30347 30348 30349 30350 30351 30352 30353 30354 30355 30356 30357 30358 30359 30360 30361 30362 30363 30364 30365 30366 30367 30368 30369 30370 30371 30372 30373 30374 30375 30376 30377 30378 30379 30380 30381 30382 30383 30384 30385 30386 30387 30388 30389 30390 30391 30392 30393 30394 30395 30396 30397 30398 30399 30400 30401 30402 30403 30404 30405 30406 30407 30408 30409 30410 30411 30412 30413 30414 30415 30416 30417 30418 30419 30420 30421 30422 30423 30424 30425 30426 30427 30428 30429 30430 30431 30432 30433 30434 30435 30436 30437 30438 30439 30440 30441 30442 30443 30444 30445 30446 30447 30448 30449 30450 30451 30452 30453 30454 30455 30456 30457 30458 30459 30460 30461 30462 30463 30464 30465 30466 30467 30468 30469 30470 30471 30472 30473 30474 30475 30476 30477 30478 30479 30480 30481 30482 30483 30484 30485 30486 30487 30488 30489 30490 30491 30492 30493 30494 30495 30496 30497 30498 30499 30500 30501 30502 30503 30504 30505 30506 30507 30508 30509 30510 30511 30512 30513 30514 30515 30516 30517 30518 30519 30520 30521 30522 30523 30524 30525 30526 30527 30528 30529 30530 30531 30532 30533 30534 30535 30536 30537 30538 30539 30540 30541 30542 30543 30544 30545 30546 30547 30548 30549 30550 30551 30552 30553 30554 30555 30556 30557 30558 30559 30560 30561 30562 30563 30564 30565 30566 30567 30568 30569 30570 30571 30572 30573 30574 30575 30576 30577 30578 30579 30580 30581 30582 30583 30584 30585 30586 30587 30588 30589 30590 30591 30592 30593 30594 30595 30596 30597 30598 30599 30600 30601 30602 30603 30604 30605 30606 30607 30608 30609 30610 30611 30612 30613 30614 30615 30616 30617 30618 30619 30620 30621 30622 30623 30624 30625 30626 30627 30628 30629 30630 30631 30632 30633 30634 30635 30636 30637 30638 30639 30640 30641 30642 30643 30644 30645 30646 30647 30648 30649 30650 30651 30652 30653 30654 30655 30656 30657 30658 30659 30660 30661 30662 30663 30664 30665 30666 30667 30668 30669 30670 30671 30672 30673 30674 30675 30676 30677 30678 30679 30680 30681 30682 30683 30684 30685 30686 30687 30688 30689 30690 30691 30692 30693 30694 30695 30696 30697 30698 30699 30700 30701 30702 30703 30704 30705 30706 30707 30708 30709 30710 30711 30712 30713 30714 30715 30716 30717 30718 30719 30720 30721 30722 30723 30724 30725 30726 30727 30728 30729 30730 30731 30732 30733 30734 30735 30736 30737 30738 30739 30740 30741 30742 30743 30744 30745 30746 30747 30748 30749 30750 30751 30752 30753 30754 30755 30756 30757 30758 30759 30760 30761 30762 30763 30764 30765 30766 30767 30768 30769 30770 30771 30772 30773 30774 30775 30776 30777 30778 30779 30780 30781 30782 30783 30784 30785 30786 30787 30788 30789 30790 30791 30792 30793 30794 30795 30796 30797 30798 30799 30800 30801 30802 30803 30804 30805 30806 30807 30808 30809 30810 30811 30812 30813 30814 30815 30816 30817 30818 30819 30820 30821 30822 30823 30824 30825 30826 30827 30828 30829 30830 30831 30832 30833 30834 30835 30836 30837 30838 30839 30840 30841 30842 30843 30844 30845 30846 30847 30848 30849 30850 30851 30852 30853 30854 30855 30856 30857 30858 30859 30860 30861 30862 30863 30864 30865 30866 30867 30868 30869 30870 30871 30872 30873 30874 30875 30876 30877 30878 30879 30880 30881 30882 30883 30884 30885 30886 30887 30888 30889 30890 30891 30892 30893 30894 30895 30896 30897 30898 30899 30900 30901 30902 30903 30904 30905 30906 30907 30908 30909 30910 30911 30912 30913 30914 30915 30916 30917 30918 30919 30920 30921 30922 30923 30924 30925 30926 30927 30928 30929 30930 30931 30932 30933 30934 30935 30936 30937 30938 30939 30940 30941 30942 30943 30944 30945 30946 30947 30948 30949 30950 30951 30952 30953 30954 30955 30956 30957 30958 30959 30960 30961 30962 30963 30964 30965 30966 30967 30968 30969 30970 30971 30972 30973 30974 30975 30976 30977 30978 30979 30980 30981 30982 30983 30984 30985 30986 30987 30988 30989 30990 30991 30992 30993 30994 30995 30996 30997 30998 30999 31000 31001 31002 31003 31004 31005 31006 31007 31008 31009 31010 31011 31012 31013 31014 31015 31016 31017 31018 31019 31020 31021 31022 31023 31024 31025 31026 31027 31028 31029 31030 31031 31032 31033 31034 31035 31036 31037 31038 31039 31040 31041 31042 31043 31044 31045 31046 31047 31048 31049 31050 31051 31052 31053 31054 31055 31056 31057 31058 31059 31060 31061 31062 31063 31064 31065 31066 31067 31068 31069 31070 31071 31072 31073 31074 31075 31076 31077 31078 31079 31080 31081 31082 31083 31084 31085 31086 31087 31088 31089 31090 31091 31092 31093 31094 31095 31096 31097 31098 31099 31100 31101 31102 31103 31104 31105 31106 31107 31108 31109 31110 31111 31112 31113 31114 31115 31116 31117 31118 31119 31120 31121 31122 31123 31124 31125 31126 31127 31128 31129 31130 31131 31132 31133 31134 31135 31136 31137 31138 31139 31140 31141 31142 31143 31144 31145 31146 31147 31148 31149 31150 31151 31152 31153 31154 31155 31156 31157 31158 31159 31160 31161 31162 31163 31164 31165 31166 31167 31168 31169 31170 31171 31172 31173 31174 31175 31176 31177 31178 31179 31180 31181 31182 31183 31184 31185 31186 31187 31188 31189 31190 31191 31192 31193 31194 31195 31196 31197 31198 31199 31200 31201 31202 31203 31204 31205 31206 31207 31208 31209 31210 31211 31212 31213 31214 31215 31216 31217 31218 31219 31220 31221 31222 31223 31224 31225 31226 31227 31228 31229 31230 31231 31232 31233 31234 31235 31236 31237 31238 31239 31240 31241 31242 31243 31244 31245 31246 31247 31248 31249 31250 31251 31252 31253 31254 31255 31256 31257 31258 31259 31260 31261 31262 31263 31264 31265 31266 31267 31268 31269 31270 31271 31272 31273 31274 31275 31276 31277 31278 31279 31280 31281 31282 31283 31284 31285 31286 31287 31288 31289 31290 31291 31292 31293 31294 31295 31296 31297 31298 31299 31300 31301 31302 31303 31304 31305 31306 31307 31308 31309 31310 31311 31312 31313 31314 31315 31316 31317 31318 31319 31320 31321 31322 31323 31324 31325 31326 31327 31328 31329 31330 31331 31332 31333 31334 31335 31336 31337 31338 31339 31340 31341 31342 31343 31344 31345 31346 31347 31348 31349 31350 31351 31352 31353 31354 31355 31356 31357 31358 31359 31360 31361 31362 31363 31364 31365 31366 31367 31368 31369 31370 31371 31372 31373 31374 31375 31376 31377 31378 31379 31380 31381 31382 31383 31384 31385 31386 31387 31388 31389 31390 31391 31392 31393 31394 31395 31396 31397 31398 31399 31400 31401 31402 31403 31404 31405 31406 31407 31408 31409 31410 31411 31412 31413 31414 31415 31416 31417 31418 31419 31420 31421 31422 31423 31424 31425 31426 31427 31428 31429 31430 31431 31432 31433 31434 31435 31436 31437 31438 31439 31440 31441 31442 31443 31444 31445 31446 31447 31448 31449 31450 31451 31452 31453 31454 31455 31456 31457 31458 31459 31460 31461 31462 31463 31464 31465 31466 31467 31468 31469 31470 31471 31472 31473 31474 31475 31476 31477 31478 31479 31480 31481 31482 31483 31484 31485 31486 31487 31488 31489 31490 31491 31492 31493 31494 31495 31496 31497 31498 31499 31500 31501 31502 31503 31504 31505 31506 31507 31508 31509 31510 31511 31512 31513 31514 31515 31516 31517 31518 31519 31520 31521 31522 31523 31524 31525 31526 31527 31528 31529 31530 31531 31532 31533 31534 31535 31536 31537 31538 31539 31540 31541 31542 31543 31544 31545 31546 31547 31548 31549 31550 31551 31552 31553 31554 31555 31556 31557 31558 31559 31560 31561 31562 31563 31564 31565 31566 31567 31568 31569 31570 31571 31572 31573 31574 31575 31576 31577 31578 31579 31580 31581 31582 31583 31584 31585 31586 31587 31588 31589 31590 31591 31592 31593 31594 31595 31596 31597 31598 31599 31600 31601 31602 31603 31604 31605 31606 31607 31608 31609 31610 31611 31612 31613 31614 31615 31616 31617 31618 31619 31620 31621 31622 31623 31624 31625 31626 31627 31628 31629 31630 31631 31632 31633 31634 31635 31636 31637 31638 31639 31640 31641 31642 31643 31644 31645 31646 31647 31648 31649 31650 31651 31652 31653 31654 31655 31656 31657 31658 31659 31660 31661 31662 31663 31664 31665 31666 31667 31668 31669 31670 31671 31672 31673 31674 31675 31676 31677 31678 31679 31680 31681 31682 31683 31684 31685 31686 31687 31688 31689 31690 31691 31692 31693 31694 31695 31696 31697 31698 31699 31700 31701 31702 31703 31704 31705 31706 31707 31708 31709 31710 31711 31712 31713 31714 31715 31716 31717 31718 31719 31720 31721 31722 31723 31724 31725 31726 31727 31728 31729 31730 31731 31732 31733 31734 31735 31736 31737 31738 31739 31740 31741 31742 31743 31744 31745 31746 31747 31748 31749 31750 31751 31752 31753 31754 31755 31756 31757 31758 31759 31760 31761 31762 31763 31764 31765 31766 31767 31768 31769 31770 31771 31772 31773 31774 31775 31776 31777 31778 31779 31780 31781 31782 31783 31784 31785 31786 31787 31788 31789 31790 31791 31792 31793 31794 31795 31796 31797 31798 31799 31800 31801 31802 31803 31804 31805 31806 31807 31808 31809 31810 31811 31812 31813 31814 31815 31816 31817 31818 31819 31820 31821 31822 31823 31824 31825 31826 31827 31828 31829 31830 31831 31832 31833 31834 31835 31836 31837 31838 31839 31840 31841 31842 31843 31844 31845 31846 31847 31848 31849 31850 31851 31852 31853 31854 31855 31856 31857 31858 31859 31860 31861 31862 31863 31864 31865 31866 31867 31868 31869 31870 31871 31872 31873 31874 31875 31876 31877 31878 31879 31880 31881 31882 31883 31884 31885 31886 31887 31888 31889 31890 31891 31892 31893 31894 31895 31896 31897 
</DataArray>
<DataArray type="UInt32" Name="offsets" format="ascii">
3 6 9 12 15 17 20 23 26 29 32 35 38 40 43 46 49 52 54 57 60 62 65 68 71 74 76 79 82 85 88 90 93 96 99 102 105 108 111 114 117 120 123 126 129 131 134 137 139 142 145 148 151 154 156 159 162 165 168 171 174 177 179 182 185 188 191 193 196 199 202 205 208 211 214 217 220 222 225 228 230 233 236 238 241 244 247 250 252 255 258 261 264 267 270 273 275 277 279 282 285 287 290 293 296 299 302 304 307 310 313 316 319 322 325 328 331 334 337 340 343 345 348 351 354 356 359 362 365 368 371 374 376 379 382 385 388 391 394 397 400 403 406 409 412 415 418 421 424 427 430 433 436 439 442 445 448 451 453 456 459 462 464 467 470 472 475 478 481 484 487 490 493 496 499 502 505 507 510 513 516 519 522 525 528 531 533 536 539 542 545 548 551 554 557 559 562 565 568 571 574 577 580 583 586 588 591 594 597 600 603 606 609 612 615 618 621 624 627 630 633 636 639 642 645 648 651 654 657 659 662 665 668 670 673 675 678 680 683 686 688 691 694 697 699 702 704 707 709 712 714 716 719 721 724 727 729 732 734 737 740 743 745 748 750 752 755 758 760 763 766 769 771 774 776 778 780 783 785 788 791 794 796 799 801 803 805 808 811 813 815 818 821 824 827 829 832 834 837 840 842 845 848 851 853 856 858 860 862 865 868 871 873 876 878 880 882 884 887 890 893 895 897 900 903 905 907 909 912 914 917 920 923 926 928 931 934 937 940 943 946 949 951 954 957 960 963 966 969 971 973 976 979 982 984 987 990 993 995 998 1000 1003 1005 1007 1010 1013 1016 1019 1021 1024 1027 1029 1032 1035 1038 1041 1043 1046 1048 1051 1054 1057 1060 1063 1065 1067 1070 1073 1076 1079 1082 1085 1088 1091 1093 1096 1099 1102 1104 1107 1110 1112 1115 1117 1120 1123 1126 1129 1132 1135 1138 1141 1144 1147 1150 1152 1155 1157 1160 1162 1165 1168 1171 1173 1176 1178 1181 1183 1186 1189 1192 1195 1198 1201 1203 1206 1208 1211 1214 1217 1219 1222 1225 1228 1230 1233 1235 1237 1240 1243 1246 1249 1251 1254 1257 1260 1263 1265 1267 1270 1273 1275 1278 1280 1283 1285 1287 1290 1293 1296 1298 1301 1304 1307 1310 1312 1315 1318 1321 1324 1327 1330 1333 1336 1339 1342 1345 1347 1350 1353 1356 1359 1361 1364 1367 1370 1372 1375 1377 1379 1381 1384 1387 1390 1392 1394 1397 1399 1402 1405 1407 1410 1413 1416 1419 1421 1424 1427 1430 1433 1436 1439 1442 1445 1448 1451 1454 1456 1458 1461 1464 1466 1469 1472 1475 1477 1480 1483 1486 1489 1492 1495 1497 1500 1503 1506 1508 1511 1514 1517 1519 1522 1525 1528 1531 1534 1537 1540 1543 1546 1549 1552 1554 1557 1560 1563 1565 1568 1571 1574 1577 1580 1583 1586 1588 1591 1594 1597 1600 1603 1605 1608 1611 1614 1617 1620 1623 1626 1629 1632 1635 1638 1641 1644 1647 1650 1653 1656 1659 1662 1664 1667 1670 1673 1676 1678 1681 1684 1686 1689 1692 1695 1698 1701 1704 1707 1709 1712 1715 1718 1721 1724 1727 1730 1733 1735 1738 1740 1743 1746 1748 1751 1754 1757 1759 1762 1765 1767 1770 1773 1776 1778 1781 1783 1786 1789 1791 1794 1796 1799 1802 1805 1808 1811 1814 1817 1820 1823 1826 1829 1832 1835 1838 1841 1844 1847 1850 1853 1856 1859 1862 1864 1867 1869 1872 1874 1877 1880 1883 1886 1889 1892 1895 1898 1901 1904 1907 1910 1913 1916 1919 1921 1924 1927 1930 1933 1936 1939 1942 1945 1948 1950 1953 1956 1959 1962 1965 1968 1971 1974 1977 1980 1983 1986 1989 1992 1995 1998 2001 2004 2007 2010 2013 2016 2019 2022 2025 2028 2031 2034 2037 2039 2042 2045 2047 2050 2053 2056 2058 2060 2063 2065 2068 2071 2074 2077 2080 2082 2085 2088 2091 2094 2097 2099 2102 2105 2108 2111 2114 2117 2120 2123 2126 2129 2132 2135 2138 2141 2144 2147 2150 2153 2156 2159 2162 2165 2168 2171 2174 2177 2180 2183 2186 2189 2192 2195 2198 2201 2204 2207 2210 2213 2216 2219 2222 2225 2228 2231 2234 2237 2240 2243 2246 2248 2251 2254 2257 2260 2263 2266 2269 2272 2275 2278 2281 2284 2287 2290 2293 2295 2298 2301 2304 2307 2309 2312 2315 2318 2321 2324 2327 2330 2333 2336 2339 2342 2345 2348 2351 2354 2357 2360 2363 2366 2369 2372 2375 2378 2381 2384 2387 2390 2392 2395 2398 2400 2403 2405 2407 2409 2411 2414 2417 2419 2422 2425 2428 2431 2434 2437 2440 2443 2446 2449 2452 2455 2458 2461 2464 2467 2470 2472 2475 2478 2480 2483 2485 2488 2491 2494 2497 2499 2502 2504 2507 2510 2513 2516 2518 2521 2524 2527 2529 2532 2535 2538 2541 2544 2546 2549 2551 2554 2557 2559 2561 2564 2566 2569 2572 2575 2578 2581 2584 2587 2590 2593 2596 2599 2601 2604 2607 2610 2612 2615 2618 2621 2623 2626 2629 2631 2633 2635 2638 2641 2644 2647 2650 2653 2656 2659 2662 2665 2668 2670 2673 2676 2679 2682 2685 2688 2691 2694 2696 2698 2700 2703 2706 2709 2712 2715 2718 2721 2724 2726 2728 2731 2734 2737 2739 2742 2745 2747 2750 2753 2756 2759 2762 2765 2768 2771 2774 2777 2780 2782 2785 2788 2791 2794 2797 2800 2803 2806 2808 2811 2814 2817 2820 2823 2826 2829 2832 2835 2838 2840 2843 2845 2847 2849 2852 2855 2858 2861 2864 2867 2870 2872 2874 2877 2879 2882 2885 2888 2891 2894 2896 2899 2901 2903 2906 2909 2912 2914 2917 2919 2922 2925 2928 2931 2933 2936 2939 2942 2945 2948 2951 2954 2957 2960 2963 2966 2969 2972 2975 2978 2981 2984 2986 2989 2992 2995 2997 3000 3003 3006 3009 3012 3014 3017 3020 3023 3026 3029 3032 3034 3037 3039 3042 3045 3048 3051 3054 3057 3060 3063 3065 3068 3071 3074 3076 3079 3082 3085 3088 3091 3094 3097 3100 3103 3106 3109 3112 3115 3118 3121 3124 3127 3130 3133 3136 3139 3142 3145 3148 3151 3153 3155 3157 3160 3163 3166 3169 3171 3174 3177 3180 3183 3185 3188 3191 3194 3197 3200 3203 3206 3208 3211 3214 3217 3220 3223 3226 3229 3232 3234 3237 3240 3243 3246 3249 3252 3255 3258 3261 3264 3267 3270 3272 3275 3278 3281 3284 3287 3290 3292 3295 3298 3301 3304 3307 3310 3313 3316 3318 3321 3324 3327 3329 3332 3335 3338 3341 3344 3347 3350 3353 3356 3359 3362 3365 3367 3370 3373 3376 3379 3382 3385 3388 3391 3394 3397 3400 3403 3406 3409 3412 3415 3418 3421 3424 3427 3430 3433 3436 3439 3442 3445 3448 3451 3454 3457 3460 3463 3466 3469 3472 3475 3478 3481 3484 3487 3490 3493 3496 3499 3502 3505 3508 3510 3513 3516 3519 3522 3525 3528 3531 3534 3537 3540 3543 3546 3549 3552 3555 3558 3561 3564 3567 3570 3573 3576 3579 3582 3584 3587 3590 3593 3596 3599 3602 3605 3608 3611 3614 3616 3619 3622 3624 3627 3630 3633 3636 3639 3642 3645 3648 3651 3653 3656 3658 3661 3664 3667 3670 3672 3675 3678 3680 3683 3685 3688 3691 3694 3697 3700 3702 3705 3708 3711 3714 3717 3720 3723 3726 3728 3731 3734 3737 3740 3743 3746 3749 3752 3755 3758 3761 3764 3767 3770 3772 3775 3777 3779 3782 3785 3788 3791 3794 3796 3799 3802 3805 3808 3811 3814 3817 3820 3823 3826 3829 3832 3835 3838 3841 3843 3846 3849 3852 3855 3858 3861 3864 3867 3870 3873 3876 3879 3882 3885 3888 3891 3893 3896 3899 3902 3905 3908 3910 3912 3915 3918 3920 3923 3926 3929 3932 3935 3938 3941 3944 3947 3950 3952 3955 3958 3961 3964 3967 3970 3973 3976 3979 3981 3984 3986 3989 3992 3995 3998 4001 4003 4006 4009 4012 4015 4017 4020 4023 4026 4028 4031 4034 4037 4039 4042 4045 4047 4050 4053 4056 4059 4062 4065 4068 4071 4074 4077 4080 4083 4086 4089 4092 4095 4097 4100 4103 4106 4109 4112 4115 4118 4120 4123 4126 4129 4132 4135 4138 4141 4144 4147 4150 4153 4156 4159 4162 4165 4168 4171 4174 4177 4180 4183 4186 4189 4192 4195 4198 4201 4203 4206 4209 4212 4215 4217 4220 4223 4226 4228 4231 4234 4237 4240 4243 4246 4249 4252 4255 4257 4260 4262 4265 4268 4271 4274 4277 4280 4283 4286 4289 4292 4295 4298 4301 4304 4307 4310 4313 4316 4318 4320 4323 4326 4329 4331 4334 4337 4339 4342 4345 4347 4350 4353 4356 4358 4361 4364 4366 4369 4372 4375 4378 4381 4384 4387 4390 4393 4396 4399 4402 4405 4408 4411 4414 4417 4420 4423 4426 4428 4431 4433 4436 4439 4442 4445 4448 4451 4454 4457 4460 4463 4466 4468 4471 4473 4476 4479 4482 4484 4487 4490 4493 4496 4499 4501 4504 4507 4510 4513 4516 4519 4521 4524 4527 4530 4533 4536 4539 4542 4545 4548 4551 4554 4556 4559 4562 4565 4568 4571 4574 4577 4580 4582 4585 4588 4591 4593 4596 4599 4601 4604 4607 4610 4613 4616 4618 4621 4624 4627 4630 4633 4636 4639 4642 4645 4647 4650 4653 4655 4658 4660 4663 4665 4667 4669 4672 4674 4677 4680 4683 4686 4689 4692 4694 4697 4700 4703 4706 4709 4712 4714 4717 4720 4723 4726 4729 4732 4735 4737 4740 4743 4746 4749 4751 4754 4757 4760 4763 4766 4768 4771 4773 4776 4779 4782 4785 4788 4791 4794 4797 4800 4803 4805 4808 4811 4814 4817 4820 4823 4826 4828 4831 4834 4837 4840 4843 4846 4849 4851 4854 4856 4859 4862 4865 4868 4871 4874 4877 4880 4882 4885 4888 4891 4893 4895 4898 4901 4904 4907 4910 4912 4914 4917 4919 4922 4925 4927 4930 4933 4935 4938 4941 4944 4947 4950 4953 4956 4959 4961 4964 4967 4970 4973 4976 4978 4981 4984 4987 4990 4992 4995 4998 5000 5003 5006 5009 5012 5015 5018 5021 5024 5027 5030 5033 5036 5039 5042 5045 5048 5051 5054 5057 5060 5063 5066 5069 5072 5075 5078 5081 5084 5087 5090 5093 5096 5099 5102 5105 5108 5111 5114 5117 5120 5123 5125 5128 5131 5133 5136 5139 5142 5145 5148 5150 5153 5156 5159 5162 5164 5167 5170 5173 5176 5179 5182 5185 5188 5191 5194 5197 5200 5203 5206 5209 5212 5215 5218 5221 5224 5227 5230 5233 5236 5238 5241 5244 5247 5249 5252 5255 5258 5261 5264 5267 5269 5272 5275 5278 5281 5284 5287 5290 5293 5296 5299 5302 5304 5307 5309 5311 5314 5317 5319 5322 5325 5328 5331 5334 5337 5340 5343 5346 5349 5352 5354 5357 5360 5362 5365 5368 5371 5374 5377 5380 5383 5386 5389 5392 5395 5398 5401 5404 5407 5409 5412 5415 5418 5421 5424 5427 5430 5432 5435 5437 5440 5443 5446 5449 5451 5454 5456 5459 5462 5465 5468 5471 5474 5477 5480 5483 5485 5488 5491 5494 5497 5500 5503 5506 5509 5512 5515 5518 5521 5524 5527 5530 5533 5536 5538 5541 5544 5547 5550 5553 5556 5559 5562 5565 5568 5571 5574 5577 5580 5583 5586 5589 5592 5595 5598 5601 5604 5607 5610 5613 5615 5617 5620 5623 5626 5629 5632 5635 5638 5641 5644 5647 5650 5652 5655 5658 5661 5664 5666 5669 5672 5675 5678 5680 5683 5686 5689 5692 5695 5698 5701 5704 5706 5709 5712 5715 5718 5721 5724 5727 5730 5733 5735 5738 5741 5744 5747 5750 5753 5756 5759 5762 5765 5768 5771 5774 5777 5780 5783 5786 5789 5792 5795 5797 5800 5803 5806 5809 5812 5815 5818 5821 5824 5827 5830 5833 5836 5839 5841 5844 5846 5849 5852 5855 5858 5861 5864 5867 5870 5872 5875 5878 5880 5883 5886 5889 5892 5895 5898 5901 5904 5907 5910 5913 5916 5919 5922 5925 5928 5931 5934 5937 5940 5943 5946 5949 5952 5955 5958 5961 5964 5967 5970 5973 5976 5979 5982 5985 5988 5990 5993 5996 5998 6001 6004 6007 6010 6012 6015 6017 6020 6023 6025 6028 6030 6033 6036 6039 6042 6045 6047 6050 6053 6056 6059 6062 6065 6068 6071 6074 6077 6080 6083 6085 6088 6091 6094 6096 6099 6102 6105 6108 6111 6114 6117 6120 6123 6125 6128 6131 6134 6137 6139 6141 6144 6147 6150 6153 6156 6159 6162 6165 6167 6170 6173 6176 6179 6182 6184 6187 6190 6193 6195 6198 6201 6204 6206 6209 6212 6215 6218 6220 6223 6226 6229 6232 6235 6238 6241 6244 6247 6250 6253 6256 6259 6262 6264 6267 6270 6273 6276 6279 6282 6284 6287 6289 6291 6294 6296 6299 6301 6304 6307 6310 6313 6315 6318 6321 6324 6327 6329 6332 6335 6338 6341 6344 6347 6350 6353 6356 6358 6361 6364 6367 6370 6373 6376 6379 6382 6385 6388 6391 6394 6397 6400 6402 6405 6408 6411 6413 6416 6419 6422 6424 6427 6429 6432 6435 6438 6441 6444 6447 6450 6453 6456 6459 6462 6465 6468 6471 6474 6477 6479 6482 6485 6488 6491 6494 6497 6499 6502 6505 6508 6511 6514 6517 6520 6523 6526 6529 6532 6535 6538 6541 6544 6547 6550 6553 6555 6558 6561 6564 6567 6570 6573 6576 6579 6582 6585 6588 6591 6594 6597 6600 6603 6606 6609 6612 6615 6618 6621 6624 6627 6630 6633 6636 6639 6642 6645 6648 6651 6654 6657 6659 6662 6665 6668 6671 6673 6676 6679 6682 6685 6688 6691 6694 6696 6699 6702 6705 6708 6711 6714 6717 6720 6723 6725 6728 6731 6733 6736 6739 6742 6745 6748 6750 6753 6756 6759 6761 6764 6767 6769 6772 6775 6778 6781 6784 6787 6790 6793 6796 6799 6802 6805 6808 6811 6814 6817 6820 6823 6826 6829 6831 6834 6837 6840 6843 6846 6849 6852 6855 6858 6861 6863 6865 6868 6870 6873 6876 6879 6882 6885 6887 6890 6893 6896 6899 6901 6904 6907 6910 6913 6916 6918 6921 6923 6926 6929 6931 6934 6937 6940 6943 6946 6949 6952 6955 6957 6960 6963 6966 6969 6972 6975 6977 6980 6983 6986 6989 6992 6995 6997 7000 7003 7006 7009 7011 7014 7017 7019 7022 7024 7027 7030 7032 7035 7038 7041 7044 7047 7050 7052 7055 7058 7061 7064 7066 7069 7072 7075 7078 7081 7084 7087 7090 7092 7094 7097 7100 7103 7106 7109 7112 7115 7118 7120 7123 7126 7129 7132 7135 7138 7140 7143 7146 7149 7152 7155 7158 7161 7163 7166 7169 7172 7174 7177 7180 7183 7186 7189 7192 7195 7198 7201 7204 7207 7210 7212 7215 7218 7221 7224 7226 7229 7232 7234 7237 7240 7243 7246 7248 7251 7254 7257 7259 7261 7264 7267 7270 7272 7275 7278 7281 7283 7286 7289 7292 7295 7298 7301 7304 7307 7310 7312 7315 7318 7321 7323 7326 7329 7332 7335 7338 7341 7344 7347 7350 7353 7356 7359 7361 7364 7366 7369 7372 7374 7377 7380 7382 7385 7388 7391 7394 7397 7400 7403 7405 7408 7411 7414 7417 7420 7422 7425 7427 7430 7433 7436 7438 7440 7443 7445 7447 7450 7452 7455 7458 7461 7464 7467 7470 7472 7475 7477 7480 7483 7486 7489 7492 7495 7498 7501 7504 7507 7510 7513 7516 7518 7521 7524 7526 7529 7531 7534 7537 7539 7542 7545 7548 7550 7552 7555 7558 7560 7563 7566 7569 7572 7575 7578 7581 7584 7587 7590 7593 7596 7599 7602 7605 7608 7611 7614 7617 7620 7623 7626 7629 7631 7633 7636 7638 7641 7643 7646 7649 7651 7653 7656 7659 7661 7664 7667 7669 7672 7675 7677 7680 7682 7685 7688 7691 7694 7696 7699 7702 7705 7708 7710 7713 7715 7717 7720 7722 7725 7728 7730 7732 7735 7738 7741 7743 7746 7749 7752 7755 7757 7759 7762 7765 7768 7771 7774 7776 7779 7782 7785 7788 7791 7794 7797 7800 7803 7806 7809 7811 7814 7816 7819 7821 7824 7827 7829 7832 7834 7837 7840 7843 7846 7849 7852 7855 7858 7860 7863 7866 7868 7871 7874 7877 7880 7882 7885 7888 7891 7894 7897 7900 7903 7906 7909 7912 7915 7918 7920 7923 7926 7929 7932 7935 7938 7941 7944 7947 7950 7953 7955 7958 7961 7964 7967 7970 7973 7975 7978 7980 7983 7986 7988 7991 7994 7997 8000 8003 8006 8009 8012 8015 8018 8021 8024 8027 8030 8033 8036 8039 8041 8043 8046 8049 8052 8054 8057 8060 8062 8065 8068 8071 8074 8077 8080 8083 8086 8089 8092 8095 8098 8101 8104 8107 8110 8113 8116 8119 8122 8125 8128 8131 8134 8137 8139 8141 8144 8147 8150 8153 8156 8159 8162 8165 8168 8171 8174 8176 8179 8182 8185 8188 8191 8194 8197 8200 8203 8206 8209 8212 8215 8218 8221 8224 8227 8230 8233 8236 8239 8242 8245 8248 8251 8254 8257 8260 8263 8266 8269 8272 8275 8277 8280 8283 8286 8289 8292 8294 8297 8300 8302 8305 8308 8310 8312 8315 8318 8321 8324 8327 8330 8333 8336 8339 8342 8345 8348 8351 8353 8356 8359 8361 8364 8367 8370 8373 8376 8379 8381 8384 8387 8389 8392 8395 8398 8401 8404 8407 8410 8413 8416 8419 8422 8425 8428 8430 8433 8436 8439 8442 8445 8448 8451 8453 8456 8459 8462 8465 8468 8471 8474 8477 8480 8483 8486 8489 8491 8494 8497 8499 8502 8505 8508 8511 8514 8517 8520 8523 8526 8529 8532 8535 8538 8541 8544 8547 8550 8553 8556 8559 8561 8564 8567 8569 8572 8574 8577 8580 8583 8585 8588 8591 8593 8596 8598 8601 8604 8607 8609 8612 8615 8618 8621 8623 8626 8629 8632 8635 8638 8641 8644 8646 8649 8652 8655 8657 8660 8663 8666 8669 8672 8675 8678 8681 8684 8687 8690 8693 8695 8698 8701 8704 8707 8710 8713 8716 8719 8721 8724 8727 8730 8733 8736 8739 8742 8745 8748 8751 8754 8756 8759 8762 8765 8768 8771 8774 8777 8780 8783 8786 8789 8792 8795 8798 8801 8804 8807 8810 8813 8815 8817 8820 8823 8826 8828 8831 8834 8837 8840 8843 8846 8849 8852 8855 8858 8861 8864 8866 8869 8872 8875 8878 8881 8884 8887 8890 8893 8895 8898 8901 8904 8907 8910 8913 8916 8919 8922 8925 8928 8931 8934 8937 8940 8943 8945 8948 8950 8953 8956 8959 8962 8965 8967 8970 8973 8976 8979 8981 8984 8987 8990 8992 8995 8998 9001 9003 9006 9009 9012 9015 9018 9021 9024 9027 9030 9032 9035 9038 9041 9043 9046 9049 9051 9054 9057 9060 9063 9066 9069 9071 9074 9077 9080 9083 9086 9089 9092 9095 9097 9100 9103 9106 9108 9111 9114 9117 9120 9123 9126 9129 9132 9135 9138 9141 9144 9147 9150 9153 9156 9159 9162 9165 9168 9171 9174 9177 9180 9183 9186 9189 9191 9194 9197 9200 9203 9206 9209 9212 9214 9217 9220 9223 9226 9229 9232 9235 9238 9241 9244 9247 9250 9253 9256 9259 9262 9265 9268 9271 9274 9277 9280 9283 9286 9289 9291 9294 9296 9299 9302 9305 9308 9311 9314 9316 9319 9322 9325 9327 9330 9333 9335 9338 9341 9344 9347 9350 9353 9356 9359 9362 9365 9368 9371 9373 9376 9379 9382 9385 9388 9390 9393 9396 9399 9402 9405 9408 9411 9414 9417 9420 9423 9426 9429 9431 9434 9437 9440 9442 9445 9448 9451 9454 9457 9460 9463 9466 9469 9472 9475 9478 9480 9482 9485 9488 9491 9494 9496 9499 9502 9505 9508 9511 9514 9517 9520 9523 9525 9527 9530 9533 9536 9539 9542 9544 9547 9550 9553 9556 9559 9561 9564 9567 9570 9573 9576 9578 9581 9583 9586 9589 9592 9595 9597 9600 9602 9605 9607 9609 9612 9615 9618 9621 9624 9627 9630 9632 9634 9637 9640 9643 9646 9649 9652 9654 9656 9658 9661 9663 9665 9668 9671 9674 9676 9679 9682 9685 9688 9691 9693 9695 9697 9700 9702 9705 9708 9711 9713 9716 9718 9720 9723 9726 9729 9732 9735 9738 9741 9743 9745 9748 9751 9753 9755 9757 9760 9763 9766 9769 9772 9775 9778 9781 9784 9787 9790 9793 9796 9799 9802 9805 9808 9811 9814 9817 9820 9823 9826 9829 9832 9835 9838 9841 9844 9847 9850 9853 9856 9859 9862 9865 9868 9871 9874 9877 9879 9882 9885 9888 9891 9894 9897 9900 9903 9906 9909 9911 9914 9917 9920 9923 9926 9929 9931 9934 9937 9939 9942 9945 9948 9951 9954 9957 9960 9963 9966 9969 9972 9975 9978 9980 9983 9985 9988 9991 9994 9997 9999 10002 10005 10008 10010 10013 10016 10018 10021 10024 10027 10029 10032 10035 10037 10040 10043 10046 10049 10052 10054 10057 10060 10063 10066 10069 10072 10075 10077 10080 10083 10086 10089 10092 10095 10098 10100 10103 10106 10108 10111 10114 10117 10120 10122 10125 10127 10130 10133 10136 10139 10142 10144 10147 10150 10153 10156 10158 10161 10164 10167 10170 10173 10176 10178 10180 10183 10186 10189 10192 10195 10197 10200 10203 10205 10208 10211 10214 10217 10220 10223 10226 10229 10232 10235 10237 10240 10243 10246 10249 10252 10255 10258 10261 10264 10267 10270 10273 10276 10279 10282 10285 10288 10291 10293 10296 10299 10302 10305 10308 10311 10313 10316 10319 10322 10325 10328 10331 10334 10336 10338 10341 10344 10347 10350 10352 10355 10358 10361 10364 10367 10370 10373 10375 10378 10381 10383 10386 10388 10390 10392 10395 10398 10401 10404 10407 10410 10412 10415 10418 10421 10424 10427 10429 10432 10435 10438 10441 10443 10446 10449 10452 10454 10457 10460 10463 10465 10468 10471 10474 10477 10480 10483 10486 10489 10492 10495 10498 10501 10504 10507 10510 10513 10516 10519 10522 10525 10528 10531 10534 10537 10540 10542 10545 10548 10551 10554 10557 10560 10563 10565 10568 10570 10573 10576 10579 10582 10585 10588 10590 10593 10596 10598 10601 10604 10607 10609 10612 10615 10617 10620 10623 10626 10629 10632 10634 10637 10640 10643 10645 10647 10650 10653 10656 10659 10662 10665 10668 10671 10674 10677 10680 10683 10685 10688 10691 10694 10697 10700 10703 10706 10709 10712 10714 10717 10720 10723 10726 10729 10731 10733 10736 10739 10742 10745 10748 10751 10754 10757 10760 10762 10765 10768 10771 10774 10777 10780 10783 10786 10788 10791 10794 10797 10800 10803 10806 10809 10812 10815 10818 10821 10824 10827 10830 10833 10836 10839 10842 10844 10847 10850 10853 10856 10858 10861 10863 10866 10868 10871 10874 10877 10880 10883 10886 10889 10892 10895 10898 10901 10904 10907 10910 10913 10916 10919 10921 10924 10927 10930 10933 10936 10938 10941 10944 10947 10949 10951 10954 10957 10960 10963 10966 10968 10971 10974 10977 10980 10982 10985 10988 10991 10994 10997 11000 11003 11006 11008 11011 11014 11017 11020 11023 11026 11029 11031 11034 11037 11040 11043 11046 11049 11052 11055 11058 11060 11063 11066 11069 11072 11075 11078 11081 11084 11087 11090 11093 11096 11099 11102 11105 11108 11111 11114 11116 11119 11122 11125 11128 11131 11134 11137 11140 11143 11146 11149 11152 11155 11157 11160 11163 11166 11169 11172 11175 11177 11180 11183 11185 11188 11191 11193 11196 11199 11202 11205 11208 11211 11214 11217 11220 11223 11226 11229 11232 11235 11238 11241 11244 11247 11250 11253 11256 11259 11262 11265 11268 11271 11273 11276 11278 11281 11283 11285 11288 11291 11294 11296 11299 11302 11305 11308 11311 11314 11317 11320 11323 11325 11327 11330 11332 11335 11338 11341 11344 11347 11350 11353 11356 11359 11362 11365 11368 11371 11374 11376 11379 11381 11383 11386 11388 11391 11394 11397 11400 11403 11406 11409 11412 11415 11417 11419 11422 11425 11428 11431 11434 11437 11440 11443 11446 11449 11452 11455 11458 11461 11464 11467 11470 11473 11476 11479 11482 11485 11487 11490 11493 11496 11499 11502 11504 11507 11510 11513 11516 11519 11521 11524 11527 11530 11532 11535 11538 11541 11544 11547 11550 11553 11556 11559 11561 11564 11567 11570 11573 11575 11578 11581 11584 11587 11590 11593 11595 11598 11601 11604 11607 11610 11613 11616 11618 11621 11624 11627 11630 11632 11635 11638 11641 11644 11647 11650 11653 11656 11659 11662 11664 11667 11670 11673 11676 11678 11681 11684 11687 11689 11692 11695 11698 11701 11704 11706 11709 11712 11715 11718 11721 11724 11727 11730 11733 11736 11739 11742 11745 11748 11750 11752 11755 11758 11760 11763 11766 11769 11772 11775 11778 11781 11783 11786 11789 11792 11795 11798 11801 11803 11806 11809 11812 11815 11818 11821 11824 11827 11830 11833 11836 11839 11842 11845 11848 11851 11854 11857 11860 11863 11866 11869 11872 11874 11877 11880 11883 11886 11889 11892 11895 11898 11900 11903 11906 11909 11912 11914 11917 11920 11923 11926 11929 11931 11934 11936 11939 11941 11944 11947 11950 11953 11956 11959 11962 11964 11967 11970 11973 11975 11978 11981 11984 11987 11990 11992 11995 11998 12001 12004 12007 12009 12012 12014 12017 12020 12022 12025 12027 12030 12033 12036 12039 12042 12044 12047 12050 12053 12055 12058 12061 12064 12067 12070 12073 12076 12079 12082 12085 12087 12090 12093 12096 12099 12102 12105 12108 12111 12114 12117 12120 12123 12126 12129 12132 12135 12138 12141 12144 12147 12150 12153 12155 12158 12161 12164 12167 12170 12173 12176 12179 12182 12185 12188 12191 12194 12197 12200 12203 12206 12209 12211 12214 12217 12220 12222 12225 12228 12231 12234 12237 12240 12242 12245 12248 12251 12253 12255 12258 12260 12263 12265 12267 12270 12272 12275 12278 12280 12283 12286 12288 12290 12293 12296 12299 12302 12305 12308 12311 12314 12316 12319 12321 12324 12327 12330 12333 12336 12339 12342 12345 12348 12351 12354 12357 12360 12363 12366 12369 12372 12375 12378 12381 12384 12387 12389 12392 12395 12398 12401 12404 12407 12410 12413 12415 12418 12421 12423 12426 12429 12431 12433 12436 12439 12441 12444 12447 12450 12453 12456 12459 12462 12465 12468 12471 12474 12477 12480 12483 12486 12489 12492 12495 12498 12501 12504 12507 12510 12513 12516 12519 12522 12525 12528 12531 12534 12537 12540 12543 12546 12549 12552 12555 12558 12560 12563 12565 12568 12571 12574 12577 12580 12583 12586 12589 12592 12595 12598 12601 12604 12607 12610 12613 12616 12619 12622 12625 12628 12631 12634 12637 12640 12643 12646 12649 12652 12655 12658 12661 12664 12667 12670 12673 12676 12679 12682 12685 12687 12690 12693 12695 12698 12701 12704 12707 12710 12712 12715 12717 12720 12723 12725 12728 12731 12734 12737 12740 12743 12745 12748 12751 12754 12757 12760 12763 12766 12769 12772 12775 12778 12780 12783 12786 12788 12790 12793 12795 12798 12801 12803 12806 12809 12812 12815 12817 12820 12823 12826 12829 12832 12835 12838 12841 12844 12846 12849 12851 12854 12857 12860 12863 12866 12869 12872 12874 12877 12879 12882 12885 12888 12891 12894 12897 12900 12903 12906 12908 12911 12913 12916 12919 12922 12925 12928 12931 12934 12937 12940 12943 12945 12948 12951 12954 12956 12959 12962 12964 12967 12970 12972 12975 12978 12981 12984 12986 12989 12992 12995 12997 13000 13003 13006 13009 13012 13015 13018 13021 13024 13027 13030 13033 13036 13039 13041 13044 13047 13050 13053 13056 13059 13061 13064 13066 13069 13071 13074 13077 13080 13082 13085 13088 13091 13094 13097 13100 13103 13106 13108 13111 13114 13117 13120 13123 13125 13128 13131 13133 13136 13139 13142 13145 13148 13151 13154 13157 13160 13162 13165 13168 13171 13173 13176 13179 13182 13185 13188 13191 13193 13196 13199 13202 13205 13208 13211 13214 13217 13220 13223 13226 13229 13232 13235 13238 13241 13244 13247 13250 13253 13256 13259 13262 13265 13268 13271 13274 13277 13280 13283 13286 13288 13291 13294 13297 13300 13303 13305 13308 13311 13313 13315 13318 13321 13324 13327 13329 13332 13335 13338 13341 13344 13346 13349 13352 13355 13358 13361 13364 13367 13370 13373 13376 13379 13382 13385 13388 13391 13394 13396 13399 13402 13405 13408 13411 13414 13417 13420 13422 13424 13427 13430 13433 13436 13439 13442 13444 13447 13450 13453 13456 13458 13461 13464 13467 13470 13473 13476 13479 13482 13485 13488 13491 13494 13497 13500 13503 13506 13509 13512 13515 13518 13521 13524 13527 13530 13532 13535 13538 13540 13543 13546 13549 13552 13555 13558 13561 13564 13567 13570 13573 13576 13579 13582 13585 13588 13591 13594 13597 13600 13603 13606 13609 13612 13615 13618 13621 13623 13626 13628 13631 13634 13637 13640 13643 13645 13648 13651 13654 13657 13660 13663 13666 13669 13672 13675 13678 13681 13684 13687 13690 13693 13696 13699 13702 13705 13707 13709 13712 13714 13717 13720 13723 13726 13729 13732 13735 13738 13741 13744 13747 13750 13753 13756 13759 13762 13764 13767 13770 13773 13775 13778 13781 13784 13787 13790 13793 13796 13799 13802 13805 13808 13811 13814 13816 13819 13822 13825 13828 13831 13834 13837 13840 13843 13846 13849 13852 13855 13858 13861 13864 13867 13870 13873 13876 13879 13882 13884 13887 13890 13893 13896 13899 13902 13905 13908 13911 13914 13917 13920 13923 13925 13928 13930 13933 13936 13938 13940 13943 13946 13949 13952 13955 13958 13961 13964 13967 13970 13973 13976 13979 13982 13985 13988 13991 13994 13997 14000 14002 14005 14008 14010 14013 14016 14019 14021 14024 14027 14030 14033 14036 14039 14041 14044 14047 14050 14052 14055 14058 14061 14064 14067 14070 14073 14076 14078 14081 14084 14086 14089 14092 14094 14097 14099 14102 14105 14108 14111 14113 14115 14118 14121 14123 14125 14128 14131 14133 14136 14139 14142 14145 14147 14150 14153 14155 14157 14160 14162 14165 14168 14171 14174 14177 14180 14183 14186 14189 14192 14195 14198 14201 14204 14207 14210 14213 14216 14219 14222 14224 14227 14230 14233 14236 14238 14241 14244 14247 14250 14252 14254 14257 14260 14263 14266 14269 14272 14275 14278 14281 14284 14287 14290 14292 14295 14298 14301 14303 14306 14309 14312 14315 14318 14321 14324 14326 14329 14332 14335 14337 14340 14343 14345 14347 14350 14353 14356 14358 14361 14364 14367 14369 14372 14375 14378 14381 14384 14387 14390 14393 14396 14399 14402 14405 14408 14411 14414 14417 14420 14423 14425 14428 14431 14434 14437 14440 14443 14446 14449 14452 14455 14458 14461 14464 14467 14470 14473 14476 14479 14481 14483 14486 14489 14492 14495 14498 14500 14502 14505 14507 14510 14513 14516 14519 14522 14525 14528 14531 14534 14536 14539 14542 14545 14547 14550 14553 14556 14559 14562 14565 14568 14571 14574 14577 14580 14583 14586 14589 14591 14594 14597 14600 14603 14606 14609 14612 14614 14617 14620 14622 14625 14628 14631 14634 14637 14640 14642 14645 14648 14651 14654 14656 14659 14662 14665 14668 14671 14674 14676 14679 14682 14685 14688 14691 14694 14697 14700 14702 14704 14707 14710 14713 14715 14717 14720 14723 14726 14729 14732 14734 14737 14740 14743 14746 14749 14752 14754 14757 14760 14763 14766 14768 14771 14774 14777 14780 14783 14785 14788 14791 14794 14797 14799 14802 14805 14808 14811 14814 14817 14820 14823 14826 14829 14832 14835 14838 14841 14844 14847 14850 14853 14856 14859 14862 14865 14868 14871 14874 14876 14879 14882 14885 14888 14890 14893 14895 14898 14900 14903 14906 14908 14911 14914 14916 14919 14922 14924 14927 14930 14933 14936 14939 14942 14944 14947 14950 14952 14955 14957 14959 14961 14964 14967 14969 14972 14974 14976 14979 14982 14985 14987 14990 14992 14995 14998 15001 15004 15007 15010 15012 15015 15018 15021 15023 15026 15029 15032 15035 15038 15041 15044 15046 15049 15052 15055 15057 15060 15062 15064 15067 15070 15073 15076 15079 15082 15085 15087 15090 15093 15096 15099 15102 15105 15108 15111 15113 15115 15118 15121 15124 15127 15129 15132 15135 15137 15140 15143 15146 15148 15151 15154 15157 15159 15161 15164 15167 15170 15173 15175 15178 15181 15184 15187 15190 15192 15194 15197 15200 15203 15206 15209 15212 15215 15218 15221 15224 15227 15230 15233 15236 15239 15242 15245 15248 15251 15254 15257 15260 15263 15266 15269 15272 15275 15278 15281 15284 15287 15289 15292 15295 15298 15300 15303 15306 15309 15312 15315 15318 15321 15324 15327 15330 15333 15336 15339 15342 15345 15347 15350 15352 15354 15357 15360 15362 15365 15368 15371 15374 15377 15380 15383 15386 15389 15392 15395 15398 15401 15404 15407 15410 15413 15416 15419 15422 15425 15428 15431 15433 15436 15439 15441 15443 15446 15449 15452 15455 15458 15461 15464 15466 15469 15472 15475 15477 15480 15483 15486 15489 15491 15493 15496 15499 15502 15505 15508 15511 15514 15516 15519 15522 15525 15528 15530 15533 15536 15539 15542 15544 15547 15550 15553 15556 15559 15562 15565 15568 15571 15574 15577 15580 15583 15586 15589 15592 15595 15598 15601 15603 15606 15609 15612 15615 15618 15621 15624 15627 15630 15633 15636 15639 15642 15645 15648 15651 15653 15656 15659 15662 15664 15667 15670 15673 15676 15679 15682 15685 15688 15691 15693 15696 15699 15702 15705 15708 15711 15714 15717 15720 15723 15726 15729 15732 15735 15738 15741 15744 15747 15750 15753 15756 15758 15761 15764 15767 15770 15773 15776 15779 15782 15785 15788 15791 15794 15797 15800 15803 15806 15809 15811 15814 15817 15820 15823 15826 15828 15831 15834 15837 15840 15843 15846 15849 15852 15855 15858 15861 15864 15867 15870 15873 15876 15879 15882 15885 15888 15891 15894 15897 15900 15903 15906 15909 15911 15914 15917 15919 15922 15925 15928 15930 15933 15936 15939 15942 15945 15948 15951 15954 15957 15960 15963 15966 15969 15972 15975 15977 15980 15982 15985 15988 15991 15994 15997 16000 16003 16006 16009 16011 16014 16017 16020 16023 16026 16029 16032 16035 16038 16040 16042 16045 16048 16051 16054 16057 16060 16063 16066 16069 16072 16075 16078 16081 16084 16087 16090 16093 16096 16099 16102 16105 16108 16111 16114 16117 16120 16123 16126 16129 16132 16135 16138 16141 16144 16147 16150 16153 16156 16159 16162 16165 16168 16171 16174 16177 16180 16183 16186 16189 16192 16195 16198 16201 16204 16207 16210 16213 16216 16219 16222 16225 16228 16231 16234 16237 16240 16243 16246 16249 16252 16255 16257 16260 16263 16266 16269 16272 16275 16277 16280 16283 16286 16289 16292 16295 16298 16301 16304 16306 16309 16311 16314 16317 16320 16323 16326 16329 16332 16335 16338 16341 16344 16347 16350 16353 16356 16359 16362 16365 16368 16371 16374 16377 16380 16383 16386 16389 16392 16395 16398 16401 16404 16407 16410 16413 16415 16418 16421 16424 16426 16428 16431 16434 16437 16440 16443 16446 16449 16452 16455 16458 16461 16464 16467 16470 16473 16476 16479 16482 16485 16488 16491 16494 16496 16498 16501 16504 16507 16510 16513 16516 16519 16522 16524 16527 16530 16533 16536 16539 16542 16544 16547 16550 16553 16556 16559 16561 16564 16567 16570 16573 16575 16578 16581 16584 16586 16589 16592 16595 16597 16600 16603 16605 16608 16611 16614 16617 16620 16623 16626 16629 16632 16635 16638 16641 16644 16646 16649 16652 16655 16658 16661 16664 16667 16670 16672 16675 16678 16681 16684 16687 16690 16693 16696 16699 16702 16705 16707 16710 16713 16716 16718 16721 16724 16727 16730 16732 16735 16738 16741 16744 16747 16750 16753 16756 16758 16761 16763 16766 16769 16771 16774 16777 16780 16783 16786 16788 16791 16794 16797 16800 16803 16806 16809 16812 16815 16818 16821 16824 16826 16829 16832 16835 16838 16841 16844 16847 16850 16853 16855 16858 16861 16864 16867 16870 16873 16875 16878 16881 16884 16887 16890 16893 16896 16898 16901 16904 16907 16910 16913 16915 16918 16921 16924 16927 16930 16933 16936 16939 16942 16945 16948 16951 16954 16957 16960 16963 16966 16969 16972 16975 16978 16981 16984 16987 16990 16993 16996 16999 17002 17005 17008 17011 17014 17017 17020 17023 17026 17029 17032 17035 17038 17041 17044 17047 17050 17053 17056 17058 17061 17063 17066 17069 17072 17075 17078 17081 17084 17087 17090 17093 17096 17099 17102 17105 17107 17110 17113 17116 17119 17122 17125 17128 17131 17134 17137 17140 17143 17146 17149 17152 17154 17157 17160 17162 17165 17167 17170 17173 17176 17179 17182 17184 17187 17190 17193 17196 17199 17202 17205 17208 17211 17214 17217 17220 17223 17226 17229 17232 17235 17238 17241 17244 17246 17249 17252 17255 17258 17261 17264 17267 17270 17273 17276 17279 17281 17284 17286 17289 17292 17294 17297 17299 17302 17305 17308 17311 17314 17317 17320 17322 17325 17327 17330 17333 17336 17339 17341 17344 17347 17350 17353 17355 17357 17360 17363 17365 17368 17371 17374 17377 17380 17383 17386 17389 17392 17395 17398 17401 17404 17407 17410 17413 17415 17418 17421 17424 17427 17430 17433 17436 17439 17442 17445 17448 17451 17454 17457 17459 17462 17464 17467 17470 17473 17476 17479 17482 17485 17487 17490 17492 17495 17498 17501 17504 17507 17510 17513 17516 17519 17521 17523 17526 17529 17532 17534 17537 17540 17543 17546 17548 17551 17553 17556 17559 17561 17564 17566 17568 17570 17573 17576 17578 17581 17584 17587 17589 17591 17593 17596 17599 17602 17605 17608 17611 17614 17617 17620 17623 17626 17628 17631 17634 17637 17640 17643 17646 17648 17651 17654 17657 17659 17662 17665 17668 17671 17674 17677 17680 17683 17685 17688 17691 17694 17696 17699 17702 17705 17708 17711 17714 17717 17720 17723 17726 17729 17732 17735 17738 17741 17744 17747 17750 17753 17756 17759 17762 17765 17768 17771 17774 17777 17780 17783 17786 17789 17792 17795 17798 17801 17804 17807 17810 17813 17816 17819 17822 17825 17828 17831 17834 17837 17840 17843 17846 17849 17852 17855 17858 17861 17864 17867 17870 17873 17876 17878 17881 17884 17887 17890 17893 17895 17898 17901 17904 17907 17909 17912 17915 17918 17920 17923 17926 17929 17932 17935 17938 17941 17944 17947 17950 17953 17956 17959 17962 17965 17968 17971 17974 17977 17980 17983 17986 17989 17992 17995 17998 18001 18004 18007 18010 18013 18016 18019 18022 18025 18028 18031 18034 18037 18040 18042 18045 18048 18050 18053 18056 18059 18062 18065 18068 18071 18073 18076 18079 18082 18085 18088 18091 18094 18097 18100 18103 18106 18108 18111 18114 18116 18119 18121 18124 18127 18130 18132 18135 18138 18141 18144 18147 18150 18153 18156 18158 18161 18164 18167 18170 18172 18175 18178 18181 18184 18186 18189 18191 18194 18197 18200 18203 18206 18209 18212 18215 18218 18221 18224 18227 18229 18232 18234 18237 18240 18243 18246 18249 18252 18255 18258 18261 18264 18267 18270 18273 18275 18278 18281 18284 18287 18290 18293 18296 18299 18302 18304 18307 18310 18313 18315 18318 18321 18324 18327 18330 18333 18336 18339 18342 18345 18348 18351 18354 18357 18360 18363 18366 18369 18372 18375 18378 18381 18384 18387 18390 18393 18396 18399 18402 18405 18408 18411 18414 18417 18420 18422 18425 18428 18430 18433 18436 18439 18442 18444 18447 18450 18453 18456 18459 18462 18465 18468 18471 18474 18477 18480 18483 18486 18489 18491 18494 18497 18500 18503 18506 18509 18512 18515 18518 18520 18523 18525 18528 18531 18534 18537 18540 18543 18546 18548 18551 18554 18557 18560 18563 18566 18569 18572 18575 18578 18581 18584 18587 18590 18592 18595 18598 18601 18604 18607 18610 18613 18616 18619 18622 18625 18627 18630 18633 18636 18639 18642 18645 18648 18651 18654 18657 18660 18663 18666 18669 18672 18675 18678 18681 18684 18687 18690 18693 18696 18698 18701 18703 18706 18709 18712 18715 18718 18721 18723 18726 18728 18731 18734 18737 18739 18742 18745 18748 18750 18753 18756 18759 18761 18764 18767 18769 18772 18775 18778 18781 18784 18787 18790 18792 18795 18798 18801 18804 18807 18810 18813 18815 18818 18821 18824 18827 18830 18833 18836 18839 18842 18845 18848 18851 18854 18856 18859 18862 18865 18868 18871 18874 18877 18880 18882 18885 18888 18891 18894 18897 18900 18903 18906 18909 18912 18915 18918 18921 18924 18927 18930 18933 18936 18939 18942 18944 18947 18950 18953 18956 18959 18962 18965 18968 18971 18974 18977 18980 18983 18986 18989 18992 18995 18998 19001 19004 19007 19010 19013 19016 19019 19022 19025 19028 19031 19034 19037 19040 19043 19046 19049 19052 19055 19058 19061 19064 19067 19070 19073 19076 19079 19082 19085 19088 19091 19094 19096 19099 19101 19104 19107 19110 19112 19115 19118 19120 19122 19125 19127 19130 19133 19136 19139 19142 19145 19148 19151 19154 19157 19160 19163 19166 19169 19172 19175 19178 19181 19184 19187 19190 19193 19196 19199 19202 19205 19208 19211 19214 19217 19220 19223 19226 19229 19232 19234 19237 19240 19243 19246 19248 19251 19254 19256 19259 19262 19265 19267 19270 19273 19276 19279 19281 19284 19286 19288 19291 19294 19297 19300 19302 19305 19308 19311 19313 19316 19319 19322 19324 19327 19330 19333 19336 19339 19342 19344 19347 19350 19353 19356 19359 19362 19365 19368 19371 19374 19377 19380 19383 19386 19389 19392 19395 19398 19401 19404 19406 19409 19412 19415 19418 19421 19424 19427 19430 19433 19436 19439 19442 19445 19448 19451 19454 19457 19460 19462 19465 19468 19470 19473 19476 19478 19481 19484 19487 19490 19493 19496 19499 19502 19505 19508 19511 19513 19516 19519 19522 19525 19527 19530 19533 19536 19539 19541 19544 19547 19550 19552 19555 19558 19561 19564 19567 19570 19573 19576 19579 19582 19585 19588 19591 19594 19597 19600 19603 19606 19609 19612 19615 19618 19621 19624 19627 19629 19632 19635 19638 19641 19644 19647 19650 19653 19655 19658 19661 19664 19666 19669 19672 19675 19678 19681 19684 19687 19690 19693 19696 19699 19702 19705 19708 19711 19714 19717 19720 19723 19726 19729 19732 19735 19738 19740 19743 19746 19749 19751 19754 19757 19760 19763 19766 19769 19772 19775 19777 19780 19783 19785 19788 19791 19794 19797 19799 19802 19805 19808 19811 19814 19817 19820 19822 19825 19827 19830 19833 19835 19838 19841 19843 19845 19848 19851 19854 19857 19860 19863 19866 19869 19872 19875 19878 19881 19884 19887 19890 19893 19896 19899 19902 19905 19908 19910 19913 19916 19919 19922 19924 19927 19930 19933 19936 19939 19942 19945 19948 19951 19954 19957 19960 19963 19965 19968 19971 19973 19976 19979 19982 19985 19988 19991 19994 19997 20000 20003 20006 20009 20012 20015 20018 20021 20024 20027 20030 20033 20036 20039 20042 20045 20048 20051 20054 20057 20060 20063 20066 20069 20072 20075 20078 20081 20084 20087 20090 20093 20096 20099 20102 20105 20108 20111 20114 20117 20120 20123 20126 20129 20132 20135 20138 20141 20144 20147 20150 20153 20156 20159 20162 20165 20168 20171 20174 20177 20180 20183 20186 20189 20192 20195 20198 20201 20204 20207 20210 20213 20216 20219 20222 20225 20228 20231 20234 20237 20240 20243 20246 20249 20252 20255 20258 20261 20264 20267 20270 20273 20276 20279 20282 20285 20288 20291 20294 20297 20300 20303 20306 20309 20312 20315 20318 20321 20324 20327 20330 20333 20336 20339 20342 20345 20348 20351 20354 20357 20359 20362 20365 20368 20371 20374 20377 20380 20382 20385 20388 20391 20394 20397 20400 20403 20406 20409 20411 20414 20416 20419 20422 20425 20427 20430 20433 20435 20438 20441 20444 20447 20450 20453 20456 20459 20462 20465 20468 20471 20474 20477 20480 20483 20486 20489 20492 20495 20498 20501 20504 20507 20510 20513 20516 20519 20522 20525 20528 20531 20534 20537 20540 20543 20546 20548 20551 20554 20556 20558 20561 20564 20566 20569 20572 20574 20577 20580 20583 20585 20588 20591 20594 20597 20600 20603 20606 20609 20612 20614 20617 20620 20623 20626 20629 20632 20634 20637 20640 20643 20646 20649 20652 20655 20658 20661 20664 20667 20670 20673 20676 20679 20682 20685 20688 20691 20694 20697 20700 20703 20706 20709 20712 20715 20718 20721 20724 20727 20729 20732 20735 20738 20741 20744 20747 20750 20753 20756 20759 20762 20765 20768 20771 20774 20777 20780 20783 20786 20789 20792 20795 20798 20801 20804 20807 20810 20813 20816 20819 20822 20825 20828 20831 20834 20837 20840 20843 20846 20849 20852 20855 20858 20861 20864 20867 20869 20872 20874 20877 20880 20883 20886 20888 20891 20894 20897 20900 20902 20905 20908 20911 20914 20916 20919 20922 20925 20928 20931 20934 20937 20940 20942 20945 20948 20950 20953 20955 20958 20961 20964 20967 20969 20972 20975 20977 20979 20982 20985 20988 20991 20994 20997 20999 21002 21005 21008 21011 21014 21017 21020 21023 21026 21029 21031 21033 21036 21039 21042 21045 21048 21050 21053 21056 21058 21061 21064 21067 21070 21072 21075 21078 21080 21083 21086 21089 21092 21095 21098 21101 21104 21107 21110 21113 21116 21119 21122 21125 21128 21131 21134 21137 21140 21143 21146 21149 21152 21155 21158 21161 21164 21167 21169 21172 21174 21177 21180 21183 21186 21189 21192 21195 21198 21201 21204 21207 21210 21213 21215 21218 21221 21224 21227 21229 21231 21234 21237 21240 21243 21246 21249 21252 21255 21258 21261 21264 21267 21270 21273 21276 21279 21282 21285 21288 21291 21294 21297 21300 21303 21306 21309 21312 21315 21318 21321 21324 21327 21330 21333 21336 21339 21342 21345 21348 21351 21354 21357 21359 21362 21365 21368 21370 21373 21376 21379 21382 21385 21388 21391 21394 21397 21400 21403 21406 21409 21412 21415 21418 21421 21424 21427 21430 21432 21435 21438 21440 21443 21446 21449 21452 21455 21458 21461 21464 21467 21469 21472 21475 21478 21481 21484 21486 21489 21492 21495 21498 21501 21503 21506 21508 21511 21514 21517 21520 21523 21526 21529 21532 21535 21538 21541 21544 21547 21549 21552 21555 21558 21560 21562 21565 21568 21571 21574 21577 21580 21583 21586 21588 21591 21594 21596 21599 21602 21604 21606 21609 21612 21615 21618 21621 21623 21626 21629 21632 21635 21638 21641 21644 21646 21649 21652 21654 21656 21659 21662 21665 21668 21671 21674 21676 21678 21681 21684 21687 21689 21692 21695 21698 21701 21704 21707 21710 21712 21715 21718 21721 21724 21727 21730 21733 21736 21739 21742 21745 21748 21751 21754 21757 21760 21763 21766 21769 21772 21775 21778 21781 21784 21787 21790 21792 21795 21798 21801 21804 21807 21810 21813 21815 21818 21821 21824 21827 21830 21833 21836 21839 21842 21845 21848 21850 21853 21856 21859 21862 21865 21868 21871 21874 21876 21879 21882 21885 21888 21891 21894 21897 21900 21903 21906 21909 21912 21915 21918 21921 21924 21926 21929 21932 21935 21937 21940 21943 21946 21949 21952 21954 21957 21960 21963 21966 21969 21972 21975 21978 21981 21984 21987 21990 21993 21996 21998 22001 22004 22007 22010 22012 22015 22018 22020 22023 22026 22029 22032 22035 22037 22040 22043 22046 22049 22052 22055 22058 22061 22064 22067 22070 22073 22076 22079 22081 22084 22086 22089 22092 22095 22097 22100 22102 22105 22107 22110 22113 22116 22119 22122 22125 22127 22129 22132 22135 22138 22141 22144 22147 22149 22152 22154 22157 22160 22163 22166 22169 22172 22175 22178 22181 22184 22187 22190 22193 22196 22199 22202 22205 22207 22210 22213 22216 22218 22220 22223 22226 22229 22232 22235 22237 22240 22243 22245 22247 22250 22253 22256 22259 22262 22265 22268 22271 22274 22277 22280 22283 22286 22289 22292 22295 22298 22301 22304 22307 22310 22313 22316 22319 22322 22325 22328 22331 22334 22337 22340 22343 22346 22349 22352 22355 22358 22361 22364 22367 22370 22373 22376 22379 22381 22384 22387 22389 22391 22393 22396 22399 22402 22405 22408 22411 22413 22416 22419 22422 22425 22428 22431 22434 22437 22440 22442 22445 22448 22451 22453 22456 22459 22462 22465 22468 22471 22474 22477 22480 22483 22486 22489 22492 22495 22498 22501 22504 22507 22510 22513 22515 22518 22521 22524 22527 22529 22532 22535 22538 22541 22544 22547 22550 22553 22556 22559 22562 22565 22568 22571 22574 22577 22580 22583 22586 22589 22592 22595 22598 22601 22604 22607 22610 22613 22616 22619 22622 22625 22628 22631 22633 22636 22638 22641 22644 22647 22650 22653 22656 22659 22662 22664 22667 22670 22673 22675 22678 22680 22683 22686 22689 22692 22695 22698 22701 22704 22706 22709 22712 22715 22718 22720 22723 22726 22729 22732 22734 22737 22740 22743 22746 22749 22752 22755 22757 22760 22763 22766 22769 22771 22774 22777 22780 22783 22786 22789 22792 22795 22798 22801 22804 22807 22810 22813 22816 22819 22822 22825 22828 22831 22834 22837 22840 22843 22846 22849 22852 22855 22858 22861 22864 22867 22870 22873 22876 22879 22882 22885 22888 22891 22894 22897 22900 22903 22906 22909 22911 22914 22917 22920 22923 22925 22927 22930 22933 22935 22937 22940 22943 22946 22949 22952 22955 22958 22961 22964 22967 22970 22973 22976 22979 22982 22985 22988 22991 22994 22996 22999 23002 23005 23007 23009 23012 23015 23018 23021 23024 23027 23030 23033 23036 23039 23042 23045 23048 23051 23054 23057 23060 23063 23066 23069 23072 23075 23078 23081 23084 23087 23090 23092 23095 23098 23101 23104 23107 23110 23113 23115 23118 23121 23124 23127 23130 23133 23136 23139 23142 23145 23148 23151 23154 23157 23160 23162 23165 23168 23171 23174 23177 23180 23183 23186 23188 23191 23193 23195 23198 23201 23204 23207 23210 23213 23216 23219 23222 23225 23228 23231 23233 23236 23239 23242 23245 23248 23251 23254 23257 23260 23263 23266 23269 23272 23275 23278 23281 23284 23287 23289 23292 23295 23298 23300 23303 23306 23309 23312 23315 23318 23321 23324 23326 23329 23332 23335 23338 23341 23344 23347 23350 23353 23356 23359 23362 23365 23368 23371 23373 23376 23379 23382 23384 23387 23390 23393 23396 23399 23402 23405 23408 23411 23414 23417 23420 23423 23426 23429 23432 23435 23438 23441 23444 23447 23450 23453 23456 23459 23462 23465 23468 23471 23474 23477 23480 23483 23485 23488 23490 23493 23496 23499 23502 23505 23508 23511 23514 23516 23519 23522 23525 23528 23531 23534 23537 23540 23543 23545 23548 23551 23553 23556 23559 23562 23565 23568 23570 23573 23576 23579 23582 23584 23587 23590 23593 23596 23598 23601 23604 23607 23609 23612 23614 23617 23620 23622 23625 23628 23631 23634 23637 23640 23643 23646 23649 23652 23655 23658 23661 23664 23666 23669 23672 23674 23677 23679 23682 23685 23688 23690 23693 23696 23698 23701 23704 23707 23710 23712 23715 23717 23720 23723 23726 23729 23732 23735 23737 23740 23742 23745 23748 23751 23754 23757 23759 23762 23765 23768 23771 23773 23776 23779 23782 23785 23788 23791 23793 23796 23799 23802 23805 23808 23811 23814 23817 23820 23823 23826 23829 23832 23835 23838 23841 23844 23847 23850 23853 23856 23859 23862 23865 23868 23871 23874 23877 23880 23883 23886 23889 23892 23894 23896 23899 23902 23905 23908 23911 23914 23917 23920 23923 23926 23928 23931 23934 23936 23938 23941 23943 23946 23949 23952 23955 23958 23961 23964 23966 23969 23972 23975 23978 23981 23984 23987 23990 23993 23996 23999 24002 24004 24007 24010 24013 24016 24018 24021 24024 24027 24030 24033 24036 24039 24042 24045 24048 24051 24054 24056 24059 24062 24065 24068 24071 24074 24077 24080 24083 24086 24089 24092 24095 24098 24101 24104 24107 24109 24112 24115 24118 24121 24124 24126 24129 24132 24135 24137 24140 24143 24146 24149 24152 24155 24157 24160 24162 24165 24168 24171 24173 24176 24179 24182 24185 24188 24191 24194 24197 24200 24202 24205 24208 24210 24213 24216 24219 24222 24225 24228 24231 24233 24236 24239 24242 24245 24248 24251 24254 24257 24260 24263 24266 24269 24272 24274 24277 24280 24282 24285 24288 24291 24294 24297 24300 24302 24305 24308 24311 24314 24317 24320 24322 24325 24328 24331 24334 24337 24340 24343 24345 24348 24351 24354 24357 24360 24363 24366 24369 24372 24375 24378 24381 24384 24387 24390 24393 24396 24399 24402 24405 24408 24411 24413 24416 24419 24422 24425 24428 24431 24434 24437 24440 24443 24445 24448 24451 24454 24457 24459 24461 24464 24467 24470 24473 24475 24478 24481 24484 24487 24490 24493 24496 24499 24502 24504 24507 24510 24513 24516 24519 24522 24525 24528 24531 24534 24537 24539 24542 24545 24548 24550 24553 24556 24559 24561 24564 24567 24570 24573 24576 24579 24582 24585 24588 24591 24594 24597 24599 24602 24605 24608 24611 24614 24616 24619 24622 24624 24627 24630 24633 24636 24639 24642 24645 24648 24651 24654 24657 24660 24663 24666 24668 24671 24674 24677 24680 24683 24686 24689 24691 24694 24697 24700 24702 24705 24708 24711 24714 24717 24719 24722 24725 24728 24731 24734 24737 24740 24743 24746 24748 24751 24754 24757 24760 24763 24766 24769 24772 24774 24777 24780 24783 24786 24789 24791 24794 24797 24800 24803 24806 24809 24812 24814 24817 24820 24823 24826 24829 24832 24835 24838 24841 24844 24847 24850 24853 24856 24859 24862 24865 24868 24871 24874 24877 24880 24883 24886 24889 24892 24895 24898 24901 24904 24907 24910 24913 24916 24919 24922 24925 24928 24931 24934 24937 24940 24943 24946 24949 24952 24955 24958 24960 24963 24966 24969 24972 24975 24978 24981 24983 24986 24989 24992 24995 24998 25001 25004 25007 25010 25013 25016 25019 25022 25025 25028 25031 25034 25037 25040 25043 25046 25049 25051 25053 25056 25059 25061 25063 25066 25069 25072 25075 25078 25081 25084 25086 25089 25092 25095 25098 25101 25104 25107 25110 25113 25116 25119 25122 25125 25128 25130 25133 25136 25139 25142 25145 25148 25151 25154 25156 25159 25162 25164 25167 25170 25173 25175 25178 25181 25184 25187 25190 25193 25196 25199 25202 25205 25208 25211 25214 25217 25220 25223 25226 25229 25232 25235 25238 25241 25244 25247 25250 25253 25256 25259 25261 25264 25267 25270 25273 25276 25279 25282 25285 25287 25290 25293 25296 25299 25302 25305 25307 25309 25312 25315 25318 25321 25323 25326 25329 25331 25334 25337 25339 25342 25345 25348 25351 25354 25357 25359 25362 25365 25368 25371 25374 25377 25380 25383 25385 25388 25391 25394 25397 25400 25403 25406 25409 25412 25415 25418 25420 25423 25426 25428 25431 25434 25437 25440 25443 25446 25449 25451 25454 25457 25460 25462 25465 25467 25470 25472 25475 25478 25481 25484 25487 25490 25493 25496 25499 25502 25505 25508 25511 25514 25517 25520 25523 25525 25528 25530 25533 25536 25539 25542 25545 25548 25551 25554 25557 25560 25562 25565 25568 25571 25574 25577 25580 25583 25585 25588 25591 25594 25596 25599 25601 25603 25606 25609 25611 25614 25617 25620 25623 25625 25628 25631 25634 25636 25639 25642 25645 25647 25650 25652 25654 25657 25660 25663 25666 25669 25672 25674 25677 25680 25683 25686 25689 25692 25695 25698 25700 25702 25704 25707 25709 25712 25715 25717 25719 25722 25725 25727 25730 25733 25736 25739 25742 25745 25748 25751 25754 25757 25760 25762 25765 25768 25771 25774 25777 25780 25783 25786 25789 25792 25795 25798 25801 25803 25805 25808 25811 25814 25817 25819 25822 25825 25828 25830 25833 25836 25839 25842 25845 25847 25849 25852 25855 25858 25860 25863 25866 25869 25872 25875 25878 25881 25884 25887 25890 25893 25896 25899 25902 25905 25907 25910 25913 25916 25918 25921 25924 25927 25929 25932 25935 25938 25941 25944 25947 25949 25952 25955 25958 25961 25964 25966 25969 25972 25975 25978 25981 25984 25987 25990 25992 25995 25998 26001 26004 26007 26010 26013 26016 26019 26021 26024 26027 26030 26033 26035 26038 26040 26043 26046 26048 26051 26053 26056 26059 26062 26065 26068 26071 26073 26076 26078 26080 26083 26086 26089 26092 26095 26098 26101 26104 26106 26109 26111 26114 26116 26119 26121 26124 26127 26130 26133 26136 26139 26142 26145 26148 26151 26154 26156 26159 26162 26165 26167 26170 26173 26176 26179 26182 26185 26188 26191 26193 26196 26199 26202 26205 26208 26211 26214 26217 26220 26222 26225 26228 26231 26234 26236 26239 26242 26244 26247 26250 26253 26256 26259 26262 26265 26268 26271 26273 26276 26279 26282 26284 26287 26290 26293 26296 26299 26302 26305 26308 26311 26314 26317 26320 26323 26326 26329 26332 26335 26338 26341 26343 26346 26349 26352 26355 26358 26361 26364 26367 26370 26373 26375 26378 26381 26384 26387 26390 26393 26396 26399 26402 26405 26408 26411 26414 26417 26420 26423 26426 26429 26432 26435 26438 26441 26444 26447 26450 26453 26456 26459 26462 26465 26468 26471 26474 26477 26480 26483 26486 26489 26492 26495 26498 26501 26504 26507 26510 26512 26514 26517 26520 26523 26526 26529 26532 26535 26538 26541 26544 26547 26550 26553 26555 26557 26560 26563 26566 26568 26571 26574 26576 26579 26582 26585 26587 26590 26593 26596 26598 26601 26604 26607 26610 26613 26616 26619 26622 26624 26627 26630 26632 26635 26637 26639 26642 26645 26648 26651 26654 26657 26659 26662 26664 26666 26668 26671 26674 26676 26679 26682 26684 26686 26689 26692 26695 26698 26701 26704 26707 26710 26713 26716 26719 26722 26725 26728 26731 26734 26737 26740 26743 26746 26749 26751 26754 26757 26760 26763 26766 26769 26772 26775 26778 26780 26783 26786 26789 26792 26795 26798 26801 26803 26805 26808 26811 26814 26817 26820 26823 26826 26829 26832 26835 26838 26841 26844 26847 26850 26853 26856 26859 26862 26865 26868 26871 26874 26876 26879 26881 26884 26887 26890 26893 26896 26899 26902 26904 26907 26910 26913 26915 26917 26920 26923 26925 26928 26931 26934 26937 26939 26942 26945 26948 26950 26953 26956 26959 26961 26964 26967 26970 26973 26976 26979 26982 26985 26988 26990 26992 26995 26998 27001 27004 27007 27009 27012 27015 27017 27019 27021 27024 27027 27030 27033 27036 27038 27041 27044 27047 27050 27053 27056 27059 27062 27065 27067 27070 27072 27075 27078 27081 27084 27087 27090 27093 27096 27099 27102 27105 27108 27111 27114 27117 27120 27123 27126 27129 27132 27135 27138 27141 27144 27146 27149 27152 27155 27158 27160 27162 27165 27168 27171 27173 27176 27179 27182 27185 27188 27191 27194 27197 27200 27203 27206 27209 27212 27215 27218 27221 27223 27226 27229 27232 27234 27237 27240 27242 27245 27248 27251 27254 27257 27260 27263 27266 27269 27272 27275 27278 27281 27283 27286 27289 27291 27294 27297 27300 27302 27305 27307 27310 27312 27315 27317 27319 27321 27324 27327 27330 27333 27336 27339 27342 27345 27347 27350 27353 27356 27359 27362 27365 27368 27371 27373 27376 27379 27381 27384 27387 27390 27393 27396 27399 27402 27405 27408 27411 27414 27417 27420 27423 27426 27429 27432 27435 27438 27441 27444 27446 27449 27452 27455 27458 27461 27464 27467 27470 27473 27476 27478 27481 27483 27486 27489 27491 27494 27496 27499 27501 27504 27507 27509 27512 27514 27517 27520 27522 27525 27528 27531 27533 27536 27539 27542 27545 27548 27551 27554 27557 27560 27563 27566 27569 27572 27575 27578 27581 27584 27587 27590 27593 27596 27599 27602 27605 27608 27611 27614 27617 27620 27623 27626 27629 27632 27635 27638 27641 27644 27647 27650 27653 27656 27659 27662 27665 27668 27671 27674 27677 27680 27683 27686 27689 27692 27695 27698 27701 27704 27707 27710 27713 27716 27718 27721 27724 27726 27729 27732 27735 27738 27741 27744 27746 27748 27751 27754 27757 27760 27763 27766 27769 27772 27775 27778 27781 27784 27787 27790 27793 27796 27799 27802 27804 27807 27810 27813 27815 27818 27821 27824 27827 27830 27833 27836 27839 27842 27845 27848 27851 27854 27857 27860 27863 27865 27868 27871 27874 27877 27880 27883 27886 27888 27891 27894 27897 27900 27903 27906 27909 27912 27914 27917 27919 27922 27925 27928 27931 27934 27937 27940 27943 27946 27949 27952 27955 27958 27961 27964 27967 27969 27972 27975 27978 27981 27984 27987 27990 27992 27995 27998 28001 28004 28006 28009 28012 28015 28018 28021 28024 28027 28029 28032 28035 28037 28039 28042 28045 28047 28050 28053 28056 28059 28062 28065 28067 28070 28073 28076 28079 28082 28085 28088 28091 28094 28096 28099 28102 28104 28107 28110 28112 28115 28118 28120 28123 28126 28129 28132 28135 28137 28140 28143 28146 28149 28152 28155 28158 28161 28163 28166 28169 28172 28175 28178 28181 28184 28186 28189 28192 28195 28198 28201 28204 28207 28210 28213 28216 28219 28222 28224 28227 28230 28233 28236 28239 28242 28245 28247 28249 28252 28254 28257 28259 28262 28265 28268 28271 28274 28277 28280 28283 28286 28289 28292 28295 28298 28301 28304 28306 28309 28311 28314 28317 28320 28323 28326 28329 28332 28335 28337 28340 28342 28345 28347 28350 28352 28355 28357 28360 28363 28365 28368 28371 28374 28377 28380 28382 28385 28388 28391 28394 28397 28400 28403 28406 28408 28411 28414 28417 28420 28423 28425 28428 28431 28433 28436 28438 28440 28443 28446 28449 28452 28455 28458 28461 28464 28466 28469 28472 28475 28478 28481 28484 28487 28490 28493 28496 28499 28502 28505 28507 28510 28513 28516 28519 28522 28525 28528 28530 28533 28536 28539 28541 28544 28547 28550 28553 28556 28559 28562 28565 28568 28571 28574 28577 28580 28583 28586 28589 28592 28594 28597 28600 28603 28606 28609 28612 28615 28617 28620 28623 28625 28628 28631 28634 28637 28640 28643 28646 28649 28652 28655 28658 28661 28664 28667 28670 28672 28675 28678 28681 28684 28686 28689 28692 28695 28698 28701 28704 28707 28710 28713 28716 28719 28722 28725 28728 28731 28734 28737 28740 28743 28746 28749 28752 28755 28758 28761 28763 28766 28769 28772 28775 28778 28781 28783 28786 28789 28792 28795 28798 28801 28804 28807 28810 28812 28814 28817 28820 28823 28825 28828 28830 28833 28836 28839 28842 28845 28848 28851 28854 28857 28860 28863 28866 28869 28872 28875 28877 28880 28883 28886 28889 28892 28895 28898 28901 28904 28907 28910 28913 28915 28917 28920 28923 28926 28929 28932 28935 28938 28941 28943 28946 28949 28951 28954 28957 28959 28961 28964 28967 28970 28973 28976 28979 28982 28984 28987 28990 28993 28996 28999 29002 29005 29008 29011 29013 29016 29019 29022 29024 29027 29030 29033 29036 29039 29041 29044 29047 29050 29053 29056 29059 29062 29065 29068 29071 29074 29077 29079 29082 29085 29088 29090 29093 29096 29099 29101 29104 29107 29110 29113 29116 29119 29122 29125 29128 29131 29134 29137 29140 29143 29146 29149 29152 29155 29158 29161 29164 29167 29170 29173 29176 29179 29182 29185 29188 29191 29194 29197 29199 29202 29205 29208 29211 29214 29217 29220 29223 29226 29229 29232 29235 29238 29241 29244 29247 29250 29253 29256 29259 29262 29265 29268 29271 29273 29276 29278 29281 29284 29286 29289 29292 29295 29298 29301 29304 29307 29310 29313 29315 29318 29321 29324 29327 29330 29333 29336 29339 29342 29345 29348 29351 29354 29357 29359 29362 29365 29368 29371 29373 29376 29379 29382 29384 29387 29390 29393 29396 29399 29402 29405 29408 29411 29414 29417 29420 29423 29426 29429 29432 29435 29438 29441 29444 29447 29450 29453 29456 29459 29462 29465 29468 29471 29474 29477 29480 29483 29486 29489 29492 29495 29498 29501 29504 29507 29510 29513 29516 29519 29522 29525 29528 29531 29534 29537 29540 29543 29546 29549 29552 29555 29558 29561 29564 29567 29570 29573 29576 29579 29582 29585 29588 29591 29594 29597 29600 29603 29606 29609 29612 29615 29618 29621 29624 29627 29630 29633 29636 29639 29642 29645 29648 29651 29654 29657 29660 29663 29666 29669 29672 29675 29678 29681 29684 29687 29690 29693 29696 29699 29702 29705 29708 29711 29714 29717 29720 29723 29726 29729 29732 29735 29738 29741 29744 29747 29750 29753 29756 29759 29762 29765 29768 29771 29774 29777 29780 29783 29786 29789 29792 29795 29798 29801 29804 29807 29810 29813 29816 29819 29822 29825 29828 29831 29834 29837 29840 29843 29846 29849 29852 29855 29858 29861 29864 29867 29870 29873 29876 29879 29882 29885 29888 29891 29894 29897 29900 29903 29906 29909 29912 29915 29918 29921 29924 29927 29930 29933 29936 29939 29942 29945 29948 29951 29953 29956 29959 29962 29965 29968 29971 29974 29977 29980 29983 29986 29989 29992 29995 29998 30001 30003 30006 30009 30012 30015 30018 30021 30024 30027 30029 30032 30035 30038 30041 30043 30046 30049 30052 30055 30058 30061 30064 30067 30070 30073 30076 30079 30082 30085 30088 30091 30094 30097 30100 30103 30106 30109 30111 30114 30117 30120 30123 30126 30129 30132 30135 30138 30141 30144 30147 30150 30152 30154 30157 30160 30163 30166 30169 30171 30174 30176 30179 30182 30185 30188 30191 30194 30197 30200 30203 30206 30209 30211 30214 30217 30220 30223 30226 30229 30232 30234 30237 30240 30243 30246 30249 30252 30255 30258 30261 30264 30267 30270 30273 30276 30279 30281 30283 30286 30289 30292 30295 30298 30301 30304 30307 30310 30313 30316 30319 30321 30324 30327 30330 30333 30336 30339 30342 30345 30348 30351 30354 30357 30360 30363 30366 30369 30371 30374 30377 30380 30383 30386 30389 30392 30394 30397 30400 30403 30406 30409 30412 30415 30418 30421 30424 30426 30428 30431 30434 30437 30440 30443 30446 30449 30452 30455 30458 30461 30464 30467 30470 30473 30476 30479 30482 30485 30488 30491 30494 30497 30500 30503 30506 30509 30512 30515 30518 30520 30523 30526 30529 30532 30535 30537 30540 30543 30546 30549 30552 30555 30558 30561 30564 30567 30569 30572 30575 30578 30581 30583 30586 30589 30592 30595 30598 30601 30604 30607 30610 30613 30615 30618 30620 30623 30626 30629 30632 30635 30638 30641 30644 30647 30650 30653 30656 30659 30662 30665 30668 30671 30674 30677 30680 30683 30686 30689 30692 30695 30698 30701 30704 30707 30710 30713 30715 30718 30721 30724 30727 30730 30732 30735 30738 30741 30744 30747 30750 30753 30756 30759 30762 30765 30768 30771 30774 30777 30780 30783 30786 30788 30791 30794 30796 30799 30802 30805 30807 30810 30813 30816 30819 30822 30824 30827 30830 30833 30836 30839 30842 30845 30848 30851 30854 30856 30859 30862 30865 30868 30871 30874 30876 30879 30882 30885 30888 30891 30893 30895 30898 30901 30903 30906 30909 30911 30914 30917 30920 30923 30926 30929 30932 30935 30938 30941 30943 30946 30949 30951 30954 30957 30959 30962 30965 30967 30970 30973 30975 30978 30981 30983 30986 30989 30992 30995 30998 31001 31003 31006 31009 31012 31015 31018 31021 31024 31027 31030 31033 31036 31038 31041 31044 31047 31050 31053 31056 31059 31061 31064 31067 31070 31073 31075 31078 31081 31084 31086 31089 31092 31095 31098 31101 31104 31107 31110 31113 31116 31119 31121 31124 31127 31130 31133 31136 31139 31142 31145 31148 31151 31154 31157 31160 31163 31166 31169 31172 31175 31178 31181 31184 31187 31190 31193 31195 31198 31201 31204 31207 31210 31212 31215 31218 31221 31224 31227 31230 31233 31236 31239 31242 31245 31248 31251 31254 31256 31259 31262 31264 31267 31269 31272 31275 31278 31281 31283 31286 31288 31290 31293 31295 31298 31301 31304 31307 31310 31313 31316 31318 31321 31323 31326 31329 31332 31335 31338 31341 31343 31346 31349 31352 31355 31358 31361 31363 31366 31369 31372 31375 31377 31380 31383 31386 31389 31392 31394 31397 31400 31402 31405 31408 31411 31414 31416 31419 31422 31425 31428 31430 31433 31436 31439 31442 31445 31448 31450 31453 31456 31459 31462 31465 31468 31471 31474 31477 31479 31482 31485 31488 31491 31494 31497 31499 31502 31505 31508 31511 31513 31516 31519 31522 31525 31528 31531 31534 31537 31540 31543 31546 31549 31552 31555 31558 31561 31563 31566 31569 31572 31574 31577 31580 31582 31585 31588 31591 31594 31597 31600 31603 31606 31609 31612 31615 31618 31621 31624 31627 31630 31632 31635 31637 31640 31643 31646 31649 31652 31655 31658 31661 31664 31667 31670 31673 31676 31679 31682 31685 31688 31691 31694 31697 31700 31703 31706 31709 31712 31715 31717 31720 31723 31725 31728 31731 31734 31737 31740 31743 31746 31749 31752 31755 31757 31760 31763 31766 31769 31771 31774 31777 31780 31783 31785 31788 31791 31794 31797 31800 31803 31806 31809 31812 31814 31817 31820 31823 31826 31829 31832 31835 31838 31841 31844 31847 31850 31853 31856 31859 31862 31865 31868 31871 31874 31877 31880 31883 31886 31889 31892 31895 31898 
</DataArray>
<DataArray type="UInt32" Name="types" format="ascii">
5 5 5 5 5 3 5 5 5 5 5 5 5 3 5 5 5 5 3 5 5 3 5 5 5 5 3 5 5 5 5 3 5 5 5 5 5 5 5 5 5 5 5 5 5 3 5 5 3 5 5 5 5 5 3 5 5 5 5 5 5 5 3 5 5 5 5 3 5 5 5 5 5 5 5 5 5 3 5 5 3 5 5 3 5 5 5 5 3 5 5 5 5 5 5 5 3 3 3 5 5 3 5 5 5 5 5 3 5 5 5 5 5 5 5 5 5 5 5 5 5 3 5 5 5 3 5 5 5 5 5 5 3 5 5 5 5 5 5 5 5 5 5 5 5 5 5 5 5 5 5 5 5 5 5 5 5 5 3 5 5 5 3 5 5 3 5 5 5 5 5 5 5 5 5 5 5 3 5 5 5 5 5 5 5 5 3 5 5 5 5 5 5 5 5 3 5 5 5 5 5 5 5 5 5 3 5 5 5 5 5 5 5 5 5 5 5 5 5 5 5 5 5 5 5 5 5 5 5 3 5 5 5 3 5 3 5 3 5 5 3 5 5 5 3 5 3 5 3 5 3 3 5 3 5 5 3 5 3 5 5 5 3 5 3 3 5 5 3 5 5 5 3 5 3 3 3 5 3 5 5 5 3 5 3 3 3 5 5 3 3 5 5 5 5 3 5 3 5 5 3 5 5 5 3 5 3 3 3 5 5 5 3 5 3 3 3 3 5 5 5 3 3 5 5 3 3 3 5 3 5 5 5 5 3 5 5 5 5 5 5 5 3 5 5 5 5 5 5 3 3 5 5 5 3 5 5 5 3 5 3 5 3 3 5 5 5 5 3 5 5 3 5 5 5 5 3 5 3 5 5 5 5 5 3 3 5 5 5 5 5 5 5 5 3 5 5 5 3 5 5 3 5 3 5 5 5 5 5 5 5 5 5 5 5 3 5 3 5 3 5 5 5 3 5 3 5 3 5 5 5 5 5 5 3 5 3 5 5 5 3 5 5 5 3 5 3 3 5 5 5 5 3 5 5 5 5 3 3 5 5 3 5 3 5 3 3 5 5 5 3 5 5 5 5 3 5 5 5 5 5 5 5 5 5 5 5 3 5 5 5 5 3 5 5 5 3 5 3 3 3 5 5 5 3 3 5 3 5 5 3 5 5 5 5 3 5 5 5 5 5 5 5 5 5 5 5 3 3 5 5 3 5 5 5 3 5 5 5 5 5 5 3 5 5 5 3 5 5 5 3 5 5 5 5 5 5 5 5 5 5 5 3 5 5 5 3 5 5 5 5 5 5 5 3 5 5 5 5 5 3 5 5 5 5 5 5 5 5 5 5 5 5 5 5 5 5 5 5 5 3 5 5 5 5 3 5 5 3 5 5 5 5 5 5 5 3 5 5 5 5 5 5 5 5 3 5 3 5 5 3 5 5 5 3 5 5 3 5 5 5 3 5 3 5 5 3 5 3 5 5 5 5 5 5 5 5 5 5 5 5 5 5 5 5 5 5 5 5 5 5 3 5 3 5 3 5 5 5 5 5 5 5 5 5 5 5 5 5 5 5 3 5 5 5 5 5 5 5 5 5 3 5 5 5 5 5 5 5 5 5 5 5 5 5 5 5 5 5 5 5 5 5 5 5 5 5 5 5 5 5 3 5 5 3 5 5 5 3 3 5 3 5 5 5 5 5 3 5 5 5 5 5 3 5 5 5 5 5 5 5 5 5 5 5 5 5 5 5 5 5 5 5 5 5 5 5 5 5 5 5 5 5 5 5 5 5 5 5 5 5 5 5 5 5 5 5 5 5 5 5 5 5 3 5 5 5 5 5 5 5 5 5 5 5 5 5 5 5 3 5 5 5 5 3 5 5 5 5 5 5 5 5 5 5 5 5 5 5 5 5 5 5 5 5 5 5 5 5 5 5 5 3 5 5 3 5 3 3 3 3 5 5 3 5 5 5 5 5 5 5 5 5 5 5 5 5 5 5 5 5 3 5 5 3 5 3 5 5 5 5 3 5 3 5 5 5 5 3 5 5 5 3 5 5 5 5 5 3 5 3 5 5 3 3 5 3 5 5 5 5 5 5 5 5 5 5 5 3 5 5 5 3 5 5 5 3 5 5 3 3 3 5 5 5 5 5 5 5 5 5 5 5 3 5 5 5 5 5 5 5 5 3 3 3 5 5 5 5 5 5 5 5 3 3 5 5 5 3 5 5 3 5 5 5 5 5 5 5 5 5 5 5 3 5 5 5 5 5 5 5 5 3 5 5 5 5 5 5 5 5 5 5 3 5 3 3 3 5 5 5 5 5 5 5 3 3 5 3 5 5 5 5 5 3 5 3 3 5 5 5 3 5 3 5 5 5 5 3 5 5 5 5 5 5 5 5 5 5 5 5 5 5 5 5 5 3 5 5 5 3 5 5 5 5 5 3 5 5 5 5 5 5 3 5 3 5 5 5 5 5 5 5 5 3 5 5 5 3 5 5 5 5 5 5 5 5 5 5 5 5 5 5 5 5 5 5 5 5 5 5 5 5 5 3 3 3 5 5 5 5 3 5 5 5 5 3 5 5 5 5 5 5 5 3 5 5 5 5 5 5 5 5 3 5 5 5 5 5 5 5 5 5 5 5 5 3 5 5 5 5 5 5 3 5 5 5 5 5 5 5 5 3 5 5 5 3 5 5 5 5 5 5 5 5 5 5 5 5 3 5 5 5 5 5 5 5 5 5 5 5 5 5 5 5 5 5 5 5 5 5 5 5 5 5 5 5 5 5 5 5 5 5 5 5 5 5 5 5 5 5 5 5 5 5 5 5 3 5 5 5 5 5 5 5 5 5 5 5 5 5 5 5 5 5 5 5 5 5 5 5 5 3 5 5 5 5 5 5 5 5 5 5 3 5 5 3 5 5 5 5 5 5 5 5 5 3 5 3 5 5 5 5 3 5 5 3 5 3 5 5 5 5 5 3 5 5 5 5 5 5 5 5 3 5 5 5 5 5 5 5 5 5 5 5 5 5 5 3 5 3 3 5 5 5 5 5 3 5 5 5 5 5 5 5 5 5 5 5 5 5 5 5 3 5 5 5 5 5 5 5 5 5 5 5 5 5 5 5 5 3 5 5 5 5 5 3 3 5 5 3 5 5 5 5 5 5 5 5 5 5 3 5 5 5 5 5 5 5 5 5 3 5 3 5 5 5 5 5 3 5 5 5 5 3 5 5 5 3 5 5 5 3 5 5 3 5 5 5 5 5 5 5 5 5 5 5 5 5 5 5 5 3 5 5 5 5 5 5 5 3 5 5 5 5 5 5 5 5 5 5 5 5 5 5 5 5 5 5 5 5 5 5 5 5 5 5 5 3 5 5 5 5 3 5 5 5 3 5 5 5 5 5 5 5 5 5 3 5 3 5 5 5 5 5 5 5 5 5 5 5 5 5 5 5 5 5 5 3 3 5 5 5 3 5 5 3 5 5 3 5 5 5 3 5 5 3 5 5 5 5 5 5 5 5 5 5 5 5 5 5 5 5 5 5 5 5 3 5 3 5 5 5 5 5 5 5 5 5 5 5 3 5 3 5 5 5 3 5 5 5 5 5 3 5 5 5 5 5 5 3 5 5 5 5 5 5 5 5 5 5 5 3 5 5 5 5 5 5 5 5 3 5 5 5 3 5 5 3 5 5 5 5 5 3 5 5 5 5 5 5 5 5 5 3 5 5 3 5 3 5 3 3 3 5 3 5 5 5 5 5 5 3 5 5 5 5 5 5 3 5 5 5 5 5 5 5 3 5 5 5 5 3 5 5 5 5 5 3 5 3 5 5 5 5 5 5 5 5 5 5 3 5 5 5 5 5 5 5 3 5 5 5 5 5 5 5 3 5 3 5 5 5 5 5 5 5 5 3 5 5 5 3 3 5 5 5 5 5 3 3 5 3 5 5 3 5 5 3 5 5 5 5 5 5 5 5 3 5 5 5 5 5 3 5 5 5 5 3 5 5 3 5 5 5 5 5 5 5 5 5 5 5 5 5 5 5 5 5 5 5 5 5 5 5 5 5 5 5 5 5 5 5 5 5 5 5 5 5 5 5 5 5 3 5 5 3 5 5 5 5 5 3 5 5 5 5 3 5 5 5 5 5 5 5 5 5 5 5 5 5 5 5 5 5 5 5 5 5 5 5 5 3 5 5 5 3 5 5 5 5 5 5 3 5 5 5 5 5 5 5 5 5 5 5 3 5 3 3 5 5 3 5 5 5 5 5 5 5 5 5 5 5 3 5 5 3 5 5 5 5 5 5 5 5 5 5 5 5 5 5 5 3 5 5 5 5 5 5 5 3 5 3 5 5 5 5 3 5 3 5 5 5 5 5 5 5 5 5 3 5 5 5 5 5 5 5 5 5 5 5 5 5 5 5 5 5 3 5 5 5 5 5 5 5 5 5 5 5 5 5 5 5 5 5 5 5 5 5 5 5 5 5 3 3 5 5 5 5 5 5 5 5 5 5 5 3 5 5 5 5 3 5 5 5 5 3 5 5 5 5 5 5 5 5 3 5 5 5 5 5 5 5 5 5 3 5 5 5 5 5 5 5 5 5 5 5 5 5 5 5 5 5 5 5 5 3 5 5 5 5 5 5 5 5 5 5 5 5 5 5 3 5 3 5 5 5 5 5 5 5 5 3 5 5 3 5 5 5 5 5 5 5 5 5 5 5 5 5 5 5 5 5 5 5 5 5 5 5 5 5 5 5 5 5 5 5 5 5 5 5 5 3 5 5 3 5 5 5 5 3 5 3 5 5 3 5 3 5 5 5 5 5 3 5 5 5 5 5 5 5 5 5 5 5 5 3 5 5 5 3 5 5 5 5 5 5 5 5 5 3 5 5 5 5 3 3 5 5 5 5 5 5 5 5 3 5 5 5 5 5 3 5 5 5 3 5 5 5 3 5 5 5 5 3 5 5 5 5 5 5 5 5 5 5 5 5 5 5 3 5 5 5 5 5 5 3 5 3 3 5 3 5 3 5 5 5 5 3 5 5 5 5 3 5 5 5 5 5 5 5 5 5 3 5 5 5 5 5 5 5 5 5 5 5 5 5 5 3 5 5 5 3 5 5 5 3 5 3 5 5 5 5 5 5 5 5 5 5 5 5 5 5 5 5 3 5 5 5 5 5 5 3 5 5 5 5 5 5 5 5 5 5 5 5 5 5 5 5 5 5 3 5 5 5 5 5 5 5 5 5 5 5 5 5 5 5 5 5 5 5 5 5 5 5 5 5 5 5 5 5 5 5 5 5 5 3 5 5 5 5 3 5 5 5 5 5 5 5 3 5 5 5 5 5 5 5 5 5 3 5 5 3 5 5 5 5 5 3 5 5 5 3 5 5 3 5 5 5 5 5 5 5 5 5 5 5 5 5 5 5 5 5 5 5 5 3 5 5 5 5 5 5 5 5 5 5 3 3 5 3 5 5 5 5 5 3 5 5 5 5 3 5 5 5 5 5 3 5 3 5 5 3 5 5 5 5 5 5 5 5 3 5 5 5 5 5 5 3 5 5 5 5 5 5 3 5 5 5 5 3 5 5 3 5 3 5 5 3 5 5 5 5 5 5 3 5 5 5 5 3 5 5 5 5 5 5 5 5 3 3 5 5 5 5 5 5 5 5 3 5 5 5 5 5 5 3 5 5 5 5 5 5 5 3 5 5 5 3 5 5 5 5 5 5 5 5 5 5 5 5 3 5 5 5 5 3 5 5 3 5 5 5 5 3 5 5 5 3 3 5 5 5 3 5 5 5 3 5 5 5 5 5 5 5 5 5 3 5 5 5 3 5 5 5 5 5 5 5 5 5 5 5 5 3 5 3 5 5 3 5 5 3 5 5 5 5 5 5 5 3 5 5 5 5 5 3 5 3 5 5 5 3 3 5 3 3 5 3 5 5 5 5 5 5 3 5 3 5 5 5 5 5 5 5 5 5 5 5 5 5 3 5 5 3 5 3 5 5 3 5 5 5 3 3 5 5 3 5 5 5 5 5 5 5 5 5 5 5 5 5 5 5 5 5 5 5 5 5 5 5 3 3 5 3 5 3 5 5 3 3 5 5 3 5 5 3 5 5 3 5 3 5 5 5 5 3 5 5 5 5 3 5 3 3 5 3 5 5 3 3 5 5 5 3 5 5 5 5 3 3 5 5 5 5 5 3 5 5 5 5 5 5 5 5 5 5 5 3 5 3 5 3 5 5 3 5 3 5 5 5 5 5 5 5 5 3 5 5 3 5 5 5 5 3 5 5 5 5 5 5 5 5 5 5 5 5 3 5 5 5 5 5 5 5 5 5 5 5 3 5 5 5 5 5 5 3 5 3 5 5 3 5 5 5 5 5 5 5 5 5 5 5 5 5 5 5 5 5 3 3 5 5 5 3 5 5 3 5 5 5 5 5 5 5 5 5 5 5 5 5 5 5 5 5 5 5 5 5 5 5 5 5 3 3 5 5 5 5 5 5 5 5 5 5 5 3 5 5 5 5 5 5 5 5 5 5 5 5 5 5 5 5 5 5 5 5 5 5 5 5 5 5 5 5 5 5 5 5 5 3 5 5 5 5 5 3 5 5 3 5 5 3 3 5 5 5 5 5 5 5 5 5 5 5 5 5 3 5 5 3 5 5 5 5 5 5 3 5 5 3 5 5 5 5 5 5 5 5 5 5 5 5 5 3 5 5 5 5 5 5 5 3 5 5 5 5 5 5 5 5 5 5 5 5 3 5 5 3 5 5 5 5 5 5 5 5 5 5 5 5 5 5 5 5 5 5 5 5 3 5 5 3 5 3 5 5 5 3 5 5 3 5 3 5 5 5 3 5 5 5 5 3 5 5 5 5 5 5 5 3 5 5 5 3 5 5 5 5 5 5 5 5 5 5 5 5 3 5 5 5 5 5 5 5 5 3 5 5 5 5 5 5 5 5 5 5 5 3 5 5 5 5 5 5 5 5 5 5 5 5 5 5 5 5 5 5 5 3 3 5 5 5 3 5 5 5 5 5 5 5 5 5 5 5 5 3 5 5 5 5 5 5 5 5 5 3 5 5 5 5 5 5 5 5 5 5 5 5 5 5 5 5 3 5 3 5 5 5 5 5 3 5 5 5 5 3 5 5 5 3 5 5 5 3 5 5 5 5 5 5 5 5 5 3 5 5 5 3 5 5 3 5 5 5 5 5 5 3 5 5 5 5 5 5 5 5 3 5 5 5 3 5 5 5 5 5 5 5 5 5 5 5 5 5 5 5 5 5 5 5 5 5 5 5 5 5 5 5 3 5 5 5 5 5 5 5 3 5 5 5 5 5 5 5 5 5 5 5 5 5 5 5 5 5 5 5 5 5 5 5 5 5 3 5 3 5 5 5 5 5 5 3 5 5 5 3 5 5 3 5 5 5 5 5 5 5 5 5 5 5 5 3 5 5 5 5 5 3 5 5 5 5 5 5 5 5 5 5 5 5 5 3 5 5 5 3 5 5 5 5 5 5 5 5 5 5 5 5 3 3 5 5 5 5 3 5 5 5 5 5 5 5 5 5 3 3 5 5 5 5 5 3 5 5 5 5 5 3 5 5 5 5 5 3 5 3 5 5 5 5 3 5 3 5 3 3 5 5 5 5 5 5 5 3 3 5 5 5 5 5 5 3 3 3 5 3 3 5 5 5 3 5 5 5 5 5 3 3 3 5 3 5 5 5 3 5 3 3 5 5 5 5 5 5 5 3 3 5 5 3 3 3 5 5 5 5 5 5 5 5 5 5 5 5 5 5 5 5 5 5 5 5 5 5 5 5 5 5 5 5 5 5 5 5 5 5 5 5 5 5 5 5 3 5 5 5 5 5 5 5 5 5 5 3 5 5 5 5 5 5 3 5 5 3 5 5 5 5 5 5 5 5 5 5 5 5 5 3 5 3 5 5 5 5 3 5 5 5 3 5 5 3 5 5 5 3 5 5 3 5 5 5 5 5 3 5 5 5 5 5 5 5 3 5 5 5 5 5 5 5 3 5 5 3 5 5 5 5 3 5 3 5 5 5 5 5 3 5 5 5 5 3 5 5 5 5 5 5 3 3 5 5 5 5 5 3 5 5 3 5 5 5 5 5 5 5 5 5 5 3 5 5 5 5 5 5 5 5 5 5 5 5 5 5 5 5 5 5 3 5 5 5 5 5 5 3 5 5 5 5 5 5 5 3 3 5 5 5 5 3 5 5 5 5 5 5 5 3 5 5 3 5 3 3 3 5 5 5 5 5 5 3 5 5 5 5 5 3 5 5 5 5 3 5 5 5 3 5 5 5 3 5 5 5 5 5 5 5 5 5 5 5 5 5 5 5 5 5 5 5 5 5 5 5 5 5 3 5 5 5 5 5 5 5 3 5 3 5 5 5 5 5 5 3 5 5 3 5 5 5 3 5 5 3 5 5 5 5 5 3 5 5 5 3 3 5 5 5 5 5 5 5 5 5 5 5 5 3 5 5 5 5 5 5 5 5 5 3 5 5 5 5 5 3 3 5 5 5 5 5 5 5 5 5 3 5 5 5 5 5 5 5 5 3 5 5 5 5 5 5 5 5 5 5 5 5 5 5 5 5 5 5 3 5 5 5 5 3 5 3 5 3 5 5 5 5 5 5 5 5 5 5 5 5 5 5 5 5 5 3 5 5 5 5 5 3 5 5 5 3 3 5 5 5 5 5 3 5 5 5 5 3 5 5 5 5 5 5 5 5 3 5 5 5 5 5 5 5 3 5 5 5 5 5 5 5 5 5 3 5 5 5 5 5 5 5 5 5 5 5 5 5 5 5 5 5 5 3 5 5 5 5 5 5 5 5 5 5 5 5 5 3 5 5 5 5 5 5 3 5 5 3 5 5 3 5 5 5 5 5 5 5 5 5 5 5 5 5 5 5 5 5 5 5 5 5 5 5 5 5 5 3 5 3 5 3 3 5 5 5 3 5 5 5 5 5 5 5 5 5 3 3 5 3 5 5 5 5 5 5 5 5 5 5 5 5 5 5 3 5 3 3 5 3 5 5 5 5 5 5 5 5 5 3 3 5 5 5 5 5 5 5 5 5 5 5 5 5 5 5 5 5 5 5 5 5 5 3 5 5 5 5 5 3 5 5 5 5 5 3 5 5 5 3 5 5 5 5 5 5 5 5 5 3 5 5 5 5 3 5 5 5 5 5 5 3 5 5 5 5 5 5 5 3 5 5 5 5 3 5 5 5 5 5 5 5 5 5 5 3 5 5 5 5 3 5 5 5 3 5 5 5 5 5 3 5 5 5 5 5 5 5 5 5 5 5 5 5 5 3 3 5 5 3 5 5 5 5 5 5 5 3 5 5 5 5 5 5 3 5 5 5 5 5 5 5 5 5 5 5 5 5 5 5 5 5 5 5 5 5 5 5 3 5 5 5 5 5 5 5 5 3 5 5 5 5 3 5 5 5 5 5 3 5 3 5 3 5 5 5 5 5 5 5 3 5 5 5 3 5 5 5 5 5 3 5 5 5 5 5 3 5 3 5 5 3 5 3 5 5 5 5 5 3 5 5 5 3 5 5 5 5 5 5 5 5 5 5 3 5 5 5 5 5 5 5 5 5 5 5 5 5 5 5 5 5 5 5 5 5 5 3 5 5 5 5 5 5 5 5 5 5 5 5 5 5 5 5 5 5 3 5 5 5 3 5 5 5 5 5 5 3 5 5 5 3 3 5 3 5 3 3 5 3 5 5 3 5 5 3 3 5 5 5 5 5 5 5 5 3 5 3 5 5 5 5 5 5 5 5 5 5 5 5 5 5 5 5 5 5 5 5 5 5 3 5 5 5 5 5 5 5 5 3 5 5 3 5 5 3 3 5 5 3 5 5 5 5 5 5 5 5 5 5 5 5 5 5 5 5 5 5 5 5 5 5 5 5 5 5 5 5 5 5 5 5 5 5 5 5 5 5 5 3 5 3 5 5 5 5 5 5 5 5 5 5 5 5 5 5 5 5 5 5 5 5 5 5 5 5 5 5 5 5 5 5 5 5 5 5 5 5 5 5 5 5 3 5 5 3 5 5 5 5 5 3 5 3 5 5 3 5 5 5 5 5 5 3 5 5 5 5 5 5 5 5 5 5 5 3 5 5 3 3 5 3 5 5 3 5 5 5 5 3 5 5 5 5 5 5 5 5 5 3 5 3 5 5 5 5 5 5 5 3 5 3 5 5 5 5 5 5 5 5 5 3 5 3 5 5 5 5 5 5 5 5 5 5 3 5 5 5 3 5 5 3 5 5 3 5 5 5 5 3 5 5 5 3 5 5 5 5 5 5 5 5 5 5 5 5 5 5 3 5 5 5 5 5 5 3 5 3 5 3 5 5 5 3 5 5 5 5 5 5 5 5 3 5 5 5 5 5 3 5 5 3 5 5 5 5 5 5 5 5 5 3 5 5 5 3 5 5 5 5 5 5 3 5 5 5 5 5 5 5 5 5 5 5 5 5 5 5 5 5 5 5 5 5 5 5 5 5 5 5 5 5 5 5 3 5 5 5 5 5 3 5 5 3 3 5 5 5 5 3 5 5 5 5 5 3 5 5 5 5 5 5 5 5 5 5 5 5 5 5 5 5 3 5 5 5 5 5 5 5 5 3 3 5 5 5 5 5 5 3 5 5 5 5 3 5 5 5 5 5 5 5 5 5 5 5 5 5 5 5 5 5 5 5 5 5 5 5 5 3 5 5 3 5 5 5 5 5 5 5 5 5 5 5 5 5 5 5 5 5 5 5 5 5 5 5 5 5 5 5 3 5 3 5 5 5 5 5 3 5 5 5 5 5 5 5 5 5 5 5 5 5 5 5 5 5 5 5 5 3 3 5 3 5 5 5 5 5 5 5 5 5 5 5 5 5 5 5 5 3 5 5 5 3 5 5 5 5 5 5 5 5 5 5 5 5 5 3 5 5 5 5 5 5 5 5 5 5 5 5 5 5 5 5 5 5 5 5 5 5 3 5 5 5 5 5 5 5 5 5 5 5 5 5 3 5 3 5 5 3 3 5 5 5 5 5 5 5 5 5 5 5 5 5 5 5 5 5 5 5 5 3 5 5 3 5 5 5 3 5 5 5 5 5 5 3 5 5 5 3 5 5 5 5 5 5 5 5 3 5 5 3 5 5 3 5 3 5 5 5 5 3 3 5 5 3 3 5 5 3 5 5 5 5 3 5 5 3 3 5 3 5 5 5 5 5 5 5 5 5 5 5 5 5 5 5 5 5 5 5 5 3 5 5 5 5 3 5 5 5 5 3 3 5 5 5 5 5 5 5 5 5 5 5 5 3 5 5 5 3 5 5 5 5 5 5 5 3 5 5 5 3 5 5 3 3 5 5 5 3 5 5 5 3 5 5 5 5 5 5 5 5 5 5 5 5 5 5 5 5 5 5 3 5 5 5 5 5 5 5 5 5 5 5 5 5 5 5 5 5 5 3 3 5 5 5 5 5 3 3 5 3 5 5 5 5 5 5 5 5 5 3 5 5 5 3 5 5 5 5 5 5 5 5 5 5 5 5 5 5 3 5 5 5 5 5 5 5 3 5 5 3 5 5 5 5 5 5 3 5 5 5 5 3 5 5 5 5 5 5 3 5 5 5 5 5 5 5 5 3 3 5 5 5 3 3 5 5 5 5 5 3 5 5 5 5 5 5 3 5 5 5 5 3 5 5 5 5 5 3 5 5 5 5 3 5 5 5 5 5 5 5 5 5 5 5 5 5 5 5 5 5 5 5 5 5 5 5 5 5 3 5 5 5 5 3 5 3 5 3 5 5 3 5 5 3 5 5 3 5 5 5 5 5 5 3 5 5 3 5 3 3 3 5 5 3 5 3 3 5 5 5 3 5 3 5 5 5 5 5 5 3 5 5 5 3 5 5 5 5 5 5 5 3 5 5 5 3 5 3 3 5 5 5 5 5 5 5 3 5 5 5 5 5 5 5 5 3 3 5 5 5 5 3 5 5 3 5 5 5 3 5 5 5 3 3 5 5 5 5 3 5 5 5 5 5 3 3 5 5 5 5 5 5 5 5 5 5 5 5 5 5 5 5 5 5 5 5 5 5 5 5 5 5 5 5 5 5 5 3 5 5 5 3 5 5 5 5 5 5 5 5 5 5 5 5 5 5 5 3 5 3 3 5 5 3 5 5 5 5 5 5 5 5 5 5 5 5 5 5 5 5 5 5 5 5 5 5 5 3 5 5 3 3 5 5 5 5 5 5 5 3 5 5 5 3 5 5 5 5 3 3 5 5 5 5 5 5 5 3 5 5 5 5 3 5 5 5 5 3 5 5 5 5 5 5 5 5 5 5 5 5 5 5 5 5 5 5 5 3 5 5 5 5 5 5 5 5 5 5 5 5 5 5 5 5 3 5 5 5 3 5 5 5 5 5 5 5 5 5 3 5 5 5 5 5 5 5 5 5 5 5 5 5 5 5 5 5 5 5 5 5 3 5 5 5 5 5 5 5 5 5 5 5 5 5 5 5 5 5 3 5 5 5 5 5 3 5 5 5 5 5 5 5 5 5 5 5 5 5 5 5 5 5 5 5 5 5 5 5 5 5 5 5 3 5 5 3 5 5 5 3 5 5 5 5 5 5 5 5 5 5 5 5 5 5 5 3 5 3 5 5 5 5 5 5 5 5 5 3 5 5 5 5 5 5 5 5 5 3 3 5 5 5 5 5 5 5 5 5 5 5 5 5 5 5 5 5 5 5 5 5 5 5 5 5 5 5 5 5 5 5 5 5 5 5 5 5 5 5 5 5 5 5 5 5 5 5 5 5 5 5 5 5 5 5 5 5 5 5 5 5 5 5 5 5 5 5 5 5 5 5 3 5 5 5 5 5 5 3 5 5 5 5 5 5 5 5 5 3 5 3 5 5 5 5 5 5 5 5 5 5 5 5 5 5 5 5 5 5 5 5 5 5 5 5 5 5 5 5 5 5 5 5 5 5 3 5 5 5 3 3 5 5 5 5 5 5 5 5 5 5 5 5 5 5 5 5 5 5 5 5 5 5 3 3 5 5 5 5 5 5 5 5 3 5 5 5 5 5 5 3 5 5 5 5 5 3 5 5 5 5 3 5 5 5 3 5 5 5 3 5 5 3 5 5 5 5 5 5 5 5 5 5 5 5 5 3 5 5 5 5 5 5 5 5 3 5 5 5 5 5 5 5 5 5 5 5 3 5 5 5 3 5 5 5 5 3 5 5 5 5 5 5 5 5 3 5 3 5 5 3 5 5 5 5 5 3 5 5 5 5 5 5 5 5 5 5 5 5 3 5 5 5 5 5 5 5 5 5 3 5 5 5 5 5 5 3 5 5 5 5 5 5 5 3 5 5 5 5 5 3 5 5 5 5 5 5 5 5 5 5 5 5 5 5 5 5 5 5 5 5 5 5 5 5 5 5 5 5 5 5 5 5 5 5 5 5 5 5 5 5 5 5 5 5 5 5 5 3 5 3 5 5 5 5 5 5 5 5 5 5 5 5 5 5 3 5 5 5 5 5 5 5 5 5 5 5 5 5 5 5 3 5 5 3 5 3 5 5 5 5 5 3 5 5 5 5 5 5 5 5 5 5 5 5 5 5 5 5 5 5 5 5 3 5 5 5 5 5 5 5 5 5 5 5 3 5 3 5 5 3 5 3 5 5 5 5 5 5 5 3 5 3 5 5 5 5 3 5 5 5 5 3 3 5 5 3 5 5 5 5 5 5 5 5 5 5 5 5 5 5 5 5 3 5 5 5 5 5 5 5 5 5 5 5 5 5 5 3 5 3 5 5 5 5 5 5 5 3 5 3 5 5 5 5 5 5 5 5 5 3 3 5 5 5 3 5 5 5 5 3 5 3 5 5 3 5 3 3 3 5 5 3 5 5 5 3 3 3 5 5 5 5 5 5 5 5 5 5 5 3 5 5 5 5 5 5 3 5 5 5 3 5 5 5 5 5 5 5 5 3 5 5 5 3 5 5 5 5 5 5 5 5 5 5 5 5 5 5 5 5 5 5 5 5 5 5 5 5 5 5 5 5 5 5 5 5 5 5 5 5 5 5 5 5 5 5 5 5 5 5 5 5 5 5 5 5 5 5 5 5 5 5 5 5 3 5 5 5 5 5 3 5 5 5 5 3 5 5 5 3 5 5 5 5 5 5 5 5 5 5 5 5 5 5 5 5 5 5 5 5 5 5 5 5 5 5 5 5 5 5 5 5 5 5 5 5 5 5 5 5 3 5 5 3 5 5 5 5 5 5 5 3 5 5 5 5 5 5 5 5 5 5 5 3 5 5 3 5 3 5 5 5 3 5 5 5 5 5 5 5 5 3 5 5 5 5 3 5 5 5 5 3 5 3 5 5 5 5 5 5 5 5 5 5 5 5 3 5 3 5 5 5 5 5 5 5 5 5 5 5 5 5 3 5 5 5 5 5 5 5 5 5 3 5 5 5 3 5 5 5 5 5 5 5 5 5 5 5 5 5 5 5 5 5 5 5 5 5 5 5 5 5 5 5 5 5 5 5 5 5 5 5 3 5 5 3 5 5 5 5 3 5 5 5 5 5 5 5 5 5 5 5 5 5 5 5 3 5 5 5 5 5 5 5 5 5 3 5 3 5 5 5 5 5 5 5 3 5 5 5 5 5 5 5 5 5 5 5 5 5 5 3 5 5 5 5 5 5 5 5 5 5 5 3 5 5 5 5 5 5 5 5 5 5 5 5 5 5 5 5 5 5 5 5 5 5 5 3 5 3 5 5 5 5 5 5 3 5 3 5 5 5 3 5 5 5 3 5 5 5 3 5 5 3 5 5 5 5 5 5 5 3 5 5 5 5 5 5 5 3 5 5 5 5 5 5 5 5 5 5 5 5 5 3 5 5 5 5 5 5 5 5 3 5 5 5 5 5 5 5 5 5 5 5 5 5 5 5 5 5 5 5 5 3 5 5 5 5 5 5 5 5 5 5 5 5 5 5 5 5 5 5 5 5 5 5 5 5 5 5 5 5 5 5 5 5 5 5 5 5 5 5 5 5 5 5 5 5 5 5 5 5 5 5 3 5 3 5 5 5 3 5 5 3 3 5 3 5 5 5 5 5 5 5 5 5 5 5 5 5 5 5 5 5 5 5 5 5 5 5 5 5 5 5 5 5 5 5 5 5 5 5 3 5 5 5 5 3 5 5 3 5 5 5 3 5 5 5 5 3 5 3 3 5 5 5 5 3 5 5 5 3 5 5 5 3 5 5 5 5 5 5 3 5 5 5 5 5 5 5 5 5 5 5 5 5 5 5 5 5 5 5 5 3 5 5 5 5 5 5 5 5 5 5 5 5 5 5 5 5 5 5 3 5 5 3 5 5 3 5 5 5 5 5 5 5 5 5 5 5 3 5 5 5 5 3 5 5 5 5 3 5 5 5 3 5 5 5 5 5 5 5 5 5 5 5 5 5 5 5 5 5 5 5 5 5 5 5 5 5 3 5 5 5 5 5 5 5 5 3 5 5 5 3 5 5 5 5 5 5 5 5 5 5 5 5 5 5 5 5 5 5 5 5 5 5 5 5 3 5 5 5 3 5 5 5 5 5 5 5 5 3 5 5 3 5 5 5 5 3 5 5 5 5 5 5 5 3 5 3 5 5 3 5 5 3 3 5 5 5 5 5 5 5 5 5 5 5 5 5 5 5 5 5 5 5 5 5 3 5 5 5 5 3 5 5 5 5 5 5 5 5 5 5 5 5 5 3 5 5 3 5 5 5 5 5 5 5 5 5 5 5 5 5 5 5 5 5 5 5 5 5 5 5 5 5 5 5 5 5 5 5 5 5 5 5 5 5 5 5 5 5 5 5 5 5 5 5 5 5 5 5 5 5 5 5 5 5 5 5 5 5 5 5 5 5 5 5 5 5 5 5 5 5 5 5 5 5 5 5 5 5 5 5 5 5 5 5 5 5 5 5 5 5 5 5 5 5 5 5 5 5 5 5 5 5 5 5 5 5 5 5 5 5 5 5 5 5 5 5 5 5 5 5 5 5 5 5 5 3 5 5 5 5 5 5 5 3 5 5 5 5 5 5 5 5 5 3 5 3 5 5 5 3 5 5 3 5 5 5 5 5 5 5 5 5 5 5 5 5 5 5 5 5 5 5 5 5 5 5 5 5 5 5 5 5 5 5 5 5 5 5 5 5 3 5 5 3 3 5 5 3 5 5 3 5 5 5 3 5 5 5 5 5 5 5 5 5 3 5 5 5 5 5 5 3 5 5 5 5 5 5 5 5 5 5 5 5 5 5 5 5 5 5 5 5 5 5 5 5 5 5 5 5 5 5 5 3 5 5 5 5 5 5 5 5 5 5 5 5 5 5 5 5 5 5 5 5 5 5 5 5 5 5 5 5 5 5 5 5 5 5 5 5 5 5 5 5 5 5 5 5 5 5 3 5 3 5 5 5 5 3 5 5 5 5 3 5 5 5 5 3 5 5 5 5 5 5 5 5 3 5 5 3 5 3 5 5 5 5 3 5 5 3 3 5 5 5 5 5 5 3 5 5 5 5 5 5 5 5 5 5 3 3 5 5 5 5 5 3 5 5 3 5 5 5 5 3 5 5 3 5 5 5 5 5 5 5 5 5 5 5 5 5 5 5 5 5 5 5 5 5 5 5 5 5 5 5 5 5 3 5 3 5 5 5 5 5 5 5 5 5 5 5 5 5 3 5 5 5 5 3 3 5 5 5 5 5 5 5 5 5 5 5 5 5 5 5 5 5 5 5 5 5 5 5 5 5 5 5 5 5 5 5 5 5 5 5 5 5 5 5 5 5 5 3 5 5 5 3 5 5 5 5 5 5 5 5 5 5 5 5 5 5 5 5 5 5 5 5 3 5 5 3 5 5 5 5 5 5 5 5 5 3 5 5 5 5 5 3 5 5 5 5 5 3 5 3 5 5 5 5 5 5 5 5 5 5 5 5 5 3 5 5 5 3 3 5 5 5 5 5 5 5 5 3 5 5 3 5 5 3 3 5 5 5 5 5 3 5 5 5 5 5 5 5 3 5 5 3 3 5 5 5 5 5 5 3 3 5 5 5 3 5 5 5 5 5 5 5 3 5 5 5 5 5 5 5 5 5 5 5 5 5 5 5 5 5 5 5 5 5 5 5 5 5 5 3 5 5 5 5 5 5 5 3 5 5 5 5 5 5 5 5 5 5 5 3 5 5 5 5 5 5 5 5 3 5 5 5 5 5 5 5 5 5 5 5 5 5 5 5 5 3 5 5 5 3 5 5 5 5 5 3 5 5 5 5 5 5 5 5 5 5 5 5 5 5 3 5 5 5 5 3 5 5 3 5 5 5 5 5 3 5 5 5 5 5 5 5 5 5 5 5 5 5 5 3 5 3 5 5 5 3 5 3 5 3 5 5 5 5 5 5 3 3 5 5 5 5 5 5 3 5 3 5 5 5 5 5 5 5 5 5 5 5 5 5 5 5 5 5 3 5 5 5 3 3 5 5 5 5 5 3 5 5 3 3 5 5 5 5 5 5 5 5 5 5 5 5 5 5 5 5 5 5 5 5 5 5 5 5 5 5 5 5 5 5 5 5 5 5 5 5 5 5 5 5 5 5 5 5 3 5 5 3 3 3 5 5 5 5 5 5 3 5 5 5 5 5 5 5 5 5 3 5 5 5 3 5 5 5 5 5 5 5 5 5 5 5 5 5 5 5 5 5 5 5 5 3 5 5 5 5 3 5 5 5 5 5 5 5 5 5 5 5 5 5 5 5 5 5 5 5 5 5 5 5 5 5 5 5 5 5 5 5 5 5 5 3 5 3 5 5 5 5 5 5 5 5 3 5 5 5 3 5 3 5 5 5 5 5 5 5 5 3 5 5 5 5 3 5 5 5 5 3 5 5 5 5 5 5 5 3 5 5 5 5 3 5 5 5 5 5 5 5 5 5 5 5 5 5 5 5 5 5 5 5 5 5 5 5 5 5 5 5 5 5 5 5 5 5 5 5 5 5 5 5 5 5 5 5 5 5 5 3 5 5 5 5 3 3 5 5 3 3 5 5 5 5 5 5 5 5 5 5 5 5 5 5 5 5 5 5 5 3 5 5 5 3 3 5 5 5 5 5 5 5 5 5 5 5 5 5 5 5 5 5 5 5 5 5 5 5 5 5 5 5 3 5 5 5 5 5 5 5 3 5 5 5 5 5 5 5 5 5 5 5 5 5 5 5 3 5 5 5 5 5 5 5 5 3 5 3 3 5 5 5 5 5 5 5 5 5 5 5 5 3 5 5 5 5 5 5 5 5 5 5 5 5 5 5 5 5 5 5 3 5 5 5 3 5 5 5 5 5 5 5 5 3 5 5 5 5 5 5 5 5 5 5 5 5 5 5 5 3 5 5 5 3 5 5 5 5 5 5 5 5 5 5 5 5 5 5 5 5 5 5 5 5 5 5 5 5 5 5 5 5 5 5 5 5 5 3 5 3 5 5 5 5 5 5 5 5 3 5 5 5 5 5 5 5 5 5 3 5 5 3 5 5 5 5 5 3 5 5 5 5 3 5 5 5 5 3 5 5 5 3 5 3 5 5 3 5 5 5 5 5 5 5 5 5 5 5 5 5 5 3 5 5 3 5 3 5 5 5 3 5 5 3 5 5 5 5 3 5 3 5 5 5 5 5 5 3 5 3 5 5 5 5 5 3 5 5 5 5 3 5 5 5 5 5 5 3 5 5 5 5 5 5 5 5 5 5 5 5 5 5 5 5 5 5 5 5 5 5 5 5 5 5 5 5 5 5 5 5 5 3 3 5 5 5 5 5 5 5 5 5 5 3 5 5 3 3 5 3 5 5 5 5 5 5 5 3 5 5 5 5 5 5 5 5 5 5 5 5 3 5 5 5 5 3 5 5 5 5 5 5 5 5 5 5 5 5 3 5 5 5 5 5 5 5 5 5 5 5 5 5 5 5 5 5 3 5 5 5 5 5 3 5 5 5 3 5 5 5 5 5 5 3 5 3 5 5 5 3 5 5 5 5 5 5 5 5 5 3 5 5 3 5 5 5 5 5 5 5 3 5 5 5 5 5 5 5 5 5 5 5 5 5 3 5 5 3 5 5 5 5 5 5 3 5 5 5 5 5 5 3 5 5 5 5 5 5 5 3 5 5 5 5 5 5 5 5 5 5 5 5 5 5 5 5 5 5 5 5 5 5 3 5 5 5 5 5 5 5 5 5 5 3 5 5 5 5 3 3 5 5 5 5 3 5 5 5 5 5 5 5 5 5 3 5 5 5 5 5 5 5 5 5 5 5 3 5 5 5 3 5 5 5 3 5 5 5 5 5 5 5 5 5 5 5 5 3 5 5 5 5 5 3 5 5 3 5 5 5 5 5 5 5 5 5 5 5 5 5 5 3 5 5 5 5 5 5 5 3 5 5 5 3 5 5 5 5 5 3 5 5 5 5 5 5 5 5 5 3 5 5 5 5 5 5 5 5 3 5 5 5 5 5 3 5 5 5 5 5 5 5 3 5 5 5 5 5 5 5 5 5 5 5 5 5 5 5 5 5 5 5 5 5 5 5 5 5 5 5 5 5 5 5 5 5 5 5 5 5 5 5 5 5 5 5 5 5 5 5 5 3 5 5 5 5 5 5 5 3 5 5 5 5 5 5 5 5 5 5 5 5 5 5 5 5 5 5 5 5 5 5 3 3 5 5 3 3 5 5 5 5 5 5 5 3 5 5 5 5 5 5 5 5 5 5 5 5 5 5 3 5 5 5 5 5 5 5 5 3 5 5 3 5 5 5 3 5 5 5 5 5 5 5 5 5 5 5 5 5 5 5 5 5 5 5 5 5 5 5 5 5 5 5 5 3 5 5 5 5 5 5 5 5 3 5 5 5 5 5 5 3 3 5 5 5 5 3 5 5 3 5 5 3 5 5 5 5 5 5 3 5 5 5 5 5 5 5 5 3 5 5 5 5 5 5 5 5 5 5 5 3 5 5 3 5 5 5 5 5 5 5 3 5 5 5 3 5 3 5 3 5 5 5 5 5 5 5 5 5 5 5 5 5 5 5 5 5 3 5 3 5 5 5 5 5 5 5 5 5 5 3 5 5 5 5 5 5 5 3 5 5 5 3 5 3 3 5 5 3 5 5 5 5 3 5 5 5 3 5 5 5 3 5 3 3 5 5 5 5 5 5 3 5 5 5 5 5 5 5 5 3 3 3 5 3 5 5 3 3 5 5 3 5 5 5 5 5 5 5 5 5 5 5 3 5 5 5 5 5 5 5 5 5 5 5 5 5 3 3 5 5 5 5 3 5 5 5 3 5 5 5 5 5 3 3 5 5 5 3 5 5 5 5 5 5 5 5 5 5 5 5 5 5 5 3 5 5 5 3 5 5 5 3 5 5 5 5 5 5 3 5 5 5 5 5 3 5 5 5 5 5 5 5 5 3 5 5 5 5 5 5 5 5 5 3 5 5 5 5 3 5 3 5 5 3 5 3 5 5 5 5 5 5 3 5 3 3 5 5 5 5 5 5 5 5 3 5 3 5 3 5 3 5 5 5 5 5 5 5 5 5 5 5 3 5 5 5 3 5 5 5 5 5 5 5 5 3 5 5 5 5 5 5 5 5 5 3 5 5 5 5 3 5 5 3 5 5 5 5 5 5 5 5 5 3 5 5 5 3 5 5 5 5 5 5 5 5 5 5 5 5 5 5 5 5 5 5 5 3 5 5 5 5 5 5 5 5 5 5 3 5 5 5 5 5 5 5 5 5 5 5 5 5 5 5 5 5 5 5 5 5 5 5 5 5 5 5 5 5 5 5 5 5 5 5 5 5 5 5 5 5 5 5 5 5 3 3 5 5 5 5 5 5 5 5 5 5 5 5 5 3 3 5 5 5 3 5 5 3 5 5 5 3 5 5 5 3 5 5 5 5 5 5 5 5 3 5 5 3 5 3 3 5 5 5 5 5 5 3 5 3 3 3 5 5 3 5 5 3 3 5 5 5 5 5 5 5 5 5 5 5 5 5 5 5 5 5 5 5 5 5 3 5 5 5 5 5 5 5 5 5 3 5 5 5 5 5 5 5 3 3 5 5 5 5 5 5 5 5 5 5 5 5 5 5 5 5 5 5 5 5 5 5 5 3 5 3 5 5 5 5 5 5 5 3 5 5 5 3 3 5 5 3 5 5 5 5 3 5 5 5 3 5 5 5 3 5 5 5 5 5 5 5 5 5 3 3 5 5 5 5 5 3 5 5 3 3 3 5 5 5 5 5 3 5 5 5 5 5 5 5 5 5 3 5 3 5 5 5 5 5 5 5 5 5 5 5 5 5 5 5 5 5 5 5 5 5 5 5 5 3 5 5 5 5 3 3 5 5 5 3 5 5 5 5 5 5 5 5 5 5 5 5 5 5 5 5 3 5 5 5 3 5 5 3 5 5 5 5 5 5 5 5 5 5 5 5 5 3 5 5 3 5 5 5 3 5 3 5 3 5 3 3 3 5 5 5 5 5 5 5 5 3 5 5 5 5 5 5 5 5 3 5 5 3 5 5 5 5 5 5 5 5 5 5 5 5 5 5 5 5 5 5 5 5 5 3 5 5 5 5 5 5 5 5 5 5 3 5 3 5 5 3 5 3 5 3 5 5 3 5 3 5 5 3 5 5 5 3 5 5 5 5 5 5 5 5 5 5 5 5 5 5 5 5 5 5 5 5 5 5 5 5 5 5 5 5 5 5 5 5 5 5 5 5 5 5 5 5 5 5 5 5 5 5 5 5 5 5 5 5 5 5 5 5 5 5 5 5 5 3 5 5 3 5 5 5 5 5 5 3 3 5 5 5 5 5 5 5 5 5 5 5 5 5 5 5 5 5 5 3 5 5 5 3 5 5 5 5 5 5 5 5 5 5 5 5 5 5 5 5 3 5 5 5 5 5 5 5 3 5 5 5 5 5 5 5 5 3 5 3 5 5 5 5 5 5 5 5 5 5 5 5 5 5 5 5 3 5 5 5 5 5 5 5 3 5 5 5 5 3 5 5 5 5 5 5 5 3 5 5 3 3 5 5 3 5 5 5 5 5 5 3 5 5 5 5 5 5 5 5 5 3 5 5 3 5 5 3 5 5 3 5 5 5 5 5 3 5 5 5 5 5 5 5 5 3 5 5 5 5 5 5 5 3 5 5 5 5 5 5 5 5 5 5 5 5 3 5 5 5 5 5 5 5 3 3 5 3 5 3 5 5 5 5 5 5 5 5 5 5 5 5 5 5 5 3 5 3 5 5 5 5 5 5 5 5 3 5 3 5 3 5 3 5 3 5 5 3 5 5 5 5 5 3 5 5 5 5 5 5 5 5 3 5 5 5 5 5 3 5 5 3 5 3 3 5 5 5 5 5 5 5 5 3 5 5 5 5 5 5 5 5 5 5 5 5 5 3 5 5 5 5 5 5 5 3 5 5 5 3 5 5 5 5 5 5 5 5 5 5 5 5 5 5 5 5 5 3 5 5 5 5 5 5 5 3 5 5 3 5 5 5 5 5 5 5 5 5 5 5 5 5 5 5 3 5 5 5 5 3 5 5 5 5 5 5 5 5 5 5 5 5 5 5 5 5 5 5 5 5 5 5 5 5 5 3 5 5 5 5 5 5 3 5 5 5 5 5 5 5 5 5 3 3 5 5 5 3 5 3 5 5 5 5 5 5 5 5 5 5 5 5 5 5 5 3 5 5 5 5 5 5 5 5 5 5 5 5 3 3 5 5 5 5 5 5 5 5 3 5 5 3 5 5 3 3 5 5 5 5 5 5 5 3 5 5 5 5 5 5 5 5 5 3 5 5 5 3 5 5 5 5 5 3 5 5 5 5 5 5 5 5 5 5 5 5 3 5 5 5 3 5 5 5 3 5 5 5 5 5 5 5 5 5 5 5 5 5 5 5 5 5 5 5 5 5 5 5 5 5 5 5 5 5 5 5 5 3 5 5 5 5 5 5 5 5 5 5 5 5 5 5 5 5 5 5 5 5 5 5 5 5 3 5 3 5 5 3 5 5 5 5 5 5 5 5 5 3 5 5 5 5 5 5 5 5 5 5 5 5 5 5 3 5 5 5 5 3 5 5 5 3 5 5 5 5 5 5 5 5 5 5 5 5 5 5 5 5 5 5 5 5 5 5 5 5 5 5 5 5 5 5 5 5 5 5 5 5 5 5 5 5 5 5 5 5 5 5 5 5 5 5 5 5 5 5 5 5 5 5 5 5 5 5 5 5 5 5 5 5 5 5 5 5 5 5 5 5 5 5 5 5 5 5 5 5 5 5 5 5 5 5 5 5 5 5 5 5 5 5 5 5 5 5 5 5 5 5 5 5 5 5 5 5 5 5 5 5 5 5 5 5 5 5 5 5 5 5 5 5 5 5 5 5 5 5 5 5 5 5 5 5 5 5 5 5 5 5 5 5 5 5 5 5 5 5 5 5 5 5 5 5 5 5 5 5 5 5 5 5 5 5 5 5 5 5 5 5 5 5 5 5 5 5 5 5 5 5 5 5 5 3 5 5 5 5 5 5 5 5 5 5 5 5 5 5 5 5 3 5 5 5 5 5 5 5 5 3 5 5 5 5 3 5 5 5 5 5 5 5 5 5 5 5 5 5 5 5 5 5 5 5 5 5 5 3 5 5 5 5 5 5 5 5 5 5 5 5 5 3 3 5 5 5 5 5 3 5 3 5 5 5 5 5 5 5 5 5 5 5 3 5 5 5 5 5 5 5 3 5 5 5 5 5 5 5 5 5 5 5 5 5 5 5 3 3 5 5 5 5 5 5 5 5 5 5 5 5 3 5 5 5 5 5 5 5 5 5 5 5 5 5 5 5 5 3 5 5 5 5 5 5 5 3 5 5 5 5 5 5 5 5 5 5 3 3 5 5 5 5 5 5 5 5 5 5 5 5 5 5 5 5 5 5 5 5 5 5 5 5 5 5 5 5 5 5 3 5 5 5 5 5 3 5 5 5 5 5 5 5 5 5 5 3 5 5 5 5 3 5 5 5 5 5 5 5 5 5 5 3 5 3 5 5 5 5 5 5 5 5 5 5 5 5 5 5 5 5 5 5 5 5 5 5 5 5 5 5 5 5 5 5 5 3 5 5 5 5 5 3 5 5 5 5 5 5 5 5 5 5 5 5 5 5 5 5 5 5 3 5 5 3 5 5 5 3 5 5 5 5 5 3 5 5 5 5 5 5 5 5 5 5 3 5 5 5 5 5 5 3 5 5 5 5 5 3 3 5 5 3 5 5 3 5 5 5 5 5 5 5 5 5 5 3 5 5 3 5 5 3 5 5 3 5 5 3 5 5 3 5 5 5 5 5 5 3 5 5 5 5 5 5 5 5 5 5 5 3 5 5 5 5 5 5 5 3 5 5 5 5 3 5 5 5 3 5 5 5 5 5 5 5 5 5 5 5 3 5 5 5 5 5 5 5 5 5 5 5 5 5 5 5 5 5 5 5 5 5 5 5 5 3 5 5 5 5 5 3 5 5 5 5 5 5 5 5 5 5 5 5 5 5 3 5 5 3 5 3 5 5 5 5 3 5 3 3 5 3 5 5 5 5 5 5 5 3 5 3 5 5 5 5 5 5 3 5 5 5 5 5 5 3 5 5 5 5 3 5 5 5 5 5 3 5 5 3 5 5 5 5 3 5 5 5 5 3 5 5 5 5 5 5 3 5 5 5 5 5 5 5 5 5 3 5 5 5 5 5 5 3 5 5 5 5 3 5 5 5 5 5 5 5 5 5 5 5 5 5 5 5 5 3 5 5 5 3 5 5 3 5 5 5 5 5 5 5 5 5 5 5 5 5 5 5 5 3 5 3 5 5 5 5 5 5 5 5 5 5 5 5 5 5 5 5 5 5 5 5 5 5 5 5 5 5 3 5 5 3 5 5 5 5 5 5 5 5 5 5 3 5 5 5 5 3 5 5 5 5 3 5 5 5 5 5 5 5 5 5 3 5 5 5 5 5 5 5 5 5 5 5 5 5 5 5 5 5 5 5 5 5 5 5 5 5 5 5 5 
</DataArray>
</Cells>
<PointData Scalars="" Vectors="displacement," Tensors="">
<DataArray type="Float64" Name="displacement" NumberOfComponents="3" format="ascii">
-0.034997252916469934 -0.034997964620445757 0 -0.032565316879396532 -0.034284047839441091 0 -0.029503373747033011 -0.034995198768876384 0 -0.034997252916469934 -0.034997964620445757 0 -0.034351863670676573 -0.033630489218154903 0 -0.032565316879396532 -0.034284047839441091 0 -0.034997252916469934 -0.034997964620445757 0 -0.034351863670676573 -0.033630489218154903 0 -0.03499799049002595 -0.031404961133399481 0 -0.034351863670676573 -0.033630489218154903 0 -0.03499799049002595 -0.031404961133399481 0 -0.034414958796758696 -0.032876997955399313 0 -0.03499799049002595 -0.031404961133399481 0 -0.034414958796758696 -0.032876997955399313 0 -0.034994658334437899 -0.030742152970053203 0 -0.033308743766892343 -0.033690411906662457 0 -0.032923807241692367 -0.033930507171854148 0 -0.034414958796758696 -0.032876997955399313 0 -0.036062915487485817 -0.032321247748497747 0 -0.036241170563895066 -0.031620808806111386 0 -0.034414958796758696 -0.032876997955399313 0 -0.036241170563895066 -0.031620808806111386 0 -0.035690749352828052 -0.030938801749198695 0 -0.034351863670676573 -0.033630489218154903 0 -0.034414958796758696 -0.032876997955399313 0 -0.032565316879396532 -0.034284047839441091 0 -0.034414958796758696 -0.032876997955399313 0 -0.032565316879396532 -0.034284047839441091 0 -0.03187686293251768 -0.034732597486893772 0 -0.032565316879396532 -0.034284047839441091 0 -0.030452203269332685 -0.034526473370495643 0 -0.03187686293251768 -0.034732597486893772 0 -0.032565316879396532 -0.034284047839441091 0 -0.029503373747033011 -0.034995198768876384 0 -0.030452203269332685 -0.034526473370495643 0 -0.029492627656519568 -0.034999978999177117 0 -0.028739443077385657 -0.036284333883698797 0 -0.027572053242853386 -0.034999971610959017 0 -0.02949298037783793 -0.03499999574856965 0 -0.029625108229749644 -0.034972474172367249 0 -0.027572053242853386 -0.034999971610959017 0 -0.02729288083517363 -0.036450549007387624 0 -0.025999526788867751 -0.036069065411099548 0 -0.027572053242853386 -0.034999971610959017 0 -0.025651406199094003 -0.034999970894871058 0 -0.025999526788867751 -0.036069065411099548 0 -0.028739443077385657 -0.036284333883698797 0 -0.027572053242853386 -0.034999971610959017 0 -0.02729288083517363 -0.036450549007387624 0 -0.028739443077385657 -0.036284333883698797 0 -0.02729288083517363 -0.036450549007387624 0 -0.028013708863596359 -0.037551504237344137 0 -0.029625108229749644 -0.034972474172367249 0 -0.030087317332921259 -0.034233070301650841 0 -0.02729288083517363 -0.036450549007387624 0 -0.026377982008991642 -0.037218685018455759 0 -0.028013708863596359 -0.037551504237344137 0 -0.02729288083517363 -0.036450549007387624 0 -0.026377982008991642 -0.037218685018455759 0 -0.025999526788867751 -0.036069065411099548 0 -0.026277377707937602 -0.035155548800222036 0 -0.030087317332921259 -0.034233070301650841 0 -0.02419472933719272 -0.036259608155153014 0 -0.023917636695335309 -0.036007701418211469 0 -0.023629148621499296 -0.036136726081470498 0 -0.02419472933719272 -0.036259608155153014 0 -0.023917636695335309 -0.036007701418211469 0 -0.024129581389804894 -0.035995090788863142 0 -0.023917636695335309 -0.036007701418211469 0 -0.023629148621499296 -0.036136726081470498 0 -0.023799200293068697 -0.035639301842861806 0 -0.036481761201258359 -0.031931779411909278 0 -0.036388435174239231 -0.031590540292460743 0 -0.036418117642869278 -0.03178414052982903 0 -0.030087317332921259 -0.034233070301650841 0 -0.029802793084571205 -0.033519276152962775 0 -0.036388435174239231 -0.031590540292460743 0 -0.036418117642869278 -0.03178414052982903 0 -0.036417371004185455 -0.031526296241128682 0 -0.023799200293068697 -0.035639301842861806 0 -0.024129581389804894 -0.035995090788863142 0 -0.024208408963586614 -0.035609585117719965 0 -0.023917636695335309 -0.036007701418211469 0 -0.023799200293068697 -0.035639301842861806 0 -0.024129581389804894 -0.035995090788863142 0 -0.036481761201258359 -0.031931779411909278 0 -0.036062915487485817 -0.032321247748497747 0 -0.036418117642869278 -0.03178414052982903 0 -0.030087317332921259 -0.034233070301650841 0 -0.032923807241692367 -0.033930507171854148 0 -0.030452203269332685 -0.034526473370495643 0 -0.030361241733696472 -0.034938322043288707 0 -0.03187686293251768 -0.034732597486893772 0 -0.036418117642869278 -0.03178414052982903 0 -0.036241170563895066 -0.031620808806111386 0 -0.036436867125081172 -0.031545844318639632 0 -0.036418117642869278 -0.03178414052982903 0 -0.036436867125081172 -0.031545844318639632 0 -0.036417371004185455 -0.031526296241128682 0 -0.036062915487485817 -0.032321247748497747 0 -0.036418117642869278 -0.03178414052982903 0 -0.036241170563895066 -0.031620808806111386 0 -0.036241170563895066 -0.031620808806111386 0 -0.036207114278478704 -0.031103705657922292 0 -0.035690749352828052 -0.030938801749198695 0 -0.036207114278478704 -0.031103705657922292 0 -0.036126330768725914 -0.030554184993264202 0 -0.035690749352828052 -0.030938801749198695 0 -0.036207114278478704 -0.031103705657922292 0 -0.036381857893737025 -0.031143009126708802 0 -0.036381917321344374 -0.030867945258196815 0 -0.036207114278478704 -0.031103705657922292 0 -0.036405340643079154 -0.031361395766594892 0 -0.036381857893737025 -0.031143009126708802 0 -0.036241170563895066 -0.031620808806111386 0 -0.036207114278478704 -0.031103705657922292 0 -0.036405340643079154 -0.031361395766594892 0 -0.036241170563895066 -0.031620808806111386 0 -0.036436867125081172 -0.031545844318639632 0 -0.036405340643079154 -0.031361395766594892 0 -0.036436867125081172 -0.031545844318639632 0 -0.036405340643079154 -0.031361395766594892 0 -0.036524779102497365 -0.031386537440139146 0 -0.036436867125081172 -0.031545844318639632 0 -0.036524779102497365 -0.031386537440139146 0 -0.036417371004185455 -0.031526296241128682 0 -0.036524779102497365 -0.031386537440139146 0 -0.036417371004185455 -0.031526296241128682 0 -0.036375632389470836 -0.031513701534305882 0 -0.03522962060087647 -0.029918664597749858 0 -0.035201520045654251 -0.029753482068804755 0 -0.036524779102497365 -0.031386537440139146 0 -0.036527963350807741 -0.031227419817088223 0 -0.036696799546721663 -0.03095361781180456 0 -0.036524779102497365 -0.031386537440139146 0 -0.036472226221367685 -0.031550282628933141 0 -0.036375632389470836 -0.031513701534305882 0 -0.035217433355168151 -0.02980651635663548 0 -0.035201520045654251 -0.029753482068804755 0 -0.036527963350807741 -0.031227419817088223 0 -0.036381917321344374 -0.030867945258196815 0 -0.036798254557193655 -0.030823423028250443 0 -0.036405340643079154 -0.031361395766594892 0 -0.036381857893737025 -0.031143009126708802 0 -0.036527963350807741 -0.031227419817088223 0 -0.036405340643079154 -0.031361395766594892 0 -0.036524779102497365 -0.031386537440139146 0 -0.036527963350807741 -0.031227419817088223 0 -0.036381857893737025 -0.031143009126708802 0 -0.036527963350807741 -0.031227419817088223 0 -0.036381917321344374 -0.030867945258196815 0 -0.036381917321344374 -0.030867945258196815 0 -0.036798254557193655 -0.030823423028250443 0 -0.03647615625454894 -0.030357920887066184 0 -0.035201520045654251 -0.029753482068804755 0 -0.035547545008506806 -0.028621514603712712 0 -0.036798254557193655 -0.030823423028250443 0 -0.03647615625454894 -0.030357920887066184 0 -0.036942286596409711 -0.029827035139806606 0 -0.03647615625454894 -0.030357920887066184 0 -0.036126330768725914 -0.030554184993264202 0 -0.036175372695018727 -0.029768952776005976 0 -0.036126330768725914 -0.030554184993264202 0 -0.036175372695018727 -0.029768952776005976 0 -0.035709667364508833 -0.030311907822699196 0 -0.036381917321344374 -0.030867945258196815 0 -0.03647615625454894 -0.030357920887066184 0 -0.036126330768725914 -0.030554184993264202 0 -0.036207114278478704 -0.031103705657922292 0 -0.036381917321344374 -0.030867945258196815 0 -0.036126330768725914 -0.030554184993264202 0 -0.036388435174239231 -0.031590540292460743 0 -0.036012777234458469 -0.031530086955910704 0 -0.036266787089299049 -0.031531325112856425 0 -0.023799200293068697 -0.035639301842861806 0 -0.024006513816550452 -0.034985862949291686 0 -0.024208408963586614 -0.035609585117719965 0 -0.029802793084571205 -0.033519276152962775 0 -0.029424628776615721 -0.032721704387874688 0 -0.036012777234458469 -0.031530086955910704 0 -0.036266787089299049 -0.031531325112856425 0 -0.0361122017352438 -0.031588547296035288 0 -0.036388435174239231 -0.031590540292460743 0 -0.036266787089299049 -0.031531325112856425 0 -0.036417371004185455 -0.031526296241128682 0 -0.036266787089299049 -0.031531325112856425 0 -0.036417371004185455 -0.031526296241128682 0 -0.036375632389470836 -0.031513701534305882 0 -0.036472226221367685 -0.031550282628933141 0 -0.036260099135020193 -0.03161881640425477 0 -0.036244219788542649 -0.031810765026762798 0 -0.035201520045654251 -0.029753482068804755 0 -0.034626930383108455 -0.029029467408191598 0 -0.036266787089299049 -0.031531325112856425 0 -0.036375632389470836 -0.031513701534305882 0 -0.036260099135020193 -0.03161881640425477 0 -0.036472226221367685 -0.031550282628933141 0 -0.036375632389470836 -0.031513701534305882 0 -0.036260099135020193 -0.03161881640425477 0 -0.036266787089299049 -0.031531325112856425 0 -0.036260099135020193 -0.03161881640425477 0 -0.0361122017352438 -0.031588547296035288 0 -0.036260099135020193 -0.03161881640425477 0 -0.0361122017352438 -0.031588547296035288 0 -0.03590546390861013 -0.031688993066376049 0 -0.036012777234458469 -0.031530086955910704 0 -0.03590546390861013 -0.031688993066376049 0 -0.035708772923275109 -0.031699730951935845 0 -0.036012777234458469 -0.031530086955910704 0 -0.0361122017352438 -0.031588547296035288 0 -0.03590546390861013 -0.031688993066376049 0 -0.03590546390861013 -0.031688993066376049 0 -0.035933998986734134 -0.031931483813800607 0 -0.036244219788542649 -0.031810765026762798 0 -0.03590546390861013 -0.031688993066376049 0 -0.035933998986734134 -0.031931483813800607 0 -0.035638296672345068 -0.03195895212734319 0 -0.036260099135020193 -0.03161881640425477 0 -0.03590546390861013 -0.031688993066376049 0 -0.036244219788542649 -0.031810765026762798 0 -0.034626930383108455 -0.029029467408191598 0 -0.033839086801033751 -0.026970737649505177 0 -0.035249528390503992 -0.028234854970457086 0 -0.034951247307944425 -0.027148963877406784 0 -0.035827940535817171 -0.027158668295198918 0 -0.035249528390503992 -0.028234854970457086 0 -0.034951247307944425 -0.027148963877406784 0 -0.034802595448467512 -0.028230993875701008 0 -0.035846683415716049 -0.026644599218979648 0 -0.033839086801033751 -0.026970737649505177 0 -0.035932792425730588 -0.032297174428877334 0 -0.035638296672345068 -0.03195895212734319 0 -0.035441577354526452 -0.032318120653408097 0 -0.035933998986734134 -0.031931483813800607 0 -0.035932792425730588 -0.032297174428877334 0 -0.035638296672345068 -0.03195895212734319 0 -0.033839086801033751 -0.026970737649505177 0 -0.031937295809876823 -0.027674757281816103 0 -0.035933998986734134 -0.031931483813800607 0 -0.036244219788542649 -0.031810765026762798 0 -0.035932792425730588 -0.032297174428877334 0 -0.034665185950808843 -0.029327976384810592 0 -0.035249528390503992 -0.028234854970457086 0 -0.034802595448467512 -0.028230993875701008 0 -0.03647615625454894 -0.030357920887066184 0 -0.036175372695018727 -0.029768952776005976 0 -0.036942286596409711 -0.029827035139806606 0 -0.037050866706522571 -0.028959497898516671 0 -0.036175372695018727 -0.029768952776005976 0 -0.036942286596409711 -0.029827035139806606 0 -0.035846683415716049 -0.026644599218979648 0 -0.035547545008506806 -0.028621514603712712 0 -0.037050866706522571 -0.028959497898516671 0 -0.036175372695018727 -0.029768952776005976 0 -0.035951626217192896 -0.028971701045039048 0 -0.036175372695018727 -0.029768952776005976 0 -0.03557251628258213 -0.029635389309951948 0 -0.035951626217192896 -0.028971701045039048 0 -0.03557251628258213 -0.029635389309951948 0 -0.034910534623336591 -0.028940451541273966 0 -0.035951626217192896 -0.028971701045039048 0 -0.036175372695018727 -0.029768952776005976 0 -0.03557251628258213 -0.029635389309951948 0 -0.035709667364508833 -0.030311907822699196 0 -0.03557251628258213 -0.029635389309951948 0 -0.035189706931412781 -0.030018419507415472 0 -0.035709667364508833 -0.030311907822699196 0 -0.035620427910154698 -0.02967671042454843 0 -0.035479632193374577 -0.028333326798377217 0 -0.035347925603456669 -0.029800399933196435 0 -0.037610181684060676 -0.027975268014709651 0 -0.037385401843250954 -0.027109396273237982 0 -0.036371539208613399 -0.027322280679376205 0 -0.036285721612545251 -0.028075141327611828 0 -0.035669705370118314 -0.027445845221298684 0 -0.036285721612545251 -0.028075141327611828 0 -0.036286662276624353 -0.028090365979434588 0 -0.036285721612545251 -0.028075141327611828 0 -0.036200493532660985 -0.027626061717785616 0 -0.03557251628258213 -0.029635389309951948 0 -0.035189706931412781 -0.030018419507415472 0 -0.035048235475401611 -0.029480563220398395 0 -0.03557251628258213 -0.029635389309951948 0 -0.035048235475401611 -0.029480563220398395 0 -0.034910534623336591 -0.028940451541273966 0 -0.036200493532660985 -0.027626061717785616 0 -0.035998941586295755 -0.026630181622102768 0 -0.037385401843250954 -0.027109396273237982 0 -0.036800862736565972 -0.026784310507053821 0 -0.037156574925875034 -0.026213104250789231 0 -0.036800862736565972 -0.026784310507053821 0 -0.036371539208613399 -0.027322280679376205 0 -0.036467756126511625 -0.026179001086045466 0 -0.036371539208613399 -0.027322280679376205 0 -0.035673880620840072 -0.02606621120813904 0 -0.036467756126511625 -0.026179001086045466 0 -0.036800862736565972 -0.026784310507053821 0 -0.036467756126511625 -0.026179001086045466 0 -0.037156574925875034 -0.026213104250789231 0 -0.037385401843250954 -0.027109396273237982 0 -0.036800862736565972 -0.026784310507053821 0 -0.036371539208613399 -0.027322280679376205 0 -0.035000321867371093 -0.026667371719181213 0 -0.035669705370118314 -0.027445845221298684 0 -0.034999999587974832 -0.026666101235808117 0 -0.036371539208613399 -0.027322280679376205 0 -0.035673880620840072 -0.02606621120813904 0 -0.034999826273687057 -0.026667669153738475 0 -0.035479632193374577 -0.028333326798377217 0 -0.034999093348486575 -0.028699316030110281 0 -0.035479632193374577 -0.028333326798377217 0 -0.035347925603456669 -0.029800399933196435 0 -0.034999093348486575 -0.028699316030110281 0 -0.035347925603456669 -0.029800399933196435 0 -0.034999093348486575 -0.028699316030110281 0 -0.034994658334437899 -0.030742152970053203 0 -0.03499799049002595 -0.031404961133399481 0 -0.034999093348486575 -0.028699316030110281 0 -0.034994658334437899 -0.030742152970053203 0 -0.035347925603456669 -0.029800399933196435 0 -0.034994658334437899 -0.030742152970053203 0 -0.03514343522275816 -0.030869040838076928 0 -0.034414958796758696 -0.032876997955399313 0 -0.034994658334437899 -0.030742152970053203 0 -0.03514343522275816 -0.030869040838076928 0 -0.034414958796758696 -0.032876997955399313 0 -0.03514343522275816 -0.030869040838076928 0 -0.035690749352828052 -0.030938801749198695 0 -0.03514343522275816 -0.030869040838076928 0 -0.035690749352828052 -0.030938801749198695 0 -0.035496315047758638 -0.030341322510461535 0 -0.035690749352828052 -0.030938801749198695 0 -0.035709667364508833 -0.030311907822699196 0 -0.035496315047758638 -0.030341322510461535 0 -0.036126330768725914 -0.030554184993264202 0 -0.035690749352828052 -0.030938801749198695 0 -0.035709667364508833 -0.030311907822699196 0 -0.035588736324164046 -0.029732560525797119 0 -0.035709667364508833 -0.030311907822699196 0 -0.035586269419182859 -0.029826676279937847 0 -0.035709667364508833 -0.030311907822699196 0 -0.035586269419182859 -0.029826676279937847 0 -0.035496315047758638 -0.030341322510461535 0 -0.036285721612545251 -0.028075141327611828 0 -0.036249927536270057 -0.028293300174098018 0 -0.035347925603456669 -0.029800399933196435 0 -0.035586269419182859 -0.029826676279937847 0 -0.035496315047758638 -0.030341322510461535 0 -0.035620427910154698 -0.02967671042454843 0 -0.035347925603456669 -0.029800399933196435 0 -0.035586269419182859 -0.029826676279937847 0 -0.035347925603456669 -0.029800399933196435 0 -0.03514343522275816 -0.030869040838076928 0 -0.035496315047758638 -0.030341322510461535 0 -0.015822285488180588 -0.035893345637540396 0 -0.014813537365912732 -0.034204046575946473 0 -0.017212170025152615 -0.036495096745009024 0 -0.01709438574388341 -0.037643592398216394 0 -0.016433199635507354 -0.036682629726514711 0 -0.019203624679912251 -0.037639354271375228 0 -0.018013684752057831 -0.037288246943808806 0 -0.017934411505899861 -0.03850893244612761 0 -0.019203624679912251 -0.037639354271375228 0 -0.019136590775598577 -0.038715972518451519 0 -0.017934411505899861 -0.03850893244612761 0 -0.019203624679912251 -0.037639354271375228 0 -0.020297275561359174 -0.038068001907319376 0 -0.019136590775598577 -0.038715972518451519 0 -0.019203624679912251 -0.037639354271375228 0 -0.018714848756457441 -0.036700006334546495 0 -0.019723911756261026 -0.036590776007157967 0 -0.019203624679912251 -0.037639354271375228 0 -0.018714848756457441 -0.036700006334546495 0 -0.018013684752057831 -0.037288246943808806 0 -0.015822285488180588 -0.035893345637540396 0 -0.016164985674460119 -0.03589549170807483 0 -0.018714848756457441 -0.036700006334546495 0 -0.018013684752057831 -0.037288246943808806 0 -0.017828119643013722 -0.035918693040295858 0 -0.017212170025152615 -0.036495096745009024 0 -0.017828119643013722 -0.035918693040295858 0 -0.016348861489309863 -0.035941126856828619 0 -0.017828119643013722 -0.035918693040295858 0 -0.017968303112194904 -0.034999439741282903 0 -0.019112769629303587 -0.035780027657232476 0 -0.017828119643013722 -0.035918693040295858 0 -0.017968303112194904 -0.034999439741282903 0 -0.016855656679612974 -0.03546993981550637 0 -0.017968303112194904 -0.034999439741282903 0 -0.019112769629303587 -0.035780027657232476 0 -0.019889430955953722 -0.034999783223858813 0 -0.018714848756457441 -0.036700006334546495 0 -0.017828119643013722 -0.035918693040295858 0 -0.019112769629303587 -0.035780027657232476 0 -0.018714848756457441 -0.036700006334546495 0 -0.019112769629303587 -0.035780027657232476 0 -0.019723911756261026 -0.036590776007157967 0 -0.019723911756261026 -0.036590776007157967 0 -0.020356501974107818 -0.035740778404414829 0 -0.020743943885129578 -0.036445913911924838 0 -0.019112769629303587 -0.035780027657232476 0 -0.019723911756261026 -0.036590776007157967 0 -0.020356501974107818 -0.035740778404414829 0 -0.019889430955953722 -0.034999783223858813 0 -0.020356501974107818 -0.035740778404414829 0 -0.021809817576793213 -0.034999817938432549 0 -0.019112769629303587 -0.035780027657232476 0 -0.019889430955953722 -0.034999783223858813 0 -0.020356501974107818 -0.035740778404414829 0 -0.020356501974107818 -0.035740778404414829 0 -0.021809817576793213 -0.034999817938432549 0 -0.021287780517536777 -0.035934707346937628 0 -0.021287780517536777 -0.035934707346937628 0 -0.020743943885129578 -0.036445913911924838 0 -0.021712003342428694 -0.036339572098780228 0 -0.020356501974107818 -0.035740778404414829 0 -0.021287780517536777 -0.035934707346937628 0 -0.020743943885129578 -0.036445913911924838 0 -0.020743943885129578 -0.036445913911924838 0 -0.021190978003325485 -0.036936214664115216 0 -0.021712003342428694 -0.036339572098780228 0 -0.021190978003325485 -0.036936214664115216 0 -0.020963985287477446 -0.037693202181351283 0 -0.021600041156498041 -0.037352163693425436 0 -0.021190978003325485 -0.036936214664115216 0 -0.020337959131372742 -0.037223056901382973 0 -0.020963985287477446 -0.037693202181351283 0 -0.020743943885129578 -0.036445913911924838 0 -0.021190978003325485 -0.036936214664115216 0 -0.020337959131372742 -0.037223056901382973 0 -0.019203624679912251 -0.037639354271375228 0 -0.019723911756261026 -0.036590776007157967 0 -0.020337959131372742 -0.037223056901382973 0 -0.019723911756261026 -0.036590776007157967 0 -0.020743943885129578 -0.036445913911924838 0 -0.020337959131372742 -0.037223056901382973 0 -0.019203624679912251 -0.037639354271375228 0 -0.020337959131372742 -0.037223056901382973 0 -0.020297275561359174 -0.038068001907319376 0 -0.020337959131372742 -0.037223056901382973 0 -0.020297275561359174 -0.038068001907319376 0 -0.020963985287477446 -0.037693202181351283 0 -0.020297275561359174 -0.038068001907319376 0 -0.020963985287477446 -0.037693202181351283 0 -0.020990380744298393 -0.038376328928716709 0 -0.020963985287477446 -0.037693202181351283 0 -0.0218438371651201 -0.03808144125915091 0 -0.020990380744298393 -0.038376328928716709 0 -0.020963985287477446 -0.037693202181351283 0 -0.021600041156498041 -0.037352163693425436 0 -0.0218438371651201 -0.03808144125915091 0 -0.020319774344060008 -0.035656684968559407 0 -0.020468312318799264 -0.036004029506832291 0 -0.022085284247613312 -0.037463600787657515 0 -0.022565257243064737 -0.037544234592088471 0 -0.022306548030534102 -0.036968830503261094 0 -0.021600041156498041 -0.037352163693425436 0 -0.0218438371651201 -0.03808144125915091 0 -0.022306548030534102 -0.036968830503261094 0 -0.022948465883139396 -0.037665340328538792 0 -0.023052869090174032 -0.037219574513496882 0 -0.022463040059861099 -0.036449516379835074 0 -0.022712198796681939 -0.034822680942485626 0 -0.023120606139810779 -0.035273534006486112 0 -0.022948465883139396 -0.037665340328538792 0 -0.023052869090174032 -0.037219574513496882 0 -0.023582825408179624 -0.037159160761267476 0 -0.023052869090174032 -0.037219574513496882 0 -0.022463040059861099 -0.036449516379835074 0 -0.022878249432922868 -0.036611296917404806 0 -0.022712198796681939 -0.034822680942485626 0 -0.022850324816878716 -0.036189711497512253 0 -0.022565257243064737 -0.037544234592088471 0 -0.022463040059861099 -0.036449516379835074 0 -0.022306548030534102 -0.036968830503261094 0 -0.023052869090174032 -0.037219574513496882 0 -0.023124188803709436 -0.036813218409244224 0 -0.023394687730892171 -0.036845440817167091 0 -0.023052869090174032 -0.037219574513496882 0 -0.023124188803709436 -0.036813218409244224 0 -0.022878249432922868 -0.036611296917404806 0 -0.023124188803709436 -0.036813218409244224 0 -0.023256013147788617 -0.036521987835396334 0 -0.023394687730892171 -0.036845440817167091 0 -0.023124188803709436 -0.036813218409244224 0 -0.023256013147788617 -0.036521987835396334 0 -0.022878249432922868 -0.036611296917404806 0 -0.022463040059861099 -0.036449516379835074 0 -0.02186798613789866 -0.036799648977443568 0 -0.021712003342428694 -0.036339572098780228 0 -0.022463040059861099 -0.036449516379835074 0 -0.022306548030534102 -0.036968830503261094 0 -0.02186798613789866 -0.036799648977443568 0 -0.021190978003325485 -0.036936214664115216 0 -0.021600041156498041 -0.037352163693425436 0 -0.02186798613789866 -0.036799648977443568 0 -0.021600041156498041 -0.037352163693425436 0 -0.022306548030534102 -0.036968830503261094 0 -0.02186798613789866 -0.036799648977443568 0 -0.021190978003325485 -0.036936214664115216 0 -0.02186798613789866 -0.036799648977443568 0 -0.021712003342428694 -0.036339572098780228 0 -0.021287780517536777 -0.035934707346937628 0 -0.021712003342428694 -0.036339572098780228 0 -0.02250045118866675 -0.03595271481749869 0 -0.02249934689056831 -0.03571233235059635 0 -0.023198031872342029 -0.035747229378802883 0 -0.021287780517536777 -0.035934707346937628 0 -0.022332077785244542 -0.035752172360628713 0 -0.023061285337961947 -0.03651709497569755 0 -0.022463040059861099 -0.036449516379835074 0 -0.021712003342428694 -0.036339572098780228 0 -0.02250045118866675 -0.03595271481749869 0 -0.021809817576793213 -0.034999817938432549 0 -0.023730767424447151 -0.034999948261671569 0 -0.023048611488981057 -0.03560667583826433 0 -0.021809817576793213 -0.034999817938432549 0 -0.022332077785244542 -0.035752172360628713 0 -0.023048611488981057 -0.03560667583826433 0 -0.021809817576793213 -0.034999817938432549 0 -0.021287780517536777 -0.035934707346937628 0 -0.022332077785244542 -0.035752172360628713 0 -0.022332077785244542 -0.035752172360628713 0 -0.023048611488981057 -0.03560667583826433 0 -0.023061285337961947 -0.03651709497569755 0 -0.023048611488981057 -0.03560667583826433 0 -0.023061285337961947 -0.03651709497569755 0 -0.024360426974746864 -0.035871205760028634 0 -0.023730767424447151 -0.034999948261671569 0 -0.023048611488981057 -0.03560667583826433 0 -0.024360426974746864 -0.035871205760028634 0 -0.023198031872342029 -0.035747229378802883 0 -0.024535576059719399 -0.035637668603081145 0 -0.023061285337961947 -0.03651709497569755 0 -0.024727432109581251 -0.036878575929823562 0 -0.024360426974746864 -0.035871205760028634 0 -0.023256013147788617 -0.036521987835396334 0 -0.02250045118866675 -0.03595271481749869 0 -0.023902978850576836 -0.036105168382254881 0 -0.022463040059861099 -0.036449516379835074 0 -0.022878249432922868 -0.036611296917404806 0 -0.02250045118866675 -0.03595271481749869 0 -0.023256013147788617 -0.036521987835396334 0 -0.022878249432922868 -0.036611296917404806 0 -0.02250045118866675 -0.03595271481749869 0 -0.024727432109581251 -0.036878575929823562 0 -0.024360426974746864 -0.035871205760028634 0 -0.025999526788867751 -0.036069065411099548 0 -0.023730767424447151 -0.034999948261671569 0 -0.024360426974746864 -0.035871205760028634 0 -0.025651406199094003 -0.034999970894871058 0 -0.024360426974746864 -0.035871205760028634 0 -0.025651406199094003 -0.034999970894871058 0 -0.025999526788867751 -0.036069065411099548 0 -0.026377982008991642 -0.037218685018455759 0 -0.024727432109581251 -0.036878575929823562 0 -0.025999526788867751 -0.036069065411099548 0 -0.026277377707937602 -0.035155548800222036 0 -0.024535576059719399 -0.035637668603081145 0 -0.02419472933719272 -0.036259608155153014 0 -0.024129581389804894 -0.035995090788863142 0 -0.024198125704557021 -0.036308992491424108 0 -0.02419472933719272 -0.036259608155153014 0 -0.023902978850576836 -0.036105168382254881 0 -0.024198125704557021 -0.036308992491424108 0 -0.024129581389804894 -0.035995090788863142 0 -0.024198125704557021 -0.036308992491424108 0 -0.024321222383876333 -0.035934185251759718 0 -0.023902978850576836 -0.036105168382254881 0 -0.024198125704557021 -0.036308992491424108 0 -0.023706319664683808 -0.036567454983213711 0 -0.023256013147788617 -0.036521987835396334 0 -0.023902978850576836 -0.036105168382254881 0 -0.023706319664683808 -0.036567454983213711 0 -0.023256013147788617 -0.036521987835396334 0 -0.023706319664683808 -0.036567454983213711 0 -0.023394687730892171 -0.036845440817167091 0 -0.023706319664683808 -0.036567454983213711 0 -0.023394687730892171 -0.036845440817167091 0 -0.023582825408179624 -0.037159160761267476 0 -0.024198125704557021 -0.036308992491424108 0 -0.02484066417668954 -0.035885478089227062 0 -0.024321222383876333 -0.035934185251759718 0 -0.024198125704557021 -0.036308992491424108 0 -0.023706319664683808 -0.036567454983213711 0 -0.023582825408179624 -0.037159160761267476 0 -0.023252615242216366 -0.035397336561502249 0 -0.023120606139810779 -0.035273534006486112 0 -0.02484066417668954 -0.035885478089227062 0 -0.024550734659894113 -0.035691246128237084 0 -0.024321222383876333 -0.035934185251759718 0 -0.023052869090174032 -0.037219574513496882 0 -0.023394687730892171 -0.036845440817167091 0 -0.023582825408179624 -0.037159160761267476 0 -0.02484066417668954 -0.035885478089227062 0 -0.024896188505491572 -0.035646103805797649 0 -0.024550734659894113 -0.035691246128237084 0 -0.025279595073093315 -0.035462795853568471 0 -0.02484066417668954 -0.035885478089227062 0 -0.024896188505491572 -0.035646103805797649 0 -0.024896188505491572 -0.035646103805797649 0 -0.024700352719522804 -0.035461353316040257 0 -0.024823405770235177 -0.035214155877262364 0 -0.024896188505491572 -0.035646103805797649 0 -0.024700352719522804 -0.035461353316040257 0 -0.024550734659894113 -0.035691246128237084 0 -0.024700352719522804 -0.035461353316040257 0 -0.024550734659894113 -0.035691246128237084 0 -0.024454857643699968 -0.03528634051997219 0 -0.024550734659894113 -0.035691246128237084 0 -0.024208408963586614 -0.035609585117719965 0 -0.024454857643699968 -0.03528634051997219 0 -0.024129581389804894 -0.035995090788863142 0 -0.024208408963586614 -0.035609585117719965 0 -0.024321222383876333 -0.035934185251759718 0 -0.024550734659894113 -0.035691246128237084 0 -0.024208408963586614 -0.035609585117719965 0 -0.024321222383876333 -0.035934185251759718 0 -0.024006513816550452 -0.034985862949291686 0 -0.024208408963586614 -0.035609585117719965 0 -0.024454857643699968 -0.03528634051997219 0 -0.024006513816550452 -0.034985862949291686 0 -0.024454857643699968 -0.03528634051997219 0 -0.024435092016441198 -0.034808608736459273 0 -0.024454857643699968 -0.03528634051997219 0 -0.02471270982958719 -0.034913714458397214 0 -0.024435092016441198 -0.034808608736459273 0 -0.024896188505491572 -0.035646103805797649 0 -0.024823405770235177 -0.035214155877262364 0 -0.02521537207700375 -0.034978527342064518 0 -0.024700352719522804 -0.035461353316040257 0 -0.024454857643699968 -0.03528634051997219 0 -0.024823405770235177 -0.035214155877262364 0 -0.024823405770235177 -0.035214155877262364 0 -0.02497077609538639 -0.034922053770478828 0 -0.02471270982958719 -0.034913714458397214 0 -0.024823405770235177 -0.035214155877262364 0 -0.02497077609538639 -0.034922053770478828 0 -0.02521537207700375 -0.034978527342064518 0 -0.024454857643699968 -0.03528634051997219 0 -0.024823405770235177 -0.035214155877262364 0 -0.02471270982958719 -0.034913714458397214 0 -0.02471270982958719 -0.034913714458397214 0 -0.024682286655181958 -0.034579660073312909 0 -0.024435092016441198 -0.034808608736459273 0 -0.024682286655181958 -0.034579660073312909 0 -0.024339487340735374 -0.034279328922043779 0 -0.025073959096565752 -0.03424487428137505 0 -0.02471270982958719 -0.034913714458397214 0 -0.024935711836693696 -0.034731019196045501 0 -0.024682286655181958 -0.034579660073312909 0 -0.02497077609538639 -0.034922053770478828 0 -0.02471270982958719 -0.034913714458397214 0 -0.024935711836693696 -0.034731019196045501 0 -0.02497077609538639 -0.034922053770478828 0 -0.024935711836693696 -0.034731019196045501 0 -0.025169768910683819 -0.034778884382351632 0 -0.023765086708645682 -0.032780793835534533 0 -0.023623809033815241 -0.032714009938415466 0 -0.024935711836693696 -0.034731019196045501 0 -0.024682286655181958 -0.034579660073312909 0 -0.025073959096565752 -0.03424487428137505 0 -0.024935711836693696 -0.034731019196045501 0 -0.025073959096565752 -0.03424487428137505 0 -0.025174451598603161 -0.034767127941914083 0 -0.024006513816550452 -0.034985862949291686 0 -0.024435092016441198 -0.034808608736459273 0 -0.024339487340735374 -0.034279328922043779 0 -0.029424628776615721 -0.032721704387874688 0 -0.0290006426930365 -0.031313558013114216 0 -0.024682286655181958 -0.034579660073312909 0 -0.024435092016441198 -0.034808608736459273 0 -0.024339487340735374 -0.034279328922043779 0 -0.030732860608970545 -0.031307038644548209 0 -0.0290006426930365 -0.031313558013114216 0 -0.03590546390861013 -0.031688993066376049 0 -0.035412697599037979 -0.031612988125771291 0 -0.035638296672345068 -0.03195895212734319 0 -0.0290006426930365 -0.031313558013114216 0 -0.028830566351248432 -0.029784361651046837 0 -0.035412697599037979 -0.031612988125771291 0 -0.035638296672345068 -0.03195895212734319 0 -0.035158994877266009 -0.03194060238754734 0 -0.035638296672345068 -0.03195895212734319 0 -0.035158994877266009 -0.03194060238754734 0 -0.035441577354526452 -0.032318120653408097 0 -0.031937295809876823 -0.027674757281816103 0 -0.028178799077290116 -0.027923439528452224 0 -0.035158994877266009 -0.03194060238754734 0 -0.035441577354526452 -0.032318120653408097 0 -0.034879278852744014 -0.032290466567587647 0 -0.027333816479441463 -0.030414030308197493 0 -0.027761221952495332 -0.029757846765086669 0 -0.028031549510131079 -0.031029344891180546 0 -0.024732942277071113 -0.028074789878424454 0 -0.024807599760760184 -0.028542315791318051 0 -0.024913034780544664 -0.028288103791106779 0 -0.027764316620454785 -0.027845393644761286 0 -0.025186750505896843 -0.030773103163640229 0 -0.028342111718114144 -0.027126973808369363 0 -0.02718992486236595 -0.027114785485968962 0 -0.028409184127552181 -0.027405307460361933 0 -0.027764316620454785 -0.027845393644761286 0 -0.026025490290110809 -0.027178550957688501 0 -0.028302634067621537 -0.029642895421950598 0 -0.027299116244597507 -0.029628589840929767 0 -0.028005233654294259 -0.028363150622178954 0 -0.027764316620454785 -0.027845393644761286 0 -0.028178799077290116 -0.027923439528452224 0 -0.027333816479441463 -0.030414030308197493 0 -0.027761221952495332 -0.029757846765086669 0 -0.027687593721088158 -0.029756667608089798 0 -0.028830566351248432 -0.029784361651046837 0 -0.028178799077290116 -0.027923439528452224 0 -0.0290006426930365 -0.031313558013114216 0 -0.025186750505896843 -0.030773103163640229 0 -0.026990931051695508 -0.031062411197695667 0 -0.027333816479441463 -0.030414030308197493 0 -0.028031549510131079 -0.031029344891180546 0 -0.025186750505896843 -0.030773103163640229 0 -0.022929344762081492 -0.030317836122656403 0 -0.025023565988172212 -0.02853125146076314 0 -0.024913034780544664 -0.028288103791106779 0 -0.025142118836853619 -0.02821657807131445 0 -0.024807599760760184 -0.028542315791318051 0 -0.025023565988172212 -0.02853125146076314 0 -0.024913034780544664 -0.028288103791106779 0 -0.026025490290110809 -0.027178550957688501 0 -0.021874959070082089 -0.025884981548556351 0 -0.024913034780544664 -0.028288103791106779 0 -0.024856160995337096 -0.028078564684870074 0 -0.025142118836853619 -0.02821657807131445 0 -0.026025490290110809 -0.027178550957688501 0 -0.022200595487527112 -0.027539176947186151 0 -0.024732942277071113 -0.028074789878424454 0 -0.024913034780544664 -0.028288103791106779 0 -0.024856160995337096 -0.028078564684870074 0 -0.024865098560504291 -0.026724448249685697 0 -0.021718853248442759 -0.026666473633455503 0 -0.022174743701438772 -0.025612286167555388 0 -0.019996275499807484 -0.027119808551777539 0 -0.020228847573699783 -0.026593967246549582 0 -0.018826078125490593 -0.026611616620842205 0 -0.021874959070082089 -0.025884981548556351 0 -0.022200595487527112 -0.027539176947186151 0 -0.022310625629920332 -0.029124013628990201 0 -0.021842017956590618 -0.030188139218573707 0 -0.020571479989245599 -0.029158573024928226 0 -0.022929344762081492 -0.030317836122656403 0 -0.022200595487527112 -0.027539176947186151 0 -0.022929344762081492 -0.030317836122656403 0 -0.01937442527854898 -0.030266036541409629 0 -0.02170611067856763 -0.031697207705377338 0 -0.021317321039212776 -0.031378817421547647 0 -0.020732163071704619 -0.031704811546470126 0 -0.021317321039212776 -0.031378817421547647 0 -0.021943639669647713 -0.031173841909549967 0 -0.021252757766574516 -0.03104156809220451 0 -0.023164344623531119 -0.032664426516886003 0 -0.02083768338015831 -0.033362371198390445 0 -0.021317321039212776 -0.031378817421547647 0 -0.021252757766574516 -0.03104156809220451 0 -0.020949710418830283 -0.031278447647503801 0 -0.023264872606154393 -0.030340755653822781 0 -0.023612337221432373 -0.031155119905137578 0 -0.023436366646508486 -0.031122165340264581 0 -0.023264872606154393 -0.030340755653822781 0 -0.023959052392259872 -0.030318050218875153 0 -0.023612337221432373 -0.031155119905137578 0 -0.022929344762081492 -0.030317836122656403 0 -0.023164344623531119 -0.032664426516886003 0 -0.02170611067856763 -0.031697207705377338 0 -0.021317321039212776 -0.031378817421547647 0 -0.021943639669647713 -0.031173841909549967 0 -0.025186750505896843 -0.030773103163640229 0 -0.023623809033815241 -0.032714009938415466 0 -0.023623809033815241 -0.032714009938415466 0 -0.02331561811398522 -0.033244915420945993 0 -0.023164344623531119 -0.032664426516886003 0 -0.02331561811398522 -0.033244915420945993 0 -0.023607886247313945 -0.032095630951309934 0 -0.023353642414700195 -0.032048008123150978 0 -0.023449212127344632 -0.032469522634680843 0 -0.023164344623531119 -0.032664426516886003 0 -0.023623809033815241 -0.032714009938415466 0 -0.025279595073093315 -0.035462795853568471 0 -0.024896188505491572 -0.035646103805797649 0 -0.025132858980615715 -0.03492076058213224 0 -0.022809191306891251 -0.033114021402153436 0 -0.022874323856184257 -0.033380633961739077 0 -0.022434530058834196 -0.033402701929422414 0 -0.022831277726767511 -0.033475070211656521 0 -0.022874323856184257 -0.033380633961739077 0 -0.022434530058834196 -0.033402701929422414 0 -0.023421031935743238 -0.033988670073362634 0 -0.02331561811398522 -0.033244915420945993 0 -0.02497077609538639 -0.034922053770478828 0 -0.025169768910683819 -0.034778884382351632 0 -0.02521537207700375 -0.034978527342064518 0 -0.022712198796681939 -0.034822680942485626 0 -0.02331561811398522 -0.033244915420945993 0 -0.022712198796681939 -0.034822680942485626 0 -0.02083768338015831 -0.033362371198390445 0 -0.020319774344060008 -0.035656684968559407 0 -0.020224161381763639 -0.03367855071884563 0 -0.022085284247613312 -0.037463600787657515 0 -0.022565257243064737 -0.037544234592088471 0 -0.022005613744288419 -0.037834448203132309 0 -0.022085284247613312 -0.037463600787657515 0 -0.022005613744288419 -0.037834448203132309 0 -0.021887670319345385 -0.037804454160619158 0 -0.02083768338015831 -0.033362371198390445 0 -0.020224161381763639 -0.03367855071884563 0 -0.020224161381763639 -0.03367855071884563 0 -0.018967759204183143 -0.034082322917105397 0 -0.0218438371651201 -0.03808144125915091 0 -0.021367532380336372 -0.038994407147733938 0 -0.020990380744298393 -0.038376328928716709 0 -0.019053033425446585 -0.03325525951353641 0 -0.019034962575722243 -0.033256081292093037 0 -0.019046696186910936 -0.033252299635213416 0 -0.021367532380336372 -0.038994407147733938 0 -0.020990380744298393 -0.038376328928716709 0 -0.020398840789879021 -0.038815438350219236 0 -0.020297275561359174 -0.038068001907319376 0 -0.020990380744298393 -0.038376328928716709 0 -0.020398840789879021 -0.038815438350219236 0 -0.018967759204183143 -0.034082322917105397 0 -0.017228673100562569 -0.034294373342928043 0 -0.016930709086415481 -0.031194065197250882 0 -0.016427977242619716 -0.031646521439182486 0 -0.015994201719599744 -0.031030206643599456 0 -0.019152244291495531 -0.035239185534645785 0 -0.018967759204183143 -0.034082322917105397 0 -0.020297275561359174 -0.038068001907319376 0 -0.020355829593269217 -0.038895120292667361 0 -0.019136590775598577 -0.038715972518451519 0 -0.016930709086415481 -0.031194065197250882 0 -0.016427977242619716 -0.031646521439182486 0 -0.017029084119986181 -0.032118000598960535 0 -0.018967759204183143 -0.034082322917105397 0 -0.018965540318019242 -0.031496901560552626 0 -0.016427977242619716 -0.031646521439182486 0 -0.016482921118164864 -0.032086092743544459 0 -0.017029084119986181 -0.032118000598960535 0 -0.019677568687074529 -0.031391325718976577 0 -0.019525276143910503 -0.031666239981216128 0 -0.019423441354886186 -0.031574002189605266 0 -0.019034962575722243 -0.033256081292093037 0 -0.019046696186910936 -0.033252299635213416 0 -0.019034617756005377 -0.033244433539428554 0 -0.019934551817909606 -0.032427738849200041 0 -0.018965540318019242 -0.031496901560552626 0 -0.021317321039212776 -0.031378817421547647 0 -0.020949710418830283 -0.031278447647503801 0 -0.020732163071704619 -0.031704811546470126 0 -0.019934551817909606 -0.032427738849200041 0 -0.01937442527854898 -0.030266036541409629 0 -0.02083768338015831 -0.033362371198390445 0 -0.019934551817909606 -0.032427738849200041 0 -0.020224161381763639 -0.03367855071884563 0 -0.019934551817909606 -0.032427738849200041 0 -0.019527354952347732 -0.033058689835109747 0 -0.019680130269699461 -0.033085469834808548 0 -0.01979876521257256 -0.032811603117089319 0 -0.021842017956590618 -0.030188139218573707 0 -0.020571479989245599 -0.029158573024928226 0 -0.020362786092672388 -0.029591607846093659 0 -0.019525276143910503 -0.031666239981216128 0 -0.019429670190272703 -0.031667452026743211 0 -0.019423441354886186 -0.031574002189605266 0 -0.01937442527854898 -0.030266036541409629 0 -0.018718191420848049 -0.030278226498929858 0 -0.018673875956816705 -0.030699911178428244 0 -0.018814283559863178 -0.030383437086557986 0 -0.018844672973481587 -0.030694027289860711 0 -0.01937442527854898 -0.030266036541409629 0 -0.018960367115212103 -0.028957427142592057 0 -0.018960367115212103 -0.028957427142592057 0 -0.018718191420848049 -0.030278226498929858 0 -0.021874959070082089 -0.025884981548556351 0 -0.01737691052425077 -0.025336099030122468 0 -0.022200595487527112 -0.027539176947186151 0 -0.018960367115212103 -0.028957427142592057 0 -0.020228847573699783 -0.026593967246549582 0 -0.018567107402267493 -0.025940202866971816 0 -0.018826078125490593 -0.026611616620842205 0 -0.019996275499807484 -0.027119808551777539 0 -0.018826078125490593 -0.026611616620842205 0 -0.018685269476744832 -0.027095399320833366 0 -0.018567107402267493 -0.025940202866971816 0 -0.018826078125490593 -0.026611616620842205 0 -0.018660351776923087 -0.026934549623902876 0 -0.018960367115212103 -0.028957427142592057 0 -0.017318703217871587 -0.025599696871251468 0 -0.017330337959775521 -0.025624191403195187 0 -0.017318703217871587 -0.025599696871251468 0 -0.018826078125490593 -0.026611616620842205 0 -0.018669565499254723 -0.026927581557274399 0 -0.018685269476744832 -0.027095399320833366 0 -0.017368455343275673 -0.025573383560677256 0 -0.017188931639155108 -0.023697031101840113 0 -0.018263371778175254 -0.023712460223566673 0 -0.017318703217871587 -0.025599696871251468 0 -0.016973355796236631 -0.025327927299666996 0 -0.017318703217871587 -0.025599696871251468 0 -0.01737691052425077 -0.025336099030122468 0 -0.01737691052425077 -0.025336099030122468 0 -0.016973355796236631 -0.025327927299666996 0 -0.016006716000284752 -0.027961784306275373 0 -0.015402430554432075 -0.027433738196727873 0 -0.015024600852569226 -0.027500770729423009 0 -0.016973355796236631 -0.025327927299666996 0 -0.012228758685219146 -0.024922773731218626 0 -0.016006716000284752 -0.027961784306275373 0 -0.015024600852569226 -0.027500770729423009 0 -0.014683203368256662 -0.027925959375678603 0 -0.016082937980302591 -0.02781732672400649 0 -0.016006716000284752 -0.027961784306275373 0 -0.015727721444993081 -0.02751157765222605 0 -0.016006716000284752 -0.027961784306275373 0 -0.015727721444993081 -0.02751157765222605 0 -0.015402430554432075 -0.027433738196727873 0 -0.016042599593693203 -0.026937979458832282 0 -0.016082937980302591 -0.02781732672400649 0 -0.015727721444993081 -0.02751157765222605 0 -0.018960367115212103 -0.028957427142592057 0 -0.018824891496451081 -0.028868491206027466 0 -0.015990667362649789 -0.026976212873940569 0 -0.015727721444993081 -0.02751157765222605 0 -0.015538927725637692 -0.027098624926790708 0 -0.015727721444993081 -0.02751157765222605 0 -0.015402430554432075 -0.027433738196727873 0 -0.015538927725637692 -0.027098624926790708 0 -0.015402430554432075 -0.027433738196727873 0 -0.015194471563957153 -0.027189467664396557 0 -0.015538927725637692 -0.027098624926790708 0 -0.015194471563957153 -0.027189467664396557 0 -0.014849287107723477 -0.026982417449863846 0 -0.015024600852569226 -0.027500770729423009 0 -0.015402430554432075 -0.027433738196727873 0 -0.015194471563957153 -0.027189467664396557 0 -0.015024600852569226 -0.027500770729423009 0 -0.015275658274794317 -0.026883863576910687 0 -0.015958385902715869 -0.026567351390395913 0 -0.01483212310124994 -0.026582427937723353 0 -0.015194471563957153 -0.027189467664396557 0 -0.015275658274794317 -0.026883863576910687 0 -0.014849287107723477 -0.026982417449863846 0 -0.018718191420848049 -0.030278226498929858 0 -0.0154358505063506 -0.02964792168318069 0 -0.017063622839641499 -0.032312231336762517 0 -0.016869916459346816 -0.032245797400039265 0 -0.016155322211102531 -0.032342717654493217 0 -0.015194471563957153 -0.027189467664396557 0 -0.015275658274794317 -0.026883863576910687 0 -0.015538927725637692 -0.027098624926790708 0 -0.015275658274794317 -0.026883863576910687 0 -0.015538927725637692 -0.027098624926790708 0 -0.015958385902715869 -0.026567351390395913 0 -0.015990667362649789 -0.026976212873940569 0 -0.015538927725637692 -0.027098624926790708 0 -0.015958385902715869 -0.026567351390395913 0 -0.016482921118164864 -0.032086092743544459 0 -0.016869916459346816 -0.032245797400039265 0 -0.017029084119986181 -0.032118000598960535 0 -0.017063622839641499 -0.032312231336762517 0 -0.016869916459346816 -0.032245797400039265 0 -0.017054974042608577 -0.032087909320632678 0 -0.018718191420848049 -0.030278226498929858 0 -0.018965540318019242 -0.031496901560552626 0 -0.018911028341172351 -0.031534456581789501 0 -0.018965540318019242 -0.031496901560552626 0 -0.016482921118164864 -0.032086092743544459 0 -0.016869916459346816 -0.032245797400039265 0 -0.016155322211102531 -0.032342717654493217 0 -0.014849287107723477 -0.026982417449863846 0 -0.014379354286498076 -0.02795189270760275 0 -0.013712879916883894 -0.026631704200872276 0 -0.01483212310124994 -0.026582427937723353 0 -0.014849287107723477 -0.026982417449863846 0 -0.013712879916883894 -0.026631704200872276 0 -0.0154358505063506 -0.02964792168318069 0 -0.012064793178266166 -0.029073055692030801 0 -0.016155322211102531 -0.032342717654493217 0 -0.015269905129964463 -0.032359685144245968 0 -0.015807623391947159 -0.031799610098609453 0 -0.015275658274794317 -0.026883863576910687 0 -0.01483212310124994 -0.026582427937723353 0 -0.014849287107723477 -0.026982417449863846 0 -0.014849287107723477 -0.026982417449863846 0 -0.014379354286498076 -0.02795189270760275 0 -0.014623955722708502 -0.027951297153751508 0 -0.012431094209962155 -0.025654191484036925 0 -0.012228758685219146 -0.024922773731218626 0 -0.014849287107723477 -0.026982417449863846 0 -0.015024600852569226 -0.027500770729423009 0 -0.014683203368256662 -0.027925959375678603 0 -0.011527828995754358 -0.024955837016809725 0 -0.012228758685219146 -0.024922773731218626 0 -0.00444699689104838 -0.024411856472135503 0 -0.0062068716340972618 -0.025577993679306656 0 -0.0060132444508224359 -0.027775970731710536 0 -0.011527828995754358 -0.024955837016809725 0 -0.0098269692408493228 -0.024351105294648966 0 -0.011527828995754358 -0.024955837016809725 0 -0.012064793178266166 -0.029073055692030801 0 -0.00444699689104838 -0.024411856472135503 0 -0.0062068716340972618 -0.025577993679306656 0 -0.0080329518908633882 -0.024337614360031391 0 -0.0062068716340972618 -0.025577993679306656 0 -0.0072944574300431355 -0.026821632376607746 0 -0.0080329518908633882 -0.024337614360031391 0 -0.0062068716340972618 -0.025577993679306656 0 -0.0072944574300431355 -0.026821632376607746 0 -0.0060132444508224359 -0.027775970731710536 0 -0.0051496476563436429 -0.028998594557863862 0 -0.0064214447040820263 -0.029347795413200376 0 -0.0084398331228451532 -0.028824501048665213 0 -0.012064793178266166 -0.029073055692030801 0 -0.010329962965809819 -0.028879415125544712 0 -0.0072944574300431355 -0.026821632376607746 0 -0.0060132444508224359 -0.027775970731710536 0 -0.0086581798940090562 -0.027909279074885013 0 -0.0051496476563436429 -0.028998594557863862 0 -0.0064214447040820263 -0.029347795413200376 0 -0.0063340044282523831 -0.03125311416551995 0 -0.012064793178266166 -0.029073055692030801 0 -0.012297745436465812 -0.031271106851045595 0 -0.015269905129964463 -0.032359685144245968 0 -0.01498281251167919 -0.031782545120151023 0 -0.015807623391947159 -0.031799610098609453 0 -0.01498281251167919 -0.031782545120151023 0 -0.015807623391947159 -0.031799610098609453 0 -0.01546219041711273 -0.031373708593380172 0 -0.00610003811216273 -0.031495210780912934 0 -0.0063863940697762491 -0.032097936778831826 0 -0.0057623341591409652 -0.035728151825227428 0 -0.0064214447040820263 -0.029347795413200376 0 -0.0061222256375192659 -0.031487670930952179 0 -0.0071809120166937551 -0.030452681245270837 0 -0.012022154000691036 -0.031134126121448738 0 -0.012297745436465812 -0.031271106851045595 0 -0.0061222256375192659 -0.031487670930952179 0 -0.0063863940697762491 -0.032097936778831826 0 -0.0074189441895514425 -0.031987376809787776 0 -0.012297745436465812 -0.031271106851045595 0 -0.012260994506327338 -0.03125088283259201 0 -0.016427977242619716 -0.031646521439182486 0 -0.015807623391947159 -0.031799610098609453 0 -0.015994201719599744 -0.031030206643599456 0 -0.016482921118164864 -0.032086092743544459 0 -0.016155322211102531 -0.032342717654493217 0 -0.015807623391947159 -0.031799610098609453 0 -0.016427977242619716 -0.031646521439182486 0 -0.016482921118164864 -0.032086092743544459 0 -0.015807623391947159 -0.031799610098609453 0 -0.015807623391947159 -0.031799610098609453 0 -0.015994201719599744 -0.031030206643599456 0 -0.01546219041711273 -0.031373708593380172 0 -0.015994201719599744 -0.031030206643599456 0 -0.01546219041711273 -0.031373708593380172 0 -0.015067795325172183 -0.030882608253199773 0 -0.012297745436465812 -0.031271106851045595 0 -0.014813537365912732 -0.034204046575946473 0 -0.017228673100562569 -0.034294373342928043 0 -0.014813537365912732 -0.034204046575946473 0 -0.01498281251167919 -0.031782545120151023 0 -0.01546219041711273 -0.031373708593380172 0 -0.015067795325172183 -0.030882608253199773 0 -0.0063863940697762491 -0.032097936778831826 0 -0.0057623341591409652 -0.035728151825227428 0 -0.0069285068448135794 -0.033451788258282211 0 -0.0086583692188521959 -0.018555566647378754 0 -0.0077897136808925717 -0.019519501494152929 0 -0.0089767296143399098 -0.017783803395275292 0 -0.0086583692188521959 -0.018555566647378754 0 -0.0090355296241585795 -0.018955195725052006 0 -0.0094477725495309937 -0.018131374251398231 0 -0.0086583692188521959 -0.018555566647378754 0 -0.0091041151801007549 -0.017990989504283031 0 -0.0094477725495309937 -0.018131374251398231 0 -0.0091041151801007549 -0.017990989504283031 0 -0.0093320015763335186 -0.017569907688691679 0 -0.0094477725495309937 -0.018131374251398231 0 -0.0086583692188521959 -0.018555566647378754 0 -0.0091041151801007549 -0.017990989504283031 0 -0.0089767296143399098 -0.017783803395275292 0 -0.0088833289579613711 -0.0179319030452607 0 -0.0087098287764292587 -0.017691151317513372 0 -0.0088275188266069837 -0.017527725628483738 0 -0.010207691739562909 -0.020721167406701206 0 -0.0099170753722145136 -0.019385558104469902 0 -0.0082531248894648305 -0.019323078358741662 0 -0.0089767296143399098 -0.017783803395275292 0 -0.0090015437296915007 -0.01741295294986352 0 -0.0088833289579613711 -0.0179319030452607 0 -0.0088275188266069837 -0.017527725628483738 0 -0.0090015437296915007 -0.01741295294986352 0 -0.0083938067741219455 -0.01935648741233429 0 -0.0082531248894648305 -0.019323078358741662 0 -0.0089767296143399098 -0.017783803395275292 0 -0.013020550046746718 -0.021035264747208012 0 -0.012091207028075802 -0.019726184132325124 0 -0.0083938067741219455 -0.01935648741233429 0 -0.0088794055047458648 -0.020060706948028605 0 -0.0089767296143399098 -0.017783803395275292 0 -0.0082439573585027549 -0.019322757860795629 0 -0.0088794055047458648 -0.020060706948028605 0 -0.0075845631493291557 -0.020781864636638094 0 -0.013020550046746718 -0.021035264747208012 0 -0.013859239923730031 -0.022848844870028095 0 -0.0083938067741219455 -0.01935648741233429 0 -0.0082439573585027549 -0.019322757860795629 0 -0.0088794055047458648 -0.020060706948028605 0 -0.012990485568502597 -0.021028342728071064 0 -0.013020550046746718 -0.021035264747208012 0 -0.0077897136808925717 -0.019519501494152929 0 -0.0085249947120873519 -0.019183879867679627 0 -0.0086314027487393325 -0.019805394046349342 0 -0.0086583692188521959 -0.018555566647378754 0 -0.0077897136808925717 -0.019519501494152929 0 -0.0085249947120873519 -0.019183879867679627 0 -0.0086583692188521959 -0.018555566647378754 0 -0.0085249947120873519 -0.019183879867679627 0 -0.0090355296241585795 -0.018955195725052006 0 -0.0085249947120873519 -0.019183879867679627 0 -0.0090355296241585795 -0.018955195725052006 0 -0.0086314027487393325 -0.019805394046349342 0 -0.0090355296241585795 -0.018955195725052006 0 -0.0086314027487393325 -0.019805394046349342 0 -0.0095833835554814516 -0.019682747385392958 0 -0.0077897136808925717 -0.019519501494152929 0 -0.0086314027487393325 -0.019805394046349342 0 -0.0081158912664283135 -0.020937848265450639 0 -0.0086314027487393325 -0.019805394046349342 0 -0.0090218214088908025 -0.021053526237640216 0 -0.0095833835554814516 -0.019682747385392958 0 -0.0086314027487393325 -0.019805394046349342 0 -0.0081158912664283135 -0.020937848265450639 0 -0.0090218214088908025 -0.021053526237640216 0 -0.0073818888821162894 -0.022646274618726907 0 -0.0082027873373794937 -0.021931656234074132 0 -0.009387642715186776 -0.022871649984969537 0 -0.0090218214088908025 -0.021053526237640216 0 -0.0082027873373794937 -0.021931656234074132 0 -0.009387642715186776 -0.022871649984969537 0 -0.0081158912664283135 -0.020937848265450639 0 -0.0090218214088908025 -0.021053526237640216 0 -0.0082027873373794937 -0.021931656234074132 0 -0.011745207404955049 -0.024107373186995924 0 -0.013859239923730031 -0.022848844870028095 0 -0.012056342507603297 -0.025734778056818178 0 -0.01169234742013734 -0.025728719639494819 0 -0.011791570991967064 -0.025183791768752184 0 -0.012228758685219146 -0.024922773731218626 0 -0.011745207404955049 -0.024107373186995924 0 -0.0073818888821162894 -0.022646274618726907 0 -0.0082027873373794937 -0.021931656234074132 0 -0.0071136293074953241 -0.022132752288736564 0 -0.011527828995754358 -0.024955837016809725 0 -0.011745207404955049 -0.024107373186995924 0 -0.0081158912664283135 -0.020937848265450639 0 -0.0082027873373794937 -0.021931656234074132 0 -0.0071136293074953241 -0.022132752288736564 0 -0.0077897136808925717 -0.019519501494152929 0 -0.0081158912664283135 -0.020937848265450639 0 -0.0071136293074953241 -0.022132752288736564 0 -0.0088794055047458648 -0.020060706948028605 0 -0.0085119356823061786 -0.022640103037583573 0 -0.0075845631493291557 -0.020781864636638094 0 -0.010207691739562909 -0.020721167406701206 0 -0.011745207404955049 -0.024107373186995924 0 -0.016309514390192677 -0.022379541514304199 0 -0.015487142831334073 -0.022839457227475463 0 -0.016053269302604468 -0.021879736925983943 0 -0.013859239923730031 -0.022848844870028095 0 -0.013970338100142388 -0.022843380454850713 0 -0.013836524360057107 -0.025228949098296181 0 -0.014562567986726557 -0.025027297624779031 0 -0.01423711622099836 -0.024327955371651416 0 -0.016973355796236631 -0.025327927299666996 0 -0.013859239923730031 -0.022848844870028095 0 -0.013836524360057107 -0.025228949098296181 0 -0.014525393689463486 -0.02523329299343012 0 -0.014562567986726557 -0.025027297624779031 0 -0.015677473042391636 -0.023833153626462565 0 -0.016309514390192677 -0.022379541514304199 0 -0.015487142831334073 -0.022839457227475463 0 -0.015599905456529955 -0.023832717077304048 0 -0.015677473042391636 -0.023833153626462565 0 -0.015487142831334073 -0.022839457227475463 0 -0.018218166002846325 -0.02587150402480003 0 -0.019777680901353512 -0.025890033733082216 0 -0.019229931619026985 -0.02516157837640294 0 -0.018218166002846325 -0.02587150402480003 0 -0.019229931619026985 -0.02516157837640294 0 -0.018838114075838869 -0.024323112265991209 0 -0.019777680901353512 -0.025890033733082216 0 -0.019229931619026985 -0.02516157837640294 0 -0.019638883566516458 -0.024332683189103685 0 -0.01737691052425077 -0.025336099030122468 0 -0.017843788660039515 -0.023514446240173351 0 -0.019229931619026985 -0.02516157837640294 0 -0.018838114075838869 -0.024323112265991209 0 -0.019638883566516458 -0.024332683189103685 0 -0.020480788673132463 -0.023451743182530516 0 -0.018387890287021674 -0.021627401820100488 0 -0.024729602171239349 -0.022564615087099518 0 -0.024382751224645775 -0.023196388215624714 0 -0.024800858408599191 -0.02301155226794371 0 -0.015487142831334073 -0.022839457227475463 0 -0.015400958822952776 -0.021866737444544905 0 -0.016053269302604468 -0.021879736925983943 0 -0.018838114075838869 -0.024323112265991209 0 -0.019638883566516458 -0.024332683189103685 0 -0.019473453404869598 -0.022744202336508978 0 -0.017843788660039515 -0.023514446240173351 0 -0.018387890287021674 -0.021627401820100488 0 -0.024723249468234194 -0.023306462466568357 0 -0.024382751224645775 -0.023196388215624714 0 -0.024800858408599191 -0.02301155226794371 0 -0.024723249468234194 -0.023306462466568357 0 -0.024382751224645775 -0.023196388215624714 0 -0.024400120872881147 -0.023646432853062126 0 -0.024723249468234194 -0.023306462466568357 0 -0.024620398058335838 -0.023692218241056467 0 -0.024400120872881147 -0.023646432853062126 0 -0.018387890287021674 -0.021627401820100488 0 -0.018748334626161964 -0.020182132742772557 0 -0.019375575935192707 -0.018919294696598286 0 -0.018375105945894366 -0.021279540273418825 0 -0.018128746066889388 -0.018684530179680445 0 -0.016904028251952509 -0.020169561160944864 0 -0.018387890287021674 -0.021627401820100488 0 -0.013020550046746718 -0.021035264747208012 0 -0.016904028251952509 -0.020169561160944864 0 -0.016618187310491785 -0.021512140014151665 0 -0.01565123329181729 -0.021307224752375002 0 -0.016053269302604468 -0.021879736925983943 0 -0.016618187310491785 -0.021512140014151665 0 -0.016238820545018018 -0.022296562740011315 0 -0.016053269302604468 -0.021879736925983943 0 -0.01565123329181729 -0.021307224752375002 0 -0.015400958822952776 -0.021866737444544905 0 -0.016053269302604468 -0.021879736925983943 0 -0.0085295491870063453 -0.017863364453932457 0 -0.0087098287764292587 -0.017691151317513372 0 -0.0085809730209103589 -0.017573419622931661 0 -0.016904028251952509 -0.020169561160944864 0 -0.015453805025979627 -0.019424188220664086 0 -0.0088833289579613711 -0.0179319030452607 0 -0.0085295491870063453 -0.017863364453932457 0 -0.0087098287764292587 -0.017691151317513372 0 -0.0087098287764292587 -0.017691151317513372 0 -0.0085809730209103589 -0.017573419622931661 0 -0.008685002901342033 -0.017477239905750317 0 -0.0087098287764292587 -0.017691151317513372 0 -0.008685002901342033 -0.017477239905750317 0 -0.0088275188266069837 -0.017527725628483738 0 -0.02543542095203356 -0.018445336794746896 0 -0.025404499120414762 -0.018483667340082856 0 -0.025388888502449001 -0.018395758806660341 0 -0.018647072188948201 -0.019241475962207426 0 -0.020439767722738911 -0.01989946258408453 0 -0.020439767722738911 -0.01989946258408453 0 -0.018748334626161964 -0.020182132742772557 0 -0.018409735664847302 -0.01946715369068518 0 -0.017050977958738559 -0.021065647103134227 0 -0.018591957253503169 -0.021356582005242139 0 -0.016229107814305473 -0.019617371449140605 0 -0.016300386480222782 -0.019365285593964717 0 -0.016121304309056353 -0.019478785517421722 0 -0.016904028251952509 -0.020169561160944864 0 -0.018748334626161964 -0.020182132742772557 0 -0.016229107814305473 -0.019617371449140605 0 -0.016121304309056353 -0.019478785517421722 0 -0.016135478864798214 -0.019600804095925566 0 -0.018647072188948201 -0.019241475962207426 0 -0.018748334626161964 -0.020182132742772557 0 -0.025404499120414762 -0.018483667340082856 0 -0.025388888502449001 -0.018395758806660341 0 -0.025342660025855928 -0.01845606369050326 0 -0.020439767722738911 -0.01989946258408453 0 -0.025882699252673298 -0.020168732368195521 0 -0.025882699252673298 -0.020168732368195521 0 -0.031881228165783058 -0.020101466361336258 0 -0.025584340186580012 -0.023805411300069596 0 -0.026125010332790109 -0.023040901597108664 0 -0.026449760911877132 -0.023960074934427516 0 -0.025584340186580012 -0.023805411300069596 0 -0.025378196793599501 -0.022978473526637257 0 -0.026125010332790109 -0.023040901597108664 0 -0.024723249468234194 -0.023306462466568357 0 -0.024620398058335838 -0.023692218241056467 0 -0.025378196793599501 -0.022978473526637257 0 -0.020439767722738911 -0.01989946258408453 0 -0.021712616136823615 -0.020507361297174124 0 -0.024752951538585345 -0.023620267849681124 0 -0.025584340186580012 -0.023805411300069596 0 -0.025378196793599501 -0.022978473526637257 0 -0.024723249468234194 -0.023306462466568357 0 -0.024800858408599191 -0.02301155226794371 0 -0.025378196793599501 -0.022978473526637257 0 -0.024729602171239349 -0.022564615087099518 0 -0.024800858408599191 -0.02301155226794371 0 -0.025378196793599501 -0.022978473526637257 0 -0.024729602171239349 -0.022564615087099518 0 -0.025378196793599501 -0.022978473526637257 0 -0.025616407833516631 -0.022649005432534501 0 -0.021874959070082089 -0.025884981548556351 0 -0.020480788673132463 -0.023451743182530516 0 -0.025040671526956972 -0.021953847387730912 0 -0.024729602171239349 -0.022564615087099518 0 -0.025489080831769782 -0.022271799267973069 0 -0.024729602171239349 -0.022564615087099518 0 -0.025489080831769782 -0.022271799267973069 0 -0.025616407833516631 -0.022649005432534501 0 -0.025936512668942178 -0.021992593778060274 0 -0.025040671526956972 -0.021953847387730912 0 -0.025489080831769782 -0.022271799267973069 0 -0.025936512668942178 -0.021992593778060274 0 -0.025983656538320722 -0.022233691419465473 0 -0.025489080831769782 -0.022271799267973069 0 -0.025489080831769782 -0.022271799267973069 0 -0.026020675493156422 -0.022481507487282414 0 -0.025616407833516631 -0.022649005432534501 0 -0.025983656538320722 -0.022233691419465473 0 -0.025489080831769782 -0.022271799267973069 0 -0.026020675493156422 -0.022481507487282414 0 -0.025378196793599501 -0.022978473526637257 0 -0.025616407833516631 -0.022649005432534501 0 -0.026125010332790109 -0.023040901597108664 0 -0.026020675493156422 -0.022481507487282414 0 -0.025616407833516631 -0.022649005432534501 0 -0.026125010332790109 -0.023040901597108664 0 -0.026020675493156422 -0.022481507487282414 0 -0.026125010332790109 -0.023040901597108664 0 -0.026338682560789865 -0.022550200355560945 0 -0.026125010332790109 -0.023040901597108664 0 -0.026650094342017958 -0.022705414796339005 0 -0.026906438744981959 -0.023237802851815613 0 -0.026125010332790109 -0.023040901597108664 0 -0.026650094342017958 -0.022705414796339005 0 -0.026338682560789865 -0.022550200355560945 0 -0.027971631974684993 -0.026282322387317331 0 -0.027811911961620982 -0.027006154616919239 0 -0.026020675493156422 -0.022481507487282414 0 -0.026338682560789865 -0.022550200355560945 0 -0.026364770933352228 -0.02218018706068214 0 -0.031683213617659613 -0.026536490069705685 0 -0.029764298465026706 -0.026517185076657342 0 -0.02968244145235336 -0.026916925596598921 0 -0.026650094342017958 -0.022705414796339005 0 -0.026338682560789865 -0.022550200355560945 0 -0.026364770933352228 -0.02218018706068214 0 -0.025936512668942178 -0.021992593778060274 0 -0.025983656538320722 -0.022233691419465473 0 -0.026250706791071304 -0.022144547132191071 0 -0.026025490290110809 -0.027178550957688501 0 -0.027811911961620982 -0.027006154616919239 0 -0.02718992486236595 -0.027114785485968962 0 -0.028409184127552181 -0.027405307460361933 0 -0.028463334715442663 -0.02762958301835924 0 -0.029764298465026706 -0.026517185076657342 0 -0.029638883556634198 -0.026737536059876194 0 -0.02968244145235336 -0.026916925596598921 0 -0.025983656538320722 -0.022233691419465473 0 -0.026020675493156422 -0.022481507487282414 0 -0.026250706791071304 -0.022144547132191071 0 -0.028178799077290116 -0.027923439528452224 0 -0.027929600308776118 -0.027587189072738345 0 -0.026020675493156422 -0.022481507487282414 0 -0.026364770933352228 -0.02218018706068214 0 -0.026348805350070479 -0.022096997639935719 0 -0.027764316620454785 -0.027845393644761286 0 -0.027929600308776118 -0.027587189072738345 0 -0.027929600308776118 -0.027587189072738345 0 -0.027811911961620982 -0.027006154616919239 0 -0.027800094989795944 -0.026958757540500183 0 -0.027811911961620982 -0.027006154616919239 0 -0.031683213617659613 -0.026536490069705685 0 -0.02968244145235336 -0.026916925596598921 0 -0.032688066755051724 -0.02812465396265499 0 -0.026650094342017958 -0.022705414796339005 0 -0.026364770933352228 -0.02218018706068214 0 -0.027400986496415543 -0.022500580976575549 0 -0.026364770933352228 -0.02218018706068214 0 -0.026344198465392526 -0.022095528405287078 0 -0.027400986496415543 -0.022500580976575549 0 -0.027811911961620982 -0.027006154616919239 0 -0.033247370470337247 -0.024668540128138298 0 -0.032542460492201969 -0.02222597388643734 0 -0.033247370470337247 -0.024668540128138298 0 -0.026650094342017958 -0.022705414796339005 0 -0.026906438744981959 -0.023237802851815613 0 -0.027400986496415543 -0.022500580976575549 0 -0.032542460492201969 -0.02222597388643734 0 -0.031881228165783058 -0.020101466361336258 0 -0.037639501115139827 -0.02070426288843516 0 -0.03766599859317904 -0.020518592377436379 0 -0.037601035963471613 -0.020599586573063662 0 -0.026125010332790109 -0.023040901597108664 0 -0.026906438744981959 -0.023237802851815613 0 -0.026449760911877132 -0.023960074934427516 0 -0.031881228165783058 -0.020101466361336258 0 -0.036463680139637022 -0.020507015508370509 0 -0.03766599859317904 -0.020518592377436379 0 -0.037606412354481318 -0.020486085878191347 0 -0.037601035963471613 -0.020599586573063662 0 -0.03940838801158341 -0.020088619046907449 0 -0.040019508035503339 -0.019338457179152311 0 -0.039084259989633982 -0.019066504669863718 0 -0.040327430423371766 -0.020247066608476565 0 -0.03940838801158341 -0.020088619046907449 0 -0.040019508035503339 -0.019338457179152311 0 -0.040327430423371766 -0.020247066608476565 0 -0.040019508035503339 -0.019338457179152311 0 -0.041031936301252167 -0.019010251090213513 0 -0.031881228165783058 -0.020101466361336258 0 -0.03139942972044267 -0.017995707624585303 0 -0.040019508035503339 -0.019338457179152311 0 -0.039831882112058042 -0.0182413690528959 0 -0.041031936301252167 -0.019010251090213513 0 -0.040019508035503339 -0.019338457179152311 0 -0.039831882112058042 -0.0182413690528959 0 -0.039084259989633982 -0.019066504669863718 0 -0.039831882112058042 -0.0182413690528959 0 -0.040007720233415867 -0.017244208265068457 0 -0.040675001539741622 -0.01763750898936128 0 -0.039831882112058042 -0.0182413690528959 0 -0.040007720233415867 -0.017244208265068457 0 -0.039427969916476201 -0.017278563984324754 0 -0.040007720233415867 -0.017244208265068457 0 -0.039606455389848326 -0.016746673333360308 0 -0.040044115281264142 -0.016584319088949372 0 -0.040007720233415867 -0.017244208265068457 0 -0.039427969916476201 -0.017278563984324754 0 -0.039606455389848326 -0.016746673333360308 0 -0.040007720233415867 -0.017244208265068457 0 -0.040675001539741622 -0.01763750898936128 0 -0.040376238056343029 -0.016682140901690876 0 -0.040675001539741622 -0.01763750898936128 0 -0.040376238056343029 -0.016682140901690876 0 -0.041108169328690512 -0.0168162392450249 0 -0.039831882112058042 -0.0182413690528959 0 -0.040675001539741622 -0.01763750898936128 0 -0.041031936301252167 -0.019010251090213513 0 -0.025360602953311578 -0.017978147193441332 0 -0.025385673652569198 -0.018043129788922366 0 -0.025302492231292578 -0.018245462536361879 0 -0.040675001539741622 -0.01763750898936128 0 -0.041671125033624121 -0.017750384473792111 0 -0.041031936301252167 -0.019010251090213513 0 -0.028937475420000438 -0.016614469098250272 0 -0.03139942972044267 -0.017995707624585303 0 -0.028937475420000438 -0.016614469098250272 0 -0.032776205186306563 -0.016088670005598327 0 -0.040675001539741622 -0.01763750898936128 0 -0.041671125033624121 -0.017750384473792111 0 -0.041108169328690512 -0.0168162392450249 0 -0.02816422441519615 -0.01388558580350901 0 -0.028621940245858755 -0.014480221019025507 0 -0.028099313412396309 -0.014633780869353252 0 -0.028937475420000438 -0.016614469098250272 0 -0.0234026713460057 -0.016488797292734406 0 -0.025273694213660002 -0.017907250582129445 0 -0.025512235038503746 -0.017944795691211629 0 -0.025443047389449192 -0.017470606859829641 0 -0.02816422441519615 -0.01388558580350901 0 -0.028099313412396309 -0.014633780869353252 0 -0.027669730387658766 -0.014619061073546435 0 -0.025273694213660002 -0.017907250582129445 0 -0.025385673652569198 -0.018043129788922366 0 -0.025512235038503746 -0.017944795691211629 0 -0.028937475420000438 -0.016614469098250272 0 -0.028773238035133764 -0.016592189853935391 0 -0.025385673652569198 -0.018043129788922366 0 -0.025385480585269234 -0.018241161029834928 0 -0.025473457300336677 -0.018250902738203255 0 -0.025385673652569198 -0.018043129788922366 0 -0.025385480585269234 -0.018241161029834928 0 -0.025302492231292578 -0.018245462536361879 0 -0.025388888502449001 -0.018395758806660341 0 -0.025342660025855928 -0.01845606369050326 0 -0.025302492231292578 -0.018245462536361879 0 -0.025342660025855928 -0.01845606369050326 0 -0.025296608373860611 -0.018438944788251897 0 -0.025302492231292578 -0.018245462536361879 0 -0.025388888502449001 -0.018395758806660341 0 -0.025385480585269234 -0.018241161029834928 0 -0.025302492231292578 -0.018245462536361879 0 -0.025388888502449001 -0.018395758806660341 0 -0.025385480585269234 -0.018241161029834928 0 -0.025473457300336677 -0.018250902738203255 0 -0.018647072188948201 -0.019241475962207426 0 -0.019384985577029012 -0.016986986669544749 0 -0.02543542095203356 -0.018445336794746896 0 -0.025388888502449001 -0.018395758806660341 0 -0.025473457300336677 -0.018250902738203255 0 -0.011620171914176386 -0.014639898393850236 0 -0.011487331548096818 -0.014704398426288699 0 -0.011551015015085058 -0.014786664229318175 0 -0.011487331548096818 -0.014704398426288699 0 -0.011426053464079778 -0.014754554983725467 0 -0.011551015015085058 -0.014786664229318175 0 -0.018647072188948201 -0.019241475962207426 0 -0.014737223276543336 -0.01870081464757041 0 -0.011620171914176386 -0.014639898393850236 0 -0.011487331548096818 -0.014704398426288699 0 -0.011303223479986489 -0.01473191948401823 0 -0.016300386480222782 -0.019365285593964717 0 -0.016121304309056353 -0.019478785517421722 0 -0.016367090710012855 -0.019118103360494375 0 -0.0085809730209103589 -0.017573419622931661 0 -0.008685002901342033 -0.017477239905750317 0 -0.0085710497626779059 -0.017215194384513868 0 -0.015453805025979627 -0.019424188220664086 0 -0.014737223276543336 -0.01870081464757041 0 -0.008685002901342033 -0.017477239905750317 0 -0.0085710497626779059 -0.017215194384513868 0 -0.0087266678356571151 -0.017337998002576155 0 -0.011487331548096818 -0.014704398426288699 0 -0.011395437936075227 -0.014740395638844246 0 -0.011426053464079778 -0.014754554983725467 0 -0.011487331548096818 -0.014704398426288699 0 -0.011303223479986489 -0.01473191948401823 0 -0.011395437936075227 -0.014740395638844246 0 -0.011395437936075227 -0.014740395638844246 0 -0.011426053464079778 -0.014754554983725467 0 -0.011356850632714398 -0.014770785126566436 0 -0.011303223479986489 -0.01473191948401823 0 -0.011395437936075227 -0.014740395638844246 0 -0.011356850632714398 -0.014770785126566436 0 -0.011356850632714398 -0.014770785126566436 0 -0.011393060831664616 -0.014805679460016354 0 -0.011245593031256679 -0.014845688996095851 0 -0.011426053464079778 -0.014754554983725467 0 -0.011356850632714398 -0.014770785126566436 0 -0.011393060831664616 -0.014805679460016354 0 -0.011303223479986489 -0.01473191948401823 0 -0.011356850632714398 -0.014770785126566436 0 -0.011245593031256679 -0.014845688996095851 0 -0.011393060831664616 -0.014805679460016354 0 -0.011245593031256679 -0.014845688996095851 0 -0.011364948718346771 -0.014917621998804555 0 -0.011393060831664616 -0.014805679460016354 0 -0.011551015015085058 -0.014786664229318175 0 -0.011364948718346771 -0.014917621998804555 0 -0.011551015015085058 -0.014786664229318175 0 -0.011548635585843131 -0.015037346821926012 0 -0.011364948718346771 -0.014917621998804555 0 -0.019384985577029012 -0.016986986669544749 0 -0.020747309934475936 -0.016469067537364834 0 -0.011426053464079778 -0.014754554983725467 0 -0.011393060831664616 -0.014805679460016354 0 -0.011551015015085058 -0.014786664229318175 0 -0.025385673652569198 -0.018043129788922366 0 -0.025473457300336677 -0.018250902738203255 0 -0.025512235038503746 -0.017944795691211629 0 -0.011548635585843131 -0.015037346821926012 0 -0.011292994063686867 -0.015135943628606249 0 -0.011364948718346771 -0.014917621998804555 0 -0.020747309934475936 -0.016469067537364834 0 -0.0234026713460057 -0.016488797292734406 0 -0.011548635585843131 -0.015037346821926012 0 -0.011292994063686867 -0.015135943628606249 0 -0.011552955330855595 -0.015313626502724121 0 -0.011292994063686867 -0.015135943628606249 0 -0.011152388937006692 -0.015004463543454451 0 -0.010951983337861614 -0.015262516468370148 0 -0.011292994063686867 -0.015135943628606249 0 -0.010951983337861614 -0.015262516468370148 0 -0.011280736653509219 -0.015319018612774925 0 -0.011292994063686867 -0.015135943628606249 0 -0.011152388937006692 -0.015004463543454451 0 -0.011364948718346771 -0.014917621998804555 0 -0.011245593031256679 -0.014845688996095851 0 -0.011152388937006692 -0.015004463543454451 0 -0.011364948718346771 -0.014917621998804555 0 -0.011152388937006692 -0.015004463543454451 0 -0.010861304174679145 -0.014906359075130261 0 -0.010951983337861614 -0.015262516468370148 0 -0.011245593031256679 -0.014845688996095851 0 -0.011152388937006692 -0.015004463543454451 0 -0.010861304174679145 -0.014906359075130261 0 -0.012210270981601793 -0.017362499159951993 0 -0.011643744577851013 -0.016866073222445571 0 -0.010861304174679145 -0.014906359075130261 0 -0.010951983337861614 -0.015262516468370148 0 -0.010277668314281108 -0.01541018785990746 0 -0.0090770613013416487 -0.01633665412523622 0 -0.010173734300638665 -0.016123537386208885 0 -0.010277668314281108 -0.01541018785990746 0 -0.0090770613013416487 -0.01633665412523622 0 -0.0095978367862612404 -0.016883274068357167 0 -0.010173734300638665 -0.016123537386208885 0 -0.0090770613013416487 -0.01633665412523622 0 -0.0095978367862612404 -0.016883274068357167 0 -0.0091542397559480158 -0.017039776952928257 0 -0.011303223479986489 -0.01473191948401823 0 -0.011245593031256679 -0.014845688996095851 0 -0.010861304174679145 -0.014906359075130261 0 -0.014737223276543336 -0.01870081464757041 0 -0.012210270981601793 -0.017362499159951993 0 -0.0090770613013416487 -0.01633665412523622 0 -0.0091542397559480158 -0.017039776952928257 0 -0.0088674422849610215 -0.017218726931357852 0 -0.0085710497626779059 -0.017215194384513868 0 -0.0090770613013416487 -0.01633665412523622 0 -0.0088674422849610215 -0.017218726931357852 0 -0.0091542397559480158 -0.017039776952928257 0 -0.0088674422849610215 -0.017218726931357852 0 -0.0089819295306594379 -0.017273905061891876 0 -0.0089819295306594379 -0.017273905061891876 0 -0.0088372415324674755 -0.017348358838580394 0 -0.0089096566334520844 -0.017396660202526008 0 -0.0088674422849610215 -0.017218726931357852 0 -0.0089819295306594379 -0.017273905061891876 0 -0.0088372415324674755 -0.017348358838580394 0 -0.0089819295306594379 -0.017273905061891876 0 -0.0089096566334520844 -0.017396660202526008 0 -0.0090015437296915007 -0.01741295294986352 0 -0.0085710497626779059 -0.017215194384513868 0 -0.0088674422849610215 -0.017218726931357852 0 -0.0087266678356571151 -0.017337998002576155 0 -0.0088674422849610215 -0.017218726931357852 0 -0.0088372415324674755 -0.017348358838580394 0 -0.0087266678356571151 -0.017337998002576155 0 -0.008685002901342033 -0.017477239905750317 0 -0.0087266678356571151 -0.017337998002576155 0 -0.0088275188266069837 -0.017527725628483738 0 -0.0088372415324674755 -0.017348358838580394 0 -0.0087266678356571151 -0.017337998002576155 0 -0.0088275188266069837 -0.017527725628483738 0 -0.0088372415324674755 -0.017348358838580394 0 -0.0088275188266069837 -0.017527725628483738 0 -0.0089096566334520844 -0.017396660202526008 0 -0.0088275188266069837 -0.017527725628483738 0 -0.0089096566334520844 -0.017396660202526008 0 -0.0090015437296915007 -0.01741295294986352 0 -0.0091041151801007549 -0.017990989504283031 0 -0.0089767296143399098 -0.017783803395275292 0 -0.0093320015763335186 -0.017569907688691679 0 -0.0095978367862612404 -0.016883274068357167 0 -0.0091542397559480158 -0.017039776952928257 0 -0.0093320015763335186 -0.017569907688691679 0 -0.0089767296143399098 -0.017783803395275292 0 -0.0090015437296915007 -0.01741295294986352 0 -0.0093320015763335186 -0.017569907688691679 0 -0.0091542397559480158 -0.017039776952928257 0 -0.0089819295306594379 -0.017273905061891876 0 -0.0090015437296915007 -0.01741295294986352 0 -0.0091542397559480158 -0.017039776952928257 0 -0.0090015437296915007 -0.01741295294986352 0 -0.0093320015763335186 -0.017569907688691679 0 -0.036689079964988491 -0.023284311548587542 0 -0.036956390819321609 -0.023187197199430094 0 -0.036975380210065592 -0.023625536704933951 0 -0.036689079964988491 -0.023284311548587542 0 -0.036956390819321609 -0.023187197199430094 0 -0.036496624986164024 -0.022688932469827196 0 -0.036384200493404968 -0.022505571913760118 0 -0.036515945740380792 -0.023168545196753678 0 -0.036956390819321609 -0.023187197199430094 0 -0.036975380210065592 -0.023625536704933951 0 -0.037297398940519789 -0.023445974422357161 0 -0.036740254617560773 -0.020864764262937173 0 -0.036756379737211679 -0.02070930321228396 0 -0.036994672778331433 -0.020561706644810957 0 -0.036740254617560773 -0.020864764262937173 0 -0.036756379737211679 -0.02070930321228396 0 -0.036633216828561944 -0.020709767633738493 0 -0.036756379737211679 -0.02070930321228396 0 -0.036633216828561944 -0.020709767633738493 0 -0.036924534014473265 -0.020335828584378563 0 -0.036384200493404968 -0.022505571913760118 0 -0.035803589746971717 -0.022064624809813711 0 -0.036740254617560773 -0.020864764262937173 0 -0.036633216828561944 -0.020709767633738493 0 -0.036117725741175818 -0.021170407647828265 0 -0.036496624986164024 -0.022688932469827196 0 -0.035774042151206775 -0.022968302764268252 0 -0.036383239611897371 -0.023068035646078216 0 -0.035803589746971717 -0.022064624809813711 0 -0.035000619082621601 -0.021724244589363527 0 -0.035774042151206775 -0.022968302764268252 0 -0.034999925402650178 -0.023371447515113778 0 -0.03500004763135383 -0.021724299614373374 0 -0.036496624986164024 -0.022688932469827196 0 -0.035774042151206775 -0.022968302764268252 0 -0.03500004763135383 -0.021724299614373374 0 -0.035774042151206775 -0.022968302764268252 0 -0.03585884440027564 -0.024036546393526027 0 -0.034999925402650178 -0.023371447515113778 0 -0.036689079964988491 -0.023284311548587542 0 -0.036383239611897371 -0.023068035646078216 0 -0.036539524339749246 -0.023608636641688156 0 -0.03585884440027564 -0.024036546393526027 0 -0.036383239611897371 -0.023068035646078216 0 -0.036873512170227378 -0.024630532454401055 0 -0.035774042151206775 -0.022968302764268252 0 -0.03585884440027564 -0.024036546393526027 0 -0.036383239611897371 -0.023068035646078216 0 -0.036689079964988491 -0.023284311548587542 0 -0.036496624986164024 -0.022688932469827196 0 -0.036383239611897371 -0.023068035646078216 0 -0.03601563053416397 -0.024110511652387607 0 -0.036040263097714235 -0.024772451785639936 0 -0.03585884440027564 -0.024036546393526027 0 -0.036873512170227378 -0.024630532454401055 0 -0.035967902064748085 -0.025188274210351125 0 -0.03585884440027564 -0.024036546393526027 0 -0.034999933773120662 -0.025018923311257723 0 -0.035967902064748085 -0.025188274210351125 0 -0.03585884440027564 -0.024036546393526027 0 -0.034999925402650178 -0.023371447515113778 0 -0.034999933773120662 -0.025018923311257723 0 -0.034999999587974832 -0.026666101235808117 0 -0.034999933773120662 -0.025018923311257723 0 -0.035673880620840072 -0.02606621120813904 0 -0.034999933773120662 -0.025018923311257723 0 -0.035967902064748085 -0.025188274210351125 0 -0.035673880620840072 -0.02606621120813904 0 -0.036873512170227378 -0.024630532454401055 0 -0.035967902064748085 -0.025188274210351125 0 -0.036467756126511625 -0.026179001086045466 0 -0.036873512170227378 -0.024630532454401055 0 -0.036467756126511625 -0.026179001086045466 0 -0.037270346382264313 -0.026192060657433749 0 -0.035967902064748085 -0.025188274210351125 0 -0.035673880620840072 -0.02606621120813904 0 -0.036467756126511625 -0.026179001086045466 0 -0.036134074061928548 -0.026607924428721192 0 -0.035998941586295755 -0.026630181622102768 0 -0.036539524339749246 -0.023608636641688156 0 -0.036654696586176927 -0.024019576939262703 0 -0.036975380210065592 -0.023625536704933951 0 -0.036040263097714235 -0.024772451785639936 0 -0.035998941586295755 -0.026630181622102768 0 -0.036689079964988491 -0.023284311548587542 0 -0.036539524339749246 -0.023608636641688156 0 -0.036975380210065592 -0.023625536704933951 0 -0.036654696586176927 -0.024019576939262703 0 -0.036975380210065592 -0.023625536704933951 0 -0.037153553182373969 -0.023996577911537979 0 -0.035998941586295755 -0.026630181622102768 0 -0.03638318211420026 -0.026596218093706925 0 -0.036975380210065592 -0.023625536704933951 0 -0.037153553182373969 -0.023996577911537979 0 -0.037374107295744419 -0.023773021919817599 0 -0.037568995509637375 -0.024000294739277592 0 -0.037153553182373969 -0.023996577911537979 0 -0.037374107295744419 -0.023773021919817599 0 -0.037568995509637375 -0.024000294739277592 0 -0.037374107295744419 -0.023773021919817599 0 -0.037621100721173403 -0.023638996150905141 0 -0.035846683415716049 -0.026644599218979648 0 -0.03638318211420026 -0.026596218093706925 0 -0.037374107295744419 -0.023773021919817599 0 -0.037621100721173403 -0.023638996150905141 0 -0.037297398940519789 -0.023445974422357161 0 -0.037417934959909832 -0.020841992594419732 0 -0.037411486691265872 -0.020880460383102286 0 -0.037104631652616335 -0.020845105768026815 0 -0.035737264922707269 -0.024267081121943875 0 -0.036515945740380792 -0.023168545196753678 0 -0.036975380210065592 -0.023625536704933951 0 -0.037374107295744419 -0.023773021919817599 0 -0.037297398940519789 -0.023445974422357161 0 -0.034848231376423407 -0.025355917391206784 0 -0.034777351052469228 -0.02545813871069872 0 -0.034990396573838296 -0.025535101535813936 0 -0.033588564889893896 -0.026564016972439038 0 -0.031683213617659613 -0.026536490069705685 0 -0.032688066755051724 -0.02812465396265499 0 -0.033839086801033751 -0.026970737649505177 0 -0.033247370470337247 -0.024668540128138298 0 -0.035015699283354122 -0.02536384735600096 0 -0.034848231376423407 -0.025355917391206784 0 -0.034990396573838296 -0.025535101535813936 0 -0.035846683415716049 -0.026644599218979648 0 -0.035737264922707269 -0.024267081121943875 0 -0.037406548932400918 -0.020863286250248993 0 -0.037524941554504428 -0.020790820959192054 0 -0.03747609065613889 -0.020769720614698506 0 -0.037417934959909832 -0.020841992594419732 0 -0.037406548932400918 -0.020863286250248993 0 -0.03747609065613889 -0.020769720614698506 0 -0.035749074530374944 -0.024215488679454594 0 -0.035737264922707269 -0.024267081121943875 0 -0.037639501115139827 -0.02070426288843516 0 -0.03754811666760665 -0.020926720648089002 0 -0.037524941554504428 -0.020790820959192054 0 -0.033247370470337247 -0.024668540128138298 0 -0.035737264922707269 -0.024267081121943875 0 -0.03754811666760665 -0.020926720648089002 0 -0.037406548932400918 -0.020863286250248993 0 -0.037524941554504428 -0.020790820959192054 0 -0.037639501115139827 -0.02070426288843516 0 -0.037601035963471613 -0.020599586573063662 0 -0.037524941554504428 -0.020790820959192054 0 -0.037601035963471613 -0.020599586573063662 0 -0.037524941554504428 -0.020790820959192054 0 -0.037538030521405308 -0.020606309226150723 0 -0.037524941554504428 -0.020790820959192054 0 -0.037538030521405308 -0.020606309226150723 0 -0.03747609065613889 -0.020769720614698506 0 -0.037417934959909832 -0.020841992594419732 0 -0.037458986699790933 -0.020681702059319896 0 -0.037335007167933199 -0.020639265169624124 0 -0.037538030521405308 -0.020606309226150723 0 -0.03747609065613889 -0.020769720614698506 0 -0.037458986699790933 -0.020681702059319896 0 -0.037538030521405308 -0.020606309226150723 0 -0.037458986699790933 -0.020681702059319896 0 -0.037492130445530965 -0.020524378026292294 0 -0.037417934959909832 -0.020841992594419732 0 -0.03747609065613889 -0.020769720614698506 0 -0.037458986699790933 -0.020681702059319896 0 -0.037458986699790933 -0.020681702059319896 0 -0.037492130445530965 -0.020524378026292294 0 -0.037335007167933199 -0.020639265169624124 0 -0.037538030521405308 -0.020606309226150723 0 -0.037492130445530965 -0.020524378026292294 0 -0.037529712274984521 -0.020361650553033322 0 -0.037492130445530965 -0.020524378026292294 0 -0.037412585040110316 -0.020038055068398414 0 -0.037529712274984521 -0.020361650553033322 0 -0.037606412354481318 -0.020486085878191347 0 -0.037538030521405308 -0.020606309226150723 0 -0.037529712274984521 -0.020361650553033322 0 -0.037606412354481318 -0.020486085878191347 0 -0.037601035963471613 -0.020599586573063662 0 -0.037538030521405308 -0.020606309226150723 0 -0.037104631652616335 -0.020845105768026815 0 -0.037335007167933199 -0.020639265169624124 0 -0.036994672778331433 -0.020561706644810957 0 -0.036740254617560773 -0.020864764262937173 0 -0.037104631652616335 -0.020845105768026815 0 -0.036994672778331433 -0.020561706644810957 0 -0.037417934959909832 -0.020841992594419732 0 -0.037104631652616335 -0.020845105768026815 0 -0.037335007167933199 -0.020639265169624124 0 -0.037335007167933199 -0.020639265169624124 0 -0.036994672778331433 -0.020561706644810957 0 -0.037412585040110316 -0.020038055068398414 0 -0.037492130445530965 -0.020524378026292294 0 -0.037335007167933199 -0.020639265169624124 0 -0.037412585040110316 -0.020038055068398414 0 -0.036994672778331433 -0.020561706644810957 0 -0.037412585040110316 -0.020038055068398414 0 -0.036598646125324374 -0.019609140288836549 0 -0.037412585040110316 -0.020038055068398414 0 -0.037559106143748099 -0.018941338242131664 0 -0.038218446531001045 -0.019306178471383766 0 -0.037412585040110316 -0.020038055068398414 0 -0.037559106143748099 -0.018941338242131664 0 -0.036598646125324374 -0.019609140288836549 0 -0.037559106143748099 -0.018941338242131664 0 -0.036598646125324374 -0.019609140288836549 0 -0.036985936529058044 -0.018082054201357264 0 -0.037120105622785157 -0.019361296259631809 0 -0.037447731227318405 -0.018380638428924734 0 -0.037585028903549859 -0.019837331995001834 0 -0.038003336791853602 -0.018207997391471026 0 -0.037185120600052621 -0.018866810294966386 0 -0.036463680139637022 -0.020507015508370509 0 -0.037366254294367497 -0.020455719630779062 0 -0.03940838801158341 -0.020088619046907449 0 -0.038476083143896035 -0.02000242212982133 0 -0.039084259989633982 -0.019066504669863718 0 -0.037386132056125843 -0.020392201490990303 0 -0.037366254294367497 -0.020455719630779062 0 -0.037412585040110316 -0.020038055068398414 0 -0.038476083143896035 -0.02000242212982133 0 -0.038218446531001045 -0.019306178471383766 0 -0.038476083143896035 -0.02000242212982133 0 -0.038218446531001045 -0.019306178471383766 0 -0.039084259989633982 -0.019066504669863718 0 -0.037559106143748099 -0.018941338242131664 0 -0.038218446531001045 -0.019306178471383766 0 -0.038457383434134795 -0.018513199831418629 0 -0.038218446531001045 -0.019306178471383766 0 -0.039084259989633982 -0.019066504669863718 0 -0.038457383434134795 -0.018513199831418629 0 -0.039831882112058042 -0.0182413690528959 0 -0.039084259989633982 -0.019066504669863718 0 -0.039071079233869974 -0.017870134547953487 0 -0.039084259989633982 -0.019066504669863718 0 -0.039071079233869974 -0.017870134547953487 0 -0.038457383434134795 -0.018513199831418629 0 -0.039831882112058042 -0.0182413690528959 0 -0.039071079233869974 -0.017870134547953487 0 -0.039427969916476201 -0.017278563984324754 0 -0.037559106143748099 -0.018941338242131664 0 -0.038457383434134795 -0.018513199831418629 0 -0.03817902515444202 -0.017532215774155712 0 -0.039071079233869974 -0.017870134547953487 0 -0.038457383434134795 -0.018513199831418629 0 -0.03817902515444202 -0.017532215774155712 0 -0.03817902515444202 -0.017532215774155712 0 -0.038943574291460621 -0.016858797679456489 0 -0.038247164032830419 -0.016483088798093373 0 -0.03817902515444202 -0.017532215774155712 0 -0.037808870939403348 -0.01665483931744426 0 -0.038247164032830419 -0.016483088798093373 0 -0.039071079233869974 -0.017870134547953487 0 -0.03817902515444202 -0.017532215774155712 0 -0.038943574291460621 -0.016858797679456489 0 -0.039071079233869974 -0.017870134547953487 0 -0.038943574291460621 -0.016858797679456489 0 -0.039427969916476201 -0.017278563984324754 0 -0.038943574291460621 -0.016858797679456489 0 -0.039427969916476201 -0.017278563984324754 0 -0.039606455389848326 -0.016746673333360308 0 -0.037559106143748099 -0.018941338242131664 0 -0.03817902515444202 -0.017532215774155712 0 -0.036985936529058044 -0.018082054201357264 0 -0.037447731227318405 -0.018380638428924734 0 -0.037656575087970053 -0.017758483637244801 0 -0.03817902515444202 -0.017532215774155712 0 -0.036985936529058044 -0.018082054201357264 0 -0.037808870939403348 -0.01665483931744426 0 -0.038003336791853602 -0.018207997391471026 0 -0.037219264296171395 -0.017492064710018414 0 -0.037808870939403348 -0.01665483931744426 0 -0.037219264296171395 -0.017492064710018414 0 -0.036441842603481552 -0.018907422620267945 0 -0.036237769923276576 -0.017591891845841097 0 -0.037219264296171395 -0.017492064710018414 0 -0.036441842603481552 -0.018907422620267945 0 -0.037185120600052621 -0.018866810294966386 0 -0.038003336791853602 -0.018207997391471026 0 -0.037219264296171395 -0.017492064710018414 0 -0.037185120600052621 -0.018866810294966386 0 -0.037585028903549859 -0.019837331995001834 0 -0.037185120600052621 -0.018866810294966386 0 -0.036539556046250116 -0.020171040659640812 0 -0.036441842603481552 -0.018907422620267945 0 -0.037185120600052621 -0.018866810294966386 0 -0.036539556046250116 -0.020171040659640812 0 -0.036633216828561944 -0.020709767633738493 0 -0.036539556046250116 -0.020171040659640812 0 -0.036924534014473265 -0.020335828584378563 0 -0.036633216828561944 -0.020709767633738493 0 -0.036117725741175818 -0.021170407647828265 0 -0.036539556046250116 -0.020171040659640812 0 -0.036945950238223745 -0.019858313392036996 0 -0.037120105622785157 -0.019361296259631809 0 -0.036756379737211679 -0.02070930321228396 0 -0.036994672778331433 -0.020561706644810957 0 -0.036598646125324374 -0.019609140288836549 0 -0.036756379737211679 -0.02070930321228396 0 -0.037585028903549859 -0.019837331995001834 0 -0.036924534014473265 -0.020335828584378563 0 -0.037585028903549859 -0.019837331995001834 0 -0.036539556046250116 -0.020171040659640812 0 -0.036924534014473265 -0.020335828584378563 0 -0.036117725741175818 -0.021170407647828265 0 -0.035000006428390885 -0.021721737653951408 0 -0.035851632188320305 -0.020233998762501284 0 -0.036117725741175818 -0.021170407647828265 0 -0.036539556046250116 -0.020171040659640812 0 -0.035851632188320305 -0.020233998762501284 0 -0.036441842603481552 -0.018907422620267945 0 -0.036539556046250116 -0.020171040659640812 0 -0.035851632188320305 -0.020233998762501284 0 -0.035851632188320305 -0.020233998762501284 0 -0.034999635613480649 -0.019773779817293727 0 -0.035713106773283286 -0.018759974532952008 0 -0.035000006428390885 -0.021721737653951408 0 -0.035851632188320305 -0.020233998762501284 0 -0.034999635613480649 -0.019773779817293727 0 -0.034999635613480649 -0.019773779817293727 0 -0.035713106773283286 -0.018759974532952008 0 -0.034999740616591536 -0.017823186200917111 0 -0.036441842603481552 -0.018907422620267945 0 -0.035851632188320305 -0.020233998762501284 0 -0.035713106773283286 -0.018759974532952008 0 -0.036441842603481552 -0.018907422620267945 0 -0.035713106773283286 -0.018759974532952008 0 -0.036237769923276576 -0.017591891845841097 0 -0.035713106773283286 -0.018759974532952008 0 -0.036237769923276576 -0.017591891845841097 0 -0.034999740616591536 -0.017823186200917111 0 -0.034999740616591536 -0.017823186200917111 0 -0.035986070671858147 -0.016194677039451488 0 -0.034999742396331489 -0.015873351082549992 0 -0.036237769923276576 -0.017591891845841097 0 -0.034999740616591536 -0.017823186200917111 0 -0.035986070671858147 -0.016194677039451488 0 -0.036237769923276576 -0.017591891845841097 0 -0.035986070671858147 -0.016194677039451488 0 -0.036799165393914077 -0.016367103278615167 0 -0.035986070671858147 -0.016194677039451488 0 -0.036799165393914077 -0.016367103278615167 0 -0.036287364063622755 -0.014779122582551292 0 -0.035986070671858147 -0.016194677039451488 0 -0.034999742396331489 -0.015873351082549992 0 -0.036287364063622755 -0.014779122582551292 0 -0.037219264296171395 -0.017492064710018414 0 -0.036799165393914077 -0.016367103278615167 0 -0.037513779653765483 -0.016060852793008437 0 -0.037219264296171395 -0.017492064710018414 0 -0.036237769923276576 -0.017591891845841097 0 -0.036799165393914077 -0.016367103278615167 0 -0.036799165393914077 -0.016367103278615167 0 -0.037209024709575163 -0.015372807925036073 0 -0.036287364063622755 -0.014779122582551292 0 -0.036799165393914077 -0.016367103278615167 0 -0.037209024709575163 -0.015372807925036073 0 -0.037513779653765483 -0.016060852793008437 0 -0.037209024709575163 -0.015372807925036073 0 -0.037370605545427767 -0.014311985948120805 0 -0.037743231604414416 -0.015278512736214582 0 -0.037209024709575163 -0.015372807925036073 0 -0.037370605545427767 -0.014311985948120805 0 -0.036287364063622755 -0.014779122582551292 0 -0.037370605545427767 -0.014311985948120805 0 -0.036287364063622755 -0.014779122582551292 0 -0.036565194118210458 -0.013054477625871433 0 -0.034999742396331489 -0.015873351082549992 0 -0.036287364063622755 -0.014779122582551292 0 -0.034999772759460791 -0.013923203499691963 0 -0.036287364063622755 -0.014779122582551292 0 -0.035709414915132943 -0.012963686148802936 0 -0.036565194118210458 -0.013054477625871433 0 -0.036287364063622755 -0.014779122582551292 0 -0.034999772759460791 -0.013923203499691963 0 -0.035709414915132943 -0.012963686148802936 0 -0.034999772759460791 -0.013923203499691963 0 -0.035709414915132943 -0.012963686148802936 0 -0.034999778361196179 -0.011973691248953557 0 -0.035709414915132943 -0.012963686148802936 0 -0.034999778361196179 -0.011973691248953557 0 -0.035480467811118535 -0.011769202087486028 0 -0.034999244735717909 -0.011969961165192149 0 -0.034998960592879304 -0.011254590085201837 0 -0.034999995404164388 -0.011972714631046648 0 -0.035608927782646488 -0.011544769795858372 0 -0.034999997547287595 -0.011133614266892106 0 -0.035550255191035357 -0.011440149510296654 0 -0.034999880623598233 -0.011133151417989066 0 -0.035584851549758545 -0.010757915776151348 0 -0.034998960592879304 -0.011254590085201837 0 -0.034999930955775679 -0.011134119812337388 0 -0.031206716728782578 -0.0098181913732238515 0 -0.032363857886754166 -0.0098290435860972376 0 -0.032480150549933993 -0.010741376419986466 0 -0.031206716728782578 -0.0098181913732238515 0 -0.032363857886754166 -0.0098290435860972376 0 -0.032415022522592173 -0.0089187375361723109 0 -0.035550255191035357 -0.011440149510296654 0 -0.035584851549758545 -0.010757915776151348 0 -0.036784444694110907 -0.010387798026696388 0 -0.034998960592879304 -0.011254590085201837 0 -0.035074856491518661 -0.010076120434010703 0 -0.034998960592879304 -0.011254590085201837 0 -0.034804526036385605 -0.011826571915051983 0 -0.035709414915132943 -0.012963686148802936 0 -0.035480467811118535 -0.011769202087486028 0 -0.036565194118210458 -0.013054477625871433 0 -0.035597298016367428 -0.012884417269517046 0 -0.034804526036385605 -0.011826571915051983 0 -0.033713932412440688 -0.011801713036240164 0 -0.032480150549933993 -0.010741376419986466 0 -0.033377539194122514 -0.0098394877692737359 0 -0.033713932412440688 -0.011801713036240164 0 -0.033377539194122514 -0.0098394877692737359 0 -0.034630691274202305 -0.010461820838108295 0 -0.033377539194122514 -0.0098394877692737359 0 -0.034628325997547296 -0.0092588654009108651 0 -0.034630691274202305 -0.010461820838108295 0 -0.032363857886754166 -0.0098290435860972376 0 -0.033377539194122514 -0.0098394877692737359 0 -0.032415022522592173 -0.0089187375361723109 0 -0.032363857886754166 -0.0098290435860972376 0 -0.032480150549933993 -0.010741376419986466 0 -0.033377539194122514 -0.0098394877692737359 0 -0.035804269670780153 -0.00884916766126723 0 -0.035074856491518661 -0.010076120434010703 0 -0.037821116579902669 -0.0094127370778643218 0 -0.036718612615151441 -0.0093604964996046418 0 -0.036784444694110907 -0.010387798026696388 0 -0.033377539194122514 -0.0098394877692737359 0 -0.033750345983860827 -0.0079622949111834412 0 -0.032415022522592173 -0.0089187375361723109 0 -0.033750345983860827 -0.0079622949111834412 0 -0.034908730652330217 -0.0080427218712670317 0 -0.034628325997547296 -0.0092588654009108651 0 -0.033377539194122514 -0.0098394877692737359 0 -0.033750345983860827 -0.0079622949111834412 0 -0.034628325997547296 -0.0092588654009108651 0 -0.033750345983860827 -0.0079622949111834412 0 -0.034908730652330217 -0.0080427218712670317 0 -0.035121901793005256 -0.0071401789869975805 0 -0.035804269670780153 -0.00884916766126723 0 -0.036592082828332297 -0.007663861016478579 0 -0.037821116579902669 -0.0094127370778643218 0 -0.036718612615151441 -0.0093604964996046418 0 -0.037295699278258217 -0.0085996483309734532 0 -0.036718612615151441 -0.0093604964996046418 0 -0.035781926019457871 -0.0087584280820577325 0 -0.03568047481781262 -0.010049219049916182 0 -0.036718612615151441 -0.0093604964996046418 0 -0.035781926019457871 -0.0087584280820577325 0 -0.037295699278258217 -0.0085996483309734532 0 -0.034999942172247604 -0.009067817620103313 0 -0.035781926019457871 -0.0087584280820577325 0 -0.03568047481781262 -0.010049219049916182 0 -0.034999880623598233 -0.011133151417989066 0 -0.034999942172247604 -0.009067817620103313 0 -0.03568047481781262 -0.010049219049916182 0 -0.034999880623598233 -0.011133151417989066 0 -0.03568047481781262 -0.010049219049916182 0 -0.035584851549758545 -0.010757915776151348 0 -0.03568047481781262 -0.010049219049916182 0 -0.035584851549758545 -0.010757915776151348 0 -0.036784444694110907 -0.010387798026696388 0 -0.036718612615151441 -0.0093604964996046418 0 -0.03568047481781262 -0.010049219049916182 0 -0.036784444694110907 -0.010387798026696388 0 -0.03656595567467761 -0.0087996912290559982 0 -0.037412274809201888 -0.0085225103065000047 0 -0.036867947288337109 -0.0080462164426905059 0 -0.037412274809201888 -0.0085225103065000047 0 -0.037375328043487741 -0.0078885683897057038 0 -0.036867947288337109 -0.0080462164426905059 0 -0.03656595567467761 -0.0087996912290559982 0 -0.036867947288337109 -0.0080462164426905059 0 -0.036241097228456698 -0.0080869931836890473 0 -0.037412274809201888 -0.0085225103065000047 0 -0.037375328043487741 -0.0078885683897057038 0 -0.037880896125810998 -0.0079142078436274296 0 -0.037412274809201888 -0.0085225103065000047 0 -0.03800442886414928 -0.0087458595942459371 0 -0.037880896125810998 -0.0079142078436274296 0 -0.037375328043487741 -0.0078885683897057038 0 -0.037566418788467372 -0.0074835856096303341 0 -0.037880896125810998 -0.0079142078436274296 0 -0.037375328043487741 -0.0078885683897057038 0 -0.037566418788467372 -0.0074835856096303341 0 -0.036995754120144671 -0.0074857899112172827 0 -0.037375328043487741 -0.0078885683897057038 0 -0.036995754120144671 -0.0074857899112172827 0 -0.036867947288337109 -0.0080462164426905059 0 -0.036867947288337109 -0.0080462164426905059 0 -0.036567015009927741 -0.0075734941233082387 0 -0.036241097228456698 -0.0080869931836890473 0 -0.036995754120144671 -0.0074857899112172827 0 -0.036867947288337109 -0.0080462164426905059 0 -0.036567015009927741 -0.0075734941233082387 0 -0.036995754120144671 -0.0074857899112172827 0 -0.036567015009927741 -0.0075734941233082387 0 -0.03658865365405925 -0.0072202529281105224 0 -0.036567015009927741 -0.0075734941233082387 0 -0.036039052539368094 -0.007566448886013738 0 -0.036277042680694309 -0.0072275014233998455 0 -0.036039052539368094 -0.007566448886013738 0 -0.035853032557944212 -0.0072312598275826191 0 -0.036277042680694309 -0.0072275014233998455 0 -0.036039052539368094 -0.007566448886013738 0 -0.035667010161147601 -0.0079664949275514967 0 -0.035560136594332617 -0.0075249390571245443 0 -0.036039052539368094 -0.007566448886013738 0 -0.035560136594332617 -0.0075249390571245443 0 -0.035853032557944212 -0.0072312598275826191 0 -0.036039052539368094 -0.007566448886013738 0 -0.035667010161147601 -0.0079664949275514967 0 -0.036241097228456698 -0.0080869931836890473 0 -0.036567015009927741 -0.0075734941233082387 0 -0.036039052539368094 -0.007566448886013738 0 -0.036241097228456698 -0.0080869931836890473 0 -0.035560136594332617 -0.0075249390571245443 0 -0.034908730652330217 -0.0080427218712670317 0 -0.035121901793005256 -0.0071401789869975805 0 -0.035667010161147601 -0.0079664949275514967 0 -0.035560136594332617 -0.0075249390571245443 0 -0.034908730652330217 -0.0080427218712670317 0 -0.034908730652330217 -0.0080427218712670317 0 -0.035668276171874583 -0.0086539927454004923 0 -0.034628325997547296 -0.0092588654009108651 0 -0.035667010161147601 -0.0079664949275514967 0 -0.034908730652330217 -0.0080427218712670317 0 -0.035668276171874583 -0.0086539927454004923 0 -0.03656595567467761 -0.0087996912290559982 0 -0.036241097228456698 -0.0080869931836890473 0 -0.035668276171874583 -0.0086539927454004923 0 -0.035667010161147601 -0.0079664949275514967 0 -0.036241097228456698 -0.0080869931836890473 0 -0.035668276171874583 -0.0086539927454004923 0 -0.03656595567467761 -0.0087996912290559982 0 -0.035668276171874583 -0.0086539927454004923 0 -0.035894829773634992 -0.0099696795199521199 0 -0.035668276171874583 -0.0086539927454004923 0 -0.035894829773634992 -0.0099696795199521199 0 -0.034628325997547296 -0.0092588654009108651 0 -0.035894829773634992 -0.0099696795199521199 0 -0.034628325997547296 -0.0092588654009108651 0 -0.034630691274202305 -0.010461820838108295 0 -0.033713932412440688 -0.011801713036240164 0 -0.034630691274202305 -0.010461820838108295 0 -0.035455686384859721 -0.011507344227873757 0 -0.035894829773634992 -0.0099696795199521199 0 -0.034630691274202305 -0.010461820838108295 0 -0.035455686384859721 -0.011507344227873757 0 -0.035894829773634992 -0.0099696795199521199 0 -0.036986299670062547 -0.011111284858099861 0 -0.035455686384859721 -0.011507344227873757 0 -0.036986299670062547 -0.011111284858099861 0 -0.037340045768968523 -0.0096470632542793814 0 -0.037773911449238542 -0.010730496513653364 0 -0.035894829773634992 -0.0099696795199521199 0 -0.036986299670062547 -0.011111284858099861 0 -0.037340045768968523 -0.0096470632542793814 0 -0.036986299670062547 -0.011111284858099861 0 -0.037773911449238542 -0.010730496513653364 0 -0.037871663069192228 -0.011868912510716275 0 -0.03656595567467761 -0.0087996912290559982 0 -0.035894829773634992 -0.0099696795199521199 0 -0.037340045768968523 -0.0096470632542793814 0 -0.03656595567467761 -0.0087996912290559982 0 -0.037412274809201888 -0.0085225103065000047 0 -0.037340045768968523 -0.0096470632542793814 0 -0.03800442886414928 -0.0087458595942459371 0 -0.038116526644226358 -0.010072481414653838 0 -0.038429510021746015 -0.0088636549192944794 0 -0.037340045768968523 -0.0096470632542793814 0 -0.03800442886414928 -0.0087458595942459371 0 -0.038116526644226358 -0.010072481414653838 0 -0.037412274809201888 -0.0085225103065000047 0 -0.037340045768968523 -0.0096470632542793814 0 -0.03800442886414928 -0.0087458595942459371 0 -0.038116526644226358 -0.010072481414653838 0 -0.038429510021746015 -0.0088636549192944794 0 -0.038838848860047612 -0.011006914302187554 0 -0.037340045768968523 -0.0096470632542793814 0 -0.038116526644226358 -0.010072481414653838 0 -0.037773911449238542 -0.010730496513653364 0 -0.038116526644226358 -0.010072481414653838 0 -0.037773911449238542 -0.010730496513653364 0 -0.038637974438234184 -0.011224904176532434 0 -0.038116526644226358 -0.010072481414653838 0 -0.038637974438234184 -0.011224904176532434 0 -0.038838848860047612 -0.011006914302187554 0 -0.036844620602689511 -0.013122757745933133 0 -0.036642060573957906 -0.013285306225520006 0 -0.038637974438234184 -0.011224904176532434 0 -0.03890156415001042 -0.011656499381830662 0 -0.038838848860047612 -0.011006914302187554 0 -0.038637974438234184 -0.011224904176532434 0 -0.038729984861548203 -0.012481626897542069 0 -0.039933871942070778 -0.012838439730798401 0 -0.038729984861548203 -0.012481626897542069 0 -0.038961658571100372 -0.013399942644259458 0 -0.039933871942070778 -0.012838439730798401 0 -0.038729984861548203 -0.012481626897542069 0 -0.037871663069192228 -0.011868912510716275 0 -0.038106350480794221 -0.013271623283681018 0 -0.038637974438234184 -0.011224904176532434 0 -0.038729984861548203 -0.012481626897542069 0 -0.037871663069192228 -0.011868912510716275 0 -0.037773911449238542 -0.010730496513653364 0 -0.038637974438234184 -0.011224904176532434 0 -0.037871663069192228 -0.011868912510716275 0 -0.036986299670062547 -0.011111284858099861 0 -0.037871663069192228 -0.011868912510716275 0 -0.036781323568983934 -0.012709211395788475 0 -0.037871663069192228 -0.011868912510716275 0 -0.038106350480794221 -0.013271623283681018 0 -0.036781323568983934 -0.012709211395788475 0 -0.038106350480794221 -0.013271623283681018 0 -0.038660430487233076 -0.014223688147924485 0 -0.037660224187575538 -0.015329037009032445 0 -0.038106350480794221 -0.013271623283681018 0 -0.036781323568983934 -0.012709211395788475 0 -0.037660224187575538 -0.015329037009032445 0 -0.038660430487233076 -0.014223688147924485 0 -0.038961658571100372 -0.013399942644259458 0 -0.039564289396722775 -0.01408572249364589 0 -0.038660430487233076 -0.014223688147924485 0 -0.039011422194305499 -0.015072202648687411 0 -0.039564289396722775 -0.01408572249364589 0 -0.038961658571100372 -0.013399942644259458 0 -0.039933871942070778 -0.012838439730798401 0 -0.039564289396722775 -0.01408572249364589 0 -0.038106350480794221 -0.013271623283681018 0 -0.038660430487233076 -0.014223688147924485 0 -0.038961658571100372 -0.013399942644259458 0 -0.038729984861548203 -0.012481626897542069 0 -0.038106350480794221 -0.013271623283681018 0 -0.038961658571100372 -0.013399942644259458 0 -0.035597298016367428 -0.012884417269517046 0 -0.036538806127930812 -0.013897601779686871 0 -0.033713932412440688 -0.011801713036240164 0 -0.035455686384859721 -0.011507344227873757 0 -0.03510775486525769 -0.013276580122630532 0 -0.035455686384859721 -0.011507344227873757 0 -0.036781323568983934 -0.012709211395788475 0 -0.03510775486525769 -0.013276580122630532 0 -0.036986299670062547 -0.011111284858099861 0 -0.035455686384859721 -0.011507344227873757 0 -0.036781323568983934 -0.012709211395788475 0 -0.036781323568983934 -0.012709211395788475 0 -0.03510775486525769 -0.013276580122630532 0 -0.037660224187575538 -0.015329037009032445 0 -0.036538806127930812 -0.013897601779686871 0 -0.03713047275407301 -0.014436965870102155 0 -0.037209024709575163 -0.015372807925036073 0 -0.037743231604414416 -0.015278512736214582 0 -0.037513779653765483 -0.016060852793008437 0 -0.037743231604414416 -0.015278512736214582 0 -0.037513779653765483 -0.016060852793008437 0 -0.037660224187575538 -0.015329037009032445 0 -0.037513779653765483 -0.016060852793008437 0 -0.037808870939403348 -0.01665483931744426 0 -0.037660224187575538 -0.015329037009032445 0 -0.037219264296171395 -0.017492064710018414 0 -0.037513779653765483 -0.016060852793008437 0 -0.037808870939403348 -0.01665483931744426 0 -0.039011422194305499 -0.015072202648687411 0 -0.038769692911817866 -0.015931916218750931 0 -0.039646255597743707 -0.015479059119795031 0 -0.039011422194305499 -0.015072202648687411 0 -0.039862090213399391 -0.0148489730997088 0 -0.039564289396722775 -0.01408572249364589 0 -0.039011422194305499 -0.015072202648687411 0 -0.039646255597743707 -0.015479059119795031 0 -0.039862090213399391 -0.0148489730997088 0 -0.037660224187575538 -0.015329037009032445 0 -0.038247164032830419 -0.016483088798093373 0 -0.038769692911817866 -0.015931916218750931 0 -0.038660430487233076 -0.014223688147924485 0 -0.039011422194305499 -0.015072202648687411 0 -0.037660224187575538 -0.015329037009032445 0 -0.039011422194305499 -0.015072202648687411 0 -0.037660224187575538 -0.015329037009032445 0 -0.038769692911817866 -0.015931916218750931 0 -0.037808870939403348 -0.01665483931744426 0 -0.037660224187575538 -0.015329037009032445 0 -0.038247164032830419 -0.016483088798093373 0 -0.038943574291460621 -0.016858797679456489 0 -0.038247164032830419 -0.016483088798093373 0 -0.038769692911817866 -0.015931916218750931 0 -0.038943574291460621 -0.016858797679456489 0 -0.038769692911817866 -0.015931916218750931 0 -0.039340763549235311 -0.016254439800785291 0 -0.038769692911817866 -0.015931916218750931 0 -0.039340763549235311 -0.016254439800785291 0 -0.039646255597743707 -0.015479059119795031 0 -0.038943574291460621 -0.016858797679456489 0 -0.039340763549235311 -0.016254439800785291 0 -0.039606455389848326 -0.016746673333360308 0 -0.039606455389848326 -0.016746673333360308 0 -0.040044115281264142 -0.016584319088949372 0 -0.039831103470166065 -0.016145596465665799 0 -0.039340763549235311 -0.016254439800785291 0 -0.039606455389848326 -0.016746673333360308 0 -0.039831103470166065 -0.016145596465665799 0 -0.040007720233415867 -0.017244208265068457 0 -0.040044115281264142 -0.016584319088949372 0 -0.040376238056343029 -0.016682140901690876 0 -0.040044115281264142 -0.016584319088949372 0 -0.040250537280079934 -0.01641244477990696 0 -0.040376238056343029 -0.016682140901690876 0 -0.040044115281264142 -0.016584319088949372 0 -0.040250537280079934 -0.01641244477990696 0 -0.040121743618995752 -0.016201322958823493 0 -0.040250537280079934 -0.01641244477990696 0 -0.040121743618995752 -0.016201322958823493 0 -0.040544332360668706 -0.016058978206277691 0 -0.040044115281264142 -0.016584319088949372 0 -0.040121743618995752 -0.016201322958823493 0 -0.039831103470166065 -0.016145596465665799 0 -0.040121743618995752 -0.016201322958823493 0 -0.039831103470166065 -0.016145596465665799 0 -0.04021286528140882 -0.015777752489836375 0 -0.040121743618995752 -0.016201322958823493 0 -0.04021286528140882 -0.015777752489836375 0 -0.040544332360668706 -0.016058978206277691 0 -0.039340763549235311 -0.016254439800785291 0 -0.039831103470166065 -0.016145596465665799 0 -0.039646255597743707 -0.015479059119795031 0 -0.04021286528140882 -0.015777752489836375 0 -0.039862090213399391 -0.0148489730997088 0 -0.040595217638557501 -0.014195591906612589 0 -0.039646255597743707 -0.015479059119795031 0 -0.04021286528140882 -0.015777752489836375 0 -0.039862090213399391 -0.0148489730997088 0 -0.035537881030038909 -0.014386353490266672 0 -0.035959160153088213 -0.013671240923873253 0 -0.039831103470166065 -0.016145596465665799 0 -0.039646255597743707 -0.015479059119795031 0 -0.04021286528140882 -0.015777752489836375 0 -0.04021286528140882 -0.015777752489836375 0 -0.040544332360668706 -0.016058978206277691 0 -0.040595217638557501 -0.014195591906612589 0 -0.034736507697631591 -0.014327480731944465 0 -0.033952006375639138 -0.013178174788171907 0 -0.036089263828049584 -0.014209580435922381 0 -0.035880638203623867 -0.014461329380177617 0 -0.035763088372529762 -0.01372913121629663 0 -0.034736507697631591 -0.014327480731944465 0 -0.032411431132426165 -0.01416054812711318 0 -0.034736507697631591 -0.014327480731944465 0 -0.035959160153088213 -0.013671240923873253 0 -0.034736507697631591 -0.014327480731944465 0 -0.035537881030038909 -0.014386353490266672 0 -0.034736507697631591 -0.014327480731944465 0 -0.032776205186306563 -0.016088670005598327 0 -0.040520559240800072 -0.015943653314762829 0 -0.040270175407106125 -0.016273770885198418 0 -0.040376238056343029 -0.016682140901690876 0 -0.040520559240800072 -0.015943653314762829 0 -0.040376238056343029 -0.016682140901690876 0 -0.041108169328690512 -0.0168162392450249 0 -0.035537881030038909 -0.014386353490266672 0 -0.035757112199508174 -0.014720500589403478 0 -0.040250537280079934 -0.01641244477990696 0 -0.040544332360668706 -0.016058978206277691 0 -0.040376238056343029 -0.016682140901690876 0 -0.02915339319685754 -0.015131485483023304 0 -0.028621940245858755 -0.014480221019025507 0 -0.028493559669502212 -0.015019717551009526 0 -0.028621940245858755 -0.014480221019025507 0 -0.028099313412396309 -0.014633780869353252 0 -0.028493559669502212 -0.015019717551009526 0 -0.02791438761590475 -0.01489682968187934 0 -0.027697753303982341 -0.01517210154274975 0 -0.027669730387658766 -0.014619061073546435 0 -0.028099313412396309 -0.014633780869353252 0 -0.028154239792328461 -0.014937757291447404 0 -0.02791438761590475 -0.01489682968187934 0 -0.028099313412396309 -0.014633780869353252 0 -0.028154239792328461 -0.014937757291447404 0 -0.028493559669502212 -0.015019717551009526 0 -0.028099313412396309 -0.014633780869353252 0 -0.02791438761590475 -0.01489682968187934 0 -0.027669730387658766 -0.014619061073546435 0 -0.027697753303982341 -0.01517210154274975 0 -0.027935828982869393 -0.015477237530297358 0 -0.027566053216307174 -0.015766702087887909 0 -0.02791438761590475 -0.01489682968187934 0 -0.027697753303982341 -0.01517210154274975 0 -0.028061119226838419 -0.015163923919214228 0 -0.028154239792328461 -0.014937757291447404 0 -0.028061119226838419 -0.015163923919214228 0 -0.028493559669502212 -0.015019717551009526 0 -0.028154239792328461 -0.014937757291447404 0 -0.02791438761590475 -0.01489682968187934 0 -0.028061119226838419 -0.015163923919214228 0 -0.028061119226838419 -0.015163923919214228 0 -0.027935828982869393 -0.015477237530297358 0 -0.028286075102789431 -0.015381364827656306 0 -0.027697753303982341 -0.01517210154274975 0 -0.028061119226838419 -0.015163923919214228 0 -0.027935828982869393 -0.015477237530297358 0 -0.02915339319685754 -0.015131485483023304 0 -0.028493559669502212 -0.015019717551009526 0 -0.028689940116428218 -0.015455172003726602 0 -0.033493945965356514 -0.013863475643460393 0 -0.033635716065606683 -0.013697612299169109 0 -0.033669488390783021 -0.01352767535144252 0 -0.028061119226838419 -0.015163923919214228 0 -0.028493559669502212 -0.015019717551009526 0 -0.028286075102789431 -0.015381364827656306 0 -0.028493559669502212 -0.015019717551009526 0 -0.028286075102789431 -0.015381364827656306 0 -0.028689940116428218 -0.015455172003726602 0 -0.032411431132426165 -0.01416054812711318 0 -0.031029238271648722 -0.01342031002368687 0 -0.028286075102789431 -0.015381364827656306 0 -0.028689940116428218 -0.015455172003726602 0 -0.028243014657150265 -0.015798764075098944 0 -0.033635716065606683 -0.013697612299169109 0 -0.033669488390783021 -0.01352767535144252 0 -0.033772107127361319 -0.013523333017008619 0 -0.033952006375639138 -0.013178174788171907 0 -0.031029238271648722 -0.01342031002368687 0 -0.025553444076707989 -0.012371499111812507 0 -0.025095396609614646 -0.012314893908283974 0 -0.024958493184808649 -0.012658007192042315 0 -0.031029238271648722 -0.01342031002368687 0 -0.025780638840399963 -0.014171417463267189 0 -0.032056908677012642 -0.01359541089886164 0 -0.033092396293332729 -0.013651182922238152 0 -0.034048686545840999 -0.011381044737747776 0 -0.027935828982869393 -0.015477237530297358 0 -0.028243014657150265 -0.015798764075098944 0 -0.027566053216307174 -0.015766702087887909 0 -0.027935828982869393 -0.015477237530297358 0 -0.028286075102789431 -0.015381364827656306 0 -0.028243014657150265 -0.015798764075098944 0 -0.035182669438199109 -0.012469549960563805 0 -0.035549864336137174 -0.012089286042350213 0 -0.035628210132525616 -0.012047380200719913 0 -0.031029238271648722 -0.01342031002368687 0 -0.02996476752422653 -0.011590867871584051 0 -0.033092396293332729 -0.013651182922238152 0 -0.034048686545840999 -0.011381044737747776 0 -0.035798285939368082 -0.011371990380469953 0 -0.033952006375639138 -0.013178174788171907 0 -0.035222123833165773 -0.011760987492976943 0 -0.035696357519698754 -0.011911459801675994 0 -0.035660311587041339 -0.011859213930501584 0 -0.035712482060811727 -0.01183191196867415 0 -0.035549864336137174 -0.012089286042350213 0 -0.035628210132525616 -0.012047380200719913 0 -0.035853471443018051 -0.011760166673235447 0 -0.035634288379529908 -0.01196422902867572 0 -0.035633471894484334 -0.01190263345948769 0 -0.035601619363267105 -0.011908688214259836 0 -0.035634288379529908 -0.01196422902867572 0 -0.035696357519698754 -0.011911459801675994 0 -0.035633471894484334 -0.01190263345948769 0 -0.033952006375639138 -0.013178174788171907 0 -0.03496219379861773 -0.012239294849831809 0 -0.035696357519698754 -0.011911459801675994 0 -0.035633471894484334 -0.01190263345948769 0 -0.035660311587041339 -0.011859213930501584 0 -0.035633471894484334 -0.01190263345948769 0 -0.035615463805020633 -0.011855743503872135 0 -0.035660311587041339 -0.011859213930501584 0 -0.035633471894484334 -0.01190263345948769 0 -0.035601619363267105 -0.011908688214259836 0 -0.035615463805020633 -0.011855743503872135 0 -0.036090234378322726 -0.013183005780079656 0 -0.036749526699859494 -0.011205941270981448 0 -0.035601619363267105 -0.011908688214259836 0 -0.035572590550737027 -0.011953068408320732 0 -0.035571944093974898 -0.011874989293508683 0 -0.03890156415001042 -0.011656499381830662 0 -0.039082962892168123 -0.01097389946539426 0 -0.038838848860047612 -0.011006914302187554 0 -0.03890156415001042 -0.011656499381830662 0 -0.039192955992177585 -0.01192991207087753 0 -0.039082962892168123 -0.01097389946539426 0 -0.03890156415001042 -0.011656499381830662 0 -0.039192955992177585 -0.01192991207087753 0 -0.039066207257347725 -0.011929475346726046 0 -0.035718346349881254 -0.01335257540332827 0 -0.035690251144537062 -0.013352390198637345 0 -0.035725923556592078 -0.01341090742921181 0 -0.036090234378322726 -0.013183005780079656 0 -0.036264366497890603 -0.013353801118890899 0 -0.039933871942070778 -0.012838439730798401 0 -0.040300787922517324 -0.013565809920892109 0 -0.039564289396722775 -0.01408572249364589 0 -0.036642060573957906 -0.013285306225520006 0 -0.036264366497890603 -0.013353801118890899 0 -0.040300787922517324 -0.013565809920892109 0 -0.039564289396722775 -0.01408572249364589 0 -0.040595217638557501 -0.014195591906612589 0 -0.039862090213399391 -0.0148489730997088 0 -0.039564289396722775 -0.01408572249364589 0 -0.040595217638557501 -0.014195591906612589 0 -0.036090234378322726 -0.013183005780079656 0 -0.035959160153088213 -0.013671240923873253 0 -0.036264366497890603 -0.013353801118890899 0 -0.035959160153088213 -0.013671240923873253 0 -0.035634288379529908 -0.01196422902867572 0 -0.035601619363267105 -0.011908688214259836 0 -0.035572590550737027 -0.011953068408320732 0 -0.033952006375639138 -0.013178174788171907 0 -0.036090234378322726 -0.013183005780079656 0 -0.034795566041904431 -0.013276308587644415 0 -0.035142518156942408 -0.013300217052758245 0 -0.035128081164752099 -0.013227000888316879 0 -0.034996927775019997 -0.013054106860131148 0 -0.034795566041904431 -0.013276308587644415 0 -0.035128081164752099 -0.013227000888316879 0 -0.010673043023271789 -0.015382405853852891 0 -0.010757163258284658 -0.015287687849025143 0 -0.010571079361967915 -0.015266584626372988 0 -0.010673043023271789 -0.015382405853852891 0 -0.010947307201915819 -0.015516294326309294 0 -0.010757163258284658 -0.015287687849025143 0 -0.010951983337861614 -0.015262516468370148 0 -0.010673043023271789 -0.015382405853852891 0 -0.010277668314281108 -0.01541018785990746 0 -0.010951983337861614 -0.015262516468370148 0 -0.010673043023271789 -0.015382405853852891 0 -0.011076046050355275 -0.015416191801160823 0 -0.010673043023271789 -0.015382405853852891 0 -0.011076046050355275 -0.015416191801160823 0 -0.010947307201915819 -0.015516294326309294 0 -0.011076046050355275 -0.015416191801160823 0 -0.011258882033442967 -0.015595887732303835 0 -0.010947307201915819 -0.015516294326309294 0 -0.011076046050355275 -0.015416191801160823 0 -0.011280736653509219 -0.015319018612774925 0 -0.01139531304326063 -0.015461007445176953 0 -0.011076046050355275 -0.015416191801160823 0 -0.01139531304326063 -0.015461007445176953 0 -0.011258882033442967 -0.015595887732303835 0 -0.010951983337861614 -0.015262516468370148 0 -0.011076046050355275 -0.015416191801160823 0 -0.011280736653509219 -0.015319018612774925 0 -0.0234026713460057 -0.016488797292734406 0 -0.021266466684335499 -0.015852831575577049 0 -0.011280736653509219 -0.015319018612774925 0 -0.011552955330855595 -0.015313626502724121 0 -0.01139531304326063 -0.015461007445176953 0 -0.011292994063686867 -0.015135943628606249 0 -0.011280736653509219 -0.015319018612774925 0 -0.011552955330855595 -0.015313626502724121 0 -0.027697753303982341 -0.01517210154274975 0 -0.027669730387658766 -0.014619061073546435 0 -0.027266622555771242 -0.015145791828589184 0 -0.021266466684335499 -0.015852831575577049 0 -0.019938194960368076 -0.014924193369553335 0 -0.027697753303982341 -0.01517210154274975 0 -0.027266622555771242 -0.015145791828589184 0 -0.027566053216307174 -0.015766702087887909 0 -0.027266622555771242 -0.015145791828589184 0 -0.027566053216307174 -0.015766702087887909 0 -0.026852911298722533 -0.015725219835606583 0 -0.025095396609614646 -0.012314893908283974 0 -0.024958493184808649 -0.012658007192042315 0 -0.024703501217722714 -0.012306037802852403 0 -0.025780638840399963 -0.014171417463267189 0 -0.019938194960368076 -0.014924193369553335 0 -0.024958493184808649 -0.012658007192042315 0 -0.024510511662167705 -0.012589844461355765 0 -0.024703501217722714 -0.012306037802852403 0 -0.011125743357516151 -0.015292999664454356 0 -0.01131581301419091 -0.015149394453673292 0 -0.011030925296796374 -0.015162968390125302 0 -0.019291565546238575 -0.014227869479552879 0 -0.019938194960368076 -0.014924193369553335 0 -0.019938194960368076 -0.014924193369553335 0 -0.014393072573171859 -0.014849834400967057 0 -0.014393072573171859 -0.014849834400967057 0 -0.013061229623467736 -0.014848192530704081 0 -0.011125743357516151 -0.015292999664454356 0 -0.011030925296796374 -0.015162968390125302 0 -0.010872810876820939 -0.015268441116394124 0 -0.011125743357516151 -0.015292999664454356 0 -0.010872810876820939 -0.015268441116394124 0 -0.011021865803239245 -0.015341967765426661 0 -0.010872810876820939 -0.015268441116394124 0 -0.010677726055779919 -0.015221413719667013 0 -0.010761136640879321 -0.015244032066162184 0 -0.010872810876820939 -0.015268441116394124 0 -0.01087438595677628 -0.015287764325294663 0 -0.010761136640879321 -0.015244032066162184 0 -0.010872810876820939 -0.015268441116394124 0 -0.010757163258284658 -0.015287687849025143 0 -0.010677726055779919 -0.015221413719667013 0 -0.011030925296796374 -0.015162968390125302 0 -0.010872810876820939 -0.015268441116394124 0 -0.010757163258284658 -0.015287687849025143 0 -0.011030725702332796 -0.015252939224470482 0 -0.011015914089964817 -0.015323125565313504 0 -0.011021865803239245 -0.015341967765426661 0 -0.01091628955209995 -0.015414615123848778 0 -0.011015914089964817 -0.015323125565313504 0 -0.011009509274127978 -0.015486697920136284 0 -0.01091628955209995 -0.015414615123848778 0 -0.011015914089964817 -0.015323125565313504 0 -0.010888041136561879 -0.015344144700693769 0 -0.01091628955209995 -0.015414615123848778 0 -0.010888041136561879 -0.015344144700693769 0 -0.010800997650881732 -0.015432294931745904 0 -0.011030725702332796 -0.015252939224470482 0 -0.011015914089964817 -0.015323125565313504 0 -0.01116104899848923 -0.015146215864811257 0 -0.019624755624103984 -0.010226983814869152 0 -0.020177058969049491 -0.0091265917440952124 0 -0.011015914089964817 -0.015323125565313504 0 -0.010950999424024607 -0.01531913324969247 0 -0.011021865803239245 -0.015341967765426661 0 -0.011015914089964817 -0.015323125565313504 0 -0.010888041136561879 -0.015344144700693769 0 -0.010950999424024607 -0.01531913324969247 0 -0.010888041136561879 -0.015344144700693769 0 -0.010834763333931055 -0.015301508412569085 0 -0.010950999424024607 -0.01531913324969247 0 -0.010872810876820939 -0.015268441116394124 0 -0.01087438595677628 -0.015287764325294663 0 -0.011021865803239245 -0.015341967765426661 0 -0.010834763333931055 -0.015301508412569085 0 -0.01087438595677628 -0.015287764325294663 0 -0.010950999424024607 -0.01531913324969247 0 -0.01087438595677628 -0.015287764325294663 0 -0.010950999424024607 -0.01531913324969247 0 -0.011021865803239245 -0.015341967765426661 0 -0.010834763333931055 -0.015301508412569085 0 -0.01087438595677628 -0.015287764325294663 0 -0.010761136640879321 -0.015244032066162184 0 -0.024510511662167705 -0.012589844461355765 0 -0.024343981061586271 -0.012733215758841438 0 -0.024500418448673005 -0.012774744850220563 0 -0.019291565546238575 -0.014227869479552879 0 -0.019527600077674529 -0.013069014642736786 0 -0.021752158541491769 -0.0092819272871456811 0 -0.028476886692614892 -0.0095902175754978176 0 -0.021752158541491769 -0.0092819272871456811 0 -0.019527600077674529 -0.013069014642736786 0 -0.024138434896245519 -0.012746405914551744 0 -0.024343981061586271 -0.012733215758841438 0 -0.024500418448673005 -0.012774744850220563 0 -0.038956901257911007 -0.0077367616310781238 0 -0.038456605080559397 -0.0080070277813373784 0 -0.038169635120753033 -0.0091188315323066805 0 -0.038456605080559397 -0.0080070277813373784 0 -0.037425090520698111 -0.0081412681214593288 0 -0.038604174885194957 -0.0074827618311602839 0 -0.038760963430958674 -0.0077882535585904232 0 -0.038548908875888833 -0.0078148023025073898 0 -0.038741957837844336 -0.0075846796575022093 0 -0.037425090520698111 -0.0081412681214593288 0 -0.038169635120753033 -0.0091188315323066805 0 -0.037081236133511671 -0.0090988877604942058 0 -0.038456605080559397 -0.0080070277813373784 0 -0.037425090520698111 -0.0081412681214593288 0 -0.038169635120753033 -0.0091188315323066805 0 -0.024958493184808649 -0.012658007192042315 0 -0.024510511662167705 -0.012589844461355765 0 -0.024500418448673005 -0.012774744850220563 0 -0.035798285939368082 -0.011371990380469953 0 -0.038169635120753033 -0.0091188315323066805 0 -0.037081236133511671 -0.0090988877604942058 0 -0.02996476752422653 -0.011590867871584051 0 -0.028476886692614892 -0.0095902175754978176 0 -0.03696414409777856 -0.0099963086482531393 0 -0.036979113246251215 -0.010025991335430083 0 -0.034048686545840999 -0.011381044737747776 0 -0.035798285939368082 -0.011371990380469953 0 -0.035975648415779625 -0.0092739081869446047 0 -0.035798285939368082 -0.011371990380469953 0 -0.037081236133511671 -0.0090988877604942058 0 -0.035975648415779625 -0.0092739081869446047 0 -0.035628210132525616 -0.012047380200719913 0 -0.035955330535993174 -0.011679545218612258 0 -0.035853471443018051 -0.011760166673235447 0 -0.035222123833165773 -0.011760987492976943 0 -0.036979113246251215 -0.010025991335430083 0 -0.03854630522727806 -0.0081473168969846844 0 -0.038548908875888833 -0.0078148023025073898 0 -0.038341089309498193 -0.0080066595886042567 0 -0.038760963430958674 -0.0077882535585904232 0 -0.03854630522727806 -0.0081473168969846844 0 -0.038548908875888833 -0.0078148023025073898 0 -0.037747952581325482 -0.0089622813287601587 0 -0.036979113246251215 -0.010025991335430083 0 -0.037425090520698111 -0.0081412681214593288 0 -0.037081236133511671 -0.0090988877604942058 0 -0.036253144059012275 -0.0092201955727993761 0 -0.038617561930840628 -0.0074740850986858938 0 -0.038329087512196582 -0.0077433186289352311 0 -0.038327909871679729 -0.0071428228643507846 0 -0.038548908875888833 -0.0078148023025073898 0 -0.038617561930840628 -0.0074740850986858938 0 -0.038329087512196582 -0.0077433186289352311 0 -0.038548908875888833 -0.0078148023025073898 0 -0.038617561930840628 -0.0074740850986858938 0 -0.038741957837844336 -0.0075846796575022093 0 -0.038617561930840628 -0.0074740850986858938 0 -0.038709057488087284 -0.0069728788133527958 0 -0.038327909871679729 -0.0071428228643507846 0 -0.038709057488087284 -0.0069728788133527958 0 -0.038327909871679729 -0.0071428228643507846 0 -0.038502190958438362 -0.0061948930457457049 0 -0.038709057488087284 -0.0069728788133527958 0 -0.038981132693388737 -0.007336381002264321 0 -0.039133868571967836 -0.0061854524403818943 0 -0.038617561930840628 -0.0074740850986858938 0 -0.038709057488087284 -0.0069728788133527958 0 -0.038981132693388737 -0.007336381002264321 0 -0.038981132693388737 -0.007336381002264321 0 -0.038741957837844336 -0.0075846796575022093 0 -0.038604174885194957 -0.0074827618311602839 0 -0.038617561930840628 -0.0074740850986858938 0 -0.038981132693388737 -0.007336381002264321 0 -0.038741957837844336 -0.0075846796575022093 0 -0.038760963430958674 -0.0077882535585904232 0 -0.038741957837844336 -0.0075846796575022093 0 -0.038604174885194957 -0.0074827618311602839 0 -0.037747952581325482 -0.0089622813287601587 0 -0.03800660537033846 -0.0086144887017652483 0 -0.038956901257911007 -0.0077367616310781238 0 -0.038456605080559397 -0.0080070277813373784 0 -0.038707210192612911 -0.0075369637472557632 0 -0.038456605080559397 -0.0080070277813373784 0 -0.038604174885194957 -0.0074827618311602839 0 -0.038707210192612911 -0.0075369637472557632 0 -0.038956901257911007 -0.0077367616310781238 0 -0.038707210192612911 -0.0075369637472557632 0 -0.038764949814398493 -0.0074849763697658021 0 -0.038707210192612911 -0.0075369637472557632 0 -0.038693789922979435 -0.0073927230250504733 0 -0.038764949814398493 -0.0074849763697658021 0 -0.038707210192612911 -0.0075369637472557632 0 -0.038725755612448266 -0.0073777625431031627 0 -0.038693789922979435 -0.0073927230250504733 0 -0.038604174885194957 -0.0074827618311602839 0 -0.038707210192612911 -0.0075369637472557632 0 -0.038725755612448266 -0.0073777625431031627 0 -0.038981132693388737 -0.007336381002264321 0 -0.038604174885194957 -0.0074827618311602839 0 -0.038725755612448266 -0.0073777625431031627 0 -0.038981132693388737 -0.007336381002264321 0 -0.038725755612448266 -0.0073777625431031627 0 -0.038665291495777986 -0.0073760251948228779 0 -0.037603558048017106 -0.0056740970575700342 0 -0.037321256711242243 -0.0051691528858201601 0 -0.038981132693388737 -0.007336381002264321 0 -0.038665291495777986 -0.0073760251948228779 0 -0.038576100679761971 -0.0074268961088126313 0 -0.038665291495777986 -0.0073760251948228779 0 -0.038631944878176075 -0.0073820286916627944 0 -0.038576365398326637 -0.0073883256041443095 0 -0.038665291495777986 -0.0073760251948228779 0 -0.038576365398326637 -0.0073883256041443095 0 -0.038576100679761971 -0.0074268961088126313 0 -0.038665291495777986 -0.0073760251948228779 0 -0.038693789922979435 -0.0073927230250504733 0 -0.038631944878176075 -0.0073820286916627944 0 -0.038725755612448266 -0.0073777625431031627 0 -0.038665291495777986 -0.0073760251948228779 0 -0.038693789922979435 -0.0073927230250504733 0 -0.038693789922979435 -0.0073927230250504733 0 -0.03865804418045659 -0.0074035502309482398 0 -0.038631944878176075 -0.0073820286916627944 0 -0.03865804418045659 -0.0074035502309482398 0 -0.038631944878176075 -0.0073820286916627944 0 -0.038552734386411422 -0.0073753836136911622 0 -0.038576365398326637 -0.0073883256041443095 0 -0.038552734386411422 -0.0073753836136911622 0 -0.038514667088268069 -0.0073814915357404993 0 -0.038631944878176075 -0.0073820286916627944 0 -0.038576365398326637 -0.0073883256041443095 0 -0.038552734386411422 -0.0073753836136911622 0 -0.038552734386411422 -0.0073753836136911622 0 -0.038508740224634568 -0.0073751855584461385 0 -0.038514667088268069 -0.0073814915357404993 0 -0.023754238607879386 -0.005767680011788779 0 -0.023392202696419225 -0.0056537344320322508 0 -0.022573024763755559 -0.0026550606582232445 0 -0.021524406084598005 -0.0075697808938126098 0 -0.024001270636185838 -0.0032120122969006627 0 -0.023392202696419225 -0.0056537344320322508 0 -0.021601946103040382 -0.0071800046144802395 0 -0.023392202696419225 -0.0056537344320322508 0 -0.021004095288546305 -0.0049094954160772662 0 -0.021601946103040382 -0.0071800046144802395 0 -0.021004095288546305 -0.0049094954160772662 0 -0.03865804418045659 -0.0074035502309482398 0 -0.038555369619448804 -0.0073770290596603385 0 -0.038728189540176046 -0.0074551167338236454 0 -0.03865804418045659 -0.0074035502309482398 0 -0.038552734386411422 -0.0073753836136911622 0 -0.038555369619448804 -0.0073770290596603385 0 -0.020206470883715303 -0.0068048739493272942 0 -0.020101074631981249 -0.0073546773655489344 0 -0.021413292201124728 -0.006203384288769832 0 -0.038693789922979435 -0.0073927230250504733 0 -0.03865804418045659 -0.0074035502309482398 0 -0.038764949814398493 -0.0074849763697658021 0 -0.03865804418045659 -0.0074035502309482398 0 -0.038728189540176046 -0.0074551167338236454 0 -0.038764949814398493 -0.0074849763697658021 0 -0.021301468489879714 -0.0095231271161910856 0 -0.021722605318248489 -0.0086834546114183866 0 -0.021630463932256618 -0.0092274621808971103 0 -0.038956901257911007 -0.0077367616310781238 0 -0.038728189540176046 -0.0074551167338236454 0 -0.038764949814398493 -0.0074849763697658021 0 -0.021752158541491769 -0.0092819272871456811 0 -0.021601946103040382 -0.0071800046144802395 0 -0.021752158541491769 -0.0092819272871456811 0 -0.020177058969049491 -0.0091265917440952124 0 -0.01091628955209995 -0.015414615123848778 0 -0.011009509274127978 -0.015486697920136284 0 -0.010833277279367446 -0.015516669590638778 0 -0.021601946103040382 -0.0071800046144802395 0 -0.020177058969049491 -0.0091265917440952124 0 -0.038145465620315358 -0.0084852533983683573 0 -0.038076065589738285 -0.0081524443831628955 0 -0.038150671963189393 -0.0083468451324017721 0 -0.038145465620315358 -0.0084852533983683573 0 -0.038076065589738285 -0.0081524443831628955 0 -0.038049122199539702 -0.0083627215065029178 0 -0.038145465620315358 -0.0084852533983683573 0 -0.038429510021746015 -0.0088636549192944794 0 -0.038150671963189393 -0.0083468451324017721 0 -0.03800442886414928 -0.0087458595942459371 0 -0.038429510021746015 -0.0088636549192944794 0 -0.038150671963189393 -0.0083468451324017721 0 -0.038145465620315358 -0.0084852533983683573 0 -0.038429510021746015 -0.0088636549192944794 0 -0.038302578962359946 -0.0082776675054019571 0 -0.036916789124934415 -0.010538788827346312 0 -0.036749526699859494 -0.011205941270981448 0 -0.038429510021746015 -0.0088636549192944794 0 -0.039423246581713998 -0.010890152197421317 0 -0.038838848860047612 -0.011006914302187554 0 -0.036749526699859494 -0.011205941270981448 0 -0.036898312369304166 -0.011185498196725168 0 -0.036749526699859494 -0.011205941270981448 0 -0.036896514242039026 -0.010629707245148638 0 -0.035601619363267105 -0.011908688214259836 0 -0.035571944093974898 -0.011874989293508683 0 -0.035615463805020633 -0.011855743503872135 0 -0.038145465620315358 -0.0084852533983683573 0 -0.038302578962359946 -0.0082776675054019571 0 -0.038049122199539702 -0.0083627215065029178 0 -0.038049122199539702 -0.0083627215065029178 0 -0.038207450895617986 -0.0082433797042050661 0 -0.038140623730228924 -0.0080568193555020338 0 -0.036896514242039026 -0.010629707245148638 0 -0.036969817927295291 -0.01027358017498509 0 -0.035615463805020633 -0.011855743503872135 0 -0.035660311587041339 -0.011859213930501584 0 -0.035677476592861315 -0.011788744249009593 0 -0.036979113246251215 -0.010025991335430083 0 -0.036969817927295291 -0.01027358017498509 0 -0.035955330535993174 -0.011679545218612258 0 -0.035853471443018051 -0.011760166673235447 0 -0.035677476592861315 -0.011788744249009593 0 -0.03854630522727806 -0.0081473168969846844 0 -0.038207450895617986 -0.0082433797042050661 0 -0.038341089309498193 -0.0080066595886042567 0 -0.035696357519698754 -0.011911459801675994 0 -0.035853471443018051 -0.011760166673235447 0 -0.035712482060811727 -0.01183191196867415 0 -0.035853471443018051 -0.011760166673235447 0 -0.035712482060811727 -0.01183191196867415 0 -0.035677476592861315 -0.011788744249009593 0 -0.03496219379861773 -0.012239294849831809 0 -0.035242392353119115 -0.0119873615675647 0 -0.035660311587041339 -0.011859213930501584 0 -0.035712482060811727 -0.01183191196867415 0 -0.035677476592861315 -0.011788744249009593 0 -0.038207450895617986 -0.0082433797042050661 0 -0.038341089309498193 -0.0080066595886042567 0 -0.038140623730228924 -0.0080568193555020338 0 -0.038341089309498193 -0.0080066595886042567 0 -0.038140623730228924 -0.0080568193555020338 0 -0.038329087512196582 -0.0077433186289352311 0 -0.038548908875888833 -0.0078148023025073898 0 -0.038341089309498193 -0.0080066595886042567 0 -0.038329087512196582 -0.0077433186289352311 0 -0.038076065589738285 -0.0081524443831628955 0 -0.038049122199539702 -0.0083627215065029178 0 -0.038140623730228924 -0.0080568193555020338 0 -0.038076065589738285 -0.0081524443831628955 0 -0.038140623730228924 -0.0080568193555020338 0 -0.038037756358704954 -0.0076957426653647149 0 -0.038037756358704954 -0.0076957426653647149 0 -0.038329087512196582 -0.0077433186289352311 0 -0.038327909871679729 -0.0071428228643507846 0 -0.038140623730228924 -0.0080568193555020338 0 -0.038037756358704954 -0.0076957426653647149 0 -0.038329087512196582 -0.0077433186289352311 0 -0.038037756358704954 -0.0076957426653647149 0 -0.038327909871679729 -0.0071428228643507846 0 -0.037733522362904059 -0.0071362009191397423 0 -0.038037756358704954 -0.0076957426653647149 0 -0.037733522362904059 -0.0071362009191397423 0 -0.037990527327642076 -0.0077369415515756096 0 -0.037733522362904059 -0.0071362009191397423 0 -0.037990527327642076 -0.0077369415515756096 0 -0.037993719903382586 -0.0074406708290456819 0 -0.038076065589738285 -0.0081524443831628955 0 -0.037990527327642076 -0.0077369415515756096 0 -0.038150671963189393 -0.0083468451324017721 0 -0.038076065589738285 -0.0081524443831628955 0 -0.038037756358704954 -0.0076957426653647149 0 -0.037990527327642076 -0.0077369415515756096 0 -0.037990527327642076 -0.0077369415515756096 0 -0.038150671963189393 -0.0083468451324017721 0 -0.037880896125810998 -0.0079142078436274296 0 -0.03800442886414928 -0.0087458595942459371 0 -0.038150671963189393 -0.0083468451324017721 0 -0.037880896125810998 -0.0079142078436274296 0 -0.037566418788467372 -0.0074835856096303341 0 -0.037880896125810998 -0.0079142078436274296 0 -0.037993719903382586 -0.0074406708290456819 0 -0.037990527327642076 -0.0077369415515756096 0 -0.037880896125810998 -0.0079142078436274296 0 -0.037993719903382586 -0.0074406708290456819 0 -0.037205696544538897 -0.0066928685505838704 0 -0.036799765662022393 -0.0063866668703410961 0 -0.036353554391698198 -0.0065546331391310945 0 -0.036177663790680478 -0.00599349329972651 0 -0.035518906059526623 -0.0061645998585176352 0 -0.037566418788467372 -0.0074835856096303341 0 -0.037993719903382586 -0.0074406708290456819 0 -0.037546315943475302 -0.0070536977298200163 0 -0.036177663790680478 -0.00599349329972651 0 -0.036569951574732085 -0.00540688101328994 0 -0.035581856005779858 -0.005761581580474592 0 -0.037195302841781866 -0.004800685909471995 0 -0.036683554487186389 -0.0053471426384279199 0 -0.037378354470643617 -0.003458634459795371 0 -0.036867462354345779 -0.0035768661169249404 0 -0.036966112380050181 -0.0031499267488067015 0 -0.036569951574732085 -0.00540688101328994 0 -0.037067636026498506 -0.0060125909647959844 0 -0.037558388531635227 -0.0049427836547112341 0 -0.036177663790680478 -0.00599349329972651 0 -0.036569951574732085 -0.00540688101328994 0 -0.037067636026498506 -0.0060125909647959844 0 -0.036353554391698198 -0.0065546331391310945 0 -0.036177663790680478 -0.00599349329972651 0 -0.037067636026498506 -0.0060125909647959844 0 -0.037733522362904059 -0.0071362009191397423 0 -0.036353554391698198 -0.0065546331391310945 0 -0.037067636026498506 -0.0060125909647959844 0 -0.037481845229143627 -0.0068296872413338818 0 -0.037205696544538897 -0.0066928685505838704 0 -0.037733522362904059 -0.0071362009191397423 0 -0.037067636026498506 -0.0060125909647959844 0 -0.037913179335146548 -0.0060707311298497232 0 -0.038327909871679729 -0.0071428228643507846 0 -0.037733522362904059 -0.0071362009191397423 0 -0.037913179335146548 -0.0060707311298497232 0 -0.038327909871679729 -0.0071428228643507846 0 -0.037913179335146548 -0.0060707311298497232 0 -0.038502190958438362 -0.0061948930457457049 0 -0.037913179335146548 -0.0060707311298497232 0 -0.038273505005369989 -0.0053399341382577379 0 -0.038502190958438362 -0.0061948930457457049 0 -0.037913179335146548 -0.0060707311298497232 0 -0.038273505005369989 -0.0053399341382577379 0 -0.037558388531635227 -0.0049427836547112341 0 -0.037067636026498506 -0.0060125909647959844 0 -0.037913179335146548 -0.0060707311298497232 0 -0.037558388531635227 -0.0049427836547112341 0 -0.037195302841781866 -0.004800685909471995 0 -0.03793819806813551 -0.0044314139258792339 0 -0.037378354470643617 -0.003458634459795371 0 -0.037971291346119339 -0.0035309922226616389 0 -0.037809331414140279 -0.0029463247471837538 0 -0.03793819806813551 -0.0044314139258792339 0 -0.038399001004078052 -0.0042635019421254795 0 -0.037971291346119339 -0.0035309922226616389 0 -0.037809331414140279 -0.0029463247471837538 0 -0.038635780593119437 -0.0039565820431118528 0 -0.038273505005369989 -0.0053399341382577379 0 -0.037558388531635227 -0.0049427836547112341 0 -0.038635780593119437 -0.0039565820431118528 0 -0.037809331414140279 -0.0029463247471837538 0 -0.038635780593119437 -0.0039565820431118528 0 -0.038206248334583595 -0.0024995102901391622 0 -0.037809331414140279 -0.0029463247471837538 0 -0.037297429202626783 -0.0029308258724834771 0 -0.037398104995039601 -0.0024874904262464337 0 -0.037297429202626783 -0.0029308258724834771 0 -0.037398104995039601 -0.0024874904262464337 0 -0.037003596776618949 -0.0025948747199027642 0 -0.037297429202626783 -0.0029308258724834771 0 -0.037003596776618949 -0.0025948747199027642 0 -0.036966112380050181 -0.0031499267488067015 0 -0.037378354470643617 -0.003458634459795371 0 -0.037297429202626783 -0.0029308258724834771 0 -0.036966112380050181 -0.0031499267488067015 0 -0.037378354470643617 -0.003458634459795371 0 -0.037809331414140279 -0.0029463247471837538 0 -0.037297429202626783 -0.0029308258724834771 0 -0.03601830305660389 -0.0038818694660783856 0 -0.037321256711242243 -0.0051691528858201601 0 -0.038387886102018202 -0.0072491314150336271 0 -0.038514667088268069 -0.0073814915357404993 0 -0.038454116714729356 -0.0073340745425879861 0 -0.038508740224634568 -0.0073751855584461385 0 -0.038514667088268069 -0.0073814915357404993 0 -0.038454116714729356 -0.0073340745425879861 0 -0.038387886102018202 -0.0072491314150336271 0 -0.038514667088268069 -0.0073814915357404993 0 -0.038576100679761971 -0.0074268961088126313 0 -0.023392202696419225 -0.0056537344320322508 0 -0.028014342696254475 -0.0042448800003896999 0 -0.038576365398326637 -0.0073883256041443095 0 -0.038514667088268069 -0.0073814915357404993 0 -0.038576100679761971 -0.0074268961088126313 0 -0.040908296358112571 -0.0047676318719915914 0 -0.040199732388322695 -0.0060847273282109635 0 -0.040238688149849287 -0.0043779333009275612 0 -0.040199732388322695 -0.0060847273282109635 0 -0.039595592160372839 -0.0047929712518684671 0 -0.040238688149849287 -0.0043779333009275612 0 -0.039595592160372839 -0.0047929712518684671 0 -0.038893538860833507 -0.0053400137555068465 0 -0.038635780593119437 -0.0039565820431118528 0 -0.039595592160372839 -0.0047929712518684671 0 -0.039133868571967836 -0.0061854524403818943 0 -0.038893538860833507 -0.0053400137555068465 0 -0.038981132693388737 -0.007336381002264321 0 -0.040199732388322695 -0.0060847273282109635 0 -0.039133868571967836 -0.0061854524403818943 0 -0.040199732388322695 -0.0060847273282109635 0 -0.039595592160372839 -0.0047929712518684671 0 -0.039133868571967836 -0.0061854524403818943 0 -0.039133868571967836 -0.0061854524403818943 0 -0.038502190958438362 -0.0061948930457457049 0 -0.038893538860833507 -0.0053400137555068465 0 -0.038709057488087284 -0.0069728788133527958 0 -0.039133868571967836 -0.0061854524403818943 0 -0.038502190958438362 -0.0061948930457457049 0 -0.038273505005369989 -0.0053399341382577379 0 -0.038893538860833507 -0.0053400137555068465 0 -0.038635780593119437 -0.0039565820431118528 0 -0.038273505005369989 -0.0053399341382577379 0 -0.038502190958438362 -0.0061948930457457049 0 -0.038893538860833507 -0.0053400137555068465 0 -0.038635780593119437 -0.0039565820431118528 0 -0.038891045350644478 -0.0028875541983860819 0 -0.039418171990651237 -0.0036028614668085343 0 -0.038635780593119437 -0.0039565820431118528 0 -0.038891045350644478 -0.0028875541983860819 0 -0.038206248334583595 -0.0024995102901391622 0 -0.038891045350644478 -0.0028875541983860819 0 -0.039418171990651237 -0.0036028614668085343 0 -0.039411218153205752 -0.0024141485499043313 0 -0.039418171990651237 -0.0036028614668085343 0 -0.04006315476261748 -0.0032987748478931472 0 -0.039411218153205752 -0.0024141485499043313 0 -0.039595592160372839 -0.0047929712518684671 0 -0.038635780593119437 -0.0039565820431118528 0 -0.039418171990651237 -0.0036028614668085343 0 -0.039595592160372839 -0.0047929712518684671 0 -0.039418171990651237 -0.0036028614668085343 0 -0.040238688149849287 -0.0043779333009275612 0 -0.039418171990651237 -0.0036028614668085343 0 -0.040238688149849287 -0.0043779333009275612 0 -0.04006315476261748 -0.0032987748478931472 0 -0.040238688149849287 -0.0043779333009275612 0 -0.04006315476261748 -0.0032987748478931472 0 -0.040683528349358393 -0.0038087900634449193 0 -0.04006315476261748 -0.0032987748478931472 0 -0.04068049384678369 -0.0030138128537883628 0 -0.040116189710692772 -0.0023511277822487273 0 -0.04006315476261748 -0.0032987748478931472 0 -0.04068049384678369 -0.0030138128537883628 0 -0.040683528349358393 -0.0038087900634449193 0 -0.04068049384678369 -0.0030138128537883628 0 -0.040683528349358393 -0.0038087900634449193 0 -0.041480448028536739 -0.0036067763397420838 0 -0.04068049384678369 -0.0030138128537883628 0 -0.04117087754467684 -0.0024576067800465497 0 -0.041480448028536739 -0.0036067763397420838 0 -0.040908296358112571 -0.0047676318719915914 0 -0.040683528349358393 -0.0038087900634449193 0 -0.041480448028536739 -0.0036067763397420838 0 -0.040908296358112571 -0.0047676318719915914 0 -0.040238688149849287 -0.0043779333009275612 0 -0.040683528349358393 -0.0038087900634449193 0 -0.03601830305660389 -0.0038818694660783856 0 -0.032459934591822302 -0.0021513645813741183 0 -0.031415068338594948 0.0016060292831718411 0 -0.031185175928209706 0.00037629791770478634 0 -0.035511805384551426 0.00051369526216963799 0 -0.033312611188397956 -0.00065489333523677869 0 -0.035694351829601935 0.0038748764963791476 0 -0.035939414368534178 0.0034090953597065168 0 -0.035969780863891437 0.0023823002366649142 0 -0.031760786969364067 0.00067810663992647047 0 -0.031598024412091481 0.0016473828207918177 0 -0.031947311503096001 0.00012921983676181961 0 -0.040408159925530068 -0.00097599004099061123 0 -0.040509170002525186 -0.0019251189986974413 0 -0.04117087754467684 -0.0024576067800465497 0 -0.035694351829601935 0.0038748764963791476 0 -0.035939414368534178 0.0034090953597065168 0 -0.035883926104105526 0.0042813108599334274 0 -0.032446590401522979 0.00090480050781548593 0 -0.031415068338594948 0.0016060292831718411 0 -0.040408159925530068 -0.00097599004099061123 0 -0.040024081311931047 -0.0012688977131715643 0 -0.039247408488579827 -6.8402419108002199e-06 0 -0.040024081311931047 -0.0012688977131715643 0 -0.040509170002525186 -0.0019251189986974413 0 -0.040086779667104201 -0.0018361583104482251 0 -0.040408159925530068 -0.00097599004099061123 0 -0.040024081311931047 -0.0012688977131715643 0 -0.040509170002525186 -0.0019251189986974413 0 -0.040607342772395867 -0.0024377554309923011 0 -0.040509170002525186 -0.0019251189986974413 0 -0.04117087754467684 -0.0024576067800465497 0 -0.032446590401522979 0.00090480050781548593 0 -0.033312611188397956 -0.00065489333523677869 0 -0.04068049384678369 -0.0030138128537883628 0 -0.040607342772395867 -0.0024377554309923011 0 -0.04117087754467684 -0.0024576067800465497 0 -0.04068049384678369 -0.0030138128537883628 0 -0.040607342772395867 -0.0024377554309923011 0 -0.040116189710692772 -0.0023511277822487273 0 -0.040607342772395867 -0.0024377554309923011 0 -0.040509170002525186 -0.0019251189986974413 0 -0.040116189710692772 -0.0023511277822487273 0 -0.040509170002525186 -0.0019251189986974413 0 -0.040116189710692772 -0.0023511277822487273 0 -0.040086779667104201 -0.0018361583104482251 0 -0.040116189710692772 -0.0023511277822487273 0 -0.039752177666690827 -0.0018076921357015122 0 -0.040086779667104201 -0.0018361583104482251 0 -0.040116189710692772 -0.0023511277822487273 0 -0.039752177666690827 -0.0018076921357015122 0 -0.039411218153205752 -0.0024141485499043313 0 -0.04006315476261748 -0.0032987748478931472 0 -0.040116189710692772 -0.0023511277822487273 0 -0.039411218153205752 -0.0024141485499043313 0 -0.039382386764380314 -0.00098868356286261846 0 -0.038672383598897936 -0.00086650921080065157 0 -0.040024081311931047 -0.0012688977131715643 0 -0.037407835379992538 -0.00025389406756708171 0 -0.039247408488579827 -6.8402419108002199e-06 0 -0.040024081311931047 -0.0012688977131715643 0 -0.039752177666690827 -0.0018076921357015122 0 -0.039340670866619042 -0.0015253267162598453 0 -0.040024081311931047 -0.0012688977131715643 0 -0.039752177666690827 -0.0018076921357015122 0 -0.040086779667104201 -0.0018361583104482251 0 -0.039752177666690827 -0.0018076921357015122 0 -0.039340670866619042 -0.0015253267162598453 0 -0.039411218153205752 -0.0024141485499043313 0 -0.039340670866619042 -0.0015253267162598453 0 -0.039411218153205752 -0.0024141485499043313 0 -0.038846889529035034 -0.0021066589460018623 0 -0.038891045350644478 -0.0028875541983860819 0 -0.038846889529035034 -0.0021066589460018623 0 -0.038206248334583595 -0.0024995102901391622 0 -0.038891045350644478 -0.0028875541983860819 0 -0.039411218153205752 -0.0024141485499043313 0 -0.038846889529035034 -0.0021066589460018623 0 -0.039340670866619042 -0.0015253267162598453 0 -0.038846889529035034 -0.0021066589460018623 0 -0.038495080801558182 -0.0012799217554836449 0 -0.038672383598897936 -0.00086650921080065157 0 -0.03782183062162614 -0.00070219401626300207 0 -0.037407835379992538 -0.00025389406756708171 0 -0.037214798930686833 0.00051476050314683047 0 -0.037110237159181887 0.0001947305039747476 0 -0.037214798930686833 0.00051476050314683047 0 -0.037082842467212947 0.0007983486121005013 0 -0.037110237159181887 0.0001947305039747476 0 -0.037214798930686833 0.00051476050314683047 0 -0.037082842467212947 0.0007983486121005013 0 -0.037270045009505377 0.0012307506066394419 0 -0.037082842467212947 0.0007983486121005013 0 -0.037270045009505377 0.0012307506066394419 0 -0.037080150554953985 0.0014765673646087469 0 -0.037214798930686833 0.00051476050314683047 0 -0.037270045009505377 0.0012307506066394419 0 -0.037958428699230676 0.00074979734049927338 0 -0.037270045009505377 0.0012307506066394419 0 -0.037626020207666214 0.001794415179722373 0 -0.037079469463064278 0.0021328088327808407 0 -0.037270045009505377 0.0012307506066394419 0 -0.037958428699230676 0.00074979734049927338 0 -0.037626020207666214 0.001794415179722373 0 -0.037407835379992538 -0.00025389406756708171 0 -0.037214798930686833 0.00051476050314683047 0 -0.037958428699230676 0.00074979734049927338 0 -0.037407835379992538 -0.00025389406756708171 0 -0.039247408488579827 -6.8402419108002199e-06 0 -0.037958428699230676 0.00074979734049927338 0 -0.039247408488579827 -6.8402419108002199e-06 0 -0.038614114417658739 0.00080532063874464203 0 -0.039091184464759725 0.0012190430580038864 0 -0.039247408488579827 -6.8402419108002199e-06 0 -0.038614114417658739 0.00080532063874464203 0 -0.037958428699230676 0.00074979734049927338 0 -0.037958428699230676 0.00074979734049927338 0 -0.038303103153913741 0.0011355398931678273 0 -0.037626020207666214 0.001794415179722373 0 -0.036220516599588554 0.0016907777290276606 0 -0.03637660449116361 0.0020383398438602852 0 -0.037626020207666214 0.001794415179722373 0 -0.039091184464759725 0.0012190430580038864 0 -0.036952086419409044 0.0029695128360840554 0 -0.038614114417658739 0.00080532063874464203 0 -0.037958428699230676 0.00074979734049927338 0 -0.038303103153913741 0.0011355398931678273 0 -0.038303103153913741 0.0011355398931678273 0 -0.037626020207666214 0.001794415179722373 0 -0.039091184464759725 0.0012190430580038864 0 -0.038614114417658739 0.00080532063874464203 0 -0.038303103153913741 0.0011355398931678273 0 -0.039091184464759725 0.0012190430580038864 0 -0.035412056941853051 0.0065454712032936291 0 -0.035203114251929825 0.0055304591625871579 0 -0.035877686306332257 0.0039009498703587537 0 -0.035906381130025228 0.0048796369040460131 0 -0.035838353694638267 0.0048097640686009732 0 -0.035877686306332257 0.0039009498703587537 0 -0.030890107353687045 0.0022704091773733397 0 -0.031472314961443537 0.0028162501716393566 0 -0.034972603636250169 0.0050496985888538242 0 -0.035203114251929825 0.0055304591625871579 0 -0.035877686306332257 0.0039009498703587537 0 -0.034754962228156182 0.0058516608613090708 0 -0.034327897683193012 0.0063023357279174772 0 -0.034313773847017205 0.0054262576740042139 0 -0.034972603636250169 0.0050496985888538242 0 -0.034754962228156182 0.0058516608613090708 0 -0.034313773847017205 0.0054262576740042139 0 -0.034972603636250169 0.0050496985888538242 0 -0.035203114251929825 0.0055304591625871579 0 -0.034754962228156182 0.0058516608613090708 0 -0.035203114251929825 0.0055304591625871579 0 -0.034754962228156182 0.0058516608613090708 0 -0.034957433431244855 0.0061204797678850783 0 -0.034754962228156182 0.0058516608613090708 0 -0.034957433431244855 0.0061204797678850783 0 -0.034327897683193012 0.0063023357279174772 0 -0.035412056941853051 0.0065454712032936291 0 -0.034957433431244855 0.0061204797678850783 0 -0.034327897683193012 0.0063023357279174772 0 -0.035412056941853051 0.0065454712032936291 0 -0.035203114251929825 0.0055304591625871579 0 -0.034957433431244855 0.0061204797678850783 0 -0.030890107353687045 0.0022704091773733397 0 -0.031415068338594948 0.0016060292831718411 0 -0.035694351829601935 0.0038748764963791476 0 -0.035906381130025228 0.0048796369040460131 0 -0.035883926104105526 0.0042813108599334274 0 -0.026774895182055673 0.0010452922935130814 0 -0.026792316350883964 0.00082718853982400339 0 -0.027045513103802939 0.00086271911473231877 0 -0.040408159925530068 -0.00097599004099061123 0 -0.039247408488579827 -6.8402419108002199e-06 0 -0.039091184464759725 0.0012190430580038864 0 -0.035511805384551426 0.00051369526216963799 0 -0.036220516599588554 0.0016907777290276606 0 -0.035906381130025228 0.0048796369040460131 0 -0.035838353694638267 0.0048097640686009732 0 -0.035883926104105526 0.0042813108599334274 0 -0.037194169998901981 -0.0017931129989529439 0 -0.037734892296110753 -0.0019725322526258178 0 -0.037431412119714583 -0.00063815469303374263 0 -0.037194169998901981 -0.0017931129989529439 0 -0.037431412119714583 -0.00063815469303374263 0 -0.037039539449332616 -0.00096119135933628481 0 -0.037194169998901981 -0.0017931129989529439 0 -0.037039539449332616 -0.00096119135933628481 0 -0.036909065106655793 -0.001929651043752093 0 -0.037003596776618949 -0.0025948747199027642 0 -0.037194169998901981 -0.0017931129989529439 0 -0.036909065106655793 -0.001929651043752093 0 -0.037398104995039601 -0.0024874904262464337 0 -0.037003596776618949 -0.0025948747199027642 0 -0.037194169998901981 -0.0017931129989529439 0 -0.037398104995039601 -0.0024874904262464337 0 -0.037194169998901981 -0.0017931129989529439 0 -0.037734892296110753 -0.0019725322526258178 0 -0.037809331414140279 -0.0029463247471837538 0 -0.037398104995039601 -0.0024874904262464337 0 -0.037734892296110753 -0.0019725322526258178 0 -0.037809331414140279 -0.0029463247471837538 0 -0.037734892296110753 -0.0019725322526258178 0 -0.038206248334583595 -0.0024995102901391622 0 -0.037734892296110753 -0.0019725322526258178 0 -0.038206248334583595 -0.0024995102901391622 0 -0.038495080801558182 -0.0012799217554836449 0 -0.038846889529035034 -0.0021066589460018623 0 -0.038206248334583595 -0.0024995102901391622 0 -0.038495080801558182 -0.0012799217554836449 0 -0.037734892296110753 -0.0019725322526258178 0 -0.038495080801558182 -0.0012799217554836449 0 -0.037431412119714583 -0.00063815469303374263 0 -0.03782183062162614 -0.00070219401626300207 0 -0.037438502433568749 -0.00064537442455121904 0 -0.037110237159181887 0.0001947305039747476 0 -0.03728985218881746 0.00053247209025288598 0 -0.037431412119714583 -0.00063815469303374263 0 -0.037082842467212947 0.0007983486121005013 0 -0.037110237159181887 0.0001947305039747476 0 -0.03728985218881746 0.00053247209025288598 0 -0.037082842467212947 0.0007983486121005013 0 -0.03728985218881746 0.00053247209025288598 0 -0.037055126583643988 0.0013725861124462807 0 -0.03728985218881746 0.00053247209025288598 0 -0.037252799739534354 0.00010429568562307328 0 -0.037431412119714583 -0.00063815469303374263 0 -0.037252799739534354 0.00010429568562307328 0 -0.037431412119714583 -0.00063815469303374263 0 -0.037039539449332616 -0.00096119135933628481 0 -0.037252799739534354 0.00010429568562307328 0 -0.037039539449332616 -0.00096119135933628481 0 -0.036857360733323602 -0.00038027822253231317 0 -0.036857360733323602 -0.00038027822253231317 0 -0.03647681668359868 -0.0008025283174756141 0 -0.036708873805736356 -0.0012916206931775681 0 -0.036857360733323602 -0.00038027822253231317 0 -0.03647681668359868 -0.0008025283174756141 0 -0.03654196244332928 9.8334638274712879e-05 0 -0.03647681668359868 -0.0008025283174756141 0 -0.036708873805736356 -0.0012916206931775681 0 -0.036510363432815475 -0.0016509601102790445 0 -0.037039539449332616 -0.00096119135933628481 0 -0.036857360733323602 -0.00038027822253231317 0 -0.036708873805736356 -0.0012916206931775681 0 -0.036708873805736356 -0.0012916206931775681 0 -0.036685619135397321 -0.0021583419523812349 0 -0.036909065106655793 -0.001929651043752093 0 -0.037039539449332616 -0.00096119135933628481 0 -0.036708873805736356 -0.0012916206931775681 0 -0.036909065106655793 -0.001929651043752093 0 -0.036708873805736356 -0.0012916206931775681 0 -0.036685619135397321 -0.0021583419523812349 0 -0.036510363432815475 -0.0016509601102790445 0 -0.036685619135397321 -0.0021583419523812349 0 -0.036779151343030482 -0.0026668475695821115 0 -0.036630057999536204 -0.0027899956937578662 0 -0.036685619135397321 -0.0021583419523812349 0 -0.036909065106655793 -0.001929651043752093 0 -0.036779151343030482 -0.0026668475695821115 0 -0.037003596776618949 -0.0025948747199027642 0 -0.036909065106655793 -0.001929651043752093 0 -0.036779151343030482 -0.0026668475695821115 0 -0.036434188526082677 -0.0026895708112422184 0 -0.036352351341944179 -0.0021647173798356083 0 -0.036343216700832799 -0.0030352002030693105 0 -0.036434188526082677 -0.0026895708112422184 0 -0.036515763880280057 -0.0023786918921084163 0 -0.03651262401290848 -0.0029767652146657836 0 -0.036434188526082677 -0.0026895708112422184 0 -0.036343216700832799 -0.0030352002030693105 0 -0.036429847151463003 -0.0035397776063775125 0 -0.036515763880280057 -0.0023786918921084163 0 -0.036630057999536204 -0.0027899956937578662 0 -0.03651262401290848 -0.0029767652146657836 0 -0.036685619135397321 -0.0021583419523812349 0 -0.036515763880280057 -0.0023786918921084163 0 -0.036630057999536204 -0.0027899956937578662 0 -0.036685619135397321 -0.0021583419523812349 0 -0.036515763880280057 -0.0023786918921084163 0 -0.036510363432815475 -0.0016509601102790445 0 -0.036515763880280057 -0.0023786918921084163 0 -0.036352351341944179 -0.0021647173798356083 0 -0.036510363432815475 -0.0016509601102790445 0 -0.036434188526082677 -0.0026895708112422184 0 -0.036515763880280057 -0.0023786918921084163 0 -0.036352351341944179 -0.0021647173798356083 0 -0.036352351341944179 -0.0021647173798356083 0 -0.036365126056229331 -0.0013369420695361349 0 -0.036229617291801602 -0.0016812692196880791 0 -0.036352351341944179 -0.0021647173798356083 0 -0.036365126056229331 -0.0013369420695361349 0 -0.036510363432815475 -0.0016509601102790445 0 -0.03647681668359868 -0.0008025283174756141 0 -0.036365126056229331 -0.0013369420695361349 0 -0.036510363432815475 -0.0016509601102790445 0 -0.03647681668359868 -0.0008025283174756141 0 -0.036365126056229331 -0.0013369420695361349 0 -0.036384799216961319 -0.00058184723453629894 0 -0.036365126056229331 -0.0013369420695361349 0 -0.036138661077635685 -0.0012178486704705674 0 -0.036384799216961319 -0.00058184723453629894 0 -0.036138661077635685 -0.0012178486704705674 0 -0.035673796397726436 -0.001031883233749992 0 -0.035806046757700272 -0.0016029764210231264 0 -0.035673796397726436 -0.001031883233749992 0 -0.035806046757700272 -0.0016029764210231264 0 -0.035401102307459062 -0.0015221689113717849 0 -0.036138661077635685 -0.0012178486704705674 0 -0.035806046757700272 -0.0016029764210231264 0 -0.036061689554311695 -0.0020493470398919773 0 -0.035806046757700272 -0.0016029764210231264 0 -0.035839958472115428 -0.0022162331790436056 0 -0.035532413877430294 -0.0020587962316293957 0 -0.035806046757700272 -0.0016029764210231264 0 -0.035839958472115428 -0.0022162331790436056 0 -0.036061689554311695 -0.0020493470398919773 0 -0.036352351341944179 -0.0021647173798356083 0 -0.036061689554311695 -0.0020493470398919773 0 -0.036229617291801602 -0.0016812692196880791 0 -0.036365126056229331 -0.0013369420695361349 0 -0.036138661077635685 -0.0012178486704705674 0 -0.036229617291801602 -0.0016812692196880791 0 -0.036138661077635685 -0.0012178486704705674 0 -0.036061689554311695 -0.0020493470398919773 0 -0.036229617291801602 -0.0016812692196880791 0 -0.034999972908944341 -0.00080441400371403877 0 -0.035728208143748656 -0.00070910804677784729 0 -0.036027640253297473 0.00089273860099464437 0 -0.034845929200282337 -0.0014422889618367525 0 -0.035189337595860404 -0.0009307869459286225 0 -0.035401102307459062 -0.0015221689113717849 0 -0.034845929200282337 -0.0014422889618367525 0 -0.035401102307459062 -0.0015221689113717849 0 -0.035258289305308846 -0.0019566923355841541 0 -0.035673796397726436 -0.001031883233749992 0 -0.035189337595860404 -0.0009307869459286225 0 -0.035401102307459062 -0.0015221689113717849 0 -0.035806046757700272 -0.0016029764210231264 0 -0.035401102307459062 -0.0015221689113717849 0 -0.035532413877430294 -0.0020587962316293957 0 -0.035532413877430294 -0.0020587962316293957 0 -0.035258289305308846 -0.0019566923355841541 0 -0.035406647613699618 -0.0023745440234226979 0 -0.035401102307459062 -0.0015221689113717849 0 -0.035532413877430294 -0.0020587962316293957 0 -0.035258289305308846 -0.0019566923355841541 0 -0.034999972908944341 -0.00080441400371403877 0 -0.035728208143748656 -0.00070910804677784729 0 -0.03524604848929451 -0.0023609280124187227 0 -0.034845929200282337 -0.0014422889618367525 0 -0.035258289305308846 -0.0019566923355841541 0 -0.03524604848929451 -0.0023609280124187227 0 -0.034999972908944341 -0.00080441400371403877 0 -0.034999450567273452 -0.0028702129563605515 0 -0.03524604848929451 -0.0023609280124187227 0 -0.035312180233702431 -0.00066247495299371338 0 -0.035238034908113183 -0.001242307965352614 0 -0.035258289305308846 -0.0019566923355841541 0 -0.03524604848929451 -0.0023609280124187227 0 -0.035406647613699618 -0.0023745440234226979 0 -0.034999450567273452 -0.0028702129563605515 0 -0.035364808527955323 -0.0027906328042711774 0 -0.035425773396101465 -0.0037122499494733762 0 -0.034999450567273452 -0.0028702129563605515 0 -0.03524604848929451 -0.0023609280124187227 0 -0.035364808527955323 -0.0027906328042711774 0 -0.03524604848929451 -0.0023609280124187227 0 -0.035364808527955323 -0.0027906328042711774 0 -0.035406647613699618 -0.0023745440234226979 0 -0.035364808527955323 -0.0027906328042711774 0 -0.035671568955930572 -0.0027263218564218318 0 -0.035425773396101465 -0.0037122499494733762 0 -0.035364808527955323 -0.0027906328042711774 0 -0.035671568955930572 -0.0027263218564218318 0 -0.035406647613699618 -0.0023745440234226979 0 -0.035532413877430294 -0.0020587962316293957 0 -0.035671568955930572 -0.0027263218564218318 0 -0.035406647613699618 -0.0023745440234226979 0 -0.035839958472115428 -0.0022162331790436056 0 -0.035532413877430294 -0.0020587962316293957 0 -0.035671568955930572 -0.0027263218564218318 0 -0.035671568955930572 -0.0027263218564218318 0 -0.035955291170354321 -0.003467525591451187 0 -0.036001349705273675 -0.0026861595358118962 0 -0.035671568955930572 -0.0027263218564218318 0 -0.035955291170354321 -0.003467525591451187 0 -0.035425773396101465 -0.0037122499494733762 0 -0.035955291170354321 -0.003467525591451187 0 -0.035425773396101465 -0.0037122499494733762 0 -0.035900026828405131 -0.004249199854393264 0 -0.034999450567273452 -0.0028702129563605515 0 -0.035425773396101465 -0.0037122499494733762 0 -0.034999727200808364 -0.004935017328460003 0 -0.036352351341944179 -0.0021647173798356083 0 -0.036061689554311695 -0.0020493470398919773 0 -0.036199486347662471 -0.0025715365029029841 0 -0.036352351341944179 -0.0021647173798356083 0 -0.036199486347662471 -0.0025715365029029841 0 -0.036343216700832799 -0.0030352002030693105 0 -0.036061689554311695 -0.0020493470398919773 0 -0.036199486347662471 -0.0025715365029029841 0 -0.036001349705273675 -0.0026861595358118962 0 -0.035839958472115428 -0.0022162331790436056 0 -0.036061689554311695 -0.0020493470398919773 0 -0.036001349705273675 -0.0026861595358118962 0 -0.035839958472115428 -0.0022162331790436056 0 -0.035671568955930572 -0.0027263218564218318 0 -0.036001349705273675 -0.0026861595358118962 0 -0.036199486347662471 -0.0025715365029029841 0 -0.036001349705273675 -0.0026861595358118962 0 -0.036179628414631147 -0.0031865066910500501 0 -0.035955291170354321 -0.003467525591451187 0 -0.036179628414631147 -0.0031865066910500501 0 -0.036340629152554975 -0.0039195822519705785 0 -0.035955291170354321 -0.003467525591451187 0 -0.036001349705273675 -0.0026861595358118962 0 -0.036179628414631147 -0.0031865066910500501 0 -0.036179628414631147 -0.0031865066910500501 0 -0.036343216700832799 -0.0030352002030693105 0 -0.036340629152554975 -0.0039195822519705785 0 -0.036199486347662471 -0.0025715365029029841 0 -0.036179628414631147 -0.0031865066910500501 0 -0.036343216700832799 -0.0030352002030693105 0 -0.036343216700832799 -0.0030352002030693105 0 -0.036340629152554975 -0.0039195822519705785 0 -0.036429847151463003 -0.0035397776063775125 0 -0.036340629152554975 -0.0039195822519705785 0 -0.03630343757403396 -0.0052552643331987645 0 -0.036382013452030557 -0.0041022539812440029 0 -0.036567167231018015 -0.0052616509850371279 0 -0.036953515072951269 -0.005389106509376981 0 -0.036340629152554975 -0.0039195822519705785 0 -0.036382013452030557 -0.0041022539812440029 0 -0.036429847151463003 -0.0035397776063775125 0 -0.036382013452030557 -0.0041022539812440029 0 -0.036457549809956996 -0.003675649360854575 0 -0.036429847151463003 -0.0035397776063775125 0 -0.035425773396101465 -0.0037122499494733762 0 -0.034999727200808364 -0.004935017328460003 0 -0.035900026828405131 -0.004249199854393264 0 -0.035955291170354321 -0.003467525591451187 0 -0.036340629152554975 -0.0039195822519705785 0 -0.035900026828405131 -0.004249199854393264 0 -0.036340629152554975 -0.0039195822519705785 0 -0.035900026828405131 -0.004249199854393264 0 -0.03630343757403396 -0.0052552643331987645 0 -0.034999727200808364 -0.004935017328460003 0 -0.035900026828405131 -0.004249199854393264 0 -0.03630343757403396 -0.0052552643331987645 0 -0.034999727200808364 -0.004935017328460003 0 -0.03630343757403396 -0.0052552643331987645 0 -0.034999560993376179 -0.0070011214531201568 0 -0.03630343757403396 -0.0052552643331987645 0 -0.034999560993376179 -0.0070011214531201568 0 -0.036313030418487963 -0.0072741799995914708 0 -0.03630343757403396 -0.0052552643331987645 0 -0.036313030418487963 -0.0072741799995914708 0 -0.037324167541375623 -0.0068053350334895749 0 -0.035781926019457871 -0.0087584280820577325 0 -0.036313030418487963 -0.0072741799995914708 0 -0.037514405565939782 -0.0080761798076311123 0 -0.036530496849158607 -0.0081233982966187369 0 -0.037234684729051178 -0.0078251506027365181 0 -0.035781926019457871 -0.0087584280820577325 0 -0.034999560993376179 -0.0070011214531201568 0 -0.036313030418487963 -0.0072741799995914708 0 -0.034999942172247604 -0.009067817620103313 0 -0.035781926019457871 -0.0087584280820577325 0 -0.034999560993376179 -0.0070011214531201568 0 -0.036953515072951269 -0.005389106509376981 0 -0.037437751755946394 -0.0056955645297328576 0 -0.038406917155031639 -0.0070128559847622068 0 -0.039196614085885942 -0.0074724554863951969 0 -0.039506971861630588 -0.0066885151262628456 0 -0.038406917155031639 -0.0070128559847622068 0 -0.038221837529607457 -0.0061248202181981458 0 -0.039506971861630588 -0.0066885151262628456 0 -0.03630343757403396 -0.0052552643331987645 0 -0.038221837529607457 -0.0061248202181981458 0 -0.037324167541375623 -0.0068053350334895749 0 -0.038406917155031639 -0.0070128559847622068 0 -0.038221837529607457 -0.0061248202181981458 0 -0.037324167541375623 -0.0068053350334895749 0 -0.036313030418487963 -0.0072741799995914708 0 -0.037324167541375623 -0.0068053350334895749 0 -0.037514405565939782 -0.0080761798076311123 0 -0.038406917155031639 -0.0070128559847622068 0 -0.037324167541375623 -0.0068053350334895749 0 -0.037514405565939782 -0.0080761798076311123 0 -0.037821116579902669 -0.0094127370778643218 0 -0.037295699278258217 -0.0085996483309734532 0 -0.038422482385640194 -0.0083612156652031373 0 -0.038406917155031639 -0.0070128559847622068 0 -0.037514405565939782 -0.0080761798076311123 0 -0.039196614085885942 -0.0074724554863951969 0 -0.037821116579902669 -0.0094127370778643218 0 -0.038627334971508089 -0.0086932017762023153 0 -0.038422482385640194 -0.0083612156652031373 0 -0.037234684729051178 -0.0078251506027365181 0 -0.038093265568243495 -0.0071563583757711848 0 -0.038627334971508089 -0.0086932017762023153 0 -0.038422482385640194 -0.0083612156652031373 0 -0.03932450495367041 -0.0081020052110853946 0 -0.038093265568243495 -0.0071563583757711848 0 -0.037293634588763544 -0.0062912586667489348 0 -0.035560136594332617 -0.0075249390571245443 0 -0.035121901793005256 -0.0071401789869975805 0 -0.035853032557944212 -0.0072312598275826191 0 -0.039196614085885942 -0.0074724554863951969 0 -0.039506971861630588 -0.0066885151262628456 0 -0.04044257833490747 -0.0070929535310772377 0 -0.036457549809956996 -0.003675649360854575 0 -0.036552663694557203 -0.0034986063613524328 0 -0.036629926280589829 -0.0035911859042081734 0 -0.039506971861630588 -0.0066885151262628456 0 -0.040558880802210796 -0.0070100312437563475 0 -0.04044257833490747 -0.0070929535310772377 0 -0.037437751755946394 -0.0056955645297328576 0 -0.037211511890430343 -0.0061046050993356854 0 -0.036552663694557203 -0.0034986063613524328 0 -0.036629926280589829 -0.0035911859042081734 0 -0.036652256552847061 -0.0034107070165624921 0 -0.036317606285002232 -0.0065371363543526208 0 -0.036460867425186887 -0.0066584277479984537 0 -0.036570223855954334 -0.0065068092750271587 0 -0.037293634588763544 -0.0062912586667489348 0 -0.037075856824406443 -0.0061274816138411061 0 -0.037335218780374692 -0.0063272613056254944 0 -0.037226489126027981 -0.0064043151284515713 0 -0.037433991333051961 -0.0063549702922188825 0 -0.037211511890430343 -0.0061046050993356854 0 -0.037293634588763544 -0.0062912586667489348 0 -0.035121901793005256 -0.0071401789869975805 0 -0.036085344339155452 -0.0069087220240858782 0 -0.035853032557944212 -0.0072312598275826191 0 -0.036317606285002232 -0.0065371363543526208 0 -0.036342640290455641 -0.0067430905409566148 0 -0.036085344339155452 -0.0069087220240858782 0 -0.036342640290455641 -0.0067430905409566148 0 -0.036460867425186887 -0.0066584277479984537 0 -0.036504514656107372 -0.0068703714619272249 0 -0.035121901793005256 -0.0071401789869975805 0 -0.036317606285002232 -0.0065371363543526208 0 -0.036085344339155452 -0.0069087220240858782 0 -0.036317606285002232 -0.0065371363543526208 0 -0.036342640290455641 -0.0067430905409566148 0 -0.036460867425186887 -0.0066584277479984537 0 -0.036592082828332297 -0.007663861016478579 0 -0.037293634588763544 -0.0062912586667489348 0 -0.036342640290455641 -0.0067430905409566148 0 -0.036085344339155452 -0.0069087220240858782 0 -0.036504514656107372 -0.0068703714619272249 0 -0.036277042680694309 -0.0072275014233998455 0 -0.03658865365405925 -0.0072202529281105224 0 -0.036504514656107372 -0.0068703714619272249 0 -0.036085344339155452 -0.0069087220240858782 0 -0.036277042680694309 -0.0072275014233998455 0 -0.036504514656107372 -0.0068703714619272249 0 -0.036085344339155452 -0.0069087220240858782 0 -0.035853032557944212 -0.0072312598275826191 0 -0.036277042680694309 -0.0072275014233998455 0 -0.036995754120144671 -0.0074857899112172827 0 -0.03658865365405925 -0.0072202529281105224 0 -0.036813123028522604 -0.0071117421829735572 0 -0.036831698348837774 -0.0068349114603408478 0 -0.037546315943475302 -0.0070536977298200163 0 -0.036570223855954334 -0.0065068092750271587 0 -0.036567015009927741 -0.0075734941233082387 0 -0.036277042680694309 -0.0072275014233998455 0 -0.03658865365405925 -0.0072202529281105224 0 -0.037127767658845318 -0.0071266801147582227 0 -0.036831698348837774 -0.0068349114603408478 0 -0.037546315943475302 -0.0070536977298200163 0 -0.036799765662022393 -0.0063866668703410961 0 -0.037075856824406443 -0.0061274816138411061 0 -0.03658865365405925 -0.0072202529281105224 0 -0.036813123028522604 -0.0071117421829735572 0 -0.036504514656107372 -0.0068703714619272249 0 -0.036995754120144671 -0.0074857899112172827 0 -0.036813123028522604 -0.0071117421829735572 0 -0.037127767658845318 -0.0071266801147582227 0 -0.036813123028522604 -0.0071117421829735572 0 -0.037127767658845318 -0.0071266801147582227 0 -0.036831698348837774 -0.0068349114603408478 0 -0.036460867425186887 -0.0066584277479984537 0 -0.036592463656860488 -0.006718777149864962 0 -0.036570223855954334 -0.0065068092750271587 0 -0.036460867425186887 -0.0066584277479984537 0 -0.036592463656860488 -0.006718777149864962 0 -0.036504514656107372 -0.0068703714619272249 0 -0.036831698348837774 -0.0068349114603408478 0 -0.036592463656860488 -0.006718777149864962 0 -0.036504514656107372 -0.0068703714619272249 0 -0.036831698348837774 -0.0068349114603408478 0 -0.036592463656860488 -0.006718777149864962 0 -0.036570223855954334 -0.0065068092750271587 0 -0.036813123028522604 -0.0071117421829735572 0 -0.036831698348837774 -0.0068349114603408478 0 -0.036504514656107372 -0.0068703714619272249 0 -0.037566418788467372 -0.0074835856096303341 0 -0.037127767658845318 -0.0071266801147582227 0 -0.037546315943475302 -0.0070536977298200163 0 -0.037566418788467372 -0.0074835856096303341 0 -0.036995754120144671 -0.0074857899112172827 0 -0.037127767658845318 -0.0071266801147582227 0 -0.035518906059526623 -0.0061645998585176352 0 -0.035581856005779858 -0.005761581580474592 0 -0.034895303278822967 -0.0059619382474118115 0 -0.036867462354345779 -0.0035768661169249404 0 -0.036585709310820856 -0.0034530853267278469 0 -0.036966112380050181 -0.0031499267488067015 0 -0.036177663790680478 -0.00599349329972651 0 -0.035518906059526623 -0.0061645998585176352 0 -0.035581856005779858 -0.005761581580474592 0 -0.036867462354345779 -0.0035768661169249404 0 -0.036266587950326071 -0.003782270783049426 0 -0.036585709310820856 -0.0034530853267278469 0 -0.036683554487186389 -0.0053471426384279199 0 -0.037075856824406443 -0.0061274816138411061 0 -0.03620989359410931 -0.0037701257614033471 0 -0.036266587950326071 -0.003782270783049426 0 -0.036585709310820856 -0.0034530853267278469 0 -0.037211511890430343 -0.0061046050993356854 0 -0.037075856824406443 -0.0061274816138411061 0 -0.037211511890430343 -0.0061046050993356854 0 -0.037388717088288198 -0.0050664699701512914 0 -0.036629926280589829 -0.0035911859042081734 0 -0.036806903444926667 -0.0033909714635563968 0 -0.036652256552847061 -0.0034107070165624921 0 -0.036652256552847061 -0.0034107070165624921 0 -0.036738546205040502 -0.0031267377330270051 0 -0.036584311578032776 -0.0032696216603075715 0 -0.036806903444926667 -0.0033909714635563968 0 -0.036652256552847061 -0.0034107070165624921 0 -0.036738546205040502 -0.0031267377330270051 0 -0.036806903444926667 -0.0033909714635563968 0 -0.036738546205040502 -0.0031267377330270051 0 -0.036966112380050181 -0.0031499267488067015 0 -0.036738546205040502 -0.0031267377330270051 0 -0.036966112380050181 -0.0031499267488067015 0 -0.036868581561448795 -0.0028869618002239704 0 -0.037388717088288198 -0.0050664699701512914 0 -0.037457250375905464 -0.0047365477162247651 0 -0.036738546205040502 -0.0031267377330270051 0 -0.036779151343030482 -0.0026668475695821115 0 -0.036868581561448795 -0.0028869618002239704 0 -0.037003596776618949 -0.0025948747199027642 0 -0.036966112380050181 -0.0031499267488067015 0 -0.036868581561448795 -0.0028869618002239704 0 -0.037003596776618949 -0.0025948747199027642 0 -0.036779151343030482 -0.0026668475695821115 0 -0.036868581561448795 -0.0028869618002239704 0 -0.036738546205040502 -0.0031267377330270051 0 -0.036630057999536204 -0.0027899956937578662 0 -0.036584311578032776 -0.0032696216603075715 0 -0.036738546205040502 -0.0031267377330270051 0 -0.036779151343030482 -0.0026668475695821115 0 -0.036630057999536204 -0.0027899956937578662 0 -0.03651262401290848 -0.0029767652146657836 0 -0.036486940772987163 -0.0034585883293577462 0 -0.036584311578032776 -0.0032696216603075715 0 -0.036630057999536204 -0.0027899956937578662 0 -0.03651262401290848 -0.0029767652146657836 0 -0.036584311578032776 -0.0032696216603075715 0 -0.03651262401290848 -0.0029767652146657836 0 -0.036429847151463003 -0.0035397776063775125 0 -0.036486940772987163 -0.0034585883293577462 0 -0.036434188526082677 -0.0026895708112422184 0 -0.03651262401290848 -0.0029767652146657836 0 -0.036429847151463003 -0.0035397776063775125 0 -0.036457549809956996 -0.003675649360854575 0 -0.036429847151463003 -0.0035397776063775125 0 -0.036486940772987163 -0.0034585883293577462 0 -0.036457549809956996 -0.003675649360854575 0 -0.036552663694557203 -0.0034986063613524328 0 -0.036486940772987163 -0.0034585883293577462 0 -0.036552663694557203 -0.0034986063613524328 0 -0.036486940772987163 -0.0034585883293577462 0 -0.036584311578032776 -0.0032696216603075715 0 -0.036552663694557203 -0.0034986063613524328 0 -0.036652256552847061 -0.0034107070165624921 0 -0.036584311578032776 -0.0032696216603075715 0 -0.0055075940294883512 0.0036922036273016631 0 -0.0055141047861475244 0.0036553032203283011 0 -0.0057540862357009018 0.0033021316297488132 0 -0.0055075940294883512 0.0036922036273016631 0 -0.0054924248688974124 0.0037737471808076115 0 -0.0055141047861475244 0.0036553032203283011 0 -0.0068770148799927253 0.0021857757350396564 0 -0.0074610775172609363 0.0026514795272917771 0 -0.0055075940294883512 0.0036922036273016631 0 -0.0062036682775842436 0.0035538502731369413 0 -0.0057540862357009018 0.0033021316297488132 0 -0.0062036682775842436 0.0035538502731369413 0 -0.0057540862357009018 0.0033021316297488132 0 -0.0068167906811048961 0.0032233123892114984 0 -0.0055075940294883512 0.0036922036273016631 0 -0.0058830306453632464 0.0039295388553408396 0 -0.0062036682775842436 0.0035538502731369413 0 -0.0058830306453632464 0.0039295388553408396 0 -0.0062036682775842436 0.0035538502731369413 0 -0.0062105856859220729 0.0041585457092815767 0 -0.0062036682775842436 0.0035538502731369413 0 -0.0062105856859220729 0.0041585457092815767 0 -0.0068702050945541639 0.0037506319205146323 0 -0.0062036682775842436 0.0035538502731369413 0 -0.0068167906811048961 0.0032233123892114984 0 -0.0068702050945541639 0.0037506319205146323 0 -0.0062105856859220729 0.0041585457092815767 0 -0.0068702050945541639 0.0037506319205146323 0 -0.0066716008836601899 0.0045750572011454948 0 -0.0058830306453632464 0.0039295388553408396 0 -0.0062105856859220729 0.0041585457092815767 0 -0.0056633986142155257 0.0044350046646097468 0 -0.0062105856859220729 0.0041585457092815767 0 -0.0056633986142155257 0.0044350046646097468 0 -0.0061122781215619086 0.0048365199993321804 0 -0.0055075940294883512 0.0036922036273016631 0 -0.0056633986142155257 0.0044350046646097468 0 -0.004794069416623534 0.0042282055457209464 0 -0.0055075940294883512 0.0036922036273016631 0 -0.0058830306453632464 0.0039295388553408396 0 -0.0056633986142155257 0.0044350046646097468 0 -0.005665710709560348 0.0038520231810981725 0 -0.0054601219502784203 0.0039298264491830206 0 -0.0054924248688974124 0.0037737471808076115 0 -0.005665710709560348 0.0038520231810981725 0 -0.0054601219502784203 0.0039298264491830206 0 -0.0050008648627317253 0.0043988067422101934 0 -0.0057532569195218979 0.0039267021805747771 0 -0.0054601219502784203 0.0039298264491830206 0 -0.0058545488733151652 0.0038966032832534968 0 -0.0057532569195218979 0.0039267021805747771 0 -0.0058301825104312742 0.0039704016165664569 0 -0.0054924248688974124 0.0037737471808076115 0 -0.0057532569195218979 0.0039267021805747771 0 -0.0054601219502784203 0.0039298264491830206 0 -0.0054924248688974124 0.0037737471808076115 0 -0.0051688449569839917 0.0048102502340374442 0 -0.0051873039388531999 0.0043133746909063434 0 -0.0055075940294883512 0.0036922036273016631 0 -0.004794069416623534 0.0042282055457209464 0 -0.0054924248688974124 0.0037737471808076115 0 -0.0054924248688974124 0.0037737471808076115 0 -0.0059155540583946779 0.0041716242191590109 0 -0.0054065871307181134 0.004022738041692093 0 -0.0054924248688974124 0.0037737471808076115 0 -0.0054065871307181134 0.004022738041692093 0 -0.0055141047861475244 0.0036553032203283011 0 -0.0058301825104312742 0.0039704016165664569 0 -0.0054924248688974124 0.0037737471808076115 0 -0.0059155540583946779 0.0041716242191590109 0 -0.0059155540583946779 0.0041716242191590109 0 -0.0054065871307181134 0.004022738041692093 0 -0.0058746198732279814 0.00466758018395545 0 -0.0062902171173611068 0.0014892914028081009 0 -0.0063577272954510617 0.00073221964691497189 0 -0.0070191518660428628 -0.0019920689354044237 0 -0.0064156830486633608 -0.0032112098401719511 0 -0.0058438219818149314 -0.00055911170516118817 0 -0.0068995547941095962 -0.00046747583258407798 0 -0.0059795451730479902 -0.0015810852995253651 0 -0.0058438219818149314 -0.00055911170516118817 0 -0.0068794962217659777 0.00086710351694537652 0 -0.0068995547941095962 -0.00046747583258407798 0 -0.0062902171173611068 0.0014892914028081009 0 -0.0068770148799927253 0.0021857757350396564 0 -0.0054065871307181134 0.004022738041692093 0 -0.0055141047861475244 0.0036553032203283011 0 -0.0057540862357009018 0.0033021316297488132 0 -0.0068794962217659777 0.00086710351694537652 0 -0.0074575931471507657 0.00047137609356167037 0 -0.0068995547941095962 -0.00046747583258407798 0 -0.0068794962217659777 0.00086710351694537652 0 -0.0074575931471507657 0.00047137609356167037 0 -0.0075292372120230903 0.0014779489427827364 0 -0.0074575931471507657 0.00047137609356167037 0 -0.0068995547941095962 -0.00046747583258407798 0 -0.0080251231724887614 -0.00058931431677661835 0 -0.0068995547941095962 -0.00046747583258407798 0 -0.0080251231724887614 -0.00058931431677661835 0 -0.0072400463399304839 -0.0031702492638175078 0 -0.006152503921349568 -0.0034960808909448274 0 -0.0057510469023952116 -0.0031850014379040926 0 -0.0054584521842180331 -0.0029562750472624248 0 -0.006152503921349568 -0.0034960808909448274 0 -0.0057510469023952116 -0.0031850014379040926 0 -0.0060342318397251498 -0.0032136261773599547 0 -0.0049545019238835765 -0.0035332315135262523 0 -0.0044239834298747359 -0.0039021215574840153 0 -0.0035509917863237399 -0.0041204062415848269 0 -0.0055440995729148946 -0.0030879579600265722 0 -0.0057510469023952116 -0.0031850014379040926 0 -0.0060342318397251498 -0.0032136261773599547 0 -0.0055440995729148946 -0.0030879579600265722 0 -0.0049545019238835765 -0.0035332315135262523 0 -0.0035509917863237399 -0.0041204062415848269 0 -0.0055003784075876756 -0.0042109072754583018 0 -0.005465450856898423 -0.004524275978068989 0 -0.0049545019238835765 -0.0035332315135262523 0 -0.0045499638359668857 -0.0037789564796197996 0 -0.0044239834298747359 -0.0039021215574840153 0 -0.0055440995729148946 -0.0030879579600265722 0 -0.0057510469023952116 -0.0031850014379040926 0 -0.0054584521842180331 -0.0029562750472624248 0 -0.0055440995729148946 -0.0030879579600265722 0 -0.0049545019238835765 -0.0035332315135262523 0 -0.0071491452150524958 -0.0020819545225223106 0 -0.0055440995729148946 -0.0030879579600265722 0 -0.0054584521842180331 -0.0029562750472624248 0 -0.0071491452150524958 -0.0020819545225223106 0 -0.0054584521842180331 -0.0029562750472624248 0 -0.0051720910480921034 -0.0022368788733370172 0 -0.0071491452150524958 -0.0020819545225223106 0 -0.006152503921349568 -0.0034960808909448274 0 -0.0054584521842180331 -0.0029562750472624248 0 -0.0051720910480921034 -0.0022368788733370172 0 -0.0074575931471507657 0.00047137609356167037 0 -0.0080251231724887614 -0.00058931431677661835 0 -0.0079076094490000189 0.00088803004828303257 0 -0.0080251231724887614 -0.00058931431677661835 0 -0.0084100059778289757 0.0013680467164563356 0 -0.0079076094490000189 0.00088803004828303257 0 -0.0084100059778289757 0.0013680467164563356 0 -0.0079076094490000189 0.00088803004828303257 0 -0.0080665032922759752 0.0015885556702014416 0 -0.0069303036746437008 -0.0016189712377447471 0 -0.0073912999266749473 -0.00049754347132509812 0 -0.0074575931471507657 0.00047137609356167037 0 -0.0079076094490000189 0.00088803004828303257 0 -0.0075292372120230903 0.0014779489427827364 0 0.0043630897667275449 0.0012258557242171503 0 0.0047610537193292736 -9.3920952419959531e-05 0 -0.0045541707951275009 -0.0039062290562846178 0 -0.004560829559695099 -0.003660628036117082 0 -0.0046268102886385639 -0.0035676388453126221 0 -0.0045541707951275009 -0.0039062290562846178 0 -0.0046268102886385639 -0.0035676388453126221 0 -0.0047515414335083774 -0.0040127395156486527 0 -0.0045541707951275009 -0.0039062290562846178 0 -0.004560829559695099 -0.003660628036117082 0 -0.0045499638359668857 -0.0037789564796197996 0 -0.0049545019238835765 -0.0035332315135262523 0 -0.0045499638359668857 -0.0037789564796197996 0 -0.0046402374964552009 -0.0036127371970339313 0 -0.004560829559695099 -0.003660628036117082 0 -0.0045499638359668857 -0.0037789564796197996 0 -0.0046402374964552009 -0.0036127371970339313 0 7.7281814455133243e-06 -7.6782471706176992e-05 0 0.00079352343840467029 0.00076571370011045887 0 -0.004560829559695099 -0.003660628036117082 0 -0.004436809566738904 -0.0035647064436962299 0 -0.0046268102886385639 -0.0035676388453126221 0 -0.0049545019238835765 -0.0035332315135262523 0 -0.0046402374964552009 -0.0036127371970339313 0 -0.004436809566738904 -0.0035647064436962299 0 -0.004560829559695099 -0.003660628036117082 0 -0.0046402374964552009 -0.0036127371970339313 0 -0.004436809566738904 -0.0035647064436962299 0 0.015179809882525663 0.0048810941423641603 0 0.015073301369211402 0.0053721492218882921 0 0.015372019785906793 0.0055754991073376199 0 0.0043630897667275449 0.0012258557242171503 0 0.0035779295550332352 0.0033954467715181557 0 0.015179809882525663 0.0048810941423641603 0 0.015073301369211402 0.0053721492218882921 0 0.014821593944010916 0.0052263334301159061 0 0.015073301369211402 0.0053721492218882921 0 0.015079421316397367 0.005711152020271921 0 0.014920250010841945 0.0055811040063937084 0 0.015073301369211402 0.0053721492218882921 0 0.015372019785906793 0.0055754991073376199 0 0.015079421316397367 0.005711152020271921 0 0.00079352343840467029 0.00076571370011045887 0 0.0035779295550332352 0.0033954467715181557 0 -0.0071491452150524958 -0.0020819545225223106 0 -0.0085847931801909406 0.0020579470827451212 0 -0.0083174427226832912 0.0021178962615809034 0 -0.004436809566738904 -0.0035647064436962299 0 -0.0046268102886385639 -0.0035676388453126221 0 -0.0044272738020846155 -0.0032075906521444311 0 0.013899766887979736 0.0079256471980267973 0 0.013582947905733686 0.0072024165511689574 0 0.014293043326236399 0.0073030156760340078 0 0.0035779295550332352 0.0033954467715181557 0 0.00059804017820454627 0.0070729246780307023 0 -0.0083174427226832912 0.0021178962615809034 0 -0.0082226063646344619 0.0023337522167964152 0 -0.0080569603056353592 0.0029772611561622005 0 -0.0085847931801909406 0.0020579470827451212 0 -0.0083174427226832912 0.0021178962615809034 0 -0.0080569603056353592 0.0029772611561622005 0 0.0035779295550332352 0.0033954467715181557 0 0.0076692051792931204 0.0043240989349887992 0 0.015372019785906793 0.0055754991073376199 0 0.015079421316397367 0.005711152020271921 0 0.015149754885365942 0.0061199360556853525 0 0.015079421316397367 0.005711152020271921 0 0.015149754885365942 0.0061199360556853525 0 0.014859045261448727 0.0058609719460947776 0 0.015079421316397367 0.005711152020271921 0 0.014920250010841945 0.0055811040063937084 0 0.014859045261448727 0.0058609719460947776 0 -0.0068794962217659777 0.00086710351694537652 0 -0.0075292372120230903 0.0014779489427827364 0 -0.0076772502860525567 0.0027426851898799389 0 -0.0057540862357009018 0.0033021316297488132 0 -0.0068167906811048961 0.0032233123892114984 0 -0.0076772502860525567 0.0027426851898799389 0 -0.0077367780837472146 0.0019977800676819093 0 -0.0075292372120230903 0.0014779489427827364 0 -0.0076772502860525567 0.0027426851898799389 0 -0.0077367780837472146 0.0019977800676819093 0 -0.007865524187619646 0.0023327429910948543 0 -0.0080804237512634002 0.0021401047006900835 0 -0.007865524187619646 0.0023327429910948543 0 -0.0079146387403507754 0.0025001816599441247 0 -0.0080804237512634002 0.0021401047006900835 0 -0.007865524187619646 0.0023327429910948543 0 -0.0079146387403507754 0.0025001816599441247 0 -0.0076772502860525567 0.0027426851898799389 0 -0.0077367780837472146 0.0019977800676819093 0 -0.007865524187619646 0.0023327429910948543 0 -0.0076772502860525567 0.0027426851898799389 0 -0.0077367780837472146 0.0019977800676819093 0 -0.0080665032922759752 0.0015885556702014416 0 -0.0080804237512634002 0.0021401047006900835 0 -0.0077367780837472146 0.0019977800676819093 0 -0.0075292372120230903 0.0014779489427827364 0 -0.0080665032922759752 0.0015885556702014416 0 -0.0079076094490000189 0.00088803004828303257 0 -0.0075292372120230903 0.0014779489427827364 0 -0.0080665032922759752 0.0015885556702014416 0 -0.0084100059778289757 0.0013680467164563356 0 -0.008227768450607735 0.0017564225998762785 0 -0.0082712929079621703 0.0019679432706200036 0 -0.0051720910480921034 -0.0022368788733370172 0 -0.0071491452150524958 -0.0020819545225223106 0 -0.0083174427226832912 0.0021178962615809034 0 -0.0084100059778289757 0.0013680467164563356 0 -0.0083174427226832912 0.0021178962615809034 0 -0.0082712929079621703 0.0019679432706200036 0 -0.0073912999266749473 -0.00049754347132509812 0 -0.0079367331065520602 0.00038793041084407657 0 -0.0080665032922759752 0.0015885556702014416 0 -0.008227768450607735 0.0017564225998762785 0 -0.0080804237512634002 0.0021401047006900835 0 -0.0084100059778289757 0.0013680467164563356 0 -0.0080665032922759752 0.0015885556702014416 0 -0.008227768450607735 0.0017564225998762785 0 -0.0083174427226832912 0.0021178962615809034 0 -0.0082712929079621703 0.0019679432706200036 0 -0.0082226063646344619 0.0023337522167964152 0 -0.0082712929079621703 0.0019679432706200036 0 -0.0080804237512634002 0.0021401047006900835 0 -0.0081000253161224983 0.0025193942267672312 0 -0.008227768450607735 0.0017564225998762785 0 -0.0082712929079621703 0.0019679432706200036 0 -0.0080804237512634002 0.0021401047006900835 0 -0.0080804237512634002 0.0021401047006900835 0 -0.0080061506014330545 0.002481247190637202 0 -0.0081000253161224983 0.0025193942267672312 0 -0.0079146387403507754 0.0025001816599441247 0 -0.0080804237512634002 0.0021401047006900835 0 -0.0080061506014330545 0.002481247190637202 0 -0.0018921256890436339 0.0068741700082503923 0 0.00059804017820454627 0.0070729246780307023 0 -0.0080061506014330545 0.002481247190637202 0 -0.0081000253161224983 0.0025193942267672312 0 -0.0079092143174141621 0.0027615914134319561 0 -0.0081000253161224983 0.0025193942267672312 0 -0.0082226063646344619 0.0023337522167964152 0 -0.0080569603056353592 0.0029772611561622005 0 -0.0079092143174141621 0.0027615914134319561 0 -0.0081523467596204512 0.0044270733876942076 0 -0.0094483192068073926 0.0051144120864892173 0 -0.0081000253161224983 0.0025193942267672312 0 -0.0079092143174141621 0.0027615914134319561 0 -0.0080569603056353592 0.0029772611561622005 0 -0.0082712929079621703 0.0019679432706200036 0 -0.0081000253161224983 0.0025193942267672312 0 -0.0082226063646344619 0.0023337522167964152 0 -0.0076020478282779903 0.0040200768834118116 0 -0.0079092143174141621 0.0027615914134319561 0 -0.0081523467596204512 0.0044270733876942076 0 -0.0076020478282779903 0.0040200768834118116 0 -0.0075654646953371672 0.0032432847379297094 0 -0.0073162934677812683 0.0036464139287407764 0 -0.0076020478282779903 0.0040200768834118116 0 -0.0075654646953371672 0.0032432847379297094 0 -0.0079092143174141621 0.0027615914134319561 0 -0.0075654646953371672 0.0032432847379297094 0 -0.0072424665916861189 0.003313432239798774 0 -0.0073162934677812683 0.0036464139287407764 0 -0.0075654646953371672 0.0032432847379297094 0 -0.0076772502860525567 0.0027426851898799389 0 -0.0072424665916861189 0.003313432239798774 0 -0.0079146387403507754 0.0025001816599441247 0 -0.0076772502860525567 0.0027426851898799389 0 -0.0079092143174141621 0.0027615914134319561 0 -0.0075654646953371672 0.0032432847379297094 0 -0.0076772502860525567 0.0027426851898799389 0 -0.0079092143174141621 0.0027615914134319561 0 -0.0079146387403507754 0.0025001816599441247 0 -0.0080061506014330545 0.002481247190637202 0 -0.0079092143174141621 0.0027615914134319561 0 -0.0068167906811048961 0.0032233123892114984 0 -0.0072424665916861189 0.003313432239798774 0 -0.0068702050945541639 0.0037506319205146323 0 -0.0068167906811048961 0.0032233123892114984 0 -0.0076772502860525567 0.0027426851898799389 0 -0.0072424665916861189 0.003313432239798774 0 -0.0072424665916861189 0.003313432239798774 0 -0.0068702050945541639 0.0037506319205146323 0 -0.0073162934677812683 0.0036464139287407764 0 -0.0068702050945541639 0.0037506319205146323 0 -0.00716296162737254 0.0042025952010863558 0 -0.0066716008836601899 0.0045750572011454948 0 -0.0068702050945541639 0.0037506319205146323 0 -0.0073162934677812683 0.0036464139287407764 0 -0.00716296162737254 0.0042025952010863558 0 -0.0076020478282779903 0.0040200768834118116 0 -0.0073162934677812683 0.0036464139287407764 0 -0.00716296162737254 0.0042025952010863558 0 -0.00716296162737254 0.0042025952010863558 0 -0.0073239935202802087 0.0049751628151221286 0 -0.0066716008836601899 0.0045750572011454948 0 -0.0076020478282779903 0.0040200768834118116 0 -0.00716296162737254 0.0042025952010863558 0 -0.0073239935202802087 0.0049751628151221286 0 -0.0073239935202802087 0.0049751628151221286 0 -0.0072654799670293611 0.0062887719310555021 0 -0.0065131066573494781 0.0055431338619886727 0 -0.0073239935202802087 0.0049751628151221286 0 -0.0080135634598610585 0.0055532748149140299 0 -0.0072654799670293611 0.0062887719310555021 0 -0.0073239935202802087 0.0049751628151221286 0 -0.0080135634598610585 0.0055532748149140299 0 -0.0081523467596204512 0.0044270733876942076 0 -0.0076020478282779903 0.0040200768834118116 0 -0.0073239935202802087 0.0049751628151221286 0 -0.0081523467596204512 0.0044270733876942076 0 -0.0080135634598610585 0.0055532748149140299 0 -0.0081523467596204512 0.0044270733876942076 0 -0.0094483192068073926 0.0051144120864892173 0 -0.0080135634598610585 0.0055532748149140299 0 -0.0094483192068073926 0.0051144120864892173 0 -0.0083276222500636241 0.0070844149772161125 0 0.00059804017820454627 0.0070729246780307023 0 -0.0013586496528498486 0.0098402820627007791 0 0.0026037035841731484 0.015065749080798179 0 0.0024610352648018678 0.014966994966711365 0 0.0026426869071918737 0.014977777231604802 0 -0.0080135634598610585 0.0055532748149140299 0 -0.0083276222500636241 0.0070844149772161125 0 -0.0072654799670293611 0.0062887719310555021 0 -0.0083276222500636241 0.0070844149772161125 0 -0.0072654799670293611 0.0062887719310555021 0 -0.0070989972310519728 0.00752324274631248 0 0.015149754885365942 0.0061199360556853525 0 0.014763618198963359 0.0061306548147729177 0 0.014736406039706414 0.0064616329808621122 0 0.0076692051792931204 0.0043240989349887992 0 0.0088730678781951556 0.0046108628304472781 0 0.015149754885365942 0.0061199360556853525 0 0.014859045261448727 0.0058609719460947776 0 0.014763618198963359 0.0061306548147729177 0 0.013582947905733686 0.0072024165511689574 0 0.014293043326236399 0.0073030156760340078 0 0.014340190993537939 0.0066074942196595503 0 0.0026037035841731484 0.015065749080798179 0 0.002791968329500058 0.015024983164680579 0 0.0026426869071918737 0.014977777231604802 0 0.00059804017820454627 0.0070729246780307023 0 0.0050902535494120873 0.008705470580898475 0 0.014293043326236399 0.0073030156760340078 0 0.014340190993537939 0.0066074942196595503 0 0.014776505223878392 0.0066505733378924257 0 0.015149754885365942 0.0061199360556853525 0 0.014776505223878392 0.0066505733378924257 0 0.014736406039706414 0.0064616329808621122 0 0.014340190993537939 0.0066074942196595503 0 0.014776505223878392 0.0066505733378924257 0 0.014704129940071385 0.0066776676947542801 0 0.014776505223878392 0.0066505733378924257 0 0.01475621542438086 0.0066906029656280666 0 0.014704129940071385 0.0066776676947542801 0 0.014776505223878392 0.0066505733378924257 0 0.01475621542438086 0.0066906029656280666 0 0.014754466851966555 0.0066243787684044948 0 0.014776505223878392 0.0066505733378924257 0 0.014754466851966555 0.0066243787684044948 0 0.014736406039706414 0.0064616329808621122 0 0.002791968329500058 0.015024983164680579 0 0.003212136780177754 0.015014074358166318 0 0.0031765578859950534 0.0150122516137226 0 0.014340190993537939 0.0066074942196595503 0 0.014799538529776441 0.0067455346129229347 0 0.014704129940071385 0.0066776676947542801 0 0.002791968329500058 0.015024983164680579 0 0.0031765578859950534 0.0150122516137226 0 0.0028108659475729898 0.014919802188609948 0 0.0050902535494120873 0.008705470580898475 0 0.0074930509585790749 0.0098169751186653782 0 0.0032461971184066323 0.015035482312585694 0 0.0031765578859950534 0.0150122516137226 0 0.0032371932568154597 0.014983622539701808 0 0.0074930509585790749 0.0098169751186653782 0 0.0074676897526187091 0.0098343004485081445 0 0.014799538529776441 0.0067455346129229347 0 0.014757769066267256 0.0067152873408369103 0 0.01475640186445778 0.0067762879625671664 0 0.014757769066267256 0.0067152873408369103 0 0.01475621542438086 0.0066906029656280666 0 0.01475640186445778 0.0067762879625671664 0 0.014799538529776441 0.0067455346129229347 0 0.014757769066267256 0.0067152873408369103 0 0.014704129940071385 0.0066776676947542801 0 0.014757769066267256 0.0067152873408369103 0 0.01475621542438086 0.0066906029656280666 0 0.014704129940071385 0.0066776676947542801 0 0.0031765578859950534 0.0150122516137226 0 0.0028108659475729898 0.014919802188609948 0 0.0030798087796713282 0.014888011513173514 0 0.002791968329500058 0.015024983164680579 0 0.0028108659475729898 0.014919802188609948 0 0.0026426869071918737 0.014977777231604802 0 0.0028108659475729898 0.014919802188609948 0 0.0026426869071918737 0.014977777231604802 0 0.0025442190464328054 0.014808918487643445 0 0.0027646916469001364 0.014727606085250715 0 0.0029478120874804115 0.014608029889080944 0 0.0025502719331432435 0.014548285864494925 0 0.0027646916469001364 0.014727606085250715 0 0.0025442190464328054 0.014808918487643445 0 0.0025502719331432435 0.014548285864494925 0 0.0028108659475729898 0.014919802188609948 0 0.0027646916469001364 0.014727606085250715 0 0.0025442190464328054 0.014808918487643445 0 0.0028108659475729898 0.014919802188609948 0 0.0027646916469001364 0.014727606085250715 0 0.0030798087796713282 0.014888011513173514 0 0.0030798087796713282 0.014888011513173514 0 0.0029478120874804115 0.014608029889080944 0 0.0033661806447087875 0.014856895655487225 0 0.0027646916469001364 0.014727606085250715 0 0.0030798087796713282 0.014888011513173514 0 0.0029478120874804115 0.014608029889080944 0 0.0029478120874804115 0.014608029889080944 0 0.0033661806447087875 0.014856895655487225 0 0.0035289953167670627 0.014603151556384145 0 0.0033661806447087875 0.014856895655487225 0 0.0032371932568154597 0.014983622539701808 0 0.0034494809223763628 0.015072885569229744 0 0.0030798087796713282 0.014888011513173514 0 0.0033661806447087875 0.014856895655487225 0 0.0032371932568154597 0.014983622539701808 0 0.0031765578859950534 0.0150122516137226 0 0.0030798087796713282 0.014888011513173514 0 0.0032371932568154597 0.014983622539701808 0 0.0032461971184066323 0.015035482312585694 0 0.0032371932568154597 0.014983622539701808 0 0.0034494809223763628 0.015072885569229744 0 0.0074930509585790749 0.0098169751186653782 0 0.007356129818001691 0.0099964118631209863 0 -0.0013586496528498486 0.0098402820627007791 0 -0.0027186840495195493 0.011315216463263823 0 -0.0083276222500636241 0.0070844149772161125 0 -0.0070989972310519728 0.00752324274631248 0 -0.0073713160606277825 0.0089642649148546395 0 0.0024610352648018678 0.014966994966711365 0 0.0026426869071918737 0.014977777231604802 0 0.0025442190464328054 0.014808918487643445 0 0.0024610352648018678 0.014966994966711365 0 0.0025442190464328054 0.014808918487643445 0 0.002217805017622798 0.014686340970594416 0 -0.0027186840495195493 0.011315216463263823 0 -3.5664605919611301e-07 0.012503948203335407 0 0.0025442190464328054 0.014808918487643445 0 0.002217805017622798 0.014686340970594416 0 0.0025502719331432435 0.014548285864494925 0 -0.0023429603154542038 0.016468084927559853 0 0.00036435828294923117 0.015241538425300549 0 -0.0017018955419911687 0.014503992089371139 0 -0.0027186840495195493 0.011315216463263823 0 -0.0031831276491321716 0.011600309656370562 0 -0.0066368456147421328 0.0093780668952942164 0 -0.0056135316233206032 0.0097218415574631383 0 -0.0059819442265981113 0.010494414596276916 0 -0.0056135316233206032 0.0097218415574631383 0 -0.0049495803661414074 0.009316618583856677 0 -0.0058002903750186754 0.0088661184778527618 0 -0.0027186840495195493 0.011315216463263823 0 -0.0038594959066290142 0.010851839125528173 0 -0.0066368456147421328 0.0093780668952942164 0 -0.0056135316233206032 0.0097218415574631383 0 -0.0058002903750186754 0.0088661184778527618 0 -0.0049495803661414074 0.009316618583856677 0 -0.0043311385420438187 0.0098317895017384083 0 -0.0048453793293164217 0.010400759259071152 0 -0.0056135316233206032 0.0097218415574631383 0 -0.0049495803661414074 0.009316618583856677 0 -0.0048453793293164217 0.010400759259071152 0 -0.0052885019883836841 0.0075277553218293892 0 -0.005225076682077434 0.0063703099829319652 0 -0.0049495803661414074 0.009316618583856677 0 -0.0051435690518766156 0.0079849386547217079 0 -0.0058002903750186754 0.0088661184778527618 0 -0.0049495803661414074 0.009316618583856677 0 -0.0051435690518766156 0.0079849386547217079 0 -0.004446616327830246 0.0065417849736019076 0 -0.0039984761306085291 0.01059563645662712 0 -0.0038594959066290142 0.010851839125528173 0 -0.0051435690518766156 0.0079849386547217079 0 -0.0062468451347347546 0.0084175942384528621 0 -0.0062806409754564019 0.0068382751586092633 0 -0.0070989972310519728 0.00752324274631248 0 -0.0062468451347347546 0.0084175942384528621 0 -0.0062806409754564019 0.0068382751586092633 0 -0.0070989972310519728 0.00752324274631248 0 -0.0073713160606277825 0.0089642649148546395 0 -0.0062468451347347546 0.0084175942384528621 0 -0.0072654799670293611 0.0062887719310555021 0 -0.0070989972310519728 0.00752324274631248 0 -0.0062806409754564019 0.0068382751586092633 0 -0.0072654799670293611 0.0062887719310555021 0 -0.0062806409754564019 0.0068382751586092633 0 -0.0065131066573494781 0.0055431338619886727 0 -0.0062806409754564019 0.0068382751586092633 0 -0.0055401135057912458 0.005571679084332576 0 -0.0065131066573494781 0.0055431338619886727 0 -0.0051435690518766156 0.0079849386547217079 0 -0.0062806409754564019 0.0068382751586092633 0 -0.0053598919039224407 0.006721257660277956 0 -0.0051435690518766156 0.0079849386547217079 0 -0.0053598919039224407 0.006721257660277956 0 -0.004446616327830246 0.0065417849736019076 0 -0.0053598919039224407 0.006721257660277956 0 -0.0055401135057912458 0.005571679084332576 0 -0.004446616327830246 0.0065417849736019076 0 -0.0062806409754564019 0.0068382751586092633 0 -0.0053598919039224407 0.006721257660277956 0 -0.0055401135057912458 0.005571679084332576 0 -0.0056633986142155257 0.0044350046646097468 0 -0.004794069416623534 0.0042282055457209464 0 -0.0055401135057912458 0.005571679084332576 0 -0.004794069416623534 0.0042282055457209464 0 -0.0055401135057912458 0.005571679084332576 0 -0.004446616327830246 0.0065417849736019076 0 -0.0056633986142155257 0.0044350046646097468 0 -0.0055401135057912458 0.005571679084332576 0 -0.0061122781215619086 0.0048365199993321804 0 -0.0073239935202802087 0.0049751628151221286 0 -0.0066716008836601899 0.0045750572011454948 0 -0.0065131066573494781 0.0055431338619886727 0 -0.0061122781215619086 0.0048365199993321804 0 -0.0066716008836601899 0.0045750572011454948 0 -0.0065131066573494781 0.0055431338619886727 0 -0.0062105856859220729 0.0041585457092815767 0 -0.0061122781215619086 0.0048365199993321804 0 -0.0066716008836601899 0.0045750572011454948 0 -0.0055401135057912458 0.005571679084332576 0 -0.0061122781215619086 0.0048365199993321804 0 -0.0065131066573494781 0.0055431338619886727 0 -0.0054601219502784203 0.0039298264491830206 0 -0.0050008648627317253 0.0043988067422101934 0 -0.0058545488733151652 0.0038966032832534968 0 -0.0050008648627317253 0.0043988067422101934 0 -0.0058545488733151652 0.0038966032832534968 0 -0.005932387689415123 0.0029975410253784071 0 -0.005665710709560348 0.0038520231810981725 0 -0.0050008648627317253 0.0043988067422101934 0 -0.0059152475163067745 0.0064898709815892379 0 -0.0051688449569839917 0.0048102502340374442 0 -0.005225076682077434 0.0063703099829319652 0 -0.0050008648627317253 0.0043988067422101934 0 -0.0059152475163067745 0.0064898709815892379 0 -0.0044915378862071262 0.0067444045513134487 0 -0.0057978564978491973 0.0055589188497391171 0 -0.005979295801476746 0.0061019665591743851 0 -0.0050008648627317253 0.0043988067422101934 0 -0.0044915378862071262 0.0067444045513134487 0 -0.0028046925660406533 0.0072967543156099973 0 -0.0041408462200381363 0.0085724607774235809 0 -0.0031278936623726382 0.0088904026895045875 0 -0.0028046925660406533 0.0072967543156099973 0 -0.0044915378862071262 0.0067444045513134487 0 -0.0041408462200381363 0.0085724607774235809 0 -0.0028046925660406533 0.0072967543156099973 0 -0.0049495803661414074 0.009316618583856677 0 -0.0059152475163067745 0.0064898709815892379 0 -0.0041408462200381363 0.0085724607774235809 0 -0.0059152475163067745 0.0064898709815892379 0 -0.0044915378862071262 0.0067444045513134487 0 -0.0041408462200381363 0.0085724607774235809 0 -0.0041408462200381363 0.0085724607774235809 0 -0.0043311385420438187 0.0098317895017384083 0 -0.0037554152179111277 0.010059447365585098 0 -0.0049495803661414074 0.009316618583856677 0 -0.0041408462200381363 0.0085724607774235809 0 -0.0043311385420438187 0.0098317895017384083 0 -0.0041408462200381363 0.0085724607774235809 0 -0.0031278936623726382 0.0088904026895045875 0 -0.0037554152179111277 0.010059447365585098 0 -0.0031278936623726382 0.0088904026895045875 0 -0.0030400614224258145 0.0098100436757522728 0 -0.0037554152179111277 0.010059447365585098 0 -0.0066521829845442608 0.002413336505095811 0 -0.0070913669948964725 0.0029743468192981143 0 -0.005932387689415123 0.0029975410253784071 0 -0.0031278936623726382 0.0088904026895045875 0 -0.0022751786897116676 0.0090861613480306119 0 -0.0030400614224258145 0.0098100436757522728 0 -0.0074982193670303952 0.007067168627398591 0 -0.005979295801476746 0.0061019665591743851 0 -0.0031278936623726382 0.0088904026895045875 0 -0.0022751786897116676 0.0090861613480306119 0 -0.0028046925660406533 0.0072967543156099973 0 -0.0074982193670303952 0.007067168627398591 0 -0.013356468667106257 0.0065889678466058699 0 -0.0066521829845442608 0.002413336505095811 0 -0.0075088842112032228 0.0023717892028009735 0 -0.0072600936481237392 0.0019408693547747918 0 -0.027913996236414246 0.0066093716024827444 0 -0.029115951403960109 0.0062119864739926768 0 -0.028755782565849552 0.0079576094110010587 0 -0.027913996236414246 0.0066093716024827444 0 -0.029115951403960109 0.0062119864739926768 0 -0.02784781655042819 0.0057709502795325086 0 -0.015842361996397859 0.0055831122976535558 0 -0.017651729382582988 0.0050779605832046576 0 -0.0075088842112032228 0.0023717892028009735 0 -0.0070913669948964725 0.0029743468192981143 0 -0.0077833580811006494 0.0028041792530330168 0 -0.0066521829845442608 0.002413336505095811 0 -0.0075088842112032228 0.0023717892028009735 0 -0.0070913669948964725 0.0029743468192981143 0 -0.0070913669948964725 0.0029743468192981143 0 -0.0075550121474676369 0.0031328690919276278 0 -0.0077833580811006494 0.0028041792530330168 0 -0.0070913669948964725 0.0029743468192981143 0 -0.0075550121474676369 0.0031328690919276278 0 -0.0072786709557777851 0.0034993742493499703 0 -0.0075550121474676369 0.0031328690919276278 0 -0.0072786709557777851 0.0034993742493499703 0 -0.0080948915140559852 0.0032451183477948012 0 -0.011718692970860379 0.0056589181765816302 0 -0.018777068413920683 0.0036711605791227737 0 -0.0070913669948964725 0.0029743468192981143 0 -0.0072786709557777851 0.0034993742493499703 0 -0.0065665598597694531 0.0034697412044839902 0 -0.0072786709557777851 0.0034993742493499703 0 -0.0065665598597694531 0.0034697412044839902 0 -0.0065099993804963174 0.0038117668193933282 0 -0.0065665598597694531 0.0034697412044839902 0 -0.0058545488733151652 0.0038966032832534968 0 -0.0065099993804963174 0.0038117668193933282 0 -0.0070913669948964725 0.0029743468192981143 0 -0.0065665598597694531 0.0034697412044839902 0 -0.005932387689415123 0.0029975410253784071 0 -0.0065665598597694531 0.0034697412044839902 0 -0.0058545488733151652 0.0038966032832534968 0 -0.005932387689415123 0.0029975410253784071 0 -0.026792316350883964 0.00082718853982400339 0 -0.027045513103802939 0.00086271911473231877 0 -0.026949777072788839 0.00061873350803742528 0 -0.030890107353687045 0.0022704091773733397 0 -0.029034537906657765 0.0027178442289853004 0 -0.035412056941853051 0.0065454712032936291 0 -0.033232520915527704 0.0076285436121393711 0 -0.034327897683193012 0.0063023357279174772 0 -0.033232520915527704 0.0076285436121393711 0 -0.03345572571628317 0.0059583983438869313 0 -0.032508153659394322 0.0062849022292194856 0 -0.033232520915527704 0.0076285436121393711 0 -0.034327897683193012 0.0063023357279174772 0 -0.03345572571628317 0.0059583983438869313 0 -0.034327897683193012 0.0063023357279174772 0 -0.034313773847017205 0.0054262576740042139 0 -0.03345572571628317 0.0059583983438869313 0 -0.034313773847017205 0.0054262576740042139 0 -0.03345572571628317 0.0059583983438869313 0 -0.033804121758382294 0.0049818564461592083 0 -0.03345572571628317 0.0059583983438869313 0 -0.033804121758382294 0.0049818564461592083 0 -0.032927258463121382 0.0052580762829910251 0 -0.03345572571628317 0.0059583983438869313 0 -0.032508153659394322 0.0062849022292194856 0 -0.032927258463121382 0.0052580762829910251 0 -0.032508153659394322 0.0062849022292194856 0 -0.031643430724682488 0.0057023091242299614 0 -0.031505920702120702 0.0071878227475814568 0 -0.032508153659394322 0.0062849022292194856 0 -0.031643430724682488 0.0057023091242299614 0 -0.032927258463121382 0.0052580762829910251 0 -0.033232520915527704 0.0076285436121393711 0 -0.032508153659394322 0.0062849022292194856 0 -0.031505920702120702 0.0071878227475814568 0 -0.033232520915527704 0.0076285436121393711 0 -0.031505920702120702 0.0071878227475814568 0 -0.03134651966252805 0.0085752627239814149 0 -0.029034537906657765 0.0027178442289853004 0 -0.026194118282581887 0.0027484576084467914 0 -0.031505920702120702 0.0071878227475814568 0 -0.030183865610030381 0.0079465874981438454 0 -0.03134651966252805 0.0085752627239814149 0 -0.031505920702120702 0.0071878227475814568 0 -0.030183865610030381 0.0079465874981438454 0 -0.030324952321071384 0.0066555645677182883 0 -0.031643430724682488 0.0057023091242299614 0 -0.031505920702120702 0.0071878227475814568 0 -0.030324952321071384 0.0066555645677182883 0 -0.031643430724682488 0.0057023091242299614 0 -0.030324952321071384 0.0066555645677182883 0 -0.030766138320553714 0.0050043043916806577 0 -0.030324952321071384 0.0066555645677182883 0 -0.029115951403960109 0.0062119864739926768 0 -0.030766138320553714 0.0050043043916806577 0 -0.030324952321071384 0.0066555645677182883 0 -0.029115951403960109 0.0062119864739926768 0 -0.028755782565849552 0.0079576094110010587 0 -0.030183865610030381 0.0079465874981438454 0 -0.030324952321071384 0.0066555645677182883 0 -0.028755782565849552 0.0079576094110010587 0 -0.0075550121474676369 0.0031328690919276278 0 -0.0077833580811006494 0.0028041792530330168 0 -0.0080948915140559852 0.0032451183477948012 0 -0.017651729382582988 0.0050779605832046576 0 -0.018777068413920683 0.0036711605791227737 0 -0.030183865610030381 0.0079465874981438454 0 -0.028755782565849552 0.0079576094110010587 0 -0.029565211756868725 0.0094251443483621463 0 -0.0080793232857882761 0.003066395469451492 0 -0.0082182243441771084 0.0035758925923206186 0 -0.0078980795531256066 0.0034642158756864319 0 -0.0072786709557777851 0.0034993742493499703 0 -0.0080793232857882761 0.003066395469451492 0 -0.0078980795531256066 0.0034642158756864319 0 -0.018777068413920683 0.0036711605791227737 0 -0.018357305217350697 0.0016541423830507801 0 -0.027812565401652573 0.00048851505230616582 0 -0.027368894387376334 0.00024058613553922309 0 -0.027623921703657888 -0.00014878100507774127 0 -0.027812565401652573 0.00048851505230616582 0 -0.027395495155429914 0.00069042742163361471 0 -0.027368894387376334 0.00024058613553922309 0 -0.018777068413920683 0.0036711605791227737 0 -0.026194118282581887 0.0027484576084467914 0 -0.030183865610030381 0.0079465874981438454 0 -0.029565211756868725 0.0094251443483621463 0 -0.03134651966252805 0.0085752627239814149 0 -0.027395495155429914 0.00069042742163361471 0 -0.027116816406541282 0.00046724138385329547 0 -0.027368894387376334 0.00024058613553922309 0 -0.027045513103802939 0.00086271911473231877 0 -0.027395495155429914 0.00069042742163361471 0 -0.027116816406541282 0.00046724138385329547 0 -0.027116816406541282 0.00046724138385329547 0 -0.027368894387376334 0.00024058613553922309 0 -0.027037433404991984 6.2646261970293504e-05 0 -0.027037433404991984 6.2646261970293504e-05 0 -0.026825063518840866 0.00031994259744817056 0 -0.026926813344386073 -9.9011359208720268e-05 0 -0.031185175928209706 0.00037629791770478634 0 -0.031941163960637162 -0.0011817017131107608 0 -0.031921313536684759 -0.00029123775736174804 0 -0.031947311503096001 0.00012921983676181961 0 -0.032240651172143996 -0.0012056067469621437 0 -0.027116816406541282 0.00046724138385329547 0 -0.027037433404991984 6.2646261970293504e-05 0 -0.026825063518840866 0.00031994259744817056 0 -0.031760786969364067 0.00067810663992647047 0 -0.031921313536684759 -0.00029123775736174804 0 -0.031947311503096001 0.00012921983676181961 0 -0.027116816406541282 0.00046724138385329547 0 -0.026825063518840866 0.00031994259744817056 0 -0.026949777072788839 0.00061873350803742528 0 -0.027045513103802939 0.00086271911473231877 0 -0.027116816406541282 0.00046724138385329547 0 -0.026949777072788839 0.00061873350803742528 0 -0.026792316350883964 0.00082718853982400339 0 -0.026825063518840866 0.00031994259744817056 0 -0.026949777072788839 0.00061873350803742528 0 -0.038387886102018202 -0.0072491314150336271 0 -0.0384287105727091 -0.0070921331013209911 0 -0.03837081159200148 -0.0069675316278524514 0 -0.026425753245004159 -0.0011024212016176123 0 -0.026597452911956917 -0.0011161372186413801 0 -0.026436937532404167 -0.0018644341902799401 0 -0.026597452911956917 -0.0011161372186413801 0 -0.026519615045639645 -0.00047421350551912701 0 -0.027146381286435057 -0.00041748826573962793 0 -0.031392786984865972 -0.0012116378612531877 0 -0.031872392277157449 -0.0016109545201972034 0 -0.026597452911956917 -0.0011161372186413801 0 -0.026420763160746503 -0.00075879643478794236 0 -0.026519837477928042 -0.00063842813156181463 0 -0.026425753245004159 -0.0011024212016176123 0 -0.026597452911956917 -0.0011161372186413801 0 -0.026420763160746503 -0.00075879643478794236 0 -0.030732626169314336 -0.0026817325566929036 0 -0.032459934591822302 -0.0021513645813741183 0 -0.032966336527983281 -0.00085292822559981886 0 -0.033071921603765903 -0.0015147688020774332 0 -0.033127592176322156 -0.0013147030694612755 0 -0.033312611188397956 -0.00065489333523677869 0 -0.032459934591822302 -0.0021513645813741183 0 -0.033071921603765903 -0.0015147688020774332 0 -0.033127592176322156 -0.0013147030694612755 0 -0.033148522270610312 -0.001407340172156281 0 -0.032459934591822302 -0.0021513645813741183 0 -0.031872392277157449 -0.0016109545201972034 0 -0.031941163960637162 -0.0011817017131107608 0 -0.031872392277157449 -0.0016109545201972034 0 -0.033312611188397956 -0.00065489333523677869 0 -0.031941163960637162 -0.0011817017131107608 0 -0.027037433404991984 6.2646261970293504e-05 0 -0.026926813344386073 -9.9011359208720268e-05 0 -0.02694720582371482 -0.00014457013251143461 0 -0.031170163425235469 -0.0017703632494816615 0 -0.031872392277157449 -0.0016109545201972034 0 -0.027146381286435057 -0.00041748826573962793 0 -0.027330692234997348 -0.0011466128886441934 0 -0.027623921703657888 -0.00014878100507774127 0 -0.027368894387376334 0.00024058613553922309 0 -0.027037433404991984 6.2646261970293504e-05 0 -0.027146381286435057 -0.00041748826573962793 0 -0.027368894387376334 0.00024058613553922309 0 -0.027146381286435057 -0.00041748826573962793 0 -0.027623921703657888 -0.00014878100507774127 0 -0.027037433404991984 6.2646261970293504e-05 0 -0.026519615045639645 -0.00047421350551912701 0 -0.027146381286435057 -0.00041748826573962793 0 -0.026597452911956917 -0.0011161372186413801 0 -0.027146381286435057 -0.00041748826573962793 0 -0.027330692234997348 -0.0011466128886441934 0 -0.026597452911956917 -0.0011161372186413801 0 -0.027330692234997348 -0.0011466128886441934 0 -0.026436937532404167 -0.0018644341902799401 0 -0.018640375439203289 0.00040751427677009191 0 -0.018357305217350697 0.0016541423830507801 0 -0.0080496820363941627 0.0037090458773309408 0 -0.0081171616696627327 0.0037177699593881415 0 -0.0082094395456377076 0.0037880510662003813 0 -0.0080496820363941627 0.0037090458773309408 0 -0.0081171616696627327 0.0037177699593881415 0 -0.0082182243441771084 0.0035758925923206186 0 -0.0081171616696627327 0.0037177699593881415 0 -0.0082182243441771084 0.0035758925923206186 0 -0.0078801652994570544 0.0036881470034545081 0 -0.0082182243441771084 0.0035758925923206186 0 -0.0078980795531256066 0.0034642158756864319 0 -0.0078801652994570544 0.0036881470034545081 0 -0.0078801652994570544 0.0036881470034545081 0 -0.0082094395456377076 0.0037880510662003813 0 -0.0072503015162352922 0.0039120551110059009 0 -0.0081171616696627327 0.0037177699593881415 0 -0.0078801652994570544 0.0036881470034545081 0 -0.0082094395456377076 0.0037880510662003813 0 -0.0076808665638895615 0.0030760724042900103 0 -0.007589915236887082 0.002833648180744954 0 -0.0082941129653611965 0.0028977517078184172 0 -0.0090502589505641502 0.0030581210517403997 0 -0.0088348349823274917 0.0023820282122986821 0 -0.0082094395456377076 0.0037880510662003813 0 -0.0082941129653611965 0.0028977517078184172 0 -0.0090502589505641502 0.0030581210517403997 0 -0.0082941129653611965 0.0028977517078184172 0 -0.0080219384349824556 0.0033557964234300843 0 -0.0079546737500939511 0.0029183383778769107 0 -0.0082941129653611965 0.0028977517078184172 0 -0.0079546737500939511 0.0029183383778769107 0 -0.0080482579205347037 0.0025650426083522592 0 -0.0080496820363941627 0.0037090458773309408 0 -0.0082094395456377076 0.0037880510662003813 0 -0.0080219384349824556 0.0033557964234300843 0 -0.0082094395456377076 0.0037880510662003813 0 -0.0082941129653611965 0.0028977517078184172 0 -0.0080219384349824556 0.0033557964234300843 0 -0.027330692234997348 -0.0011466128886441934 0 -0.026680508301128274 -0.0026306275491514764 0 -0.026436937532404167 -0.0018644341902799401 0 -0.018640375439203289 0.00040751427677009191 0 -0.019388108544308714 -0.0014441937361530173 0 -0.0080496820363941627 0.0037090458773309408 0 -0.0080219384349824556 0.0033557964234300843 0 -0.0076557484722980882 0.003136272797828694 0 -0.0079546737500939511 0.0029183383778769107 0 -0.0076557484722980882 0.003136272797828694 0 -0.0077886961611809144 0.002646576005580421 0 -0.0080219384349824556 0.0033557964234300843 0 -0.0079546737500939511 0.0029183383778769107 0 -0.0076557484722980882 0.003136272797828694 0 -0.025286623458452166 -0.0043902014048711104 0 -0.025850021887263524 -0.0035139989519747455 0 -0.025787028985040986 -0.0025201422354762179 0 -0.019388108544308714 -0.0014441937361530173 0 -0.021004095288546305 -0.0049094954160772662 0 -0.026680508301128274 -0.0026306275491514764 0 -0.025850021887263524 -0.0035139989519747455 0 -0.025636611489914796 -0.00452776565562126 0 -0.0076557484722980882 0.003136272797828694 0 -0.0074144615154739706 0.0024111390154157504 0 -0.0077886961611809144 0.002646576005580421 0 -0.026680508301128274 -0.0026306275491514764 0 -0.025850021887263524 -0.0035139989519747455 0 -0.025787028985040986 -0.0025201422354762179 0 -0.038387886102018202 -0.0072491314150336271 0 -0.0384287105727091 -0.0070921331013209911 0 -0.038454116714729356 -0.0073340745425879861 0 -0.026337646385059404 -0.00095794141159901141 0 -0.025787028985040986 -0.0025201422354762179 0 -0.026436937532404167 -0.0018644341902799401 0 -0.030732626169314336 -0.0026817325566929036 0 -0.028014342696254475 -0.0042448800003896999 0 -0.026680508301128274 -0.0026306275491514764 0 -0.025787028985040986 -0.0025201422354762179 0 -0.026436937532404167 -0.0018644341902799401 0 -0.030732626169314336 -0.0026817325566929036 0 -0.030374573264359692 -0.0022891076647533286 0 -0.0065099993804963174 0.0038117668193933282 0 -0.0072503015162352922 0.0039120551110059009 0 -0.0063298635967784702 0.0040856264811799554 0 -0.0057532569195218979 0.0039267021805747771 0 -0.0058301825104312742 0.0039704016165664569 0 -0.0063298635967784702 0.0040856264811799554 0 -0.0057532569195218979 0.0039267021805747771 0 -0.0065099993804963174 0.0038117668193933282 0 -0.0063298635967784702 0.0040856264811799554 0 -0.0057532569195218979 0.0039267021805747771 0 -0.0058545488733151652 0.0038966032832534968 0 -0.0065099993804963174 0.0038117668193933282 0 -0.0072786709557777851 0.0034993742493499703 0 -0.0065099993804963174 0.0038117668193933282 0 -0.0072503015162352922 0.0039120551110059009 0 -0.0072786709557777851 0.0034993742493499703 0 -0.0078801652994570544 0.0036881470034545081 0 -0.0072503015162352922 0.0039120551110059009 0 -0.0072786709557777851 0.0034993742493499703 0 -0.0078980795531256066 0.0034642158756864319 0 -0.0078801652994570544 0.0036881470034545081 0 -0.0072503015162352922 0.0039120551110059009 0 -0.0068634582154620625 0.0043694475245068341 0 -0.0063298635967784702 0.0040856264811799554 0 -0.0082094395456377076 0.0037880510662003813 0 -0.0072503015162352922 0.0039120551110059009 0 -0.0074788161429748265 0.0044780694548378049 0 -0.0072503015162352922 0.0039120551110059009 0 -0.0074788161429748265 0.0044780694548378049 0 -0.0068634582154620625 0.0043694475245068341 0 -0.007589915236887082 0.002833648180744954 0 -0.0073254027718995104 0.0019292990456802181 0 -0.0074788161429748265 0.0044780694548378049 0 -0.0068634582154620625 0.0043694475245068341 0 -0.0069148131057818907 0.004814970866353384 0 -0.0068634582154620625 0.0043694475245068341 0 -0.0063980672531897889 0.0045260891863831412 0 -0.0069148131057818907 0.004814970866353384 0 -0.0068634582154620625 0.0043694475245068341 0 -0.0063980672531897889 0.0045260891863831412 0 -0.0063298635967784702 0.0040856264811799554 0 -0.0059155540583946779 0.0041716242191590109 0 -0.0063980672531897889 0.0045260891863831412 0 -0.0063298635967784702 0.0040856264811799554 0 -0.0058301825104312742 0.0039704016165664569 0 -0.0059155540583946779 0.0041716242191590109 0 -0.0063298635967784702 0.0040856264811799554 0 -0.0059155540583946779 0.0041716242191590109 0 -0.0063980672531897889 0.0045260891863831412 0 -0.0058746198732279814 0.00466758018395545 0 -0.0063980672531897889 0.0045260891863831412 0 -0.0064487904672966227 0.0051185045209346525 0 -0.0058746198732279814 0.00466758018395545 0 -0.0072867005105907859 -0.00054493427359307383 0 -0.0063577272954510617 0.00073221964691497189 0 -0.0045828316650348396 -0.0022788635705562393 0 -0.0045177261539039674 -0.0022177545931413474 0 -0.0051119185844001359 -0.0014904599110504952 0 -0.0049432360258641435 -0.0023621318735507517 0 -0.0045828316650348396 -0.0022788635705562393 0 -0.0051119185844001359 -0.0014904599110504952 0 -0.0049432360258641435 -0.0023621318735507517 0 -0.0045828316650348396 -0.0022788635705562393 0 -0.0046690789649635224 -0.0024565619073865031 0 -0.0045299984456259185 -0.0024081257723721902 0 -0.0045453118905312588 -0.0022523724277442475 0 -0.0043935514271644114 -0.0025534626326811811 0 -0.0045830339944998412 -0.0024265688865655727 0 -0.0045828316650348396 -0.0022788635705562393 0 -0.0046690789649635224 -0.0024565619073865031 0 -0.0045299984456259185 -0.0024081257723721902 0 -0.0045830339944998412 -0.0024265688865655727 0 -0.0045828316650348396 -0.0022788635705562393 0 -0.0045299984456259185 -0.0024081257723721902 0 -0.0045828316650348396 -0.0022788635705562393 0 -0.0045453118905312588 -0.0022523724277442475 0 -0.0072707556698390465 -0.00054481570147507901 0 -0.0072867005105907859 -0.00054493427359307383 0 -0.0063980672531897889 0.0045260891863831412 0 -0.0064487904672966227 0.0051185045209346525 0 -0.0069148131057818907 0.004814970866353384 0 -0.0072867005105907859 -0.00054493427359307383 0 -0.0073254027718995104 0.0019292990456802181 0 -0.0096128252272232005 0.0024368850292673756 0 -0.0092131777358473877 0.0019423460185273569 0 -0.0088348349823274917 0.0023820282122986821 0 -0.0090502589505641502 0.0030581210517403997 0 -0.0096128252272232005 0.0024368850292673756 0 -0.0088348349823274917 0.0023820282122986821 0 -0.0092131777358473877 0.0019423460185273569 0 -0.0094791238788241045 0.0013349253941728398 0 -0.0086776376340461578 0.0017177092747290657 0 -0.0092131777358473877 0.0019423460185273569 0 -0.0088348349823274917 0.0023820282122986821 0 -0.0086776376340461578 0.0017177092747290657 0 -0.0092131777358473877 0.0019423460185273569 0 -0.0095965338707615522 0.0018932664707428887 0 -0.0094791238788241045 0.0013349253941728398 0 -0.010145930249829878 0.0018809998789779492 0 -0.0096128252272232005 0.0024368850292673756 0 -0.0095965338707615522 0.0018932664707428887 0 -0.010145930249829878 0.0018809998789779492 0 -0.0095965338707615522 0.0018932664707428887 0 -0.0094791238788241045 0.0013349253941728398 0 -0.0096128252272232005 0.0024368850292673756 0 -0.0092131777358473877 0.0019423460185273569 0 -0.0095965338707615522 0.0018932664707428887 0 -0.0077539959313623627 -0.0067335061676036898 0 -0.0070185418561700165 -0.0082645421059056381 0 -0.0040681051847824548 -0.0027714392431002054 0 -0.0043935514271644114 -0.0025534626326811811 0 -0.0044034160106533717 -0.0028944432172256377 0 -0.0090741906063590422 -0.015343620350226858 0 -0.0093513448326471658 -0.015215796301285719 0 -0.009655616206730994 -0.01536169157284218 0 -0.0090741906063590422 -0.015343620350226858 0 -0.0097185097503638494 -0.01561066177130606 0 -0.009655616206730994 -0.01536169157284218 0 -0.0077539959313623627 -0.0067335061676036898 0 -0.0095015544336516933 -0.0064102361242153981 0 -0.0077539959313623627 -0.0067335061676036898 0 -0.0071646376545217369 -0.0081655504552888159 0 -0.0093513448326471658 -0.015215796301285719 0 -0.0090823260891464645 -0.015113825946441882 0 -0.0093839142069959292 -0.015054401556902212 0 -0.0091188607379343103 -0.015298135597221709 0 -0.0093513448326471658 -0.015215796301285719 0 -0.0090823260891464645 -0.015113825946441882 0 -0.0091188607379343103 -0.015298135597221709 0 -0.0090823260891464645 -0.015113825946441882 0 -0.0089068696867262796 -0.015200211577652683 0 -0.0090823260891464645 -0.015113825946441882 0 -0.0089068696867262796 -0.015200211577652683 0 -0.008857703521666661 -0.015005735719080189 0 -0.0087122801872809418 -0.015099636113248117 0 -0.0089068696867262796 -0.015200211577652683 0 -0.008857703521666661 -0.015005735719080189 0 -0.0063886519230221027 -0.0096198600386176152 0 -0.0070185418561700165 -0.0082645421059056381 0 -0.0063886519230221027 -0.0096198600386176152 0 -0.0062646669117566748 -0.010511966420831992 0 -0.0086772493732449694 -0.015068749750648104 0 -0.0086741106557104621 -0.014885575027519899 0 -0.0082933945707395016 -0.0148022568190674 0 -0.0063886519230221027 -0.0096198600386176152 0 -0.0064958508831947847 -0.011064909912970912 0 -0.0049432360258641435 -0.0023621318735507517 0 -0.0047037618157344686 -0.0026765813137524753 0 -0.0053343137284203321 -0.0024222938694234918 0 -0.0047929873759300226 -0.0030937562427149094 0 -0.0047037618157344686 -0.0026765813137524753 0 -0.0053343137284203321 -0.0024222938694234918 0 -0.0063886519230221027 -0.0096198600386176152 0 -0.0056655434657294328 -0.0058893130198079463 0 -0.0049432360258641435 -0.0023621318735507517 0 -0.0047037618157344686 -0.0026765813137524753 0 -0.0046690789649635224 -0.0024565619073865031 0 -0.0047037618157344686 -0.0026765813137524753 0 -0.0046690789649635224 -0.0024565619073865031 0 -0.0045491494324979391 -0.0025586935847616002 0 -0.0072867005105907859 -0.00054493427359307383 0 -0.0077539959313623627 -0.0067335061676036898 0 -0.0045453118905312588 -0.0022523724277442475 0 -0.0040681051847824548 -0.0027714392431002054 0 -0.0043935514271644114 -0.0025534626326811811 0 -0.0045830339944998412 -0.0024265688865655727 0 -0.0046690789649635224 -0.0024565619073865031 0 -0.0045491494324979391 -0.0025586935847616002 0 -0.0045299984456259185 -0.0024081257723721902 0 -0.0045830339944998412 -0.0024265688865655727 0 -0.0045491494324979391 -0.0025586935847616002 0 -0.0045299984456259185 -0.0024081257723721902 0 -0.0045491494324979391 -0.0025586935847616002 0 -0.0043935514271644114 -0.0025534626326811811 0 -0.0045491494324979391 -0.0025586935847616002 0 -0.0043935514271644114 -0.0025534626326811811 0 -0.0044034160106533717 -0.0028944432172256377 0 -0.0047929873759300226 -0.0030937562427149094 0 -0.0047037618157344686 -0.0026765813137524753 0 -0.0044034160106533717 -0.0028944432172256377 0 -0.0047037618157344686 -0.0026765813137524753 0 -0.0045491494324979391 -0.0025586935847616002 0 -0.0044034160106533717 -0.0028944432172256377 0 -0.011009509274127978 -0.015486697920136284 0 -0.010833277279367446 -0.015516669590638778 0 -0.010714855214030518 -0.015718713826277066 0 -0.020177058969049491 -0.0091265917440952124 0 -0.016146577615129078 -0.0059642804202750819 0 -0.010704298257114379 -0.015530397558831307 0 -0.010714855214030518 -0.015718713826277066 0 -0.010502751980985403 -0.015552206879099594 0 -0.010833277279367446 -0.015516669590638778 0 -0.010704298257114379 -0.015530397558831307 0 -0.010800997650881732 -0.015432294931745904 0 -0.010833277279367446 -0.015516669590638778 0 -0.010704298257114379 -0.015530397558831307 0 -0.010714855214030518 -0.015718713826277066 0 -0.020206470883715303 -0.0068048739493272942 0 -0.020681079434467776 -0.0059160907535971722 0 -0.021413292201124728 -0.006203384288769832 0 -0.0074144615154739706 0.0024111390154157504 0 -0.0076325883142653638 0.0023339387546476294 0 -0.0077886961611809144 0.002646576005580421 0 -0.021004095288546305 -0.0049094954160772662 0 -0.016146577615129078 -0.0059642804202750819 0 -0.025286623458452166 -0.0043902014048711104 0 -0.025850021887263524 -0.0035139989519747455 0 -0.025636611489914796 -0.00452776565562126 0 -0.0077886961611809144 0.002646576005580421 0 -0.0079590026219592009 0.0021449238735459695 0 -0.0080482579205347037 0.0025650426083522592 0 -0.0076325883142653638 0.0023339387546476294 0 -0.0077886961611809144 0.002646576005580421 0 -0.0079590026219592009 0.0021449238735459695 0 -0.0079546737500939511 0.0029183383778769107 0 -0.0077886961611809144 0.002646576005580421 0 -0.0080482579205347037 0.0025650426083522592 0 -0.016146577615129078 -0.0059642804202750819 0 -0.011787153832975983 -0.0058097024328986648 0 -0.010389389886664546 -0.015700950564558645 0 -0.010502751980985403 -0.015552206879099594 0 -0.010217668458431165 -0.015448914629630954 0 -0.010714855214030518 -0.015718713826277066 0 -0.010389389886664546 -0.015700950564558645 0 -0.010502751980985403 -0.015552206879099594 0 -0.011787153832975983 -0.0058097024328986648 0 -0.0095015544336516933 -0.0064102361242153981 0 -0.0079590026219592009 0.0021449238735459695 0 -0.008351397122054488 0.0023349556927645026 0 -0.0086776376340461578 0.0017177092747290657 0 -0.010389389886664546 -0.015700950564558645 0 -0.0097185097503638494 -0.01561066177130606 0 -0.010217668458431165 -0.015448914629630954 0 -0.0079590026219592009 0.0021449238735459695 0 -0.008351397122054488 0.0023349556927645026 0 -0.0080482579205347037 0.0025650426083522592 0 -0.0082941129653611965 0.0028977517078184172 0 -0.008351397122054488 0.0023349556927645026 0 -0.0080482579205347037 0.0025650426083522592 0 -0.0082941129653611965 0.0028977517078184172 0 -0.008351397122054488 0.0023349556927645026 0 -0.0088348349823274917 0.0023820282122986821 0 -0.008351397122054488 0.0023349556927645026 0 -0.0088348349823274917 0.0023820282122986821 0 -0.0086776376340461578 0.0017177092747290657 0 -0.009655616206730994 -0.01536169157284218 0 -0.0098364691176637976 -0.0152281472541445 0 -0.010217668458431165 -0.015448914629630954 0 -0.0097185097503638494 -0.01561066177130606 0 -0.009655616206730994 -0.01536169157284218 0 -0.010217668458431165 -0.015448914629630954 0 -0.0093513448326471658 -0.015215796301285719 0 -0.009655616206730994 -0.01536169157284218 0 -0.0098364691176637976 -0.0152281472541445 0 -0.0093513448326471658 -0.015215796301285719 0 -0.0098364691176637976 -0.0152281472541445 0 -0.0093839142069959292 -0.015054401556902212 0 -0.0098364691176637976 -0.0152281472541445 0 -0.010272633520294451 -0.015269700406676745 0 -0.010217668458431165 -0.015448914629630954 0 -0.0098364691176637976 -0.0152281472541445 0 -0.010023259600756368 -0.015114994393063103 0 -0.0097168678968346349 -0.015038360033414197 0 -0.0098364691176637976 -0.0152281472541445 0 -0.010272633520294451 -0.015269700406676745 0 -0.010023259600756368 -0.015114994393063103 0 -0.010272633520294451 -0.015269700406676745 0 -0.010431999697399066 -0.015100473234348041 0 -0.010023259600756368 -0.015114994393063103 0 -0.010502751980985403 -0.015552206879099594 0 -0.010217668458431165 -0.015448914629630954 0 -0.010447395409672601 -0.015378149711816801 0 -0.010502751980985403 -0.015552206879099594 0 -0.010447395409672601 -0.015378149711816801 0 -0.010637926727397998 -0.015424422827037869 0 -0.010704298257114379 -0.015530397558831307 0 -0.010502751980985403 -0.015552206879099594 0 -0.010637926727397998 -0.015424422827037869 0 -0.010447395409672601 -0.015378149711816801 0 -0.010560677041891287 -0.015274625688409748 0 -0.010637926727397998 -0.015424422827037869 0 -0.010272633520294451 -0.015269700406676745 0 -0.010217668458431165 -0.015448914629630954 0 -0.010447395409672601 -0.015378149711816801 0 -0.010272633520294451 -0.015269700406676745 0 -0.010447395409672601 -0.015378149711816801 0 -0.010560677041891287 -0.015274625688409748 0 -0.010272633520294451 -0.015269700406676745 0 -0.010560677041891287 -0.015274625688409748 0 -0.010431999697399066 -0.015100473234348041 0 -0.010560677041891287 -0.015274625688409748 0 -0.010706175451257943 -0.015269466279309474 0 -0.010599737790067896 -0.015170050399661343 0 -0.010560677041891287 -0.015274625688409748 0 -0.010706175451257943 -0.015269466279309474 0 -0.010751469292836107 -0.015347457394296335 0 -0.010834763333931055 -0.015301508412569085 0 -0.010706175451257943 -0.015269466279309474 0 -0.010761136640879321 -0.015244032066162184 0 -0.010834763333931055 -0.015301508412569085 0 -0.010706175451257943 -0.015269466279309474 0 -0.010751469292836107 -0.015347457394296335 0 -0.010888041136561879 -0.015344144700693769 0 -0.010834763333931055 -0.015301508412569085 0 -0.010751469292836107 -0.015347457394296335 0 -0.010888041136561879 -0.015344144700693769 0 -0.010751469292836107 -0.015347457394296335 0 -0.010800997650881732 -0.015432294931745904 0 -0.010560677041891287 -0.015274625688409748 0 -0.010751469292836107 -0.015347457394296335 0 -0.010637926727397998 -0.015424422827037869 0 -0.010751469292836107 -0.015347457394296335 0 -0.010637926727397998 -0.015424422827037869 0 -0.010800997650881732 -0.015432294931745904 0 -0.010704298257114379 -0.015530397558831307 0 -0.010637926727397998 -0.015424422827037869 0 -0.010800997650881732 -0.015432294931745904 0 -0.01091628955209995 -0.015414615123848778 0 -0.010833277279367446 -0.015516669590638778 0 -0.010800997650881732 -0.015432294931745904 0 -0.010677726055779919 -0.015221413719667013 0 -0.010599737790067896 -0.015170050399661343 0 -0.010593969339267621 -0.015196256468874372 0 -0.010757163258284658 -0.015287687849025143 0 -0.010677726055779919 -0.015221413719667013 0 -0.010571079361967915 -0.015266584626372988 0 -0.010677726055779919 -0.015221413719667013 0 -0.010593969339267621 -0.015196256468874372 0 -0.010571079361967915 -0.015266584626372988 0 -0.010677726055779919 -0.015221413719667013 0 -0.010761136640879321 -0.015244032066162184 0 -0.010599737790067896 -0.015170050399661343 0 -0.010706175451257943 -0.015269466279309474 0 -0.010761136640879321 -0.015244032066162184 0 -0.010599737790067896 -0.015170050399661343 0 -0.010560677041891287 -0.015274625688409748 0 -0.010599737790067896 -0.015170050399661343 0 -0.010431999697399066 -0.015100473234348041 0 -0.010599737790067896 -0.015170050399661343 0 -0.010431999697399066 -0.015100473234348041 0 -0.010554219563557649 -0.015161856432363837 0 -0.010593969339267621 -0.015196256468874372 0 -0.010554219563557649 -0.015161856432363837 0 -0.010691888842939624 -0.015267928337964165 0 -0.010599737790067896 -0.015170050399661343 0 -0.010593969339267621 -0.015196256468874372 0 -0.010554219563557649 -0.015161856432363837 0 -0.0099401970002681202 -0.016341555066065504 0 -0.0099044481285391062 -0.016329850656671151 0 -0.0099511359273626171 -0.016288680924486747 0 -0.0099390977534357001 -0.015601622784140515 0 -0.010140597928175439 -0.015797515947155123 0 -0.010554219563557649 -0.015161856432363837 0 -0.010611900249875621 -0.015149194029064856 0 -0.010691888842939624 -0.015267928337964165 0 -0.010431999697399066 -0.015100473234348041 0 -0.010554219563557649 -0.015161856432363837 0 -0.010611900249875621 -0.015149194029064856 0 -0.0099964515402134121 -0.015567430277822439 0 -0.0099390977534357001 -0.015601622784140515 0 -0.010431999697399066 -0.015100473234348041 0 -0.010023259600756368 -0.015114994393063103 0 -0.0099071462102023992 -0.014823958860724611 0 -0.010023259600756368 -0.015114994393063103 0 -0.0099071462102023992 -0.014823958860724611 0 -0.0097168678968346349 -0.015038360033414197 0 -0.0098364691176637976 -0.0152281472541445 0 -0.0097168678968346349 -0.015038360033414197 0 -0.0093839142069959292 -0.015054401556902212 0 -0.0099071462102023992 -0.014823958860724611 0 -0.0097168678968346349 -0.015038360033414197 0 -0.009552135735136625 -0.014911434666531069 0 -0.0097168678968346349 -0.015038360033414197 0 -0.009552135735136625 -0.014911434666531069 0 -0.0093839142069959292 -0.015054401556902212 0 -0.0099390977534357001 -0.015601622784140515 0 -0.0097546794004954081 -0.015633200093408958 0 -0.009552135735136625 -0.014911434666531069 0 -0.0093261590625999518 -0.014826643894521986 0 -0.0092706502422846265 -0.01493811354276936 0 -0.0099071462102023992 -0.014823958860724611 0 -0.009552135735136625 -0.014911434666531069 0 -0.0093261590625999518 -0.014826643894521986 0 -0.0099044481285391062 -0.016329850656671151 0 -0.009944133413039109 -0.016275709979887393 0 -0.0099511359273626171 -0.016288680924486747 0 -0.009944133413039109 -0.016275709979887393 0 -0.0099334396415684933 -0.016324249016007809 0 -0.0099850380890192086 -0.016248096977657393 0 -0.010140597928175439 -0.015797515947155123 0 -0.010239835993737879 -0.016012707406701885 0 -0.009944133413039109 -0.016275709979887393 0 -0.0099511359273626171 -0.016288680924486747 0 -0.0099334396415684933 -0.016324249016007809 0 -0.010593969339267621 -0.015196256468874372 0 -0.010691888842939624 -0.015267928337964165 0 -0.010571079361967915 -0.015266584626372988 0 -0.010691888842939624 -0.015267928337964165 0 -0.010571079361967915 -0.015266584626372988 0 -0.010774879089680833 -0.01544983592833484 0 -0.010571079361967915 -0.015266584626372988 0 -0.010277668314281108 -0.01541018785990746 0 -0.010774879089680833 -0.01544983592833484 0 -0.010673043023271789 -0.015382405853852891 0 -0.010571079361967915 -0.015266584626372988 0 -0.010277668314281108 -0.01541018785990746 0 -0.0089573146249929056 -0.014978042835267182 0 -0.0090715044360873878 -0.015212825900312267 0 -0.0088399842452341407 -0.015026250860260933 0 -0.0089573146249929056 -0.014978042835267182 0 -0.0086741106557104621 -0.014885575027519899 0 -0.0088399842452341407 -0.015026250860260933 0 -0.0086741106557104621 -0.014885575027519899 0 -0.0088399842452341407 -0.015026250860260933 0 -0.0083126942738862876 -0.014677727764779096 0 -0.0086772493732449694 -0.015068749750648104 0 -0.0086741106557104621 -0.014885575027519899 0 -0.008857703521666661 -0.015005735719080189 0 -0.0089573146249929056 -0.014978042835267182 0 -0.008857703521666661 -0.015005735719080189 0 -0.0090032558950957457 -0.015012790562007871 0 -0.0089573146249929056 -0.014978042835267182 0 -0.0086741106557104621 -0.014885575027519899 0 -0.008857703521666661 -0.015005735719080189 0 -0.0089573146249929056 -0.014978042835267182 0 -0.0090032558950957457 -0.015012790562007871 0 -0.0091180664678853097 -0.014984504722268152 0 -0.0090823260891464645 -0.015113825946441882 0 -0.008857703521666661 -0.015005735719080189 0 -0.0090032558950957457 -0.015012790562007871 0 -0.0090823260891464645 -0.015113825946441882 0 -0.0090032558950957457 -0.015012790562007871 0 -0.0091180664678853097 -0.014984504722268152 0 -0.0090823260891464645 -0.015113825946441882 0 -0.0091180664678853097 -0.014984504722268152 0 -0.0093839142069959292 -0.015054401556902212 0 -0.0091180664678853097 -0.014984504722268152 0 -0.0093839142069959292 -0.015054401556902212 0 -0.0092706502422846265 -0.01493811354276936 0 -0.009552135735136625 -0.014911434666531069 0 -0.0093839142069959292 -0.015054401556902212 0 -0.0092706502422846265 -0.01493811354276936 0 -0.0093261590625999518 -0.014826643894521986 0 -0.0092706502422846265 -0.01493811354276936 0 -0.0090607921234451272 -0.014974617061408223 0 -0.0091180664678853097 -0.014984504722268152 0 -0.0092706502422846265 -0.01493811354276936 0 -0.0090607921234451272 -0.014974617061408223 0 -0.0089573146249929056 -0.014978042835267182 0 -0.0090607921234451272 -0.014974617061408223 0 -0.0090715044360873878 -0.015212825900312267 0 -0.0089573146249929056 -0.014978042835267182 0 -0.0091180664678853097 -0.014984504722268152 0 -0.0090607921234451272 -0.014974617061408223 0 -0.008980316760736639 -0.015117462473478149 0 -0.0092457313651436931 -0.015830621139805622 0 -0.0090715044360873878 -0.015212825900312267 0 -0.0090607921234451272 -0.014974617061408223 0 -0.008980316760736639 -0.015117462473478149 0 -0.0090715044360873878 -0.015212825900312267 0 -0.0093261590625999518 -0.014826643894521986 0 -0.0090607921234451272 -0.014974617061408223 0 -0.008980316760736639 -0.015117462473478149 0 -0.0097546794004954081 -0.015633200093408958 0 -0.0096071058045686768 -0.015665549432658098 0 -0.0099044481285391062 -0.016329850656671151 0 -0.009944133413039109 -0.016275709979887393 0 -0.0097730187967032759 -0.016277033804093156 0 -0.009944133413039109 -0.016275709979887393 0 -0.0097730187967032759 -0.016277033804093156 0 -0.0099850380890192086 -0.016248096977657393 0 -0.0097730187967032759 -0.016277033804093156 0 -0.0099850380890192086 -0.016248096977657393 0 -0.0097255598290220922 -0.016074396253206693 0 -0.0096071058045686768 -0.015665549432658098 0 -0.0095518357799366169 -0.015686262376785436 0 -0.0097730187967032759 -0.016277033804093156 0 -0.0092457313651436931 -0.015830621139805622 0 -0.0097255598290220922 -0.016074396253206693 0 -0.0092457313651436931 -0.015830621139805622 0 -0.0090715044360873878 -0.015212825900312267 0 -0.0090362386972426198 -0.015536834540290154 0 -0.0090715044360873878 -0.015212825900312267 0 -0.0088399842452341407 -0.015026250860260933 0 -0.0090362386972426198 -0.015536834540290154 0 -0.0088399842452341407 -0.015026250860260933 0 -0.0090362386972426198 -0.015536834540290154 0 -0.0087913886050750636 -0.01514970450921471 0 -0.0090362386972426198 -0.015536834540290154 0 -0.0089750438640837892 -0.015501140809471422 0 -0.0087913886050750636 -0.01514970450921471 0 -0.0089750438640837892 -0.015501140809471422 0 -0.0087483609303915539 -0.015073231438207726 0 -0.0087913886050750636 -0.01514970450921471 0 -0.0088656183770337311 -0.015272464357891671 0 -0.0089352656022054448 -0.015386831904241753 0 -0.0089750438640837892 -0.015501140809471422 0 -0.0087483609303915539 -0.015073231438207726 0 -0.0093713987212370835 -0.015588826620565675 0 -0.0087483609303915539 -0.015073231438207726 0 -0.0083126942738862876 -0.014677727764779096 0 -0.0083955778226269418 -0.014831618827321388 0 -0.0087483609303915539 -0.015073231438207726 0 -0.0085773763340069292 -0.01496050408803447 0 -0.0083955778226269418 -0.014831618827321388 0 -0.0087483609303915539 -0.015073231438207726 0 -0.0087913886050750636 -0.01514970450921471 0 -0.0083126942738862876 -0.014677727764779096 0 -0.0088399842452341407 -0.015026250860260933 0 -0.0087913886050750636 -0.01514970450921471 0 -0.0083126942738862876 -0.014677727764779096 0 -0.0085840938241114762 -0.014969346451073218 0 -0.0086855159629880222 -0.014966785736828022 0 -0.0086452331953407284 -0.015083945711585158 0 -0.0085840938241114762 -0.014969346451073218 0 -0.0086452331953407284 -0.015083945711585158 0 -0.0085685885426130693 -0.015009832842532963 0 -0.0087483609303915539 -0.015073231438207726 0 -0.0085840938241114762 -0.014969346451073218 0 -0.0085685885426130693 -0.015009832842532963 0 -0.0087483609303915539 -0.015073231438207726 0 -0.0085773763340069292 -0.01496050408803447 0 -0.0085840938241114762 -0.014969346451073218 0 -0.0085773763340069292 -0.01496050408803447 0 -0.0085840938241114762 -0.014969346451073218 0 -0.00857968163836508 -0.014931308907484956 0 -0.0085840938241114762 -0.014969346451073218 0 -0.0085812329540445632 -0.014894641205829747 0 -0.0086855159629880222 -0.014966785736828022 0 -0.0034773764286646792 -0.010946491794540048 0 -0.0037887633240987757 -0.012565433656235175 0 -0.0085840938241114762 -0.014969346451073218 0 -0.00857968163836508 -0.014931308907484956 0 -0.0085812329540445632 -0.014894641205829747 0 -0.0036544109716477764 -0.0099598029728628114 0 -0.0050162851056562196 -0.010542913554137142 0 -0.0034773764286646792 -0.010946491794540048 0 -0.0050162851056562196 -0.010542913554137142 0 -0.0034842729368137083 -0.01093449609654165 0 -0.0033763134643537925 -0.010446735643606625 0 -0.004292247225809123 -0.010653670321418628 0 -0.00857968163836508 -0.014931308907484956 0 -0.0085812329540445632 -0.014894641205829747 0 -0.0085736809518145562 -0.014928384903539892 0 -0.0036544109716477764 -0.0099598029728628114 0 -0.0034773764286646792 -0.010946491794540048 0 0.0024460349119125487 -0.0088993004531257771 0 0.0023210394105103514 -0.009627712184495138 0 0.001804363828603803 -0.0090332064665447735 0 -0.010682512905234073 -0.014594808352114347 0 -0.0085736809518145562 -0.014928384903539892 0 -0.00870668806440799 -0.014037016746019102 0 -0.0085773763340069292 -0.01496050408803447 0 -0.00857968163836508 -0.014931308907484956 0 -0.0085736809518145562 -0.014928384903539892 0 -0.0085773763340069292 -0.01496050408803447 0 -0.0085736809518145562 -0.014928384903539892 0 -0.0083955778226269418 -0.014831618827321388 0 -0.0085736809518145562 -0.014928384903539892 0 -0.00870668806440799 -0.014037016746019102 0 -0.0080893611402077844 -0.014545471367888895 0 -0.0085736809518145562 -0.014928384903539892 0 -0.0083955778226269418 -0.014831618827321388 0 -0.0080893611402077844 -0.014545471367888895 0 -0.00870668806440799 -0.014037016746019102 0 -0.0080992711021711881 -0.01134025841747862 0 -0.010492542824291651 -0.011836250156968268 0 -0.00870668806440799 -0.014037016746019102 0 -0.00735764634065743 -0.013864067774475413 0 -0.0080992711021711881 -0.01134025841747862 0 -0.00870668806440799 -0.014037016746019102 0 -0.0080893611402077844 -0.014545471367888895 0 -0.00735764634065743 -0.013864067774475413 0 -0.010682512905234073 -0.014594808352114347 0 -0.00870668806440799 -0.014037016746019102 0 -0.010492542824291651 -0.011836250156968268 0 -0.0030377693280870142 -0.0061816404100344322 0 -0.0029361500044106929 -0.0057131986333105464 0 -0.0032611045943560053 -0.0057785932080913795 0 -0.0036544109716477764 -0.0099598029728628114 0 -0.0051553163440038428 -0.0085447851226561483 0 -0.0083126942738862876 -0.014677727764779096 0 -0.0083955778226269418 -0.014831618827321388 0 -0.0080893611402077844 -0.014545471367888895 0 -0.0083126942738862876 -0.014677727764779096 0 -0.0080893611402077844 -0.014545471367888895 0 -0.00735764634065743 -0.013864067774475413 0 -0.0069524621867766614 -0.011643437940041922 0 -0.0064958508831947847 -0.011064909912970912 0 -0.0083126942738862876 -0.014677727764779096 0 -0.00735764634065743 -0.013864067774475413 0 -0.0082933945707395016 -0.0148022568190674 0 -0.0086741106557104621 -0.014885575027519899 0 -0.0083126942738862876 -0.014677727764779096 0 -0.0082933945707395016 -0.0148022568190674 0 -0.0025808354501538878 -0.011980927603988778 0 -0.0054250753889498017 -0.0096866881997192886 0 -0.0027059147521777994 -0.0060931574283525462 0 0.0011760893038379064 -0.01044497664426937 0 -0.0025808354501538878 -0.011980927603988778 0 -0.0027059147521777994 -0.0060931574283525462 0 -0.0052781214139511826 -0.0069746722914894423 0 -0.0054250753889498017 -0.0096866881997192886 0 -0.0027059147521777994 -0.0060931574283525462 0 -0.0052781214139511826 -0.0069746722914894423 0 -0.006997363763642188 -0.0083616911127216507 0 -0.0068059870595194513 -0.0062098013754512274 0 -0.0052781214139511826 -0.0069746722914894423 0 -0.0054250753889498017 -0.0096866881997192886 0 -0.006997363763642188 -0.0083616911127216507 0 -0.0054250753889498017 -0.0096866881997192886 0 -0.0080992711021711881 -0.01134025841747862 0 -0.006997363763642188 -0.0083616911127216507 0 -0.00735764634065743 -0.013864067774475413 0 -0.0025808354501538878 -0.011980927603988778 0 -0.0054250753889498017 -0.0096866881997192886 0 -0.00735764634065743 -0.013864067774475413 0 -0.0054250753889498017 -0.0096866881997192886 0 -0.0080992711021711881 -0.01134025841747862 0 -0.0080992711021711881 -0.01134025841747862 0 -0.010492542824291651 -0.011836250156968268 0 -0.0089095291342826486 -0.0088515376664228141 0 -0.0080992711021711881 -0.01134025841747862 0 -0.006997363763642188 -0.0083616911127216507 0 -0.0089095291342826486 -0.0088515376664228141 0 -0.0029361500044106929 -0.0057131986333105464 0 -0.0030334904992698041 -0.0053828599215311156 0 -0.0028204338893664683 -0.0052370862627412161 0 -0.010492542824291651 -0.011836250156968268 0 -0.0097574902310525111 -0.0077962199908169468 0 -0.0089095291342826486 -0.0088515376664228141 0 -0.0029361500044106929 -0.0057131986333105464 0 -0.0032569591019349841 -0.005420676515200477 0 -0.0032611045943560053 -0.0057785932080913795 0 -0.0051553163440038428 -0.0085447851226561483 0 -0.0060014465940831565 -0.00661652140358254 0 -0.0029361500044106929 -0.0057131986333105464 0 -0.0030334904992698041 -0.0053828599215311156 0 -0.0032569591019349841 -0.005420676515200477 0 -0.0028204338893664683 -0.0052370862627412161 0 -0.0031247497970152368 -0.0051530705246876632 0 -0.0031245485887164914 -0.0047403199294640298 0 -0.0030334904992698041 -0.0053828599215311156 0 -0.0031247497970152368 -0.0051530705246876632 0 -0.0032569591019349841 -0.005420676515200477 0 -0.0030334904992698041 -0.0053828599215311156 0 -0.0028204338893664683 -0.0052370862627412161 0 -0.0031247497970152368 -0.0051530705246876632 0 -0.0095901360621547006 -0.0075935080871484487 0 -0.0079766111194329511 -0.0069990508585065277 0 -0.0075060109756657535 -0.0041928352025312155 0 -0.006997363763642188 -0.0083616911127216507 0 -0.0089095291342826486 -0.0088515376664228141 0 -0.0079766111194329511 -0.0069990508585065277 0 -0.0095901360621547006 -0.0075935080871484487 0 -0.0089095291342826486 -0.0088515376664228141 0 -0.0079766111194329511 -0.0069990508585065277 0 -0.0060014465940831565 -0.00661652140358254 0 -0.0060694484458316787 -0.0066408806851069365 0 -0.006997363763642188 -0.0083616911127216507 0 -0.0079766111194329511 -0.0069990508585065277 0 -0.0068059870595194513 -0.0062098013754512274 0 -0.0060014465940831565 -0.00661652140358254 0 -0.0061451484874159665 -0.0062595070778388153 0 -0.0075060109756657535 -0.0041928352025312155 0 -0.0072400463399304839 -0.0031702492638175078 0 -0.0061088649337369084 -0.0047866735404230119 0 -0.0068059870595194513 -0.0062098013754512274 0 -0.0075060109756657535 -0.0041928352025312155 0 -0.0061088649337369084 -0.0047866735404230119 0 -0.0079766111194329511 -0.0069990508585065277 0 -0.0068059870595194513 -0.0062098013754512274 0 -0.0075060109756657535 -0.0041928352025312155 0 -0.007407176076522342 -0.0038294300955157385 0 -0.0075060109756657535 -0.0041928352025312155 0 -0.0070236461556926469 -0.0035875110985047363 0 -0.0060014465940831565 -0.00661652140358254 0 -0.005691794715457014 -0.0051961945592922647 0 -0.0075060109756657535 -0.0041928352025312155 0 -0.0072400463399304839 -0.0031702492638175078 0 -0.0070236461556926469 -0.0035875110985047363 0 -0.0069303036746437008 -0.0016189712377447471 0 -0.0067372728731838272 -0.0021614813595431143 0 -0.006152503921349568 -0.0034960808909448274 0 -0.0072400463399304839 -0.0031702492638175078 0 -0.0066034762876578451 -0.0033160936617940653 0 -0.0072400463399304839 -0.0031702492638175078 0 -0.0066034762876578451 -0.0033160936617940653 0 -0.0070236461556926469 -0.0035875110985047363 0 -0.0068995547941095962 -0.00046747583258407798 0 -0.0072400463399304839 -0.0031702492638175078 0 -0.0056713134920850991 -0.0030354759743676163 0 -0.0072400463399304839 -0.0031702492638175078 0 -0.0056713134920850991 -0.0030354759743676163 0 -0.0061088649337369084 -0.0047866735404230119 0 -0.0058438219818149314 -0.00055911170516118817 0 -0.0059795451730479902 -0.0015810852995253651 0 -0.0051119185844001359 -0.0014904599110504952 0 -0.0059795451730479902 -0.0015810852995253651 0 -0.0051119185844001359 -0.0014904599110504952 0 -0.0053343137284203321 -0.0024222938694234918 0 -0.0049432360258641435 -0.0023621318735507517 0 -0.0051119185844001359 -0.0014904599110504952 0 -0.0053343137284203321 -0.0024222938694234918 0 -0.0056713134920850991 -0.0030354759743676163 0 -0.0027059147521777994 -0.0060931574283525462 0 -0.0061088649337369084 -0.0047866735404230119 0 -0.0052781214139511826 -0.0069746722914894423 0 -0.0027059147521777994 -0.0060931574283525462 0 -0.0061088649337369084 -0.0047866735404230119 0 -0.0064156830486633608 -0.0032112098401719511 0 -0.0056655434657294328 -0.0058893130198079463 0 -0.0052781214139511826 -0.0069746722914894423 0 -0.0068059870595194513 -0.0062098013754512274 0 -0.0061088649337369084 -0.0047866735404230119 0 -0.0042385465151223919 -0.0045862512395418269 0 -0.0039390036686797487 -0.0048525599980079335 0 -0.0039477752607227105 -0.005151491940708494 0 -0.0042385465151223919 -0.0045862512395418269 0 -0.0042542456073157327 -0.0042705002403534767 0 -0.0039390036686797487 -0.0048525599980079335 0 -0.0042385465151223919 -0.0045862512395418269 0 -0.0042561146141375803 -0.0048331297480421823 0 -0.0039477752607227105 -0.005151491940708494 0 -0.0044982216137777354 -0.0044276977265037976 0 -0.0044496966066527128 -0.0049478432843829672 0 -0.0046671130695465721 -0.0046385231216178029 0 -0.0042561146141375803 -0.0048331297480421823 0 -0.0044982216137777354 -0.0044276977265037976 0 -0.0044496966066527128 -0.0049478432843829672 0 -0.0042385465151223919 -0.0045862512395418269 0 -0.0042561146141375803 -0.0048331297480421823 0 -0.0044982216137777354 -0.0044276977265037976 0 -0.0045541707951275009 -0.0039062290562846178 0 -0.0044982216137777354 -0.0044276977265037976 0 -0.0047515414335083774 -0.0040127395156486527 0 -0.0044982216137777354 -0.0044276977265037976 0 -0.0047515414335083774 -0.0040127395156486527 0 -0.0046671130695465721 -0.0046385231216178029 0 -0.0045541707951275009 -0.0039062290562846178 0 -0.0044982216137777354 -0.0044276977265037976 0 -0.0044051713788191473 -0.0042176995251035684 0 -0.0045541707951275009 -0.0039062290562846178 0 -0.0045499638359668857 -0.0037789564796197996 0 -0.0044051713788191473 -0.0042176995251035684 0 -0.0042385465151223919 -0.0045862512395418269 0 -0.0044982216137777354 -0.0044276977265037976 0 -0.0044051713788191473 -0.0042176995251035684 0 -0.0042385465151223919 -0.0045862512395418269 0 -0.0044051713788191473 -0.0042176995251035684 0 -0.0042542456073157327 -0.0042705002403534767 0 -0.0045499638359668857 -0.0037789564796197996 0 -0.0044239834298747359 -0.0039021215574840153 0 -0.0042542456073157327 -0.0042705002403534767 0 -0.0045499638359668857 -0.0037789564796197996 0 -0.0044051713788191473 -0.0042176995251035684 0 -0.0042542456073157327 -0.0042705002403534767 0 -0.0044239834298747359 -0.0039021215574840153 0 -0.0042542456073157327 -0.0042705002403534767 0 -0.0035509917863237399 -0.0041204062415848269 0 -0.0042542456073157327 -0.0042705002403534767 0 -0.0035509917863237399 -0.0041204062415848269 0 -0.00368635533292283 -0.0047268149326004363 0 -0.005465450856898423 -0.004524275978068989 0 -0.005691794715457014 -0.0051961945592922647 0 -0.0035509917863237399 -0.0041204062415848269 0 -0.0031245485887164914 -0.0047403199294640298 0 -0.00368635533292283 -0.0047268149326004363 0 -0.0066034762876578451 -0.0033160936617940653 0 -0.0060342318397251498 -0.0032136261773599547 0 -0.0070236461556926469 -0.0035875110985047363 0 -0.006152503921349568 -0.0034960808909448274 0 -0.0066034762876578451 -0.0033160936617940653 0 -0.0060342318397251498 -0.0032136261773599547 0 -0.0031245485887164914 -0.0047403199294640298 0 -0.00368635533292283 -0.0047268149326004363 0 -0.0033872363705613525 -0.0050481154174763718 0 -0.0031247497970152368 -0.0051530705246876632 0 -0.0031245485887164914 -0.0047403199294640298 0 -0.0033872363705613525 -0.0050481154174763718 0 -0.0039390036686797487 -0.0048525599980079335 0 -0.00368635533292283 -0.0047268149326004363 0 -0.0036346398436852912 -0.0052380164725065138 0 -0.0042542456073157327 -0.0042705002403534767 0 -0.0039390036686797487 -0.0048525599980079335 0 -0.00368635533292283 -0.0047268149326004363 0 -0.00368635533292283 -0.0047268149326004363 0 -0.0036346398436852912 -0.0052380164725065138 0 -0.0033872363705613525 -0.0050481154174763718 0 -0.0039390036686797487 -0.0048525599980079335 0 -0.0036346398436852912 -0.0052380164725065138 0 -0.0039477752607227105 -0.005151491940708494 0 -0.0036346398436852912 -0.0052380164725065138 0 -0.0037757538392444324 -0.0055178866348279424 0 -0.0039477752607227105 -0.005151491940708494 0 -0.0036346398436852912 -0.0052380164725065138 0 -0.0033872363705613525 -0.0050481154174763718 0 -0.0032569591019349841 -0.005420676515200477 0 -0.0031247497970152368 -0.0051530705246876632 0 -0.0033872363705613525 -0.0050481154174763718 0 -0.0032569591019349841 -0.005420676515200477 0 -0.0036346398436852912 -0.0052380164725065138 0 -0.0032569591019349841 -0.005420676515200477 0 -0.0035578483785519673 -0.0056327174250584647 0 -0.0032569591019349841 -0.005420676515200477 0 -0.0035578483785519673 -0.0056327174250584647 0 -0.0032611045943560053 -0.0057785932080913795 0 -0.0035578483785519673 -0.0056327174250584647 0 -0.0037757538392444324 -0.0055178866348279424 0 -0.0038248829611580966 -0.0057031457646529735 0 -0.0036346398436852912 -0.0052380164725065138 0 -0.0035578483785519673 -0.0056327174250584647 0 -0.0037757538392444324 -0.0055178866348279424 0 -0.0037757538392444324 -0.0055178866348279424 0 -0.003786038246686634 -0.0057048394372573889 0 -0.0038248829611580966 -0.0057031457646529735 0 -0.0039477752607227105 -0.005151491940708494 0 -0.0041243861738391851 -0.0051803775423813741 0 -0.003786038246686634 -0.0057048394372573889 0 -0.0037757538392444324 -0.0055178866348279424 0 -0.0039477752607227105 -0.005151491940708494 0 -0.003786038246686634 -0.0057048394372573889 0 -0.0042561146141375803 -0.0048331297480421823 0 -0.0039477752607227105 -0.005151491940708494 0 -0.0041243861738391851 -0.0051803775423813741 0 -0.0044496966066527128 -0.0049478432843829672 0 -0.0043793764882999195 -0.0052548169305660719 0 -0.0046960808092642529 -0.0050634668477452776 0 -0.0044496966066527128 -0.0049478432843829672 0 -0.0041243861738391851 -0.0051803775423813741 0 -0.0043793764882999195 -0.0052548169305660719 0 -0.0042561146141375803 -0.0048331297480421823 0 -0.0044496966066527128 -0.0049478432843829672 0 -0.0041243861738391851 -0.0051803775423813741 0 -0.0041243861738391851 -0.0051803775423813741 0 -0.0043793764882999195 -0.0052548169305660719 0 -0.003786038246686634 -0.0057048394372573889 0 -0.003786038246686634 -0.0057048394372573889 0 -0.003534605222268629 -0.0059872726546393775 0 -0.0038248829611580966 -0.0057031457646529735 0 -0.0030979056207374937 -0.007266168142506222 0 -0.0027011438734290301 -0.0076620985650712962 0 -0.0028256457793274731 -0.0047598683385545876 0 -0.0017668077802274343 -0.0045503867624120467 0 -0.003786038246686634 -0.0057048394372573889 0 -0.003534605222268629 -0.0059872726546393775 0 -0.0038453386736152745 -0.005923091519282617 0 -0.0043793764882999195 -0.0052548169305660719 0 -0.003786038246686634 -0.0057048394372573889 0 -0.0047122525549584682 -0.0054849579868537527 0 -0.003534605222268629 -0.0059872726546393775 0 -0.0031737634812385555 -0.0070990124121326163 0 -0.00054506104105104495 -0.0071394709213222791 0 -0.003534605222268629 -0.0059872726546393775 0 -0.0031737634812385555 -0.0070990124121326163 0 -0.0039786627167440079 -0.0067387554480388577 0 -0.0031737634812385555 -0.0070990124121326163 0 -0.0026084971172040477 -0.0080373762656657955 0 -0.00054506104105104495 -0.0071394709213222791 0 -0.0031737634812385555 -0.0070990124121326163 0 -0.0026084971172040477 -0.0080373762656657955 0 -0.0042418911729072521 -0.0076786679359283697 0 -0.0026084971172040477 -0.0080373762656657955 0 -0.0012141853394578451 -0.0083494815203702614 0 -0.0020548876929152404 -0.0088965500904769918 0 -0.00054506104105104495 -0.0071394709213222791 0 -0.0012141853394578451 -0.0083494815203702614 0 -2.1000383080560097e-05 -0.0094799803846348386 0 -0.0026084971172040477 -0.0080373762656657955 0 -0.00054506104105104495 -0.0071394709213222791 0 -0.0012141853394578451 -0.0083494815203702614 0 -0.0012141853394578451 -0.0083494815203702614 0 -2.1000383080560097e-05 -0.0094799803846348386 0 -0.0020548876929152404 -0.0088965500904769918 0 -2.1000383080560097e-05 -0.0094799803846348386 0 0.00042522042446094423 -0.010372356379415193 0 0.00022636003333631718 -0.010013569005111446 0 -0.00023841633602744109 -0.0096372670812400005 0 -0.00047620246461763425 -0.0097068796263589351 0 -2.1000383080560097e-05 -0.0094799803846348386 0 0.00043391428911812433 -0.010013842822513424 0 0.00022636003333631718 -0.010013569005111446 0 -2.1000383080560097e-05 -0.0094799803846348386 0 -0.0028999513420956331 -0.0098306536870378068 0 -0.0020548876929152404 -0.0088965500904769918 0 -0.0026084971172040477 -0.0080373762656657955 0 -0.0020548876929152404 -0.0088965500904769918 0 -0.0033199048485651238 -0.0088102806334218603 0 -0.0028999513420956331 -0.0098306536870378068 0 -0.0020548876929152404 -0.0088965500904769918 0 -0.0033199048485651238 -0.0088102806334218603 0 -0.0036544109716477764 -0.0099598029728628114 0 -0.0024031294703778386 -0.0086350839079223276 0 -0.0030377693280870142 -0.0061816404100344322 0 -0.0032611045943560053 -0.0057785932080913795 0 -0.0034915421194616791 -0.0059514593597439647 0 0.0024460349119125487 -0.0088993004531257771 0 0.0012348623458516461 -0.0082758381140734926 0 0.001804363828603803 -0.0090332064665447735 0 -0.0035578483785519673 -0.0056327174250584647 0 -0.0032611045943560053 -0.0057785932080913795 0 -0.0034915421194616791 -0.0059514593597439647 0 -0.0035578483785519673 -0.0056327174250584647 0 -0.0038248829611580966 -0.0057031457646529735 0 -0.0034915421194616791 -0.0059514593597439647 0 -0.0027011438734290301 -0.0076620985650712962 0 -0.0024031294703778386 -0.0086350839079223276 0 -0.00054506104105104495 -0.0071394709213222791 0 -2.1000383080560097e-05 -0.0094799803846348386 0 0.0012348623458516461 -0.0082758381140734926 0 -2.1000383080560097e-05 -0.0094799803846348386 0 0.0012010545845482369 -0.0093325733144512084 0 0.00043391428911812433 -0.010013842822513424 0 -2.1000383080560097e-05 -0.0094799803846348386 0 0.0012348623458516461 -0.0082758381140734926 0 0.0012010545845482369 -0.0093325733144512084 0 0.0023210394105103514 -0.009627712184495138 0 0.0012010545845482369 -0.0093325733144512084 0 0.00043391428911812433 -0.010013842822513424 0 0.0023210394105103514 -0.009627712184495138 0 0.0012010545845482369 -0.0093325733144512084 0 0.001804363828603803 -0.0090332064665447735 0 0.0012348623458516461 -0.0082758381140734926 0 0.0012010545845482369 -0.0093325733144512084 0 0.001804363828603803 -0.0090332064665447735 0 0.00015152854801533431 -0.010434804023446376 0 0.00026142873162221785 -0.010357631736717667 0 0.00025414762052308125 -0.010284639481372055 0 0.00015152854801533431 -0.010434804023446376 0 0.00026142873162221785 -0.010357631736717667 0 0.00036799395448550837 -0.010361085871421058 0 -0.0034773764286646792 -0.010946491794540048 0 -0.00011775318187609498 -0.010249713685170409 0 0.00026142873162221785 -0.010357631736717667 0 0.00036799395448550837 -0.010361085871421058 0 0.00034353952490230881 -0.0103042644165809 0 0.00036799395448550837 -0.010361085871421058 0 0.00034353952490230881 -0.0103042644165809 0 0.00040918529837171748 -0.010293351828233471 0 0.00034353952490230881 -0.0103042644165809 0 0.00040918529837171748 -0.010293351828233471 0 0.00039918171786736898 -0.010226570962109277 0 0.00034353952490230881 -0.0103042644165809 0 0.00025414762052308125 -0.010284639481372055 0 0.00039918171786736898 -0.010226570962109277 0 0.00026142873162221785 -0.010357631736717667 0 0.00034353952490230881 -0.0103042644165809 0 0.00025414762052308125 -0.010284639481372055 0 0.00037160757715945709 -0.010293973249791963 0 0.00061769002876128529 -0.01044818201814094 0 0.00058945365109270187 -0.010346664472961432 0 0.00042522042446094423 -0.010372356379415193 0 0.00037160757715945709 -0.010293973249791963 0 0.00061769002876128529 -0.01044818201814094 0 0.00042522042446094423 -0.010372356379415193 0 0.00037160757715945709 -0.010293973249791963 0 0.00022636003333631718 -0.010013569005111446 0 0.00043391428911812433 -0.010013842822513424 0 0.00037160757715945709 -0.010293973249791963 0 0.00022636003333631718 -0.010013569005111446 0 -0.00011775318187609498 -0.010249713685170409 0 0.00017912044454826631 -0.010214714617182536 0 0.00036799395448550837 -0.010361085871421058 0 0.00037160757715945709 -0.010293973249791963 0 0.00040918529837171748 -0.010293351828233471 0 0.00037160757715945709 -0.010293973249791963 0 0.00040918529837171748 -0.010293351828233471 0 0.00046140891797740433 -0.01028066991614505 0 0.00040918529837171748 -0.010293351828233471 0 0.00046140891797740433 -0.01028066991614505 0 0.00047539906252368143 -0.010184187500669005 0 0.00037160757715945709 -0.010293973249791963 0 0.00046140891797740433 -0.01028066991614505 0 0.00058945365109270187 -0.010346664472961432 0 0.00046140891797740433 -0.01028066991614505 0 0.00059683419450708727 -0.01018854112976334 0 0.00058945365109270187 -0.010346664472961432 0 0.00059683419450708727 -0.01018854112976334 0 0.00047539906252368143 -0.010184187500669005 0 0.00064774210484209614 -0.010040116971563873 0 0.00046140891797740433 -0.01028066991614505 0 0.00059683419450708727 -0.01018854112976334 0 0.00047539906252368143 -0.010184187500669005 0 0.00047539906252368143 -0.010184187500669005 0 0.00047138567948758691 -0.010172016688235882 0 0.00039918171786736898 -0.010226570962109277 0 0.00040918529837171748 -0.010293351828233471 0 0.00047539906252368143 -0.010184187500669005 0 0.00039918171786736898 -0.010226570962109277 0 0.00047539906252368143 -0.010184187500669005 0 0.00047138567948758691 -0.010172016688235882 0 0.00052369868790692301 -0.010123619845495035 0 0.00047138567948758691 -0.010172016688235882 0 0.00052369868790692301 -0.010123619845495035 0 0.00048043403103653664 -0.010197714048385218 0 0.00052369868790692301 -0.010123619845495035 0 0.00064774210484209614 -0.010040116971563873 0 0.00056886905399627084 -0.010106404307105009 0 0.00047539906252368143 -0.010184187500669005 0 0.00052369868790692301 -0.010123619845495035 0 0.00064774210484209614 -0.010040116971563873 0 0.00052369868790692301 -0.010123619845495035 0 0.00056886905399627084 -0.010106404307105009 0 0.00049121547356505829 -0.010214777663759757 0 0.00052369868790692301 -0.010123619845495035 0 0.00049121547356505829 -0.010214777663759757 0 0.00048043403103653664 -0.010197714048385218 0 0.00049121547356505829 -0.010214777663759757 0 0.00049614214804157074 -0.010306212581533155 0 0.00048043403103653664 -0.010197714048385218 0 0.00049121547356505829 -0.010214777663759757 0 0.0004178458996826144 -0.010435822882227256 0 0.00049614214804157074 -0.010306212581533155 0 0.0004178458996826144 -0.010435822882227256 0 0.00051289855637436078 -0.010468110445407458 0 0.00049614214804157074 -0.010306212581533155 0 0.0089844231727342367 -0.022819230381176465 0 0.0074020381429539851 -0.021490105543973032 0 0.009390357021778652 -0.021464694911083836 0 0.00056886905399627084 -0.010106404307105009 0 0.00049121547356505829 -0.010214777663759757 0 0.0004178458996826144 -0.010435822882227256 0 0.004185302311937358 -0.017043570756312385 0 0.0021947588034506721 -0.017494864198523304 0 -0.0091306598343032595 -0.015984662945919239 0 -0.0091618279986917413 -0.016031551061597947 0 -0.0090828563811402377 -0.015933810289701388 0 -0.0092321107291231941 -0.015965198179575389 0 -0.0091778545507430684 -0.015972316668579102 0 -0.0092640913321997594 -0.015975189596392894 0 -0.0091306598343032595 -0.015984662945919239 0 -0.0092321107291231941 -0.015965198179575389 0 -0.0091778545507430684 -0.015972316668579102 0 -0.0091306598343032595 -0.015984662945919239 0 -0.0090828563811402377 -0.015933810289701388 0 -0.0092321107291231941 -0.015965198179575389 0 -0.0091778545507430684 -0.015972316668579102 0 -0.0092640913321997594 -0.015975189596392894 0 -0.0091648170330349277 -0.015945439860541973 0 -0.0091306598343032595 -0.015984662945919239 0 -0.0091618279986917413 -0.016031551061597947 0 -0.0091261027924831699 -0.015977202061122697 0 -0.0091778545507430684 -0.015972316668579102 0 -0.0091261027924831699 -0.015977202061122697 0 -0.0091648170330349277 -0.015945439860541973 0 -0.0091306598343032595 -0.015984662945919239 0 -0.0091778545507430684 -0.015972316668579102 0 -0.0091261027924831699 -0.015977202061122697 0 0.00058978527073099926 -0.010345662162008358 0 0.00051289855637436078 -0.010468110445407458 0 0.00049614214804157074 -0.010306212581533155 0 0.00058978527073099926 -0.010345662162008358 0 0.00049614214804157074 -0.010306212581533155 0 0.00050531360153711696 -0.010262150474618544 0 0.00049614214804157074 -0.010306212581533155 0 0.00050531360153711696 -0.010262150474618544 0 0.00048043403103653664 -0.010197714048385218 0 0.00058978527073099926 -0.010345662162008358 0 0.00050531360153711696 -0.010262150474618544 0 0.00047347621968372137 -0.010230624862790264 0 0.00050531360153711696 -0.010262150474618544 0 0.00048043403103653664 -0.010197714048385218 0 0.00047347621968372137 -0.010230624862790264 0 0.00058978527073099926 -0.010345662162008358 0 0.00047347621968372137 -0.010230624862790264 0 0.0004028507140850642 -0.010203592502767676 0 -0.0027658427038381576 -0.01411547524868428 0 -0.0035364074747284307 -0.013096878815494459 0 -0.0090828563811402377 -0.015933810289701388 0 -0.0089515340299950591 -0.015299053911177796 0 -0.0086301616234687115 -0.015326769434388429 0 -0.0090719482939063539 -0.01569596672562578 0 -0.0090247465959967937 -0.015582959560717683 0 -0.0091618279986917413 -0.016031551061597947 0 -0.0090828563811402377 -0.015933810289701388 0 -0.0089515340299950591 -0.015299053911177796 0 -0.0090828563811402377 -0.015933810289701388 0 -0.0092321107291231941 -0.015965198179575389 0 -0.0094562248684938663 -0.015975543388040168 0 0.00047138567948758691 -0.010172016688235882 0 0.00044384306559625811 -0.010197455809188122 0 0.00039918171786736898 -0.010226570962109277 0 0.0004028507140850642 -0.010203592502767676 0 0.00044384306559625811 -0.010197455809188122 0 0.00039918171786736898 -0.010226570962109277 0 0.00048043403103653664 -0.010197714048385218 0 0.00047347621968372137 -0.010230624862790264 0 0.00044384306559625811 -0.010197455809188122 0 0.00047138567948758691 -0.010172016688235882 0 0.00048043403103653664 -0.010197714048385218 0 0.00044384306559625811 -0.010197455809188122 0 0.00047347621968372137 -0.010230624862790264 0 0.0004028507140850642 -0.010203592502767676 0 0.00044384306559625811 -0.010197455809188122 0 -0.0086855159629880222 -0.014966785736828022 0 -0.0089515340299950591 -0.015299053911177796 0 -0.0086452331953407284 -0.015083945711585158 0 -0.0037887633240987757 -0.012565433656235175 0 -0.0035364074747284307 -0.013096878815494459 0 0.00025414762052308125 -0.010284639481372055 0 0.0004028507140850642 -0.010203592502767676 0 0.00039918171786736898 -0.010226570962109277 0 -0.0086452331953407284 -0.015083945711585158 0 -0.0085685885426130693 -0.015009832842532963 0 -0.0086301616234687115 -0.015326769434388429 0 -0.0089352656022054448 -0.015386831904241753 0 -0.0090247465959967937 -0.015582959560717683 0 -0.0093713987212370835 -0.015588826620565675 0 -0.0093779891900258681 -0.015878027809487178 0 -0.0092121887728534059 -0.015795804918148467 0 -0.0093779891900258681 -0.015878027809487178 0 -0.0092121887728534059 -0.015795804918148467 0 -0.0093812647812357049 -0.015942953463447512 0 -0.0093713987212370835 -0.015588826620565675 0 -0.0093779891900258681 -0.015878027809487178 0 -0.0094562248684938663 -0.015975543388040168 0 -0.0089515340299950591 -0.015299053911177796 0 -0.0086452331953407284 -0.015083945711585158 0 -0.0086301616234687115 -0.015326769434388429 0 -0.0093779891900258681 -0.015878027809487178 0 -0.0094562248684938663 -0.015975543388040168 0 -0.0094286751346271888 -0.015981982312637019 0 -0.0090362386972426198 -0.015536834540290154 0 -0.0089750438640837892 -0.015501140809471422 0 -0.0090858842714959809 -0.015758927942737252 0 -0.0089750438640837892 -0.015501140809471422 0 -0.0090858842714959809 -0.015758927942737252 0 -0.0092121887728534059 -0.015795804918148467 0 -0.0089750438640837892 -0.015501140809471422 0 -0.0093713987212370835 -0.015588826620565675 0 -0.0092121887728534059 -0.015795804918148467 0 -0.0092121887728534059 -0.015795804918148467 0 -0.0092192239338199696 -0.015902819040439473 0 -0.0093812647812357049 -0.015942953463447512 0 -0.0090858842714959809 -0.015758927942737252 0 -0.0092192239338199696 -0.015902819040439473 0 -0.0091453305893726376 -0.015860800753074715 0 -0.0090858842714959809 -0.015758927942737252 0 -0.0092121887728534059 -0.015795804918148467 0 -0.0092192239338199696 -0.015902819040439473 0 -0.0092192239338199696 -0.015902819040439473 0 -0.0091453305893726376 -0.015860800753074715 0 -0.009066866230424039 -0.016022657553052936 0 -0.0092192239338199696 -0.015902819040439473 0 -0.0094309601403669441 -0.016004916391960559 0 -0.0093812647812357049 -0.015942953463447512 0 -0.0093341574708748799 -0.016110348605212141 0 -0.0094309601403669441 -0.016004916391960559 0 -0.0096563717057281794 -0.016105735955263947 0 -0.0093341574708748799 -0.016110348605212141 0 -0.0096563717057281794 -0.016105735955263947 0 -0.0098787971978575861 -0.016451363772229086 0 -0.0092192239338199696 -0.015902819040439473 0 -0.0093341574708748799 -0.016110348605212141 0 -0.0094309601403669441 -0.016004916391960559 0 -0.0092192239338199696 -0.015902819040439473 0 -0.0093341574708748799 -0.016110348605212141 0 -0.009066866230424039 -0.016022657553052936 0 -0.0092321107291231941 -0.015965198179575389 0 -0.0094562248684938663 -0.015975543388040168 0 -0.0093733338621886115 -0.015998132702592444 0 -0.0094562248684938663 -0.015975543388040168 0 -0.0093733338621886115 -0.015998132702592444 0 -0.0094286751346271888 -0.015981982312637019 0 -0.0093733338621886115 -0.015998132702592444 0 -0.0094286751346271888 -0.015981982312637019 0 -0.0094894807866487615 -0.016035813872457508 0 -0.0093779891900258681 -0.015878027809487178 0 -0.0094286751346271888 -0.015981982312637019 0 -0.0093812647812357049 -0.015942953463447512 0 -0.0094309601403669441 -0.016004916391960559 0 -0.0093812647812357049 -0.015942953463447512 0 -0.0094894807866487615 -0.016035813872457508 0 -0.0094286751346271888 -0.015981982312637019 0 -0.0093812647812357049 -0.015942953463447512 0 -0.0094894807866487615 -0.016035813872457508 0 -0.0094894807866487615 -0.016035813872457508 0 -0.0096563717057281794 -0.016105735955263947 0 -0.0093957899431085252 -0.016014444035129624 0 -0.0094309601403669441 -0.016004916391960559 0 -0.0094894807866487615 -0.016035813872457508 0 -0.0096563717057281794 -0.016105735955263947 0 -0.0096563717057281794 -0.016105735955263947 0 -0.0093957899431085252 -0.016014444035129624 0 -0.0094084761446164358 -0.015939193416969116 0 -0.0093957899431085252 -0.016014444035129624 0 -0.0093104587695235341 -0.015946793352893361 0 -0.0094084761446164358 -0.015939193416969116 0 -0.0093733338621886115 -0.015998132702592444 0 -0.0094894807866487615 -0.016035813872457508 0 -0.0093957899431085252 -0.016014444035129624 0 -0.0093733338621886115 -0.015998132702592444 0 -0.0093957899431085252 -0.016014444035129624 0 -0.0092640913321997594 -0.015975189596392894 0 -0.0092321107291231941 -0.015965198179575389 0 -0.0093733338621886115 -0.015998132702592444 0 -0.0092640913321997594 -0.015975189596392894 0 -0.0093957899431085252 -0.016014444035129624 0 -0.0092640913321997594 -0.015975189596392894 0 -0.0093104587695235341 -0.015946793352893361 0 -0.0092640913321997594 -0.015975189596392894 0 -0.0092274144458270937 -0.015928621585847961 0 -0.0093104587695235341 -0.015946793352893361 0 -0.0092274144458270937 -0.015928621585847961 0 -0.0093104587695235341 -0.015946793352893361 0 -0.0092705397401382315 -0.015861791072128668 0 -0.0092274144458270937 -0.015928621585847961 0 -0.0092705397401382315 -0.015861791072128668 0 -0.0091501757327610202 -0.01586345001154774 0 -0.0092705397401382315 -0.015861791072128668 0 -0.0093655053776086905 -0.015835747494489839 0 -0.0094084761446164358 -0.015939193416969116 0 -0.0093104587695235341 -0.015946793352893361 0 -0.0092705397401382315 -0.015861791072128668 0 -0.0094084761446164358 -0.015939193416969116 0 -0.0073477361039909744 -0.018053965919481097 0 -0.007126485048945099 -0.018960620367153017 0 -0.0096563717057281794 -0.016105735955263947 0 -0.0098787971978575861 -0.016451363772229086 0 -0.010076608684671607 -0.016618597741458234 0 -0.0096563717057281794 -0.016105735955263947 0 -0.0094084761446164358 -0.015939193416969116 0 -0.009498727859073396 -0.015819223290914057 0 -0.0072842707435602973 -0.018918180563098828 0 -0.007126485048945099 -0.018960620367153017 0 -0.0093655053776086905 -0.015835747494489839 0 -0.0094084761446164358 -0.015939193416969116 0 -0.009498727859073396 -0.015819223290914057 0 -0.0098787971978575861 -0.016451363772229086 0 -0.010620321052520325 -0.016963894738776932 0 -0.010628799928517833 -0.017936074651527231 0 -0.010620321052520325 -0.016963894738776932 0 -0.010628799928517833 -0.017936074651527231 0 -0.010959937700747355 -0.018279005067858421 0 -0.0065440821792810064 -0.019893495113829204 0 -0.0070041115541555014 -0.020321942947133791 0 -0.006652150794597661 -0.020684871137868877 0 -0.007126485048945099 -0.018960620367153017 0 -0.0071757853837435799 -0.02033864070441747 0 -0.0092875471080004508 -0.015735722848716337 0 -0.0091108552378604008 -0.015648614808142877 0 -0.0091331096050527444 -0.015759068660508902 0 -0.0063162329453142147 -0.019808677194580238 0 -0.0049042202840029964 -0.020972268080687511 0 -0.0092705397401382315 -0.015861791072128668 0 -0.0092875471080004508 -0.015735722848716337 0 -0.0091331096050527444 -0.015759068660508902 0 -0.0093655053776086905 -0.015835747494489839 0 -0.009498727859073396 -0.015819223290914057 0 -0.0092875471080004508 -0.015735722848716337 0 -0.007126485048945099 -0.018960620367153017 0 -0.0063162329453142147 -0.019808677194580238 0 -0.0092705397401382315 -0.015861791072128668 0 -0.0093655053776086905 -0.015835747494489839 0 -0.0092875471080004508 -0.015735722848716337 0 -0.010253298544530333 -0.017249554680143636 0 -0.01009888675721035 -0.016925734693075633 0 -0.0093341574708748799 -0.016110348605212141 0 -0.0091621087112699322 -0.016611565231050063 0 -0.009066866230424039 -0.016022657553052936 0 -0.010911034109641117 -0.018078845698312206 0 -0.0109032415518508 -0.01810290814027167 0 -0.01106701501672798 -0.017773400045501798 0 -0.0093341574708748799 -0.016110348605212141 0 -0.0098787971978575861 -0.016451363772229086 0 -0.0091621087112699322 -0.016611565231050063 0 -0.010628799928517833 -0.017936074651527231 0 -0.010911034109641117 -0.018078845698312206 0 -0.010817921544353105 -0.01810371832800867 0 -0.0098787971978575861 -0.016451363772229086 0 -0.010628799928517833 -0.017936074651527231 0 -0.0091621087112699322 -0.016611565231050063 0 -0.010451915151253783 -0.017481404060741071 0 -0.010253298544530333 -0.017249554680143636 0 -0.010911034109641117 -0.018078845698312206 0 -0.010817921544353105 -0.01810371832800867 0 -0.0109032415518508 -0.01810290814027167 0 -0.0109032415518508 -0.01810290814027167 0 -0.010776076218544577 -0.018276003871459313 0 -0.010928713257473865 -0.018101986206623819 0 -0.010817921544353105 -0.01810371832800867 0 -0.010776076218544577 -0.018276003871459313 0 -0.010814033345340103 -0.018348468474480094 0 -0.010817921544353105 -0.01810371832800867 0 -0.0109032415518508 -0.01810290814027167 0 -0.010776076218544577 -0.018276003871459313 0 -0.010817921544353105 -0.01810371832800867 0 -0.010814033345340103 -0.018348468474480094 0 -0.01078642964371415 -0.018220020772179733 0 -0.010628799928517833 -0.017936074651527231 0 -0.010817921544353105 -0.01810371832800867 0 -0.01078642964371415 -0.018220020772179733 0 -0.010814033345340103 -0.018348468474480094 0 -0.01078642964371415 -0.018220020772179733 0 -0.010891439147505075 -0.018409041307900258 0 -0.010814033345340103 -0.018348468474480094 0 -0.010855633045557816 -0.018589373570195373 0 -0.010725224090808533 -0.018569718405885408 0 -0.010814033345340103 -0.018348468474480094 0 -0.010855633045557816 -0.018589373570195373 0 -0.010891439147505075 -0.018409041307900258 0 -0.010776076218544577 -0.018276003871459313 0 -0.010725224090808533 -0.018569718405885408 0 -0.010604375853003918 -0.018559328842838584 0 -0.010776076218544577 -0.018276003871459313 0 -0.010814033345340103 -0.018348468474480094 0 -0.010725224090808533 -0.018569718405885408 0 -0.0069700485225359455 -0.020805005355254605 0 -0.006652150794597661 -0.020684871137868877 0 -0.0067677782947330707 -0.021473305552262401 0 -0.0067394132311167573 -0.023142876833278019 0 -0.0049042202840029964 -0.020972268080687511 0 -0.0069700485225359455 -0.020805005355254605 0 -0.0067677782947330707 -0.021473305552262401 0 -0.0074559653750893755 -0.02074122653244817 0 -0.0070041115541555014 -0.020321942947133791 0 -0.0069700485225359455 -0.020805005355254605 0 -0.0074559653750893755 -0.02074122653244817 0 -0.0070041115541555014 -0.020321942947133791 0 -0.0069700485225359455 -0.020805005355254605 0 -0.006652150794597661 -0.020684871137868877 0 -0.0071757853837435799 -0.02033864070441747 0 -0.0067394132311167573 -0.023142876833278019 0 -0.010959937700747355 -0.018279005067858421 0 -0.010891439147505075 -0.018409041307900258 0 -0.011030952842201631 -0.018528805776457682 0 -0.010628799928517833 -0.017936074651527231 0 -0.010959937700747355 -0.018279005067858421 0 -0.01078642964371415 -0.018220020772179733 0 -0.010959937700747355 -0.018279005067858421 0 -0.01078642964371415 -0.018220020772179733 0 -0.010891439147505075 -0.018409041307900258 0 -0.010855633045557816 -0.018589373570195373 0 -0.010891439147505075 -0.018409041307900258 0 -0.011030952842201631 -0.018528805776457682 0 -0.0029141124445673642 -0.027300935075595761 0 -0.0029848027422582774 -0.02730800761219028 0 -0.0029938862374921525 -0.027127241035641039 0 -0.0029141124445673642 -0.027300935075595761 0 -0.0029848027422582774 -0.02730800761219028 0 -0.0029515808750201892 -0.027376003729638162 0 -0.0029848027422582774 -0.02730800761219028 0 -0.0029938862374921525 -0.027127241035641039 0 -0.003066678123468634 -0.027232286463670787 0 -0.0029848027422582774 -0.02730800761219028 0 -0.0030501002679045154 -0.027365703116574602 0 -0.0029796735233772039 -0.027453879511994714 0 -0.0029848027422582774 -0.02730800761219028 0 -0.003066678123468634 -0.027232286463670787 0 -0.0030501002679045154 -0.027365703116574602 0 -0.0049042202840029964 -0.020972268080687511 0 -0.0038986095707145324 -0.022780972799184389 0 -0.0015590893406186646 -0.021399794547023586 0 -0.0022262570958646133 -0.02118406336919788 0 -0.0022836535042044226 -0.022069318176151452 0 -0.00090102024713875129 -0.023668046044298934 0 -0.0015704724285220484 -0.023815773399223944 0 -0.00067284130809700416 -0.022547189001567141 0 -0.0022262570958646133 -0.02118406336919788 0 -0.002787867095013542 -0.021637103835423457 0 -0.0025449861891438494 -0.020538563739400564 0 -0.0022262570958646133 -0.02118406336919788 0 -0.002787867095013542 -0.021637103835423457 0 -0.0022836535042044226 -0.022069318176151452 0 -0.0038986095707145324 -0.022780972799184389 0 -0.0029844571373123024 -0.023900297903711308 0 -0.0022023484529302187 -0.021948382726414608 0 -0.0029844571373123024 -0.023900297903711308 0 -0.002787867095013542 -0.021637103835423457 0 -0.0022836535042044226 -0.022069318176151452 0 -0.0030246331595107441 -0.022753467348919417 0 -0.003066678123468634 -0.027232286463670787 0 -0.0030501002679045154 -0.027365703116574602 0 -0.0031666598981250813 -0.027349567478103569 0 -0.0011734983840810357 -0.024720195887653531 0 -0.0015814317245116301 -0.024794533246401251 0 -0.001765008092478053 -0.024486499966948634 0 -0.0011734983840810357 -0.024720195887653531 0 -0.001765008092478053 -0.024486499966948634 0 -0.0015704724285220484 -0.023815773399223944 0 -0.001765008092478053 -0.024486499966948634 0 -0.0022529288997941454 -0.024048478904266774 0 -0.0019062028869897805 -0.02522807199016773 0 -0.00090102024713875129 -0.023668046044298934 0 -0.0011734983840810357 -0.024720195887653531 0 -0.0015704724285220484 -0.023815773399223944 0 -0.0015814317245116301 -0.024794533246401251 0 -0.001765008092478053 -0.024486499966948634 0 -0.0019062028869897805 -0.02522807199016773 0 -0.001765008092478053 -0.024486499966948634 0 -0.0022529288997941454 -0.024048478904266774 0 -0.0015704724285220484 -0.023815773399223944 0 -0.0024180960156761845 -0.024947442525753576 0 -0.0023580037040952591 -0.025566737691260843 0 -0.0024537329935440198 -0.024968529762629522 0 -0.0022529288997941454 -0.024048478904266774 0 -0.0019542148219402599 -0.025625509162952531 0 -0.002772430526636835 -0.025091566284269052 0 -0.0024537329935440198 -0.024968529762629522 0 -0.002833760817086273 -0.024356918538393259 0 -0.0024537329935440198 -0.024968529762629522 0 -0.002833760817086273 -0.024356918538393259 0 -0.0022529288997941454 -0.024048478904266774 0 -0.002833760817086273 -0.024356918538393259 0 -0.0020743290744478929 -0.023366413119337917 0 -0.0035737634838462653 -0.024225555299431892 0 -0.002833760817086273 -0.024356918538393259 0 -0.0022529288997941454 -0.024048478904266774 0 -0.0020743290744478929 -0.023366413119337917 0 0.0026293124203309614 -0.021498570602746063 0 0.004931221329043731 -0.02496545393902638 0 -0.0020743290744478929 -0.023366413119337917 0 -0.0015704724285220484 -0.023815773399223944 0 -0.00067284130809700416 -0.022547189001567141 0 -0.0022529288997941454 -0.024048478904266774 0 -0.0020743290744478929 -0.023366413119337917 0 -0.0015704724285220484 -0.023815773399223944 0 0.0079189811990248282 -0.019018441086677156 0 0.0071514044366577803 -0.020167490872680129 0 0.0059270188302305389 -0.019909216693531219 0 0.0026293124203309614 -0.021498570602746063 0 -0.001377552164566949 -0.019027968562197902 0 0.0079189811990248282 -0.019018441086677156 0 0.0085972676862180429 -0.02032482804089623 0 0.0093438330947364662 -0.019509203995864144 0 0.0079189811990248282 -0.019018441086677156 0 0.0071514044366577803 -0.020167490872680129 0 0.0085972676862180429 -0.02032482804089623 0 0.0074020381429539851 -0.021490105543973032 0 0.0085972676862180429 -0.02032482804089623 0 0.009390357021778652 -0.021464694911083836 0 0.0021947588034506721 -0.017494864198523304 0 -0.0013996410703189918 -0.01858722064017641 0 0.0074020381429539851 -0.021490105543973032 0 0.0071514044366577803 -0.020167490872680129 0 0.0085972676862180429 -0.02032482804089623 0 0.0074020381429539851 -0.021490105543973032 0 0.0071514044366577803 -0.020167490872680129 0 0.0058850335593256297 -0.020097585551743669 0 0.00058978527073099926 -0.010345662162008358 0 0.00051289855637436078 -0.010468110445407458 0 0.00055770231377316683 -0.010808953536592196 0 -0.0091618279986917413 -0.016031551061597947 0 -0.0091261027924831699 -0.015977202061122697 0 -0.0088877084060776136 -0.015831087305237686 0 -0.0027658427038381576 -0.01411547524868428 0 -0.0013996410703189918 -0.01858722064017641 0 0.0004178458996826144 -0.010435822882227256 0 0.00051289855637436078 -0.010468110445407458 0 0.00055770231377316683 -0.010808953536592196 0 -0.0091261027924831699 -0.015977202061122697 0 -0.0090857251205077021 -0.015924371552064765 0 -0.0088877084060776136 -0.015831087305237686 0 -0.0091261027924831699 -0.015977202061122697 0 -0.0090857251205077021 -0.015924371552064765 0 -0.0091648170330349277 -0.015945439860541973 0 -0.0090857251205077021 -0.015924371552064765 0 -0.0091648170330349277 -0.015945439860541973 0 -0.0091266186572749198 -0.015909788421427991 0 -0.0092274144458270937 -0.015928621585847961 0 -0.0091266186572749198 -0.015909788421427991 0 -0.0091501757327610202 -0.01586345001154774 0 -0.0092640913321997594 -0.015975189596392894 0 -0.0092274144458270937 -0.015928621585847961 0 -0.0091648170330349277 -0.015945439860541973 0 -0.0092274144458270937 -0.015928621585847961 0 -0.0091648170330349277 -0.015945439860541973 0 -0.0091266186572749198 -0.015909788421427991 0 -0.0090857251205077021 -0.015924371552064765 0 -0.0090589550742674017 -0.015872629105189988 0 -0.0088877084060776136 -0.015831087305237686 0 -0.0091266186572749198 -0.015909788421427991 0 -0.0091501757327610202 -0.01586345001154774 0 -0.0090589550742674017 -0.015872629105189988 0 -0.0090857251205077021 -0.015924371552064765 0 -0.0091266186572749198 -0.015909788421427991 0 -0.0090589550742674017 -0.015872629105189988 0 -0.0091501757327610202 -0.01586345001154774 0 -0.0090804178388282347 -0.015843645276297641 0 -0.0090589550742674017 -0.015872629105189988 0 -0.0090804178388282347 -0.015843645276297641 0 -0.0090589550742674017 -0.015872629105189988 0 -0.0090014283480810368 -0.015830448010841863 0 -0.0015590893406186646 -0.021399794547023586 0 -0.0022262570958646133 -0.02118406336919788 0 -0.0024323401636521598 -0.020480349301232267 0 -0.0090014283480810368 -0.015830448010841863 0 -0.0091331096050527444 -0.015759068660508902 0 -0.0089177555483923778 -0.015809340146562021 0 -0.0049042202840029964 -0.020972268080687511 0 -0.0017198784496365166 -0.018877157975857924 0 -0.0090804178388282347 -0.015843645276297641 0 -0.0090014283480810368 -0.015830448010841863 0 -0.0091331096050527444 -0.015759068660508902 0 -0.0091108552378604008 -0.015648614808142877 0 -0.0091331096050527444 -0.015759068660508902 0 -0.0089177555483923778 -0.015809340146562021 0 -0.0092705397401382315 -0.015861791072128668 0 -0.0091501757327610202 -0.01586345001154774 0 -0.0091331096050527444 -0.015759068660508902 0 -0.0091501757327610202 -0.01586345001154774 0 -0.0090804178388282347 -0.015843645276297641 0 -0.0091331096050527444 -0.015759068660508902 0 -0.0022262570958646133 -0.02118406336919788 0 -0.0025449861891438494 -0.020538563739400564 0 -0.0024323401636521598 -0.020480349301232267 0 0.0071514044366577803 -0.020167490872680129 0 0.0058850335593256297 -0.020097585551743669 0 0.0059270188302305389 -0.019909216693531219 0 -0.0022023484529302187 -0.021948382726414608 0 -0.001377552164566949 -0.019027968562197902 0 -0.0090589550742674017 -0.015872629105189988 0 -0.0090014283480810368 -0.015830448010841863 0 -0.0088877084060776136 -0.015831087305237686 0 -0.0013996410703189918 -0.01858722064017641 0 -0.0017198784496365166 -0.018877157975857924 0 -0.0020563452405004882 -0.018936577143527956 0 -0.0017198784496365166 -0.018877157975857924 0 -0.0090014283480810368 -0.015830448010841863 0 -0.0088877084060776136 -0.015831087305237686 0 -0.0089053659034767918 -0.01580871528185681 0 -0.0013996410703189918 -0.01858722064017641 0 -0.001377552164566949 -0.019027968562197902 0 -0.00014039664724973955 -0.019603017266323131 0 -0.00010430267293560168 -0.019440128450501255 0 -0.00023736470273573045 -0.019506628389696235 0 -0.001377552164566949 -0.019027968562197902 0 -0.0017198784496365166 -0.018877157975857924 0 -0.0095978367862612404 -0.016883274068357167 0 -0.0093320015763335186 -0.017569907688691679 0 -0.0097736174359082349 -0.017516552430959936 0 -0.0097736174359082349 -0.017516552430959936 0 -0.010272796943489499 -0.017262943681120052 0 -0.01016023160801801 -0.018057277989348881 0 -0.0095978367862612404 -0.016883274068357167 0 -0.0097736174359082349 -0.017516552430959936 0 -0.010272796943489499 -0.017262943681120052 0 -0.0093320015763335186 -0.017569907688691679 0 -0.0097736174359082349 -0.017516552430959936 0 -0.0094477725495309937 -0.018131374251398231 0 -0.010237578702241136 -0.016649016158452278 0 -0.010256032284130264 -0.016378670130361619 0 -0.010272796943489499 -0.017262943681120052 0 -0.010173734300638665 -0.016123537386208885 0 -0.010703217231330348 -0.016235667538825178 0 -0.010272796943489499 -0.017262943681120052 0 -0.0099659118533806865 -0.016703493938190636 0 -0.01027848649218057 -0.017136802241314947 0 -0.0095978367862612404 -0.016883274068357167 0 -0.010272796943489499 -0.017262943681120052 0 -0.010173734300638665 -0.016123537386208885 0 -0.010173734300638665 -0.016123537386208885 0 -0.010277668314281108 -0.01541018785990746 0 -0.010774879089680833 -0.01544983592833484 0 -0.010256032284130264 -0.016378670130361619 0 -0.010239835993737879 -0.016012707406701885 0 -0.010173734300638665 -0.016123537386208885 0 -0.010703217231330348 -0.016235667538825178 0 -0.010774879089680833 -0.01544983592833484 0 -0.0099659118533806865 -0.016703493938190636 0 -0.0099334396415684933 -0.016324249016007809 0 -0.010132961414052219 -0.016623699393959052 0 -0.0099334396415684933 -0.016324249016007809 0 -0.0099850380890192086 -0.016248096977657393 0 -0.010132961414052219 -0.016623699393959052 0 -0.010132961414052219 -0.016623699393959052 0 -0.01027848649218057 -0.017136802241314947 0 -0.010357969973950939 -0.017319654645905923 0 -0.01027848649218057 -0.017136802241314947 0 -0.010357969973950939 -0.017319654645905923 0 -0.010829929990893637 -0.018087528902942532 0 -0.010272796943489499 -0.017262943681120052 0 -0.01027848649218057 -0.017136802241314947 0 -0.010829929990893637 -0.018087528902942532 0 -0.0099659118533806865 -0.016703493938190636 0 -0.010132961414052219 -0.016623699393959052 0 -0.01027848649218057 -0.017136802241314947 0 -0.010357969973950939 -0.017319654645905923 0 -0.010607350097439513 -0.017513358443346862 0 -0.010525137258003697 -0.017809501649673935 0 -0.010607350097439513 -0.017513358443346862 0 -0.010964499291587123 -0.017191340396475845 0 -0.010891652526735624 -0.01786456653771645 0 -0.010001966836412472 -0.016563473342214013 0 -0.010032919137808636 -0.016669201395968052 0 -0.010607350097439513 -0.017513358443346862 0 -0.01010371666311914 -0.016321517131921398 0 -0.010964499291587123 -0.017191340396475845 0 -0.010132961414052219 -0.016623699393959052 0 -0.010357969973950939 -0.017319654645905923 0 -0.01010371666311914 -0.016321517131921398 0 -0.010357969973950939 -0.017319654645905923 0 -0.010607350097439513 -0.017513358443346862 0 -0.01010371666311914 -0.016321517131921398 0 -0.0099850380890192086 -0.016248096977657393 0 -0.010132961414052219 -0.016623699393959052 0 -0.01010371666311914 -0.016321517131921398 0 -0.0099850380890192086 -0.016248096977657393 0 -0.0097255598290220922 -0.016074396253206693 0 -0.01010371666311914 -0.016321517131921398 0 -0.0092457313651436931 -0.015830621139805622 0 -0.0097255598290220922 -0.016074396253206693 0 -0.0093215472936088867 -0.015986306597198373 0 -0.01010371666311914 -0.016321517131921398 0 -0.0093215472936088867 -0.015986306597198373 0 -0.0093200509154777247 -0.015798458233488251 0 -0.0097255598290220922 -0.016074396253206693 0 -0.01010371666311914 -0.016321517131921398 0 -0.0093215472936088867 -0.015986306597198373 0 -0.0092457313651436931 -0.015830621139805622 0 -0.0090362386972426198 -0.015536834540290154 0 -0.0093215472936088867 -0.015986306597198373 0 -0.0090362386972426198 -0.015536834540290154 0 -0.0090858842714959809 -0.015758927942737252 0 -0.0093215472936088867 -0.015986306597198373 0 -0.0090858842714959809 -0.015758927942737252 0 -0.0093215472936088867 -0.015986306597198373 0 -0.0091453305893726376 -0.015860800753074715 0 -0.0091453305893726376 -0.015860800753074715 0 -0.0093200509154777247 -0.015798458233488251 0 -0.009066866230424039 -0.016022657553052936 0 -0.0093215472936088867 -0.015986306597198373 0 -0.0091453305893726376 -0.015860800753074715 0 -0.0093200509154777247 -0.015798458233488251 0 -0.010964499291587123 -0.017191340396475845 0 -0.01106701501672798 -0.017773400045501798 0 -0.010891652526735624 -0.01786456653771645 0 -0.010032919137808636 -0.016669201395968052 0 -0.01009888675721035 -0.016925734693075633 0 -0.0109032415518508 -0.01810290814027167 0 -0.01106701501672798 -0.017773400045501798 0 -0.010928713257473865 -0.018101986206623819 0 -0.01106701501672798 -0.017773400045501798 0 -0.010891652526735624 -0.01786456653771645 0 -0.010928713257473865 -0.018101986206623819 0 -0.010891652526735624 -0.01786456653771645 0 -0.010928713257473865 -0.018101986206623819 0 -0.010909400647700193 -0.018207969183518968 0 -0.011474512135198119 -0.019353511325703586 0 -0.011437645825938984 -0.020349836930033439 0 -0.010776076218544577 -0.018276003871459313 0 -0.010928713257473865 -0.018101986206623819 0 -0.010557546362788535 -0.018384004162961001 0 -0.010776076218544577 -0.018276003871459313 0 -0.010557546362788535 -0.018384004162961001 0 -0.010604375853003918 -0.018559328842838584 0 -0.010557546362788535 -0.018384004162961001 0 -0.010604375853003918 -0.018559328842838584 0 -0.010378622651714145 -0.01875966123887245 0 -0.011437645825938984 -0.020349836930033439 0 -0.010912712487830109 -0.024661960081478813 0 -0.011113857844974599 -0.018477830420041082 0 -0.010993261348233477 -0.01861938184536939 0 -0.011088648618287133 -0.018813563182885663 0 -0.010120832314752221 -0.022857501641301591 0 -0.010912712487830109 -0.024661960081478813 0 -0.010993261348233477 -0.01861938184536939 0 -0.011011704037496755 -0.018983277987674397 0 -0.01138892916687049 -0.01907081937798694 0 -0.010928713257473865 -0.018101986206623819 0 -0.011113857844974599 -0.018477830420041082 0 -0.010909400647700193 -0.018207969183518968 0 -0.011113857844974599 -0.018477830420041082 0 -0.010909400647700193 -0.018207969183518968 0 -0.010993261348233477 -0.01861938184536939 0 -0.010909400647700193 -0.018207969183518968 0 -0.010801513341381637 -0.018370055060163554 0 -0.010993261348233477 -0.01861938184536939 0 -0.010993261348233477 -0.01861938184536939 0 -0.010743771560076196 -0.018845279047743285 0 -0.011011704037496755 -0.018983277987674397 0 -0.010801513341381637 -0.018370055060163554 0 -0.010993261348233477 -0.01861938184536939 0 -0.010743771560076196 -0.018845279047743285 0 -0.010743771560076196 -0.018845279047743285 0 -0.010577861643662003 -0.018336263531247763 0 -0.010417662797705202 -0.01871471052708075 0 -0.010801513341381637 -0.018370055060163554 0 -0.010743771560076196 -0.018845279047743285 0 -0.010577861643662003 -0.018336263531247763 0 -0.010801513341381637 -0.018370055060163554 0 -0.010577861643662003 -0.018336263531247763 0 -0.0106928959542722 -0.018035889495323896 0 -0.010577861643662003 -0.018336263531247763 0 -0.0106928959542722 -0.018035889495323896 0 -0.010532794070775245 -0.018050578691067999 0 -0.0106928959542722 -0.018035889495323896 0 -0.010525137258003697 -0.017809501649673935 0 -0.010532794070775245 -0.018050578691067999 0 -0.010891652526735624 -0.01786456653771645 0 -0.010909400647700193 -0.018207969183518968 0 -0.0106928959542722 -0.018035889495323896 0 -0.010909400647700193 -0.018207969183518968 0 -0.010801513341381637 -0.018370055060163554 0 -0.0106928959542722 -0.018035889495323896 0 -0.010607350097439513 -0.017513358443346862 0 -0.010891652526735624 -0.01786456653771645 0 -0.0106928959542722 -0.018035889495323896 0 -0.010607350097439513 -0.017513358443346862 0 -0.0106928959542722 -0.018035889495323896 0 -0.010525137258003697 -0.017809501649673935 0 -0.010357969973950939 -0.017319654645905923 0 -0.010525137258003697 -0.017809501649673935 0 -0.010829929990893637 -0.018087528902942532 0 -0.011202240948372064 -0.019492051050383638 0 -0.011283147968278038 -0.020162903414710772 0 -0.010829929990893637 -0.018087528902942532 0 -0.010532794070775245 -0.018050578691067999 0 -0.010315185317356241 -0.018246248130291423 0 -0.010829929990893637 -0.018087528902942532 0 -0.012483959052691382 -0.02004414444406288 0 -0.010537106180040196 -0.019000312522906026 0 -0.010525137258003697 -0.017809501649673935 0 -0.010829929990893637 -0.018087528902942532 0 -0.010532794070775245 -0.018050578691067999 0 -0.010577861643662003 -0.018336263531247763 0 -0.010417662797705202 -0.01871471052708075 0 -0.010315185317356241 -0.018246248130291423 0 -0.010577861643662003 -0.018336263531247763 0 -0.010532794070775245 -0.018050578691067999 0 -0.010315185317356241 -0.018246248130291423 0 -0.010417662797705202 -0.01871471052708075 0 -0.010069964398176515 -0.018852693085644853 0 -0.010315185317356241 -0.018246248130291423 0 -0.011357990770736242 -0.021884961812835266 0 -0.011283147968278038 -0.020162903414710772 0 -0.013994170892722412 -0.02299464468039198 0 -0.012483959052691382 -0.02004414444406288 0 -0.012049060842765016 -0.021927361022646592 0 -0.013994170892722412 -0.02299464468039198 0 -0.012049060842765016 -0.021927361022646592 0 -0.012205782932744318 -0.023757652638046578 0 -0.012483959052691382 -0.02004414444406288 0 -0.01059645233774034 -0.020983356136413712 0 -0.010537106180040196 -0.019000312522906026 0 -0.012483959052691382 -0.02004414444406288 0 -0.01059645233774034 -0.020983356136413712 0 -0.012049060842765016 -0.021927361022646592 0 -0.01059645233774034 -0.020983356136413712 0 -0.012049060842765016 -0.021927361022646592 0 -0.011022035401715733 -0.022370093765238411 0 -0.012049060842765016 -0.021927361022646592 0 -0.011022035401715733 -0.022370093765238411 0 -0.012205782932744318 -0.023757652638046578 0 -0.01059645233774034 -0.020983356136413712 0 -0.011022035401715733 -0.022370093765238411 0 -0.009387642715186776 -0.022871649984969537 0 -0.0090218214088908025 -0.021053526237640216 0 -0.01059645233774034 -0.020983356136413712 0 -0.009387642715186776 -0.022871649984969537 0 -0.01059645233774034 -0.020983356136413712 0 -0.0095833835554814516 -0.019682747385392958 0 -0.010537106180040196 -0.019000312522906026 0 -0.0090218214088908025 -0.021053526237640216 0 -0.01059645233774034 -0.020983356136413712 0 -0.0095833835554814516 -0.019682747385392958 0 -0.0090355296241585795 -0.018955195725052006 0 -0.0095833835554814516 -0.019682747385392958 0 -0.0097866037666941089 -0.018727297305160633 0 -0.0090355296241585795 -0.018955195725052006 0 -0.0097866037666941089 -0.018727297305160633 0 -0.0094477725495309937 -0.018131374251398231 0 -0.0095833835554814516 -0.019682747385392958 0 -0.0097866037666941089 -0.018727297305160633 0 -0.010537106180040196 -0.019000312522906026 0 -0.010829929990893637 -0.018087528902942532 0 -0.010537106180040196 -0.019000312522906026 0 -0.01016023160801801 -0.018057277989348881 0 -0.0097866037666941089 -0.018727297305160633 0 -0.010537106180040196 -0.019000312522906026 0 -0.01016023160801801 -0.018057277989348881 0 -0.010272796943489499 -0.017262943681120052 0 -0.010829929990893637 -0.018087528902942532 0 -0.01016023160801801 -0.018057277989348881 0 -0.0097736174359082349 -0.017516552430959936 0 -0.01016023160801801 -0.018057277989348881 0 -0.0094477725495309937 -0.018131374251398231 0 -0.0097866037666941089 -0.018727297305160633 0 -0.01016023160801801 -0.018057277989348881 0 -0.0094477725495309937 -0.018131374251398231 0 -0.014813537365912732 -0.034204046575946473 0 -0.01364319689314372 -0.034963207483797498 0 -0.0057623341591409652 -0.035728151825227428 0 -0.0081462157446441207 -0.033990207655310557 0 -0.0097250722774919595 -0.036534907233835366 0 -0.0081462157446441207 -0.033990207655310557 0 -0.01000168364802668 -0.033951460919358425 0 -0.0088880029402623132 -0.032142312968727563 0 -0.0057623341591409652 -0.035728151825227428 0 -0.0081462157446441207 -0.033990207655310557 0 -0.0069285068448135794 -0.033451788258282211 0 -0.0081462157446441207 -0.033990207655310557 0 -0.01000168364802668 -0.033951460919358425 0 -0.0097250722774919595 -0.036534907233835366 0 -0.011365396784621604 -0.035219940730184952 0 -0.01000168364802668 -0.033951460919358425 0 -0.0097250722774919595 -0.036534907233835366 0 -0.011365396784621604 -0.035219940730184952 0 -0.013540628413748442 -0.036784563023954331 0 -0.0097250722774919595 -0.036534907233835366 0 -0.011365396784621604 -0.035219940730184952 0 -0.012836136065001684 -0.035540158274110764 0 -0.013540628413748442 -0.036784563023954331 0 -0.012836136065001684 -0.035540158274110764 0 -0.011678374100536491 -0.033552245793846261 0 -0.012915873172072314 -0.033567413183093621 0 -0.011365396784621604 -0.035219940730184952 0 -0.012836136065001684 -0.035540158274110764 0 -0.011678374100536491 -0.033552245793846261 0 -0.011365396784621604 -0.035219940730184952 0 -0.011678374100536491 -0.033552245793846261 0 -0.01000168364802668 -0.033951460919358425 0 -0.011678374100536491 -0.033552245793846261 0 -0.01000168364802668 -0.033951460919358425 0 -0.010374235395882227 -0.0322229043453875 0 -0.011678374100536491 -0.033552245793846261 0 -0.010374235395882227 -0.0322229043453875 0 -0.011585828347328695 -0.031094663827811883 0 -0.010374235395882227 -0.0322229043453875 0 -0.0099778971946008661 -0.030248721759716272 0 -0.0088880029402623132 -0.032142312968727563 0 -0.011678374100536491 -0.033552245793846261 0 -0.011585828347328695 -0.031094663827811883 0 -0.013119502703751609 -0.032113515037392459 0 -0.011678374100536491 -0.033552245793846261 0 -0.013119502703751609 -0.032113515037392459 0 -0.012915873172072314 -0.033567413183093621 0 -0.011585828347328695 -0.031094663827811883 0 -0.0099778971946008661 -0.030248721759716272 0 -0.011952082882455225 -0.028266655661461193 0 -0.011585828347328695 -0.031094663827811883 0 -0.013348857618278948 -0.030133415265151713 0 -0.013119502703751609 -0.032113515037392459 0 -0.011585828347328695 -0.031094663827811883 0 -0.011952082882455225 -0.028266655661461193 0 -0.013348857618278948 -0.030133415265151713 0 -0.010374235395882227 -0.0322229043453875 0 -0.011585828347328695 -0.031094663827811883 0 -0.0099778971946008661 -0.030248721759716272 0 -0.0099778971946008661 -0.030248721759716272 0 -0.008401168286733195 -0.0306670424133384 0 -0.0088880029402623132 -0.032142312968727563 0 -0.01000168364802668 -0.033951460919358425 0 -0.010374235395882227 -0.0322229043453875 0 -0.0088880029402623132 -0.032142312968727563 0 -0.008401168286733195 -0.0306670424133384 0 -0.0088880029402623132 -0.032142312968727563 0 -0.0074189441895514425 -0.031987376809787776 0 -0.0081462157446441207 -0.033990207655310557 0 -0.0069285068448135794 -0.033451788258282211 0 -0.0074189441895514425 -0.031987376809787776 0 -0.0081462157446441207 -0.033990207655310557 0 -0.0088880029402623132 -0.032142312968727563 0 -0.0074189441895514425 -0.031987376809787776 0 -0.0063863940697762491 -0.032097936778831826 0 -0.0069285068448135794 -0.033451788258282211 0 -0.0074189441895514425 -0.031987376809787776 0 -0.0061222256375192659 -0.031487670930952179 0 -0.0074189441895514425 -0.031987376809787776 0 -0.0071809120166937551 -0.030452681245270837 0 -0.008401168286733195 -0.0306670424133384 0 -0.0074189441895514425 -0.031987376809787776 0 -0.0071809120166937551 -0.030452681245270837 0 -0.0064214447040820263 -0.029347795413200376 0 -0.0071809120166937551 -0.030452681245270837 0 -0.0084398331228451532 -0.028824501048665213 0 -0.008401168286733195 -0.0306670424133384 0 -0.0071809120166937551 -0.030452681245270837 0 -0.0084398331228451532 -0.028824501048665213 0 -0.0099778971946008661 -0.030248721759716272 0 -0.008401168286733195 -0.0306670424133384 0 -0.0084398331228451532 -0.028824501048665213 0 -0.0086581798940090562 -0.027909279074885013 0 -0.008646302683011059 -0.026289438135710011 0 -0.010173110472650522 -0.025805499413658606 0 -0.0072944574300431355 -0.026821632376607746 0 -0.0086581798940090562 -0.027909279074885013 0 -0.008646302683011059 -0.026289438135710011 0 -0.0072944574300431355 -0.026821632376607746 0 -0.008646302683011059 -0.026289438135710011 0 -0.0080329518908633882 -0.024337614360031391 0 -0.008646302683011059 -0.026289438135710011 0 -0.0080329518908633882 -0.024337614360031391 0 -0.010173110472650522 -0.025805499413658606 0 -0.0098269692408493228 -0.024351105294648966 0 -0.010811025309719913 -0.024213461478108864 0 -0.0080329518908633882 -0.024337614360031391 0 -0.012205782932744318 -0.023757652638046578 0 -0.010173110472650522 -0.025805499413658606 0 -0.011022035401715733 -0.022370093765238411 0 -0.009387642715186776 -0.022871649984969537 0 -0.012205782932744318 -0.023757652638046578 0 -0.012205782932744318 -0.023757652638046578 0 -0.010173110472650522 -0.025805499413658606 0 -0.012843943156381462 -0.025785412340613337 0 -0.0099778971946008661 -0.030248721759716272 0 -0.0084398331228451532 -0.028824501048665213 0 -0.011952082882455225 -0.028266655661461193 0 -0.010329962965809819 -0.028879415125544712 0 -0.010657049299520731 -0.028798004091657545 0 -0.010173110472650522 -0.025805499413658606 0 -0.011952082882455225 -0.028266655661461193 0 -0.012843943156381462 -0.025785412340613337 0 -0.0086581798940090562 -0.027909279074885013 0 -0.010173110472650522 -0.025805499413658606 0 -0.011952082882455225 -0.028266655661461193 0 -0.011952082882455225 -0.028266655661461193 0 -0.015283001752925312 -0.027711794936804715 0 -0.013348857618278948 -0.030133415265151713 0 -0.011952082882455225 -0.028266655661461193 0 -0.015283001752925312 -0.027711794936804715 0 -0.012843943156381462 -0.025785412340613337 0 -0.015283001752925312 -0.027711794936804715 0 -0.014459851460263179 -0.031224665437594085 0 -0.013348857618278948 -0.030133415265151713 0 -0.010069964398176515 -0.018852693085644853 0 -0.0099516220823341484 -0.019588985393830503 0 -0.010263375579948742 -0.019143755362446037 0 -0.013994170892722412 -0.02299464468039198 0 -0.015283001752925312 -0.027711794936804715 0 -0.012843943156381462 -0.025785412340613337 0 -0.011357990770736242 -0.021884961812835266 0 -0.011170049677067572 -0.024641525126066682 0 -0.013994170892722412 -0.02299464468039198 0 -0.012205782932744318 -0.023757652638046578 0 -0.012843943156381462 -0.025785412340613337 0 -0.010417662797705202 -0.01871471052708075 0 -0.010263375579948742 -0.019143755362446037 0 -0.010487686445449099 -0.019120942667374324 0 -0.010417662797705202 -0.01871471052708075 0 -0.010069964398176515 -0.018852693085644853 0 -0.010263375579948742 -0.019143755362446037 0 -0.010263375579948742 -0.019143755362446037 0 -0.010367466804583208 -0.019510734472918751 0 -0.010487686445449099 -0.019120942667374324 0 -0.0099516220823341484 -0.019588985393830503 0 -0.010263375579948742 -0.019143755362446037 0 -0.010367466804583208 -0.019510734472918751 0 -0.0099516220823341484 -0.019588985393830503 0 -0.010367466804583208 -0.019510734472918751 0 -0.010228634462268182 -0.019869870820438049 0 -0.010367466804583208 -0.019510734472918751 0 -0.010228634462268182 -0.019869870820438049 0 -0.010593550827495629 -0.019894655890993707 0 -0.0099516220823341484 -0.019588985393830503 0 -0.010228634462268182 -0.019869870820438049 0 -0.009985803490201119 -0.020478044947320646 0 -0.011942748706823339 -0.036262024351354408 0 -0.012591851892464596 -0.036400403658268583 0 -0.011389644217787971 -0.036492532025350341 0 -0.010401332960711177 -0.029010779298142809 0 -0.010757073181804563 -0.027831322545744688 0 -0.010228634462268182 -0.019869870820438049 0 -0.009985803490201119 -0.020478044947320646 0 -0.010593550827495629 -0.019894655890993707 0 -0.015283001752925312 -0.027711794936804715 0 -0.014459851460263179 -0.031224665437594085 0 -0.016120161642553574 -0.032910435291027801 0 -0.011170049677067572 -0.024641525126066682 0 -0.010401332960711177 -0.029010779298142809 0 -0.014459851460263179 -0.031224665437594085 0 -0.013348857618278948 -0.030133415265151713 0 -0.013119502703751609 -0.032113515037392459 0 -0.014459851460263179 -0.031224665437594085 0 -0.013119502703751609 -0.032113515037392459 0 -0.014043192777649096 -0.033129175751951831 0 -0.013119502703751609 -0.032113515037392459 0 -0.014043192777649096 -0.033129175751951831 0 -0.012915873172072314 -0.033567413183093621 0 -0.014459851460263179 -0.031224665437594085 0 -0.014043192777649096 -0.033129175751951831 0 -0.016120161642553574 -0.032910435291027801 0 -0.012672483170855212 -0.036269401333156558 0 -0.013048901426876518 -0.036228965606232788 0 -0.012958741823797358 -0.036383780684494833 0 -0.010401332960711177 -0.029010779298142809 0 -0.010433509482465247 -0.029232610028496198 0 -0.012836136065001684 -0.035540158274110764 0 -0.012693605130856449 -0.036399919227779992 0 -0.012672483170855212 -0.036269401333156558 0 -0.012836136065001684 -0.035540158274110764 0 -0.012672483170855212 -0.036269401333156558 0 -0.013048901426876518 -0.036228965606232788 0 -0.012836136065001684 -0.035540158274110764 0 -0.014043192777649096 -0.033129175751951831 0 -0.012915873172072314 -0.033567413183093621 0 -0.010426421647979181 -0.030059736935629466 0 -0.010401332960711177 -0.029010779298142809 0 -0.012836136065001684 -0.035540158274110764 0 -0.014043192777649096 -0.033129175751951831 0 -0.016120161642553574 -0.032910435291027801 0 -0.012836136065001684 -0.035540158274110764 0 -0.013048901426876518 -0.036228965606232788 0 -0.013540628413748442 -0.036784563023954331 0 -0.012706247436059612 -0.036573143825948499 0 -0.01300069914867061 -0.03633771520387382 0 -0.011942748706823339 -0.036262024351354408 0 -0.01140505507443359 -0.036062063407926684 0 -0.011599149123736037 -0.035932880816037044 0 -0.011942748706823339 -0.036262024351354408 0 -0.012672483170855212 -0.036269401333156558 0 -0.012958741823797358 -0.036383780684494833 0 -0.011942748706823339 -0.036262024351354408 0 -0.011599149123736037 -0.035932880816037044 0 -0.01180475382812643 -0.035866673438395877 0 -0.011942748706823339 -0.036262024351354408 0 -0.012591851892464596 -0.036400403658268583 0 -0.012672483170855212 -0.036269401333156558 0 -0.011152597374717643 -0.036165119478439957 0 -0.01140505507443359 -0.036062063407926684 0 -0.011384904645277947 -0.036289218690580584 0 -0.011942748706823339 -0.036262024351354408 0 -0.01140505507443359 -0.036062063407926684 0 -0.011384904645277947 -0.036289218690580584 0 -0.01140505507443359 -0.036062063407926684 0 -0.011128132834471357 -0.036032050554589468 0 -0.011292553920240769 -0.035843405456981253 0 -0.011152597374717643 -0.036165119478439957 0 -0.01140505507443359 -0.036062063407926684 0 -0.011128132834471357 -0.036032050554589468 0 -0.011152597374717643 -0.036165119478439957 0 -0.011128132834471357 -0.036032050554589468 0 -0.01098586505442258 -0.03608969156067518 0 -0.011128132834471357 -0.036032050554589468 0 -0.01098586505442258 -0.03608969156067518 0 -0.010858954457314468 -0.035969371325222675 0 -0.01098586505442258 -0.03608969156067518 0 -0.010875403683611107 -0.036106004187881652 0 -0.010858954457314468 -0.035969371325222675 0 -0.01098586505442258 -0.03608969156067518 0 -0.011002393494216434 -0.036190741124936796 0 -0.010875403683611107 -0.036106004187881652 0 -0.011152597374717643 -0.036165119478439957 0 -0.01098586505442258 -0.03608969156067518 0 -0.011002393494216434 -0.036190741124936796 0 -0.011152597374717643 -0.036165119478439957 0 -0.011002393494216434 -0.036190741124936796 0 -0.011086067834823144 -0.036287931191832559 0 -0.011002393494216434 -0.036190741124936796 0 -0.011086067834823144 -0.036287931191832559 0 -0.011067048045617103 -0.036234982578101323 0 -0.011086067834823144 -0.036287931191832559 0 -0.011384904645277947 -0.036289218690580584 0 -0.011389644217787971 -0.036492532025350341 0 -0.011152597374717643 -0.036165119478439957 0 -0.011086067834823144 -0.036287931191832559 0 -0.011384904645277947 -0.036289218690580584 0 -0.011942748706823339 -0.036262024351354408 0 -0.011384904645277947 -0.036289218690580584 0 -0.011389644217787971 -0.036492532025350341 0 -0.010367466804583208 -0.019510734472918751 0 -0.010593550827495629 -0.019894655890993707 0 -0.010664822955631455 -0.019405514397279267 0 -0.010593550827495629 -0.019894655890993707 0 -0.010664822955631455 -0.019405514397279267 0 -0.010965307233825432 -0.0194144091723388 0 -0.010757073181804563 -0.027831322545744688 0 -0.010687357554131987 -0.026682495466832434 0 -0.010743771560076196 -0.018845279047743285 0 -0.010417662797705202 -0.01871471052708075 0 -0.010487686445449099 -0.019120942667374324 0 -0.010743771560076196 -0.018845279047743285 0 -0.010664822955631455 -0.019405514397279267 0 -0.010487686445449099 -0.019120942667374324 0 -0.010743771560076196 -0.018845279047743285 0 -0.010664822955631455 -0.019405514397279267 0 -0.010965307233825432 -0.0194144091723388 0 -0.010367466804583208 -0.019510734472918751 0 -0.010664822955631455 -0.019405514397279267 0 -0.010487686445449099 -0.019120942667374324 0 -0.010743771560076196 -0.018845279047743285 0 -0.011011704037496755 -0.018983277987674397 0 -0.010965307233825432 -0.0194144091723388 0 -0.011011704037496755 -0.018983277987674397 0 -0.010965307233825432 -0.0194144091723388 0 -0.01138892916687049 -0.01907081937798694 0 -0.011086067834823144 -0.036287931191832559 0 -0.011035362384125129 -0.036178483987153134 0 -0.011067048045617103 -0.036234982578101323 0 -0.011086067834823144 -0.036287931191832559 0 -0.011389644217787971 -0.036492532025350341 0 -0.011035362384125129 -0.036178483987153134 0 -0.011035362384125129 -0.036178483987153134 0 -0.011172300784629928 -0.035853503204998277 0 -0.011067048045617103 -0.036234982578101323 0 -0.010763336786266064 -0.028579883605713615 0 -0.012158087642393133 -0.03038694945650908 0 -0.010259566398823992 -0.031544643984109777 0 -0.010912712487830109 -0.024661960081478813 0 -0.010270057369677349 -0.032231531940828645 0 -0.010687357554131987 -0.026682495466832434 0 -0.010912712487830109 -0.024661960081478813 0 -0.010378622651714145 -0.01875966123887245 0 -0.010581271183166529 -0.018770877529504064 0 -0.010520566704175198 -0.01901138780355183 0 -0.010912712487830109 -0.024661960081478813 0 -0.010027099556679294 -0.026376300814680922 0 -0.010725224090808533 -0.018569718405885408 0 -0.010604375853003918 -0.018559328842838584 0 -0.010581271183166529 -0.018770877529504064 0 -0.010604375853003918 -0.018559328842838584 0 -0.010378622651714145 -0.01875966123887245 0 -0.010581271183166529 -0.018770877529504064 0 -0.010581271183166529 -0.018770877529504064 0 -0.010520566704175198 -0.01901138780355183 0 -0.010705539109850304 -0.018885427529166613 0 -0.012158087642393133 -0.03038694945650908 0 -0.012237297473922231 -0.031680369709219496 0 -0.010259566398823992 -0.031544643984109777 0 -0.012158087642393133 -0.03038694945650908 0 -0.012237297473922231 -0.031680369709219496 0 -0.013393198985244605 -0.031988602725622317 0 -0.010027099556679294 -0.026376300814680922 0 -0.0091764592844336274 -0.028930823224742185 0 -0.012237297473922231 -0.031680369709219496 0 -0.012555768216802788 -0.032862230200776769 0 -0.013393198985244605 -0.031988602725622317 0 -0.012555768216802788 -0.032862230200776769 0 -0.011346700567518991 -0.032461606775749691 0 -0.010846777585959994 -0.033777842214543344 0 -0.012237297473922231 -0.031680369709219496 0 -0.011346700567518991 -0.032461606775749691 0 -0.010259566398823992 -0.031544643984109777 0 -0.012237297473922231 -0.031680369709219496 0 -0.012555768216802788 -0.032862230200776769 0 -0.011346700567518991 -0.032461606775749691 0 -0.010270057369677349 -0.032231531940828645 0 -0.01016144505326245 -0.034306341176020744 0 -0.011002393494216434 -0.036190741124936796 0 -0.011067048045617103 -0.036234982578101323 0 -0.010875403683611107 -0.036106004187881652 0 -0.011346700567518991 -0.032461606775749691 0 -0.010259566398823992 -0.031544643984109777 0 -0.010846777585959994 -0.033777842214543344 0 -0.010259566398823992 -0.031544643984109777 0 -0.010846777585959994 -0.033777842214543344 0 -0.0098664488161644397 -0.034280360667059341 0 -0.0098664488161644397 -0.034280360667059341 0 -0.010845115414880296 -0.034469231873742782 0 -0.010266340297237509 -0.035097738716856543 0 -0.010846777585959994 -0.033777842214543344 0 -0.0098664488161644397 -0.034280360667059341 0 -0.010845115414880296 -0.034469231873742782 0 -0.0094236277826261813 -0.030065900096162022 0 -0.0093744091591933271 -0.031143547127191536 0 -0.012207458123743128 -0.033009951902604633 0 -0.010846777585959994 -0.033777842214543344 0 -0.010845115414880296 -0.034469231873742782 0 -0.0094236277826261813 -0.030065900096162022 0 -0.0097061507252875542 -0.030453481841743978 0 -0.011762077197724773 -0.033323207801766029 0 -0.010845115414880296 -0.034469231873742782 0 -0.011432237266135035 -0.034341164317230249 0 -0.011762077197724773 -0.033323207801766029 0 -0.011432237266135035 -0.034341164317230249 0 -0.012408845437717883 -0.03298476156933814 0 -0.0088588742743202099 -0.033079598193386045 0 -0.0088467270278089014 -0.029775347497897214 0 -0.0096505291467574306 -0.036419219352185415 0 -0.009045960270832475 -0.036485014603414023 0 -0.0092495505087994319 -0.036166322071035178 0 -0.0096505291467574306 -0.036419219352185415 0 -0.0096463634108325015 -0.035904672400183205 0 -0.010332951930717045 -0.035691703064870156 0 -0.0096463634108325015 -0.035904672400183205 0 -0.009332009588365775 -0.035504718621863579 0 -0.0090705471233787378 -0.0358220940038236 0 -0.0096463634108325015 -0.035904672400183205 0 -0.0090705471233787378 -0.0358220940038236 0 -0.0092495505087994319 -0.036166322071035178 0 -0.0096505291467574306 -0.036419219352185415 0 -0.0096463634108325015 -0.035904672400183205 0 -0.0092495505087994319 -0.036166322071035178 0 -0.010845115414880296 -0.034469231873742782 0 -0.011432237266135035 -0.034341164317230249 0 -0.010332951930717045 -0.035691703064870156 0 -0.010845115414880296 -0.034469231873742782 0 -0.010266340297237509 -0.035097738716856543 0 -0.010332951930717045 -0.035691703064870156 0 -0.0096463634108325015 -0.035904672400183205 0 -0.010332951930717045 -0.035691703064870156 0 -0.0099750043435004893 -0.035719029225310589 0 -0.0088588742743202099 -0.033079598193386045 0 -0.0089788950610895299 -0.03388743071680983 0 -0.010266340297237509 -0.035097738716856543 0 -0.010332951930717045 -0.035691703064870156 0 -0.010383251033480072 -0.035788363698360977 0 -0.010332951930717045 -0.035691703064870156 0 -0.0099750043435004893 -0.035719029225310589 0 -0.010102618171016724 -0.035695504145200389 0 -0.010332951930717045 -0.035691703064870156 0 -0.010102618171016724 -0.035695504145200389 0 -0.010383251033480072 -0.035788363698360977 0 -0.0099750043435004893 -0.035719029225310589 0 -0.010102618171016724 -0.035695504145200389 0 -0.0097250945476673057 -0.03577908385397114 0 -0.0099750043435004893 -0.035719029225310589 0 -0.0097250945476673057 -0.03577908385397114 0 -0.00892253772394987 -0.035983674356242078 0 -0.0099750043435004893 -0.035719029225310589 0 -0.009332009588365775 -0.035504718621863579 0 -0.0091418069412860237 -0.034665895093641354 0 -0.0089301422779348612 -0.035619256882190378 0 -0.0083921378710174171 -0.035340496084340103 0 -0.0096463634108325015 -0.035904672400183205 0 -0.0099750043435004893 -0.035719029225310589 0 -0.009332009588365775 -0.035504718621863579 0 -0.0097250945476673057 -0.03577908385397114 0 -0.0098390439277134915 -0.035617029593082314 0 -0.00892253772394987 -0.035983674356242078 0 -0.0088545633372345452 -0.034999538879767998 0 -0.0098390439277134915 -0.035617029593082314 0 -0.01053032685294193 -0.034999780154839503 0 -0.0088545633372345452 -0.034999538879767998 0 -0.0098390439277134915 -0.035617029593082314 0 -0.00892253772394987 -0.035983674356242078 0 -0.0098390439277134915 -0.035617029593082314 0 -0.01053032685294193 -0.034999780154839503 0 -0.011161346956624196 -0.036212667744185988 0 -0.010102618171016724 -0.035695504145200389 0 -0.0097250945476673057 -0.03577908385397114 0 -0.0098390439277134915 -0.035617029593082314 0 -0.010834844385277646 -0.035547253278939685 0 -0.01119425949752598 -0.035605863405886257 0 -0.010102618171016724 -0.035695504145200389 0 -0.0098390439277134915 -0.035617029593082314 0 -0.0103230591327659 -0.035429431291721596 0 -0.0103230591327659 -0.035429431291721596 0 -0.010653597891790417 -0.035613056147222329 0 -0.010362828213835228 -0.035633848012842917 0 -0.010102618171016724 -0.035695504145200389 0 -0.0103230591327659 -0.035429431291721596 0 -0.010362828213835228 -0.035633848012842917 0 -0.0103230591327659 -0.035429431291721596 0 -0.010841954297190676 -0.035427241505359114 0 -0.010653597891790417 -0.035613056147222329 0 -0.01119425949752598 -0.035605863405886257 0 -0.011978718307021215 -0.035685653103884996 0 -0.01053032685294193 -0.034999780154839503 0 -0.011161346956624196 -0.036212667744185988 0 -0.012206790156454116 -0.034999991359148726 0 -0.011161346956624196 -0.036212667744185988 0 -0.012206790156454116 -0.034999991359148726 0 -0.012394657466734764 -0.036614803200340829 0 -0.012206478889462365 -0.035001029416481026 0 -0.011978718307021215 -0.035685653103884996 0 -0.012207033337030791 -0.035000045784688842 0 -0.012516254483208422 -0.036706871450952271 0 -0.013397114911664704 -0.035971339895034593 0 -0.011978718307021215 -0.035685653103884996 0 -0.012821804330951897 -0.035827941974850265 0 -0.011250621641607648 -0.035146224890224932 0 -0.011291804057868091 -0.035480554781624041 0 -0.01164676098601667 -0.035270554197372135 0 -0.010978346051835629 -0.035690307113500991 0 -0.010653597891790417 -0.035613056147222329 0 -0.010837522870257025 -0.035795523071148562 0 -0.011978718307021215 -0.035685653103884996 0 -0.011804417001317211 -0.035670363834596923 0 -0.010841954297190676 -0.035427241505359114 0 -0.010978346051835629 -0.035690307113500991 0 -0.010653597891790417 -0.035613056147222329 0 -0.010653597891790417 -0.035613056147222329 0 -0.010362828213835228 -0.035633848012842917 0 -0.010383251033480072 -0.035788363698360977 0 -0.010102618171016724 -0.035695504145200389 0 -0.010362828213835228 -0.035633848012842917 0 -0.010383251033480072 -0.035788363698360977 0 -0.010653597891790417 -0.035613056147222329 0 -0.010383251033480072 -0.035788363698360977 0 -0.010837522870257025 -0.035795523071148562 0 -0.010383251033480072 -0.035788363698360977 0 -0.010837522870257025 -0.035795523071148562 0 -0.010858954457314468 -0.035969371325222675 0 -0.010875403683611107 -0.036106004187881652 0 -0.010383251033480072 -0.035788363698360977 0 -0.010858954457314468 -0.035969371325222675 0 -0.01016144505326245 -0.034306341176020744 0 -0.010151165349864948 -0.034851371832006553 0 -0.0098664488161644397 -0.034280360667059341 0 -0.010266340297237509 -0.035097738716856543 0 -0.010383251033480072 -0.035788363698360977 0 -0.011128132834471357 -0.036032050554589468 0 -0.010858954457314468 -0.035969371325222675 0 -0.011292553920240769 -0.035843405456981253 0 -0.01140505507443359 -0.036062063407926684 0 -0.011292553920240769 -0.035843405456981253 0 -0.011599149123736037 -0.035932880816037044 0 -0.011291804057868091 -0.035480554781624041 0 -0.011292553920240769 -0.035843405456981253 0 -0.011622560648111695 -0.035607411638476583 0 -0.011804417001317211 -0.035670363834596923 0 -0.011761961210307625 -0.035718875990328136 0 -0.010978346051835629 -0.035690307113500991 0 -0.010837522870257025 -0.035795523071148562 0 -0.011292553920240769 -0.035843405456981253 0 -0.010837522870257025 -0.035795523071148562 0 -0.010858954457314468 -0.035969371325222675 0 -0.011292553920240769 -0.035843405456981253 0 -0.011292553920240769 -0.035843405456981253 0 -0.011599149123736037 -0.035932880816037044 0 -0.011622560648111695 -0.035607411638476583 0 -0.011599149123736037 -0.035932880816037044 0 -0.01180475382812643 -0.035866673438395877 0 -0.011622560648111695 -0.035607411638476583 0 -0.01180475382812643 -0.035866673438395877 0 -0.012035436757756196 -0.035402006460090105 0 -0.011622560648111695 -0.035607411638476583 0 -0.012958741823797358 -0.036383780684494833 0 -0.013555808329960032 -0.035338410260509545 0 -0.014126667674565581 -0.036140012933494704 0 -0.013048901426876518 -0.036228965606232788 0 -0.012958741823797358 -0.036383780684494833 0 -0.013540628413748442 -0.036784563023954331 0 -0.012958741823797358 -0.036383780684494833 0 -0.013540628413748442 -0.036784563023954331 0 -0.014126667674565581 -0.036140012933494704 0 -0.01300069914867061 -0.03633771520387382 0 -0.013758512515901513 -0.035895110619457396 0 -0.013758512515901513 -0.035895110619457396 0 -0.012821804330951897 -0.035827941974850265 0 -0.012035436757756196 -0.035402006460090105 0 -0.011622560648111695 -0.035607411638476583 0 -0.01164676098601667 -0.035270554197372135 0 -0.011291804057868091 -0.035480554781624041 0 -0.011622560648111695 -0.035607411638476583 0 -0.01164676098601667 -0.035270554197372135 0 -0.012516254483208422 -0.036706871450952271 0 -0.013666530718034356 -0.037072181758408117 0 -0.013397114911664704 -0.035971339895034593 0 -0.013666530718034356 -0.037072181758408117 0 -0.013397114911664704 -0.035971339895034593 0 -0.014277209490784776 -0.03634270920799041 0 -0.01412747426457091 -0.034999807769453183 0 -0.013397114911664704 -0.035971339895034593 0 -0.014277209490784776 -0.03634270920799041 0 -0.012207033337030791 -0.035000045784688842 0 -0.01412747426457091 -0.034999807769453183 0 -0.013397114911664704 -0.035971339895034593 0 -0.01412747426457091 -0.034999807769453183 0 -0.015383250705838368 -0.036235889453796244 0 -0.015983593444939513 -0.03492589594094709 0 -0.01412747426457091 -0.034999807769453183 0 -0.014277209490784776 -0.03634270920799041 0 -0.015383250705838368 -0.036235889453796244 0 -0.013758512515901513 -0.035895110619457396 0 -0.014472903782800119 -0.035568488652978368 0 -0.014814686137817782 -0.037440307876911709 0 -0.014277209490784776 -0.03634270920799041 0 -0.015383250705838368 -0.036235889453796244 0 -0.014814686137817782 -0.037440307876911709 0 -0.013666530718034356 -0.037072181758408117 0 -0.014277209490784776 -0.03634270920799041 0 -0.015580529331324209 -0.036052384911215533 0 -0.015677041095872105 -0.035678136665693992 0 -0.01574619230851047 -0.035984353281946144 0 -0.015677041095872105 -0.035678136665693992 0 -0.016190888621029215 -0.035424883000775696 0 -0.016348861489309863 -0.035941126856828619 0 -0.015677041095872105 -0.035678136665693992 0 -0.016348861489309863 -0.035941126856828619 0 -0.01574619230851047 -0.035984353281946144 0 -0.015677041095872105 -0.035678136665693992 0 -0.016190888621029215 -0.035424883000775696 0 -0.015984031401979296 -0.034925581459551117 0 -0.014472903782800119 -0.035568488652978368 0 -0.014764822269344242 -0.035298190363905919 0 -0.016190888621029215 -0.035424883000775696 0 -0.015984031401979296 -0.034925581459551117 0 -0.016855656679612974 -0.03546993981550637 0 -0.017968303112194904 -0.034999439741282903 0 -0.015984031401979296 -0.034925581459551117 0 -0.016855656679612974 -0.03546993981550637 0 -0.016190888621029215 -0.035424883000775696 0 -0.016855656679612974 -0.03546993981550637 0 -0.016348861489309863 -0.035941126856828619 0 -0.017828119643013722 -0.035918693040295858 0 -0.016855656679612974 -0.03546993981550637 0 -0.016348861489309863 -0.035941126856828619 0 -0.017212170025152615 -0.036495096745009024 0 -0.016348861489309863 -0.035941126856828619 0 -0.016433199635507354 -0.036682629726514711 0 -0.016348861489309863 -0.035941126856828619 0 -0.015582309260170389 -0.036083759925378198 0 -0.016433199635507354 -0.036682629726514711 0 -0.015580529331324209 -0.036052384911215533 0 -0.01574619230851047 -0.035984353281946144 0 -0.015582309260170389 -0.036083759925378198 0 -0.013758512515901513 -0.035895110619457396 0 -0.014347085640678709 -0.036030624047821785 0 -0.016348861489309863 -0.035941126856828619 0 -0.01574619230851047 -0.035984353281946144 0 -0.015582309260170389 -0.036083759925378198 0 -0.013555808329960032 -0.035338410260509545 0 -0.014126667674565581 -0.036140012933494704 0 -0.015582309260170389 -0.036083759925378198 0 -0.014126667674565581 -0.036140012933494704 0 -0.015582309260170389 -0.036083759925378198 0 -0.015800826524169774 -0.037493427855463723 0 -0.013566658366099483 -0.035225442725927182 0 -0.01364319689314372 -0.034963207483797498 0 -0.013540628413748442 -0.036784563023954331 0 -0.014126667674565581 -0.036140012933494704 0 -0.015800826524169774 -0.037493427855463723 0 -0.015582309260170389 -0.036083759925378198 0 -0.016433199635507354 -0.036682629726514711 0 -0.015800826524169774 -0.037493427855463723 0 -0.01709438574388341 -0.037643592398216394 0 -0.016433199635507354 -0.036682629726514711 0 -0.015800826524169774 -0.037493427855463723 0 -0.0029777108048442036 -0.027871879397477307 0 -0.0028810822188289494 -0.027867602153439242 0 -0.0028748325621857623 -0.027976033138744669 0 -0.0029777108048442036 -0.027871879397477307 0 -0.0028810822188289494 -0.027867602153439242 0 -0.0029797623818755541 -0.027726125491823263 0 -0.0029777108048442036 -0.027871879397477307 0 -0.0031529689567215153 -0.027801841972699005 0 -0.0030755602582074304 -0.027721451633568501 0 -0.0028810822188289494 -0.027867602153439242 0 -0.0028240759289865857 -0.027974617372578805 0 -0.0028426150787889564 -0.027915241588062478 0 -0.0028810822188289494 -0.027867602153439242 0 -0.0028240759289865857 -0.027974617372578805 0 -0.0028748325621857623 -0.027976033138744669 0 -0.0028240759289865857 -0.027974617372578805 0 -0.0028748325621857623 -0.027976033138744669 0 -0.0027735786131526572 -0.028091420589616369 0 -0.0028240759289865857 -0.027974617372578805 0 -0.0027735786131526572 -0.028091420589616369 0 -0.0027776229120890653 -0.028103702289677759 0 -0.0029777108048442036 -0.027871879397477307 0 -0.0028748325621857623 -0.027976033138744669 0 -0.0029485993596546378 -0.028032709948089474 0 -0.0028748325621857623 -0.027976033138744669 0 -0.0029485993596546378 -0.028032709948089474 0 -0.0027735786131526572 -0.028091420589616369 0 0.0020053444436916247 -0.027499495710781044 0 0.0014668160351010416 -0.028168764417035762 0 0.0053818161626749093 -0.028227883823490459 0 0.005383266083409644 -0.028554841376029125 0 0.0048930689683989509 -0.027909978235476966 0 -0.0021251898530693066 -0.027715114343601167 0 -0.0021495835344446058 -0.027350732844476075 0 -0.0023083898310041614 -0.027910479849069674 0 -0.0023718442005127385 -0.02723772843215359 0 -0.0021495835344446058 -0.027350732844476075 0 -0.0023083898310041614 -0.027910479849069674 0 0.0052727775200146513 -0.027948166152613883 0 0.0053818161626749093 -0.028227883823490459 0 0.0048930689683989509 -0.027909978235476966 0 0.0016075013941929423 -0.033584843847252209 0 0.0035450219731950586 -0.03229780596057142 0 0.00063201416305071407 -0.031734262255188453 0 0.0010071309254860155 -0.030844180880151423 0 0.0028129352802742772 -0.033253506229329974 0 0.0052727775200146513 -0.027948166152613883 0 0.0053818161626749093 -0.028227883823490459 0 0.0057296931516593866 -0.028271716046888624 0 0.0025378454483767411 -0.030348156636372501 0 0.0035450219731950586 -0.03229780596057142 0 0.0053818161626749093 -0.028227883823490459 0 0.0055746186704318515 -0.028441469538859777 0 0.0057296931516593866 -0.028271716046888624 0 0.0053818161626749093 -0.028227883823490459 0 0.0055746186704318515 -0.028441469538859777 0 0.005383266083409644 -0.028554841376029125 0 0.0055746186704318515 -0.028441469538859777 0 0.005383266083409644 -0.028554841376029125 0 0.0056150579015042477 -0.02861443900686516 0 0.0055746186704318515 -0.028441469538859777 0 0.0056150579015042477 -0.02861443900686516 0 0.0057430874834114064 -0.028558046855510569 0 -0.0024097665618345349 -0.02737796495739328 0 -0.0024421166674140652 -0.026586084059746565 0 -0.0029777108048442036 -0.027871879397477307 0 -0.0029485993596546378 -0.028032709948089474 0 -0.0031529689567215153 -0.027801841972699005 0 -0.0021251898530693066 -0.027715114343601167 0 -0.0021495835344446058 -0.027350732844476075 0 -0.0020470624502032923 -0.027115825725096993 0 -0.0023718442005127385 -0.02723772843215359 0 -0.0021495835344446058 -0.027350732844476075 0 -0.0018796884152951347 -0.026970559486610309 0 -0.0024388815085185952 -0.026651690100087885 0 -0.0024421166674140652 -0.026586084059746565 0 -0.0024421166674140652 -0.026586084059746565 0 -0.0027312421340978349 -0.025699221010889055 0 -0.0016284478817092109 -0.026266639604100802 0 -0.0014563309758857143 -0.025517447236381951 0 -0.0019062028869897805 -0.02522807199016773 0 -0.0031529689567215153 -0.027801841972699005 0 -0.003175921236794387 -0.027574415402255564 0 -0.0030755602582074304 -0.027721451633568501 0 -0.0018796884152951347 -0.026970559486610309 0 -0.0023034326539474494 -0.026323511077467079 0 -0.0019542148219402599 -0.025625509162952531 0 -0.0024421166674140652 -0.026586084059746565 0 -0.0023580037040952591 -0.025566737691260843 0 -0.0023718442005127385 -0.02723772843215359 0 -0.0018796884152951347 -0.026970559486610309 0 -0.0023034326539474494 -0.026323511077467079 0 0.005383266083409644 -0.028554841376029125 0 0.0056150579015042477 -0.02861443900686516 0 0.0058714149410888025 -0.028838050923321468 0 -0.0023718442005127385 -0.02723772843215359 0 -0.0023034326539474494 -0.026323511077467079 0 -0.0029161983018655586 -0.025831445844884195 0 0.0020053444436916247 -0.027499495710781044 0 0.0029059329285395729 -0.026501378956767154 0 0.0056150579015042477 -0.02861443900686516 0 0.0058714149410888025 -0.028838050923321468 0 0.0057447730168875017 -0.028683260620714898 0 -0.0023034326539474494 -0.026323511077467079 0 -0.0024639151620563242 -0.02572741646883709 0 -0.0029161983018655586 -0.025831445844884195 0 -0.0023034326539474494 -0.026323511077467079 0 -0.0024639151620563242 -0.02572741646883709 0 -0.0019542148219402599 -0.025625509162952531 0 -0.0024639151620563242 -0.02572741646883709 0 -0.0024155284674454431 -0.025428033040647082 0 -0.0019542148219402599 -0.025625509162952531 0 -0.0024537329935440198 -0.024968529762629522 0 -0.0024155284674454431 -0.025428033040647082 0 -0.0019542148219402599 -0.025625509162952531 0 -0.002772430526636835 -0.025091566284269052 0 -0.0024639151620563242 -0.02572741646883709 0 -0.0029161983018655586 -0.025831445844884195 0 -0.002772430526636835 -0.025091566284269052 0 -0.0024639151620563242 -0.02572741646883709 0 -0.0024155284674454431 -0.025428033040647082 0 -0.002772430526636835 -0.025091566284269052 0 -0.0024537329935440198 -0.024968529762629522 0 -0.0024155284674454431 -0.025428033040647082 0 -0.0013057987609288407 -0.024765235176138167 0 -0.0014563309758857143 -0.025517447236381951 0 -0.0016412976872514256 -0.025086376970796229 0 -0.0029844571373123024 -0.023900297903711308 0 -0.0027312421340978349 -0.025699221010889055 0 -0.0014563309758857143 -0.025517447236381951 0 -0.0019062028869897805 -0.02522807199016773 0 -0.0016412976872514256 -0.025086376970796229 0 -0.0015814317245116301 -0.024794533246401251 0 -0.0019062028869897805 -0.02522807199016773 0 -0.0016412976872514256 -0.025086376970796229 0 -0.0011734983840810357 -0.024720195887653531 0 -0.0015814317245116301 -0.024794533246401251 0 -0.0016412976872514256 -0.025086376970796229 0 -0.0029844571373123024 -0.023900297903711308 0 -0.0028665961424309376 -0.023915646688821159 0 -0.0030800047786334116 -0.027506267511121826 0 -0.0029797623818755541 -0.027726125491823263 0 -0.0029796735233772039 -0.027453879511994714 0 -0.0030501002679045154 -0.027365703116574602 0 -0.0031666598981250813 -0.027349567478103569 0 -0.0030800047786334116 -0.027506267511121826 0 -0.0031666598981250813 -0.027349567478103569 0 -0.003175921236794387 -0.027574415402255564 0 -0.0030800047786334116 -0.027506267511121826 0 -0.0030501002679045154 -0.027365703116574602 0 -0.0030800047786334116 -0.027506267511121826 0 -0.0029796735233772039 -0.027453879511994714 0 -0.0030800047786334116 -0.027506267511121826 0 -0.0029797623818755541 -0.027726125491823263 0 -0.0030755602582074304 -0.027721451633568501 0 -0.003175921236794387 -0.027574415402255564 0 -0.0030800047786334116 -0.027506267511121826 0 -0.0030755602582074304 -0.027721451633568501 0 -0.0029777108048442036 -0.027871879397477307 0 -0.0029797623818755541 -0.027726125491823263 0 -0.0030755602582074304 -0.027721451633568501 0 -0.0029797623818755541 -0.027726125491823263 0 -0.0028848851780582784 -0.027735864320273626 0 -0.0029796735233772039 -0.027453879511994714 0 -0.0028810822188289494 -0.027867602153439242 0 -0.0028848851780582784 -0.027735864320273626 0 -0.002847274794376476 -0.027852280932970985 0 -0.0028810822188289494 -0.027867602153439242 0 -0.0029797623818755541 -0.027726125491823263 0 -0.0028848851780582784 -0.027735864320273626 0 -0.0029848027422582774 -0.02730800761219028 0 -0.0029796735233772039 -0.027453879511994714 0 -0.0029515808750201892 -0.027376003729638162 0 -0.0029796735233772039 -0.027453879511994714 0 -0.0029515808750201892 -0.027376003729638162 0 -0.0029588522767735699 -0.027398785048701444 0 -0.0067394132311167573 -0.023142876833278019 0 -0.0053437774843575446 -0.026840818180439732 0 -0.0028848851780582784 -0.027735864320273626 0 -0.0029796735233772039 -0.027453879511994714 0 -0.0027776037117033356 -0.027742522298545045 0 -0.004035818070386196 -0.027379182970229406 0 -0.0053437774843575446 -0.026840818180439732 0 -0.0029141124445673642 -0.027300935075595761 0 -0.0029515808750201892 -0.027376003729638162 0 -0.0029588522767735699 -0.027398785048701444 0 -0.0080287391070245802 -0.026514734329189101 0 -0.0081131862917607957 -0.027051639988160819 0 -0.0076517779494611532 -0.027025383501812363 0 -0.0067394132311167573 -0.023142876833278019 0 -0.009313954817223984 -0.024162127711957377 0 -0.010855633045557816 -0.018589373570195373 0 -0.011030952842201631 -0.018528805776457682 0 -0.010907757557667919 -0.01885568599491767 0 -0.0081131862917607957 -0.027051639988160819 0 -0.0076517779494611532 -0.027025383501812363 0 -0.0076609582314789045 -0.027125299258027112 0 -0.0053437774843575446 -0.026840818180439732 0 -0.0062407295001411607 -0.028262327536511811 0 -0.0081131862917607957 -0.027051639988160819 0 -0.0076609582314789045 -0.027125299258027112 0 -0.0077439128108938299 -0.027297370847577725 0 -0.0028904551825992232 -0.027887851202241104 0 -0.0028341830521536006 -0.027882439413158839 0 -0.0029679856889682716 -0.027907586322203116 0 -0.0028904551825992232 -0.027887851202241104 0 -0.0028147918403388585 -0.027840188714893677 0 -0.0028447129524471057 -0.027881858268277191 0 -0.0028147918403388585 -0.027840188714893677 0 -0.002847274794376476 -0.027852280932970985 0 -0.0028447129524471057 -0.027881858268277191 0 -0.0028848851780582784 -0.027735864320273626 0 -0.0028147918403388585 -0.027840188714893677 0 -0.002847274794376476 -0.027852280932970985 0 -0.0028848851780582784 -0.027735864320273626 0 -0.0028147918403388585 -0.027840188714893677 0 -0.0027776037117033356 -0.027742522298545045 0 -0.0028904551825992232 -0.027887851202241104 0 -0.0028147918403388585 -0.027840188714893677 0 -0.0028341830521536006 -0.027882439413158839 0 -0.0053095135046124656 -0.02687953244935758 0 -0.0053437774843575446 -0.026840818180439732 0 -0.010725224090808533 -0.018569718405885408 0 -0.010581271183166529 -0.018770877529504064 0 -0.010705539109850304 -0.018885427529166613 0 -0.010855633045557816 -0.018589373570195373 0 -0.010725224090808533 -0.018569718405885408 0 -0.010705539109850304 -0.018885427529166613 0 -0.010855633045557816 -0.018589373570195373 0 -0.010705539109850304 -0.018885427529166613 0 -0.010907757557667919 -0.01885568599491767 0 -0.0076609582314789045 -0.027125299258027112 0 -0.0077439128108938299 -0.027297370847577725 0 -0.0073048486901905914 -0.027599755930950091 0 -0.0076517779494611532 -0.027025383501812363 0 -0.0076609582314789045 -0.027125299258027112 0 -0.007448358765904107 -0.027468866858762798 0 -0.0085477708525202919 -0.028777522430823283 0 -0.0084680049685672103 -0.029511715914402485 0 -0.010520566704175198 -0.01901138780355183 0 -0.010705539109850304 -0.018885427529166613 0 -0.010668347632811083 -0.01928145172074491 0 -0.009313954817223984 -0.024162127711957377 0 -0.0091764592844336274 -0.028930823224742185 0 -0.010705539109850304 -0.018885427529166613 0 -0.010907757557667919 -0.01885568599491767 0 -0.010668347632811083 -0.01928145172074491 0 -0.0076609582314789045 -0.027125299258027112 0 -0.007448358765904107 -0.027468866858762798 0 -0.007510561291589531 -0.027485259377167368 0 -0.0098622970646021994 -0.030101083818464752 0 -0.0091983155318237832 -0.030764006788572319 0 -0.0089502980756717577 -0.030458161773631684 0 -0.0094236277826261813 -0.030065900096162022 0 -0.0091764592844336274 -0.028930823224742185 0 -0.0094236277826261813 -0.030065900096162022 0 -0.0088467270278089014 -0.029775347497897214 0 -0.007448358765904107 -0.027468866858762798 0 -0.007510561291589531 -0.027485259377167368 0 -0.0074892190038324397 -0.027514804848355338 0 -0.0091764592844336274 -0.028930823224742185 0 -0.0088467270278089014 -0.029775347497897214 0 -0.0084680049685672103 -0.029511715914402485 0 -0.0088467270278089014 -0.029775347497897214 0 -0.0026216607922713935 -0.028008593799970598 0 -0.00253426036650516 -0.028076252335250084 0 -0.0028996511117200135 -0.028057214973840252 0 -0.0062407295001411607 -0.028262327536511811 0 -0.0084680049685672103 -0.029511715914402485 0 -0.00253426036650516 -0.028076252335250084 0 -0.0028996511117200135 -0.028057214973840252 0 -0.0029283306112506606 -0.028962530647133632 0 -0.0029679856889682716 -0.027907586322203116 0 -0.0026216607922713935 -0.028008593799970598 0 -0.0028996511117200135 -0.028057214973840252 0 -0.0028996511117200135 -0.028057214973840252 0 -0.002915125360548373 -0.027960672993023256 0 -0.0028921503244857083 -0.027944341838660559 0 -0.0029679856889682716 -0.027907586322203116 0 -0.0028996511117200135 -0.028057214973840252 0 -0.002915125360548373 -0.027960672993023256 0 -0.0029283306112506606 -0.028962530647133632 0 -0.0039903668705834937 -0.028976318012564881 0 -0.0037140532016252037 -0.030070615832663718 0 -0.0028996511117200135 -0.028057214973840252 0 -0.0029283306112506606 -0.028962530647133632 0 -0.0039903668705834937 -0.028976318012564881 0 -0.0029149061947760725 -0.028931519542382482 0 -0.0031475365906001337 -0.029351492646542441 0 -0.0089726111404195875 -0.037049258207719142 0 -0.008471895344479308 -0.036517644622326394 0 -0.009045960270832475 -0.036485014603414023 0 -0.0088467270278089014 -0.029775347497897214 0 -0.0072940708362370949 -0.031374109899179416 0 -0.0096505291467574306 -0.036419219352185415 0 -0.0089726111404195875 -0.037049258207719142 0 -0.009045960270832475 -0.036485014603414023 0 -0.008471895344479308 -0.036517644622326394 0 -0.009045960270832475 -0.036485014603414023 0 -0.0088242120841248543 -0.036179597719181451 0 -0.009045960270832475 -0.036485014603414023 0 -0.0092495505087994319 -0.036166322071035178 0 -0.0088242120841248543 -0.036179597719181451 0 -0.0028426150787889564 -0.027915241588062478 0 -0.0028697134265764914 -0.027931616562314753 0 -0.0028584341331439164 -0.027949419633837905 0 -0.0028240759289865857 -0.027974617372578805 0 -0.0028426150787889564 -0.027915241588062478 0 -0.0028584341331439164 -0.027949419633837905 0 -0.0028810822188289494 -0.027867602153439242 0 -0.002847274794376476 -0.027852280932970985 0 -0.0028426150787889564 -0.027915241588062478 0 -0.002847274794376476 -0.027852280932970985 0 -0.0028426150787889564 -0.027915241588062478 0 -0.0028447129524471057 -0.027881858268277191 0 -0.0028426150787889564 -0.027915241588062478 0 -0.0028447129524471057 -0.027881858268277191 0 -0.0028697134265764914 -0.027931616562314753 0 -0.002915125360548373 -0.027960672993023256 0 -0.0028697134265764914 -0.027931616562314753 0 -0.0028921503244857083 -0.027944341838660559 0 -0.0028904551825992232 -0.027887851202241104 0 -0.002915125360548373 -0.027960672993023256 0 -0.0028697134265764914 -0.027931616562314753 0 -0.0028904551825992232 -0.027887851202241104 0 -0.0028447129524471057 -0.027881858268277191 0 -0.0028697134265764914 -0.027931616562314753 0 -0.0028904551825992232 -0.027887851202241104 0 -0.0029679856889682716 -0.027907586322203116 0 -0.002915125360548373 -0.027960672993023256 0 -0.0028697134265764914 -0.027931616562314753 0 -0.0028921503244857083 -0.027944341838660559 0 -0.0028584341331439164 -0.027949419633837905 0 -0.0039108818342002008 -0.029497173436950776 0 -0.0037695914249694434 -0.030655510450682297 0 -0.0028921503244857083 -0.027944341838660559 0 -0.0028584341331439164 -0.027949419633837905 0 -0.0028626530123135015 -0.027940774571456471 0 -0.0028240759289865857 -0.027974617372578805 0 -0.0028584341331439164 -0.027949419633837905 0 -0.0028626530123135015 -0.027940774571456471 0 -0.0037695914249694434 -0.030655510450682297 0 -0.0029848878456327794 -0.031732355926917186 0 -0.0051382965475799888 -0.030060653354544296 0 -0.0037140532016252037 -0.030070615832663718 0 -0.0045622060068016782 -0.031160499817473243 0 -0.0031475365906001337 -0.029351492646542441 0 -0.0037695914249694434 -0.030655510450682297 0 -0.0039903668705834937 -0.028976318012564881 0 -0.0051382965475799888 -0.030060653354544296 0 -0.0037140532016252037 -0.030070615832663718 0 -0.0079078098225626049 -0.035924568919830646 0 -0.007873705144928668 -0.035114708164612429 0 -0.0073532225868396259 -0.035280573075915353 0 -0.006170446226074649 -0.032366593446841424 0 -0.0049475626256275775 -0.032871767473512066 0 -0.007873705144928668 -0.035114708164612429 0 -0.0073532225868396259 -0.035280573075915353 0 -0.0076859262556383126 -0.034671876719930675 0 -0.0038505552089442723 -0.033067040959457561 0 -0.0039036952832212164 -0.032989526631179635 0 -0.0037614683573265677 -0.033010380264987219 0 -0.0039036952832212164 -0.032989526631179635 0 -0.0038392287140353262 -0.032923215758468578 0 -0.0037614683573265677 -0.033010380264987219 0 -0.0049475626256275775 -0.032871767473512066 0 -0.0046788781587496801 -0.033483850306593205 0 -0.0037695914249694434 -0.030655510450682297 0 -0.0049475626256275775 -0.032871767473512066 0 -0.0090705471233787378 -0.0358220940038236 0 -0.0092495505087994319 -0.036166322071035178 0 -0.0088242120841248543 -0.036179597719181451 0 -0.0090705471233787378 -0.0358220940038236 0 -0.0088242120841248543 -0.036179597719181451 0 -0.008458021208924674 -0.035820192959940531 0 -0.0072940708362370949 -0.031374109899179416 0 -0.006170446226074649 -0.032366593446841424 0 -0.008471895344479308 -0.036517644622326394 0 -0.0079078098225626049 -0.035924568919830646 0 -0.008458021208924674 -0.035820192959940531 0 -0.008471895344479308 -0.036517644622326394 0 -0.0088242120841248543 -0.036179597719181451 0 -0.008458021208924674 -0.035820192959940531 0 -0.0079078098225626049 -0.035924568919830646 0 -0.008458021208924674 -0.035820192959940531 0 -0.008322685085599699 -0.03532523218975013 0 -0.0079078098225626049 -0.035924568919830646 0 -0.007873705144928668 -0.035114708164612429 0 -0.008322685085599699 -0.03532523218975013 0 -0.007873705144928668 -0.035114708164612429 0 -0.008322685085599699 -0.03532523218975013 0 -0.008163828364261546 -0.034926598155412152 0 -0.008322685085599699 -0.03532523218975013 0 -0.0088141387807563615 -0.035324263455042096 0 -0.0084908089311574418 -0.034798434572795169 0 -0.008458021208924674 -0.035820192959940531 0 -0.008322685085599699 -0.03532523218975013 0 -0.0088141387807563615 -0.035324263455042096 0 -0.009332009588365775 -0.035504718621863579 0 -0.0088141387807563615 -0.035324263455042096 0 -0.0091418069412860237 -0.034665895093641354 0 -0.0090705471233787378 -0.0358220940038236 0 -0.008458021208924674 -0.035820192959940531 0 -0.0088141387807563615 -0.035324263455042096 0 -0.009332009588365775 -0.035504718621863579 0 -0.0090705471233787378 -0.0358220940038236 0 -0.0088141387807563615 -0.035324263455042096 0 -0.0091418069412860237 -0.034665895093641354 0 -0.0084908089311574418 -0.034798434572795169 0 -0.0082601047052058632 -0.034277235870609303 0 -0.0088141387807563615 -0.035324263455042096 0 -0.0091418069412860237 -0.034665895093641354 0 -0.0084908089311574418 -0.034798434572795169 0 -0.0084908089311574418 -0.034798434572795169 0 -0.0082122725171926425 -0.034663454763076536 0 -0.0082601047052058632 -0.034277235870609303 0 -0.008322685085599699 -0.03532523218975013 0 -0.0084908089311574418 -0.034798434572795169 0 -0.008163828364261546 -0.034926598155412152 0 -0.007873705144928668 -0.035114708164612429 0 -0.008163828364261546 -0.034926598155412152 0 -0.0079341986400925987 -0.034649369371487014 0 -0.0084908089311574418 -0.034798434572795169 0 -0.008163828364261546 -0.034926598155412152 0 -0.0082122725171926425 -0.034663454763076536 0 -0.008163828364261546 -0.034926598155412152 0 -0.0082122725171926425 -0.034663454763076536 0 -0.0079341986400925987 -0.034649369371487014 0 -0.0082122725171926425 -0.034663454763076536 0 -0.0082601047052058632 -0.034277235870609303 0 -0.0079341986400925987 -0.034649369371487014 0 -0.0082601047052058632 -0.034277235870609303 0 -0.0079341986400925987 -0.034649369371487014 0 -0.0076760823633907661 -0.034676355011345347 0 -0.0091418069412860237 -0.034665895093641354 0 -0.0082601047052058632 -0.034277235870609303 0 -0.0082958974828274291 -0.033783642935516479 0 -0.0082601047052058632 -0.034277235870609303 0 -0.0081528975026660573 -0.033792385006847551 0 -0.0076760823633907661 -0.034676355011345347 0 -0.0082601047052058632 -0.034277235870609303 0 -0.0081528975026660573 -0.033792385006847551 0 -0.0082958974828274291 -0.033783642935516479 0 -0.0069638943278597792 -0.034999724002738965 0 -0.0069307009061126907 -0.035059856085919466 0 -0.0071452309551332388 -0.034903529668508647 0 -0.0069057491974678347 -0.034828007795487635 0 -0.0071542115877117644 -0.034851053499966186 0 -0.0069613841441327502 -0.034996796561898309 0 -0.0069057491974678347 -0.034828007795487635 0 -0.0088545633372345452 -0.034999538879767998 0 -0.00892253772394987 -0.035983674356242078 0 -0.0071457694282605474 -0.034903600002791087 0 -0.0083921378710174171 -0.035340496084340103 0 -0.0071542115877117644 -0.034851053499966186 0 -0.0046944099601003925 -0.034612264084971561 0 -0.0053431820126872151 -0.034545215754992961 0 -0.0049528417778684783 -0.034279128903240995 0 -0.0046788781587496801 -0.033483850306593205 0 -0.0056801782476899806 -0.033699621995992038 0 -0.0045575469455851432 -0.034446918966550145 0 -0.0049528417778684783 -0.034279128903240995 0 -0.004539194399120987 -0.034169745327832589 0 -0.0045575469455851432 -0.034446918966550145 0 -0.0046944099601003925 -0.034612264084971561 0 -0.0049528417778684783 -0.034279128903240995 0 -0.0046977447398785588 -0.033523731913144277 0 -0.0046788781587496801 -0.033483850306593205 0 -0.0049475626256275775 -0.032871767473512066 0 -0.0056801782476899806 -0.033699621995992038 0 -0.0051634484125193799 -0.033757532967294099 0 -0.005108617842523689 -0.033696105221395746 0 -0.0052080822902580729 -0.033686265332417503 0 -0.007873705144928668 -0.035114708164612429 0 -0.0079341986400925987 -0.034649369371487014 0 -0.0076859262556383126 -0.034671876719930675 0 -0.0057984906403487904 -0.033703936419880412 0 -0.0056801782476899806 -0.033699621995992038 0 -0.0057494387997174927 -0.033827386407556385 0 -0.0049476732646870176 -0.033861693643276528 0 -0.0049528417778684783 -0.034279128903240995 0 -0.0069637490278578237 -0.034999991231173103 0 -0.0069044708194084606 -0.035109108439328823 0 -0.0054621232610169356 -0.034999993504315034 0 -0.0069057491974678347 -0.034828007795487635 0 -0.0052682355328093101 -0.034767979188938473 0 -0.0069044708194084606 -0.035109108439328823 0 -0.0054621232610169356 -0.034999993504315034 0 -0.0053018472818696007 -0.035198797313596868 0 -0.0057494387997174927 -0.033827386407556385 0 -0.0053431820126872151 -0.034545215754992961 0 -0.0049528417778684783 -0.034279128903240995 0 -0.0069057491974678347 -0.034828007795487635 0 -0.0056801782476899806 -0.033699621995992038 0 -0.0054621232610169356 -0.034999993504315034 0 -0.0053018472818696007 -0.035198797313596868 0 -0.003960514786663592 -0.03499998321585937 0 -0.0052682355328093101 -0.034767979188938473 0 -0.0039435889189898092 -0.034801265564582094 0 -0.0049476732646870176 -0.033861693643276528 0 -0.004539194399120987 -0.034169745327832589 0 -0.0041480393782135604 -0.033901866181483921 0 -0.0049476732646870176 -0.033861693643276528 0 -0.0049528417778684783 -0.034279128903240995 0 -0.004539194399120987 -0.034169745327832589 0 -0.0053018472818696007 -0.035198797313596868 0 -0.003960514786663592 -0.03499998321585937 0 -0.0037001423078508945 -0.035287287457849814 0 -0.0041480393782135604 -0.033901866181483921 0 -0.0035767446899920233 -0.034519328965444601 0 -0.0040932383812342446 -0.034358912183087065 0 -0.0039599437676313938 -0.034998706677044529 0 -0.0039435889189898092 -0.034801265564582094 0 -0.0039603289108658636 -0.035000047208181645 0 -0.0037493615995873994 -0.034999935628885467 0 -0.0037172586245737193 -0.035174151902993743 0 -0.004539194399120987 -0.034169745327832589 0 -0.0041480393782135604 -0.033901866181483921 0 -0.0040932383812342446 -0.034358912183087065 0 -0.0037493615995873994 -0.034999935628885467 0 -0.0037172586245737193 -0.035174151902993743 0 -0.0026560217340008134 -0.035559007773064748 0 -0.0037172586245737193 -0.035174151902993743 0 -0.003030264538968121 -0.0359009963054586 0 -0.0026560217340008134 -0.035559007773064748 0 -0.0037475759416888289 -0.034999602301269223 0 -0.0022314954243097236 -0.034961765310899569 0 -0.0037491813071841027 -0.035000008500112152 0 -0.0018986685030383458 -0.035951487652663788 0 -0.0017612592215404711 -0.034999950658713988 0 -0.0039435889189898092 -0.034801265564582094 0 -0.0024886277202174189 -0.034290985988642074 0 -0.0024886277202174189 -0.034290985988642074 0 -0.0022314954243097236 -0.034961765310899569 0 -0.0035767446899920233 -0.034519328965444601 0 -0.0037815892758669908 -0.034705769532671175 0 -0.0040932383812342446 -0.034358912183087065 0 -0.0024886277202174189 -0.034290985988642074 0 -0.0026676602238222412 -0.033691534024991338 0 -0.0024386825489549151 -0.033596709109467077 0 -0.0024134340951158357 -0.033569090027341091 0 -0.0024622227795647557 -0.033567070451720228 0 -0.0026892484084897242 -0.027826643257923143 0 -0.0024694976099198713 -0.028060797683189816 0 -0.0018205464239462543 -0.027629770071674106 0 -0.0026676602238222412 -0.033691534024991338 0 -0.0017408365565879343 -0.034223631033505744 0 -0.0024886277202174189 -0.034290985988642074 0 -0.0017408365565879343 -0.034223631033505744 0 -0.0021009955123472627 -0.034886331240868262 0 -0.0017819741374513422 -0.035242750353870124 0 -0.0017039825580180542 -0.034890575505818609 0 -0.0045575469455851432 -0.034446918966550145 0 -0.0046884269580822506 -0.03460421523278636 0 -0.0037815892758669908 -0.034705769532671175 0 -0.0045575469455851432 -0.034446918966550145 0 -0.0037815892758669908 -0.034705769532671175 0 -0.0040932383812342446 -0.034358912183087065 0 -0.0046788781587496801 -0.033483850306593205 0 -0.0026676602238222412 -0.033691534024991338 0 -0.0045575469455851432 -0.034446918966550145 0 -0.004539194399120987 -0.034169745327832589 0 -0.0040932383812342446 -0.034358912183087065 0 -0.0038392287140353262 -0.032923215758468578 0 -0.0036690816460030968 -0.032951171312402008 0 -0.0037614683573265677 -0.033010380264987219 0 -0.0027865702090639562 -0.028092766654562874 0 -0.0026744468203311576 -0.02809843220627601 0 -0.0027776229120890653 -0.028103702289677759 0 -0.0026892484084897242 -0.027826643257923143 0 -0.0027865702090639562 -0.028092766654562874 0 -0.0026744468203311576 -0.02809843220627601 0 -0.0026676602238222412 -0.033691534024991338 0 -0.0029848878456327794 -0.031732355926917186 0 0.00071464671917657342 -0.028115218104379693 0 0.0013517906871747527 -0.028525182904093904 0 -0.0024694976099198713 -0.028060797683189816 0 -0.0025673770008917849 -0.028101171975792753 0 -0.0024808257904787214 -0.0280529605091723 0 -0.0024694976099198713 -0.028060797683189816 0 -0.0015697374439462635 -0.030205799893137045 0 -0.001650410575244235 -0.028541208598201025 0 -0.0026892484084897242 -0.027826643257923143 0 -0.0024694976099198713 -0.028060797683189816 0 -0.0026744468203311576 -0.02809843220627601 0 -0.0024694976099198713 -0.028060797683189816 0 -0.001650410575244235 -0.028541208598201025 0 -0.0018205464239462543 -0.027629770071674106 0 -0.0024694976099198713 -0.028060797683189816 0 -0.0026744468203311576 -0.02809843220627601 0 -0.0025673770008917849 -0.028101171975792753 0 -0.0024097665618345349 -0.02737796495739328 0 -0.0024160710775095028 -0.027576946476097142 0 -0.0026744468203311576 -0.02809843220627601 0 -0.0025673770008917849 -0.028101171975792753 0 -0.0027735786131526572 -0.028091420589616369 0 -0.0029485993596546378 -0.028032709948089474 0 -0.0025673770008917849 -0.028101171975792753 0 -0.0027735786131526572 -0.028091420589616369 0 -0.0026744468203311576 -0.02809843220627601 0 -0.0027735786131526572 -0.028091420589616369 0 -0.0027776229120890653 -0.028103702289677759 0 -0.0028240759289865857 -0.027974617372578805 0 -0.0027472947719610332 -0.028117873450685317 0 -0.0027776229120890653 -0.028103702289677759 0 -0.0027472947719610332 -0.028117873450685317 0 -0.0027865702090639562 -0.028092766654562874 0 -0.0027776229120890653 -0.028103702289677759 0 0.0015017978001757176 -0.037645636126102049 0 0.0019511711692797296 -0.037134163977163757 0 0.0022924243043871118 -0.037522318115001153 0 0.0015017978001757176 -0.037645636126102049 0 0.0010226513969129544 -0.037031751626677607 0 0.0014811017767664778 -0.037082280792487682 0 0.0015017978001757176 -0.037645636126102049 0 0.0014811017767664778 -0.037082280792487682 0 0.0019511711692797296 -0.037134163977163757 0 0.00063201416305071407 -0.031734262255188453 0 0.0010071309254860155 -0.030844180880151423 0 -0.0015697374439462635 -0.030205799893137045 0 -0.0021251898530693066 -0.027715114343601167 0 -0.0025673770008917849 -0.028101171975792753 0 -0.0023083898310041614 -0.027910479849069674 0 0.0010071309254860155 -0.030844180880151423 0 -0.0015697374439462635 -0.030205799893137045 0 -0.00080810706152766303 -0.028461982199700434 0 0.0025378454483767411 -0.030348156636372501 0 0.0013517906871747527 -0.028525182904093904 0 0.0052727775200146513 -0.027948166152613883 0 0.0048930689683989509 -0.027909978235476966 0 0.0047180691368924723 -0.027628391112782768 0 0.0014668160351010416 -0.028168764417035762 0 0.0013517906871747527 -0.028525182904093904 0 -0.0025673770008917849 -0.028101171975792753 0 -0.0023083898310041614 -0.027910479849069674 0 -0.0024808257904787214 -0.0280529605091723 0 0.0016075013941929423 -0.033584843847252209 0 -0.00048735591668825598 -0.034145027715054038 0 0.00074510951395861968 -0.036748925249325153 0 0.0014430502743338247 -0.03649251524102385 0 0.00035275923085423115 -0.036305905883804494 0 0.0015017978001757176 -0.037645636126102049 0 0.0010226513969129544 -0.037031751626677607 0 0.00073551477220311584 -0.036765272873222954 0 -0.00032851070156226202 -0.034348038646245936 0 -0.00048735591668825598 -0.034145027715054038 0 -0.0015697374439462635 -0.030205799893137045 0 -0.001650410575244235 -0.028541208598201025 0 -0.00080810706152766303 -0.028461982199700434 0 -0.00048735591668825598 -0.034145027715054038 0 -0.0017408365565879343 -0.034223631033505744 0 -0.001650410575244235 -0.028541208598201025 0 -0.00080810706152766303 -0.028461982199700434 0 -0.0018205464239462543 -0.027629770071674106 0 0.0010226513969129544 -0.037031751626677607 0 0.00074510951395861968 -0.036748925249325153 0 0.0014430502743338247 -0.03649251524102385 0 0.0010226513969129544 -0.037031751626677607 0 0.0014430502743338247 -0.03649251524102385 0 0.0014811017767664778 -0.037082280792487682 0 0.0014430502743338247 -0.03649251524102385 0 0.0014811017767664778 -0.037082280792487682 0 0.0019511711692797296 -0.037134163977163757 0 -0.00072249861157930068 -0.035380236917704609 0 -0.00064598557775916881 -0.034974957492865624 0 0.00036506342068436804 -0.035519426628026221 0 -0.00072249861157930068 -0.035380236917704609 0 -0.00064598557775916881 -0.034974957492865624 0 -0.0012972969401509596 -0.034979740535612008 0 -0.00053780280572521147 -0.036595550559532446 0 -0.00069847276805084352 -0.035704405394621754 0 0.00022081874213341517 -0.036232372109146482 0 -0.00064598557775916881 -0.034974957492865624 0 -0.0012972969401509596 -0.034979740535612008 0 -0.0016328658984235715 -0.034453259992786783 0 -0.00063573540628227942 -0.035555123753932459 0 -0.0022314954243097236 -0.034961765310899569 0 -0.00072249861157930068 -0.035380236917704609 0 -0.0017819741374513422 -0.035242750353870124 0 -0.0012972969401509596 -0.034979740535612008 0 -0.00053780280572521147 -0.036595550559532446 0 -0.0018923930636268198 -0.035947267330980422 0 -0.0016405529192124691 -0.035717314923516513 0 -8.0691243629244102e-05 -0.035256922864418026 0 -0.0017408365565879343 -0.034223631033505744 0 -0.0017819741374513422 -0.035242750353870124 0 -0.0012972969401509596 -0.034979740535612008 0 -0.0017039825580180542 -0.034890575505818609 0 -0.0012972969401509596 -0.034979740535612008 0 -0.0017039825580180542 -0.034890575505818609 0 -0.0016328658984235715 -0.034453259992786783 0 -0.0021009955123472627 -0.034886331240868262 0 -0.0017039825580180542 -0.034890575505818609 0 -0.0016328658984235715 -0.034453259992786783 0 -0.0018986685030383458 -0.035951487652663788 0 -0.0016405529192124691 -0.035717314923516513 0 -0.0017612592215404711 -0.034999950658713988 0 -0.0022314954243097236 -0.034961765310899569 0 -0.0022306096235350276 -0.034973560957518156 0 -0.0016405529192124691 -0.035717314923516513 0 -0.0017612592215404711 -0.034999950658713988 0 -0.00069847276805084352 -0.035704405394621754 0 -0.00069847276805084352 -0.035704405394621754 0 0.0002267519417782291 -0.034999889476912828 0 0.00022081874213341517 -0.036232372109146482 0 -0.0017612592215404711 -0.034999950658713988 0 -0.00069847276805084352 -0.035704405394621754 0 0.0002267519417782291 -0.034999889476912828 0 -0.00053780280572521147 -0.036595550559532446 0 -0.0016405529192124691 -0.035717314923516513 0 -0.00069847276805084352 -0.035704405394621754 0 0.0002267519417782291 -0.034999889476912828 0 0.0011279656843794464 -0.035874018201727725 0 0.00022081874213341517 -0.036232372109146482 0 0.0011279656843794464 -0.035874018201727725 0 0.0020072162603402967 -0.036514808357529245 0 0.002214807655527905 -0.034999873364848659 0 0.0002267519417782291 -0.034999889476912828 0 0.0011279656843794464 -0.035874018201727725 0 0.002214807655527905 -0.034999873364848659 0 0.0011279656843794464 -0.035874018201727725 0 0.0020072162603402967 -0.036514808357529245 0 0.0011236446756995729 -0.036641219202525541 0 0.0020072162603402967 -0.036514808357529245 0 0.0014940685536094255 -0.036902835175712814 0 0.0011236446756995729 -0.036641219202525541 0 -0.00053780280572521147 -0.036595550559532446 0 0.00022081874213341517 -0.036232372109146482 0 0.00090115028915057119 -0.037202791365496798 0 0.0011236446756995729 -0.036641219202525541 0 0.00022081874213341517 -0.036232372109146482 0 0.00090115028915057119 -0.037202791365496798 0 0.0014940685536094255 -0.036902835175712814 0 0.0011236446756995729 -0.036641219202525541 0 0.00090115028915057119 -0.037202791365496798 0 -0.00063573540628227942 -0.035555123753932459 0 0.00078383689852626988 -0.035977346691271922 0 0.0011279656843794464 -0.035874018201727725 0 0.0011236446756995729 -0.036641219202525541 0 0.00022081874213341517 -0.036232372109146482 0 0.0042023780332876067 -0.034999972090494949 0 0.0032392548663683321 -0.036353831920781683 0 0.0044406725327245386 -0.036226336485264743 0 0.0020072162603402967 -0.036514808357529245 0 0.002214807655527905 -0.034999873364848659 0 0.0032392548663683321 -0.036353831920781683 0 0.0042023780332876067 -0.034999972090494949 0 0.002214807655527905 -0.034999873364848659 0 0.0032392548663683321 -0.036353831920781683 0 0.0020072162603402967 -0.036514808357529245 0 0.0032392548663683321 -0.036353831920781683 0 0.0029327064105957434 -0.037109166939444611 0 0.0032392548663683321 -0.036353831920781683 0 0.0037102609817572488 -0.037257051200064152 0 0.0044406725327245386 -0.036226336485264743 0 0.0037102609817572488 -0.037257051200064152 0 0.0044089590322266897 -0.037300160780204678 0 0.0044406725327245386 -0.036226336485264743 0 0.0037102609817572488 -0.037257051200064152 0 0.0037522510841385081 -0.037804202446131661 0 0.0044089590322266897 -0.037300160780204678 0 0.0032392548663683321 -0.036353831920781683 0 0.0037102609817572488 -0.037257051200064152 0 0.0029327064105957434 -0.037109166939444611 0 0.0037102609817572488 -0.037257051200064152 0 0.0029327064105957434 -0.037109166939444611 0 0.0033453554944570052 -0.037615771193785924 0 0.0029327064105957434 -0.037109166939444611 0 0.0033453554944570052 -0.037615771193785924 0 0.0020904619148145393 -0.037548311444647695 0 0.002133326749716931 -0.036814963170708426 0 0.0017733511508317183 -0.036600084882650562 0 0.0037102609817572488 -0.037257051200064152 0 0.0033453554944570052 -0.037615771193785924 0 0.0037522510841385081 -0.037804202446131661 0 0.0033453554944570052 -0.037615771193785924 0 0.0033748198297233983 -0.037861623179193171 0 0.0029431113048155638 -0.037630142794112496 0 0.0033453554944570052 -0.037615771193785924 0 0.0033748198297233983 -0.037861623179193171 0 0.0037522510841385081 -0.037804202446131661 0 0.0033748198297233983 -0.037861623179193171 0 0.0037522510841385081 -0.037804202446131661 0 0.0038649068011490499 -0.038199231826724689 0 0.0037522510841385081 -0.037804202446131661 0 0.0048469967716755959 -0.037765011248546566 0 0.0050395869039625875 -0.036828931861698777 0 0.0037522510841385081 -0.037804202446131661 0 0.0048469967716755959 -0.037765011248546566 0 0.0045609111418374705 -0.038243760790727853 0 0.0044124404620594681 -0.03740322583517771 0 0.0049083412795755121 -0.036979482870596159 0 0.0014430502743338247 -0.03649251524102385 0 0.0019511711692797296 -0.037134163977163757 0 0.0023887323719312121 -0.036709272781644077 0 -8.0691243629244102e-05 -0.035256922864418026 0 0.00078383689852626988 -0.035977346691271922 0 0.0025538765376259143 -0.037182397392945959 0 0.0019511711692797296 -0.037134163977163757 0 0.0023887323719312121 -0.036709272781644077 0 0.0014940685536094255 -0.036902835175712814 0 0.00090115028915057119 -0.037202791365496798 0 0.0020904619148145393 -0.037548311444647695 0 0.00078383689852626988 -0.035977346691271922 0 0.0017733511508317183 -0.036600084882650562 0 0.0020072162603402967 -0.036514808357529245 0 0.0014940685536094255 -0.036902835175712814 0 0.0020904619148145393 -0.037548311444647695 0 0.0020072162603402967 -0.036514808357529245 0 0.0029327064105957434 -0.037109166939444611 0 0.0020904619148145393 -0.037548311444647695 0 0.0025538765376259143 -0.037182397392945959 0 0.0023887323719312121 -0.036709272781644077 0 0.0029614495799640045 -0.037162265190323944 0 0.0025538765376259143 -0.037182397392945959 0 0.0029614495799640045 -0.037162265190323944 0 0.0029431113048155638 -0.037630142794112496 0 0.0033453554944570052 -0.037615771193785924 0 0.0029614495799640045 -0.037162265190323944 0 0.0029431113048155638 -0.037630142794112496 0 0.0033748198297233983 -0.037861623179193171 0 0.0029431113048155638 -0.037630142794112496 0 0.0030459540077690827 -0.038009127193398787 0 0.0029431113048155638 -0.037630142794112496 0 0.002415312630756119 -0.037979005145736246 0 0.0030459540077690827 -0.038009127193398787 0 0.0015017978001757176 -0.037645636126102049 0 0.0022924243043871118 -0.037522318115001153 0 0.002415312630756119 -0.037979005145736246 0 0.0029431113048155638 -0.037630142794112496 0 0.0022924243043871118 -0.037522318115001153 0 0.002415312630756119 -0.037979005145736246 0 0.0025538765376259143 -0.037182397392945959 0 0.0029431113048155638 -0.037630142794112496 0 0.0022924243043871118 -0.037522318115001153 0 0.0025538765376259143 -0.037182397392945959 0 0.0019511711692797296 -0.037134163977163757 0 0.0022924243043871118 -0.037522318115001153 0 0.0015017978001757176 -0.037645636126102049 0 0.002415312630756119 -0.037979005145736246 0 0.0021654144234676868 -0.038342473879416056 0 0.0021654144234676868 -0.038342473879416056 0 0.0026878574467023922 -0.038569948749336169 0 0.0027702512965323599 -0.038258592623655149 0 0.002415312630756119 -0.037979005145736246 0 0.0021654144234676868 -0.038342473879416056 0 0.0027702512965323599 -0.038258592623655149 0 0.0055746186704318515 -0.028441469538859777 0 0.0057296931516593866 -0.028271716046888624 0 0.0057430874834114064 -0.028558046855510569 0 0.0065923090639929283 -0.030090971937362657 0 0.0063180234791645352 -0.029475961371632286 0 0.0062710057772499619 -0.029732587767694326 0 0.0057296931516593866 -0.028271716046888624 0 0.0059549328650805224 -0.02861101628867212 0 0.0057430874834114064 -0.028558046855510569 0 0.0035450219731950586 -0.03229780596057142 0 0.0041892288920807614 -0.030778277908147474 0 0.0035450219731950586 -0.03229780596057142 0 0.0043265998380715136 -0.033720024979096555 0 0.0059549328650805224 -0.02861101628867212 0 0.0057430874834114064 -0.028558046855510569 0 0.0058565002552534969 -0.028689516319423708 0 0.0056150579015042477 -0.02861443900686516 0 0.0057430874834114064 -0.028558046855510569 0 0.0057447730168875017 -0.028683260620714898 0 0.0030418805523586322 -0.038754825399255705 0 0.0026878574467023922 -0.038569948749336169 0 0.0027702512965323599 -0.038258592623655149 0 0.0048473263063207673 -0.034881387471438596 0 0.004838686150627906 -0.036443053385385914 0 0.0033675873067252706 -0.039214135459647151 0 0.0033415047543939058 -0.038655382296446467 0 0.0027702512965323599 -0.038258592623655149 0 0.0063180234791645352 -0.029475961371632286 0 0.0059491917788347844 -0.029372896526999228 0 0.0062710057772499619 -0.029732587767694326 0 0.0048473263063207673 -0.034881387471438596 0 0.0043265998380715136 -0.033720024979096555 0 0.0033415047543939058 -0.038655382296446467 0 0.0032318441339635288 -0.03830066206328471 0 0.0027702512965323599 -0.038258592623655149 0 0.002415312630756119 -0.037979005145736246 0 0.0027702512965323599 -0.038258592623655149 0 0.0030459540077690827 -0.038009127193398787 0 0.0032318441339635288 -0.03830066206328471 0 0.0027702512965323599 -0.038258592623655149 0 0.0030459540077690827 -0.038009127193398787 0 0.0032318441339635288 -0.03830066206328471 0 0.0030459540077690827 -0.038009127193398787 0 0.0033909498552385925 -0.038151834899400695 0 0.0033748198297233983 -0.037861623179193171 0 0.0033909498552385925 -0.038151834899400695 0 0.0038649068011490499 -0.038199231826724689 0 0.0033909498552385925 -0.038151834899400695 0 0.0038649068011490499 -0.038199231826724689 0 0.0036060718750142743 -0.038451639587798583 0 0.0033748198297233983 -0.037861623179193171 0 0.0030459540077690827 -0.038009127193398787 0 0.0033909498552385925 -0.038151834899400695 0 0.0038649068011490499 -0.038199231826724689 0 0.0036060718750142743 -0.038451639587798583 0 0.0040588237573001024 -0.038676197658870384 0 0.0032318441339635288 -0.03830066206328471 0 0.0033909498552385925 -0.038151834899400695 0 0.0036060718750142743 -0.038451639587798583 0 0.0033415047543939058 -0.038655382296446467 0 0.0032318441339635288 -0.03830066206328471 0 0.0036060718750142743 -0.038451639587798583 0 0.0038649068011490499 -0.038199231826724689 0 0.0045609111418374705 -0.038243760790727853 0 0.0042963454123412306 -0.038476198802424887 0 0.0037522510841385081 -0.037804202446131661 0 0.0038649068011490499 -0.038199231826724689 0 0.0045609111418374705 -0.038243760790727853 0 0.0038649068011490499 -0.038199231826724689 0 0.0042963454123412306 -0.038476198802424887 0 0.0040588237573001024 -0.038676197658870384 0 0.0045609111418374705 -0.038243760790727853 0 0.0046835638799246262 -0.038760185689562188 0 0.0053095197692812389 -0.038261584284908494 0 0.0045609111418374705 -0.038243760790727853 0 0.0042963454123412306 -0.038476198802424887 0 0.0046835638799246262 -0.038760185689562188 0 0.0046835638799246262 -0.038760185689562188 0 0.004233848060287702 -0.039151033056638411 0 0.0048459020107618489 -0.039480758917630136 0 0.0042963454123412306 -0.038476198802424887 0 0.0046835638799246262 -0.038760185689562188 0 0.0040588237573001024 -0.038676197658870384 0 0.0046835638799246262 -0.038760185689562188 0 0.004233848060287702 -0.039151033056638411 0 0.0040588237573001024 -0.038676197658870384 0 0.0033415047543939058 -0.038655382296446467 0 0.0036060718750142743 -0.038451639587798583 0 0.0037254848903424593 -0.038984475468773531 0 0.0036060718750142743 -0.038451639587798583 0 0.0040588237573001024 -0.038676197658870384 0 0.0037254848903424593 -0.038984475468773531 0 0.004233848060287702 -0.039151033056638411 0 0.0037254848903424593 -0.038984475468773531 0 0.0039332191869875383 -0.03924371409450983 0 0.004233848060287702 -0.039151033056638411 0 0.0040588237573001024 -0.038676197658870384 0 0.0037254848903424593 -0.038984475468773531 0 0.0037254848903424593 -0.038984475468773531 0 0.0036600895922946461 -0.039354102270308035 0 0.0039332191869875383 -0.03924371409450983 0 0.0033675873067252706 -0.039214135459647151 0 0.0037254848903424593 -0.038984475468773531 0 0.0036600895922946461 -0.039354102270308035 0 0.0033675873067252706 -0.039214135459647151 0 0.0033415047543939058 -0.038655382296446467 0 0.0037254848903424593 -0.038984475468773531 0 0.0048473263063207673 -0.034881387471438596 0 0.0048858197266240435 -0.035002088223122341 0 0.0048473263063207673 -0.034881387471438596 0 0.0062681547589089528 -0.033105930062737966 0 0.0059491917788347844 -0.029372896526999228 0 0.005936286014969633 -0.028871372275954568 0 0.0060424709021837681 -0.028897726386186279 0 0.0034220767226174134 -0.039199489800282657 0 0.0036600895922946461 -0.039354102270308035 0 0.0038753324309523003 -0.039881084285469201 0 0.0036600895922946461 -0.039354102270308035 0 0.0039332191869875383 -0.03924371409450983 0 0.0041295219546801454 -0.039550824408962987 0 0.004233848060287702 -0.039151033056638411 0 0.0039332191869875383 -0.03924371409450983 0 0.0041295219546801454 -0.039550824408962987 0 0.0036600895922946461 -0.039354102270308035 0 0.0041295219546801454 -0.039550824408962987 0 0.0038753324309523003 -0.039881084285469201 0 0.004233848060287702 -0.039151033056638411 0 0.0041295219546801454 -0.039550824408962987 0 0.0048459020107618489 -0.039480758917630136 0 0.0041295219546801454 -0.039550824408962987 0 0.0048459020107618489 -0.039480758917630136 0 0.0045237954128281958 -0.04003442520493887 0 0.0048459020107618489 -0.039480758917630136 0 0.0045237954128281958 -0.04003442520493887 0 0.0051218644045796825 -0.040021343642274776 0 0.0045237954128281958 -0.04003442520493887 0 0.0043006912646776909 -0.04055082279020731 0 0.0047873188429539337 -0.040580995741547943 0 0.0045237954128281958 -0.04003442520493887 0 0.0051218644045796825 -0.040021343642274776 0 0.0047873188429539337 -0.040580995741547943 0 0.005936286014969633 -0.028871372275954568 0 0.0059995712268736661 -0.028850311860493465 0 0.006020909801461442 -0.028842657945268236 0 0.0062681547589089528 -0.033105930062737966 0 0.0078071385356025926 -0.030164537583501488 0 0.0045237954128281958 -0.04003442520493887 0 0.0038753324309523003 -0.039881084285469201 0 0.0043006912646776909 -0.04055082279020731 0 0.005936286014969633 -0.028871372275954568 0 0.005990512563790607 -0.028848001201890704 0 0.0060424709021837681 -0.028897726386186279 0 0.005936286014969633 -0.028871372275954568 0 0.005990512563790607 -0.028848001201890704 0 0.0059995712268736661 -0.028850311860493465 0 0.0041295219546801454 -0.039550824408962987 0 0.0045237954128281958 -0.04003442520493887 0 0.0038753324309523003 -0.039881084285469201 0 0.0059995712268736661 -0.028850311860493465 0 0.0060234403859664304 -0.028850077646486373 0 0.006020909801461442 -0.028842657945268236 0 0.005990512563790607 -0.028848001201890704 0 0.0060234403859664304 -0.028850077646486373 0 0.0060109900043612821 -0.028836729685925523 0 0.005990512563790607 -0.028848001201890704 0 0.0059995712268736661 -0.028850311860493465 0 0.0060234403859664304 -0.028850077646486373 0 0.0060234403859664304 -0.028850077646486373 0 0.0060109900043612821 -0.028836729685925523 0 0.0059988264266683999 -0.028820081364056782 0 0.0059988264266683999 -0.028820081364056782 0 0.0058949835851336112 -0.028705360207337806 0 0.0060469978002603572 -0.028865196599872026 0 0.0060234403859664304 -0.028850077646486373 0 0.0059988264266683999 -0.028820081364056782 0 0.0060469978002603572 -0.028865196599872026 0 0.0060109900043612821 -0.028836729685925523 0 0.0060012154243846956 -0.028837066426275846 0 0.0059988264266683999 -0.028820081364056782 0 0.0060109900043612821 -0.028836729685925523 0 0.0060012154243846956 -0.028837066426275846 0 0.0060424709021837681 -0.028897726386186279 0 0.005990512563790607 -0.028848001201890704 0 0.0060109900043612821 -0.028836729685925523 0 0.0060424709021837681 -0.028897726386186279 0 0.0059648204455056992 -0.028817927724965949 0 0.0060012154243846956 -0.028837066426275846 0 0.0060424709021837681 -0.028897726386186279 0 0.0060012154243846956 -0.028837066426275846 0 0.0059566721353150687 -0.028802228349764113 0 0.0059988264266683999 -0.028820081364056782 0 0.0059648204455056992 -0.028817927724965949 0 0.0060012154243846956 -0.028837066426275846 0 0.0059566721353150687 -0.028802228349764113 0 0.0059566721353150687 -0.028802228349764113 0 0.0059988264266683999 -0.028820081364056782 0 0.0058949835851336112 -0.028705360207337806 0 0.0058949835851336112 -0.028705360207337806 0 0.0058714149410888025 -0.028838050923321468 0 0.0059918456851152805 -0.028320724725988282 0 0.0058949835851336112 -0.028705360207337806 0 0.0058714149410888025 -0.028838050923321468 0 0.0058824909686404792 -0.028804836771874592 0 0.0058714149410888025 -0.028838050923321468 0 0.0058824909686404792 -0.028804836771874592 0 0.0058479995453807679 -0.028765220335074646 0 0.0058949835851336112 -0.028705360207337806 0 0.0058824909686404792 -0.028804836771874592 0 0.0059159086466850849 -0.028797904745018303 0 0.0059566721353150687 -0.028802228349764113 0 0.0058949835851336112 -0.028705360207337806 0 0.0059159086466850849 -0.028797904745018303 0 0.0058824909686404792 -0.028804836771874592 0 0.0059159086466850849 -0.028797904745018303 0 0.0059028648744412909 -0.02877962185294259 0 0.0059648204455056992 -0.028817927724965949 0 0.0059566721353150687 -0.028802228349764113 0 0.0059159086466850849 -0.028797904745018303 0 0.0059648204455056992 -0.028817927724965949 0 0.0059028648744412909 -0.02877962185294259 0 0.0059470575465297177 -0.028764102209543438 0 0.0059648204455056992 -0.028817927724965949 0 0.0059159086466850849 -0.028797904745018303 0 0.0059028648744412909 -0.02877962185294259 0 0.0059028648744412909 -0.02877962185294259 0 0.0058479995453807679 -0.028765220335074646 0 0.0058565002552534969 -0.028689516319423708 0 0.0059028648744412909 -0.02877962185294259 0 0.0058565002552534969 -0.028689516319423708 0 0.0059470575465297177 -0.028764102209543438 0 0.0058714149410888025 -0.028838050923321468 0 0.0058479995453807679 -0.028765220335074646 0 0.0057447730168875017 -0.028683260620714898 0 0.0058824909686404792 -0.028804836771874592 0 0.0059028648744412909 -0.02877962185294259 0 0.0058479995453807679 -0.028765220335074646 0 0.0057430874834114064 -0.028558046855510569 0 0.0057447730168875017 -0.028683260620714898 0 0.0058565002552534969 -0.028689516319423708 0 0.0058479995453807679 -0.028765220335074646 0 0.0057447730168875017 -0.028683260620714898 0 0.0058565002552534969 -0.028689516319423708 0 0.0059549328650805224 -0.02861101628867212 0 0.0058565002552534969 -0.028689516319423708 0 0.0059470575465297177 -0.028764102209543438 0 0.0041892288920807614 -0.030778277908147474 0 0.0044004716992891947 -0.030355460683754044 0 0.0063180234791645352 -0.029475961371632286 0 0.0059491917788347844 -0.029372896526999228 0 0.0060424709021837681 -0.028897726386186279 0 0.0059549328650805224 -0.02861101628867212 0 0.0060424709021837681 -0.028897726386186279 0 0.0059470575465297177 -0.028764102209543438 0 0.0059648204455056992 -0.028817927724965949 0 0.0060424709021837681 -0.028897726386186279 0 0.0059470575465297177 -0.028764102209543438 0 0.015767042338882355 -0.029320542377814451 0 0.015417701849292408 -0.029290477905675946 0 0.015756480493463117 -0.029129622548744866 0 0.015767042338882355 -0.029320542377814451 0 0.015505095570958435 -0.02967434408493877 0 0.015417701849292408 -0.029290477905675946 0 0.013637351026576542 -0.028754812869599248 0 0.015069384249350698 -0.028518412859791242 0 0.015119566822402127 -0.028542131074090673 0 0.015768506358287668 -0.028495040788934067 0 0.015604601287420432 -0.028773257411743941 0 0.015858944084844971 -0.028509208805627618 0 0.015847611855172535 -0.028469838962529016 0 0.015768506358287668 -0.028495040788934067 0 0.014743784938439804 -0.028553283693189692 0 0.013637351026576542 -0.028754812869599248 0 0.015505095570958435 -0.02967434408493877 0 0.015417701849292408 -0.029290477905675946 0 0.015096099255053516 -0.029757326956518337 0 0.00554620837438326 -0.039645837246249559 0 0.0063008788065206734 -0.039420423027908061 0 0.0058425452778162936 -0.040385628700796337 0 0.013637351026576542 -0.028754812869599248 0 0.010137150923930792 -0.0305006301730915 0 0.010384456351722325 -0.033519978238630684 0 0.010137150923930792 -0.0305006301730915 0 0.0051218644045796825 -0.040021343642274776 0 0.0047873188429539337 -0.040580995741547943 0 0.0058425452778162936 -0.040385628700796337 0 0.0051218644045796825 -0.040021343642274776 0 0.00554620837438326 -0.039645837246249559 0 0.0058425452778162936 -0.040385628700796337 0 0.0048459020107618489 -0.039480758917630136 0 0.00554620837438326 -0.039645837246249559 0 0.0054994637873911241 -0.038978233972448054 0 0.0048459020107618489 -0.039480758917630136 0 0.0051218644045796825 -0.040021343642274776 0 0.00554620837438326 -0.039645837246249559 0 0.00554620837438326 -0.039645837246249559 0 0.0063008788065206734 -0.039420423027908061 0 0.0054994637873911241 -0.038978233972448054 0 0.0063008788065206734 -0.039420423027908061 0 0.0054994637873911241 -0.038978233972448054 0 0.0060897648635860595 -0.038335563350531031 0 0.0046835638799246262 -0.038760185689562188 0 0.0054994637873911241 -0.038978233972448054 0 0.0053095197692812389 -0.038261584284908494 0 0.0046835638799246262 -0.038760185689562188 0 0.0048459020107618489 -0.039480758917630136 0 0.0054994637873911241 -0.038978233972448054 0 0.0053095197692812389 -0.038261584284908494 0 0.0060897648635860595 -0.038335563350531031 0 0.0054908311160728872 -0.037563629494562129 0 0.0054994637873911241 -0.038978233972448054 0 0.0053095197692812389 -0.038261584284908494 0 0.0060897648635860595 -0.038335563350531031 0 0.0048469967716755959 -0.037765011248546566 0 0.0045609111418374705 -0.038243760790727853 0 0.0053095197692812389 -0.038261584284908494 0 0.0060897648635860595 -0.038335563350531031 0 0.0068979614648318477 -0.038410626408453677 0 0.0067674586759610455 -0.037771582618972975 0 0.015417701849292408 -0.029290477905675946 0 0.015815832669385483 -0.02918027778912264 0 0.015756480493463117 -0.029129622548744866 0 0.010384456351722325 -0.033519978238630684 0 0.011132400260452213 -0.033670232400156756 0 0.0063008788065206734 -0.039420423027908061 0 0.0060897648635860595 -0.038335563350531031 0 0.0068979614648318477 -0.038410626408453677 0 0.015767042338882355 -0.029320542377814451 0 0.015756480493463117 -0.029129622548744866 0 0.01577647117095226 -0.028924945610693087 0 0.014743784938439804 -0.028553283693189692 0 0.014994921831224365 -0.02857985714151539 0 0.015756480493463117 -0.029129622548744866 0 0.015772232925588943 -0.029169120126949909 0 0.01577647117095226 -0.028924945610693087 0 0.015815832669385483 -0.02918027778912264 0 0.015756480493463117 -0.029129622548744866 0 0.015772232925588943 -0.029169120126949909 0 0.015815832669385483 -0.02918027778912264 0 0.015772232925588943 -0.029169120126949909 0 0.015762316217770952 -0.02942451373112822 0 0.015772232925588943 -0.029169120126949909 0 0.015762316217770952 -0.02942451373112822 0 0.015617330608596214 -0.029319398987796359 0 0.015762316217770952 -0.02942451373112822 0 0.015930699267909663 -0.029806140267881125 0 0.015545308168833512 -0.029733721187549602 0 0.015815832669385483 -0.02918027778912264 0 0.015762316217770952 -0.02942451373112822 0 0.015930699267909663 -0.029806140267881125 0 0.011804222137321648 -0.033335138634927028 0 0.011879288577529144 -0.033291823518857261 0 0.0068979614648318477 -0.038410626408453677 0 0.0074876767708995599 -0.037438149364828498 0 0.0067674586759610455 -0.037771582618972975 0 0.0068979614648318477 -0.038410626408453677 0 0.0074876767708995599 -0.037438149364828498 0 0.0076359632821371929 -0.037383913373897758 0 0.011132400260452213 -0.033670232400156756 0 0.011879288577529144 -0.033291823518857261 0 0.0067674586759610455 -0.037771582618972975 0 0.0067292635252629157 -0.037451444730921768 0 0.0071163916344627398 -0.037386731536380766 0 0.0067674586759610455 -0.037771582618972975 0 0.0067292635252629157 -0.037451444730921768 0 0.0062993364442147249 -0.037581382852193493 0 0.0074876767708995599 -0.037438149364828498 0 0.0067674586759610455 -0.037771582618972975 0 0.0071163916344627398 -0.037386731536380766 0 0.0074876767708995599 -0.037438149364828498 0 0.0071163916344627398 -0.037386731536380766 0 0.0075262013844334015 -0.037286085575471951 0 0.0071163916344627398 -0.037386731536380766 0 0.0072785475875746268 -0.037049489370032752 0 0.0075262013844334015 -0.037286085575471951 0 0.0071163916344627398 -0.037386731536380766 0 0.0072785475875746268 -0.037049489370032752 0 0.006940140134031483 -0.037145478607682546 0 0.0072785475875746268 -0.037049489370032752 0 0.0077622483619801596 -0.03696549019516028 0 0.0075262013844334015 -0.037286085575471951 0 0.006940140134031483 -0.037145478607682546 0 0.0068997231716924857 -0.036695811957065838 0 0.0065156978762249849 -0.037200459140717054 0 0.0067292635252629157 -0.037451444730921768 0 0.006940140134031483 -0.037145478607682546 0 0.0065156978762249849 -0.037200459140717054 0 0.0067292635252629157 -0.037451444730921768 0 0.0071163916344627398 -0.037386731536380766 0 0.006940140134031483 -0.037145478607682546 0 0.0072785475875746268 -0.037049489370032752 0 0.006940140134031483 -0.037145478607682546 0 0.0068997231716924857 -0.036695811957065838 0 0.0072785475875746268 -0.037049489370032752 0 0.0068997231716924857 -0.036695811957065838 0 0.0074617999002681915 -0.03676331796723923 0 0.0072785475875746268 -0.037049489370032752 0 0.0074617999002681915 -0.03676331796723923 0 0.0077622483619801596 -0.03696549019516028 0 0.011879288577529144 -0.033291823518857261 0 0.012395902080816408 -0.033489668657347531 0 0.0077622483619801596 -0.03696549019516028 0 0.0078265725511146213 -0.037337729984489115 0 0.0083260424565472745 -0.03670066764612559 0 0.0074617999002681915 -0.03676331796723923 0 0.0077622483619801596 -0.03696549019516028 0 0.0078860308220333273 -0.036614918988291938 0 0.0077622483619801596 -0.03696549019516028 0 0.0083260424565472745 -0.03670066764612559 0 0.0078860308220333273 -0.036614918988291938 0 0.0078265725511146213 -0.037337729984489115 0 0.0077450483650532594 -0.037509338333908876 0 0.0093683886888925646 -0.037114035786472661 0 0.0078265725511146213 -0.037337729984489115 0 0.0083260424565472745 -0.03670066764612559 0 0.0093683886888925646 -0.037114035786472661 0 0.0074876767708995599 -0.037438149364828498 0 0.0075262013844334015 -0.037286085575471951 0 0.0076999830678579099 -0.037429908684852221 0 0.0078265725511146213 -0.037337729984489115 0 0.0075262013844334015 -0.037286085575471951 0 0.0076999830678579099 -0.037429908684852221 0 0.011839987022094595 -0.033367983451240382 0 0.011879288577529144 -0.033291823518857261 0 0.0077622483619801596 -0.03696549019516028 0 0.0078265725511146213 -0.037337729984489115 0 0.0075262013844334015 -0.037286085575471951 0 0.0048469967716755959 -0.037765011248546566 0 0.0054908311160728872 -0.037563629494562129 0 0.0050395869039625875 -0.036828931861698777 0 0.0048469967716755959 -0.037765011248546566 0 0.0053095197692812389 -0.038261584284908494 0 0.0054908311160728872 -0.037563629494562129 0 0.0060897648635860595 -0.038335563350531031 0 0.0067674586759610455 -0.037771582618972975 0 0.0062993364442147249 -0.037581382852193493 0 0.0060897648635860595 -0.038335563350531031 0 0.0054908311160728872 -0.037563629494562129 0 0.0062993364442147249 -0.037581382852193493 0 0.0054908311160728872 -0.037563629494562129 0 0.0062993364442147249 -0.037581382852193493 0 0.0060390043426868205 -0.036946827093826115 0 0.0067292635252629157 -0.037451444730921768 0 0.0062993364442147249 -0.037581382852193493 0 0.0065156978762249849 -0.037200459140717054 0 0.0062993364442147249 -0.037581382852193493 0 0.0065156978762249849 -0.037200459140717054 0 0.0060390043426868205 -0.036946827093826115 0 0.0068997231716924857 -0.036695811957065838 0 0.0065156978762249849 -0.037200459140717054 0 0.0060390043426868205 -0.036946827093826115 0 0.0060390043426868205 -0.036946827093826115 0 0.0050395869039625875 -0.036828931861698777 0 0.00611740350494512 -0.036053200039030946 0 0.0054908311160728872 -0.037563629494562129 0 0.0060390043426868205 -0.036946827093826115 0 0.0050395869039625875 -0.036828931861698777 0 0.0044089590322266897 -0.037300160780204678 0 0.0044406725327245386 -0.036226336485264743 0 0.0057532870476485623 -0.036345047405214145 0 0.0049083412795755121 -0.036979482870596159 0 0.005814282836125003 -0.036208257079967422 0 0.0068997231716924857 -0.036695811957065838 0 0.0060390043426868205 -0.036946827093826115 0 0.00611740350494512 -0.036053200039030946 0 0.0044406725327245386 -0.036226336485264743 0 0.0057532870476485623 -0.036345047405214145 0 0.0061902143851730361 -0.034999931200777899 0 0.005814282836125003 -0.036208257079967422 0 0.0063758767107129962 -0.03571732047278868 0 0.0057532870476485623 -0.036345047405214145 0 0.0061902143851730361 -0.034999931200777899 0 0.0071620778312520266 -0.035164483676813303 0 0.0042023780332876067 -0.034999972090494949 0 0.0044406725327245386 -0.036226336485264743 0 0.0061902143851730361 -0.034999931200777899 0 0.0081033945780691081 -0.036205808892131035 0 0.007798522693081243 -0.035650884041804526 0 0.0090503305938620781 -0.035910235275523263 0 0.0081033945780691081 -0.036205808892131035 0 0.007525016317290272 -0.036341521048776859 0 0.007798522693081243 -0.035650884041804526 0 0.0081033945780691081 -0.036205808892131035 0 0.0083260424565472745 -0.03670066764612559 0 0.0090503305938620781 -0.035910235275523263 0 0.0081033945780691081 -0.036205808892131035 0 0.0078860308220333273 -0.036614918988291938 0 0.007525016317290272 -0.036341521048776859 0 0.0074617999002681915 -0.03676331796723923 0 0.0078860308220333273 -0.036614918988291938 0 0.007525016317290272 -0.036341521048776859 0 0.0081033945780691081 -0.036205808892131035 0 0.0083260424565472745 -0.03670066764612559 0 0.0078860308220333273 -0.036614918988291938 0 0.0068997231716924857 -0.036695811957065838 0 0.007525016317290272 -0.036341521048776859 0 0.0070835138414188726 -0.035977690957663531 0 0.0068997231716924857 -0.036695811957065838 0 0.00611740350494512 -0.036053200039030946 0 0.0070835138414188726 -0.035977690957663531 0 0.0068997231716924857 -0.036695811957065838 0 0.0074617999002681915 -0.03676331796723923 0 0.007525016317290272 -0.036341521048776859 0 0.007525016317290272 -0.036341521048776859 0 0.0070835138414188726 -0.035977690957663531 0 0.007798522693081243 -0.035650884041804526 0 0.0070835138414188726 -0.035977690957663531 0 0.0071620778312520266 -0.035164483676813303 0 0.007798522693081243 -0.035650884041804526 0 0.00611740350494512 -0.036053200039030946 0 0.0070835138414188726 -0.035977690957663531 0 0.0071620778312520266 -0.035164483676813303 0 0.0061902143851730361 -0.034999931200777899 0 0.0071620778312520266 -0.035164483676813303 0 0.0081781588637333466 -0.034999831300255663 0 0.0071620778312520266 -0.035164483676813303 0 0.0081781588637333466 -0.034999831300255663 0 0.007798522693081243 -0.035650884041804526 0 0.0081781588637333466 -0.034999831300255663 0 0.007798522693081243 -0.035650884041804526 0 0.0090503305938620781 -0.035910235275523263 0 0.0081781588637333466 -0.034999831300255663 0 0.0090503305938620781 -0.035910235275523263 0 0.010165923571850007 -0.034999811156281507 0 0.0083260424565472745 -0.03670066764612559 0 0.0090503305938620781 -0.035910235275523263 0 0.0093683886888925646 -0.037114035786472661 0 0.0090503305938620781 -0.035910235275523263 0 0.010971769604574404 -0.036564091505779481 0 0.0093683886888925646 -0.037114035786472661 0 0.013198175772717861 -0.033460729186065644 0 0.012395902080816408 -0.033489668657347531 0 0.0090503305938620781 -0.035910235275523263 0 0.010165923571850007 -0.034999811156281507 0 0.010971769604574404 -0.036564091505779481 0 0.010165923571850007 -0.034999811156281507 0 0.012153849099960161 -0.035000007340298074 0 0.010971769604574404 -0.036564091505779481 0 0.012154181902549445 -0.034999833868271171 0 0.013198175772717861 -0.033460729186065644 0 0.012154239025590891 -0.035000076228006216 0 0.012234756511270059 -0.035402218192571548 0 0.011565588943016481 -0.036143018672449415 0 0.013976136783838761 -0.033816740580399005 0 0.014501621775803974 -0.03450705666732088 0 0.012800048369904204 -0.035369781365502208 0 0.012154239025590891 -0.035000076228006216 0 0.01349500149664166 -0.034999872978018876 0 0.012800048369904204 -0.035369781365502208 0 0.012369060760219305 -0.03600084448747979 0 0.013581197696440941 -0.035543040050866302 0 0.012800048369904204 -0.035369781365502208 0 0.012154239025590891 -0.035000076228006216 0 0.012234756511270059 -0.035402218192571548 0 0.013949362397902371 -0.033979553593275091 0 0.013976136783838761 -0.033816740580399005 0 0.012800048369904204 -0.035369781365502208 0 0.012234756511270059 -0.035402218192571548 0 0.012369060760219305 -0.03600084448747979 0 0.016785332489661579 -0.03478497346082194 0 0.01672252701766511 -0.033843953485865337 0 0.016292259164450106 -0.034438797746191067 0 0.013976136783838761 -0.033816740580399005 0 0.015061212361778984 -0.03211378331462187 0 0.012234756511270059 -0.035402218192571548 0 0.012326731485676916 -0.035759161245272099 0 0.011565588943016481 -0.036143018672449415 0 0.013976136783838761 -0.033816740580399005 0 0.013198175772717861 -0.033460729186065644 0 0.014216692689473105 -0.031272711102806355 0 0.014888602598819431 -0.030935123009509388 0 0.014678737217754187 -0.030267247923223595 0 0.014216692689473105 -0.031272711102806355 0 0.014678737217754187 -0.030267247923223595 0 0.014014309158059067 -0.030232428848178314 0 0.014014309158059067 -0.030232428848178314 0 0.01432984936381018 -0.029652126794324087 0 0.013828290818999488 -0.029257224250997207 0 0.015061212361778984 -0.03211378331462187 0 0.015950244702738234 -0.030555254909564341 0 0.014678737217754187 -0.030267247923223595 0 0.014014309158059067 -0.030232428848178314 0 0.01432984936381018 -0.029652126794324087 0 0.014678737217754187 -0.030267247923223595 0 0.01432984936381018 -0.029652126794324087 0 0.014847341562070853 -0.029602667852038991 0 0.014847341562070853 -0.029602667852038991 0 0.015312465789312694 -0.029540230675199241 0 0.01534896288894548 -0.030106825042858682 0 0.014678737217754187 -0.030267247923223595 0 0.014847341562070853 -0.029602667852038991 0 0.01534896288894548 -0.030106825042858682 0 0.014780990263134919 -0.030806414187613818 0 0.015182227027668896 -0.030130951235224482 0 0.015762316217770952 -0.02942451373112822 0 0.015545308168833512 -0.029733721187549602 0 0.015617330608596214 -0.029319398987796359 0 0.015312465789312694 -0.029540230675199241 0 0.01534896288894548 -0.030106825042858682 0 0.015617330608596214 -0.029319398987796359 0 0.015545308168833512 -0.029733721187549602 0 0.014999290326127093 -0.029897131794811804 0 0.015617330608596214 -0.029319398987796359 0 0.015930699267909663 -0.029806140267881125 0 0.015545308168833512 -0.029733721187549602 0 0.015350537966635923 -0.03029082797829126 0 0.015545308168833512 -0.029733721187549602 0 0.015350537966635923 -0.03029082797829126 0 0.014999290326127093 -0.029897131794811804 0 0.014888602598819431 -0.030935123009509388 0 0.014678737217754187 -0.030267247923223595 0 0.01534896288894548 -0.030106825042858682 0 0.01442015829427608 -0.030822294106139233 0 0.015350537966635923 -0.03029082797829126 0 0.014999290326127093 -0.029897131794811804 0 0.013198175772717861 -0.033460729186065644 0 0.014780990263134919 -0.030806414187613818 0 0.015696215699579907 -0.034792942003080106 0 0.015736475829775068 -0.034725908628320756 0 0.015709656291258912 -0.034476742009931179 0 0.015664934852507691 -0.03466478919183677 0 0.015736475829775068 -0.034725908628320756 0 0.015844973758202093 -0.034749080710916848 0 0.015664934852507691 -0.03466478919183677 0 0.015696215699579907 -0.034792942003080106 0 0.015736475829775068 -0.034725908628320756 0 0.016708193794578292 -0.035142886850045935 0 0.017329837484278389 -0.035166372129496179 0 0.016665621202810173 -0.034999252610934603 0 0.015799883339059888 -0.035178877859522818 0 0.017802638025636582 -0.035746575780259013 0 0.015696215699579907 -0.034792942003080106 0 0.015799883339059888 -0.035178877859522818 0 0.015709656291258912 -0.034476742009931179 0 0.016665621202810173 -0.034999252610934603 0 0.015799883339059888 -0.035178877859522818 0 0.014839611407383839 -0.03500021819393323 0 0.015799883339059888 -0.035178877859522818 0 0.015640626474228148 -0.034805031311748162 0 0.015397257033016849 -0.034946479014965136 0 0.015696215699579907 -0.034792942003080106 0 0.015799883339059888 -0.035178877859522818 0 0.015640626474228148 -0.034805031311748162 0 0.015664934852507691 -0.03466478919183677 0 0.015696215699579907 -0.034792942003080106 0 0.015640626474228148 -0.034805031311748162 0 0.015664934852507691 -0.03466478919183677 0 0.015640626474228148 -0.034805031311748162 0 0.01561985592606366 -0.034481842720660086 0 0.015640626474228148 -0.034805031311748162 0 0.015761280620786858 -0.03454326318622071 0 0.01561985592606366 -0.034481842720660086 0 0.015761280620786858 -0.03454326318622071 0 0.015397257033016849 -0.034946479014965136 0 0.016061034230602345 -0.035046224295321234 0 0.015640626474228148 -0.034805031311748162 0 0.015761280620786858 -0.03454326318622071 0 0.015397257033016849 -0.034946479014965136 0 0.015799883339059888 -0.035178877859522818 0 0.014839611407383839 -0.03500021819393323 0 0.015397257033016849 -0.034946479014965136 0 0.014839611407383839 -0.03500021819393323 0 0.015397257033016849 -0.034946479014965136 0 0.016061034230602345 -0.035046224295321234 0 0.014835707840808286 -0.034998738603376232 0 0.014501621775803974 -0.03450705666732088 0 0.014836308043063753 -0.035000055007311424 0 0.01349500149664166 -0.034999872978018876 0 0.013581197696440941 -0.035543040050866302 0 0.012800048369904204 -0.035369781365502208 0 0.01349500149664166 -0.034999872978018876 0 0.013581197696440941 -0.035543040050866302 0 0.016785332489661579 -0.03478497346082194 0 0.016061034230602345 -0.035046224295321234 0 0.016292259164450106 -0.034438797746191067 0 0.015761280620786858 -0.03454326318622071 0 0.016061034230602345 -0.035046224295321234 0 0.016292259164450106 -0.034438797746191067 0 0.015761280620786858 -0.03454326318622071 0 0.016292259164450106 -0.034438797746191067 0 0.0161176028950843 -0.033953482532465239 0 0.01672252701766511 -0.033843953485865337 0 0.016292259164450106 -0.034438797746191067 0 0.0161176028950843 -0.033953482532465239 0 0.01672252701766511 -0.033843953485865337 0 0.016143391357848865 -0.033079762925311416 0 0.016620871740731742 -0.032893827033025451 0 0.01672252701766511 -0.033843953485865337 0 0.0161176028950843 -0.033953482532465239 0 0.016143391357848865 -0.033079762925311416 0 0.015668686937103583 -0.031480647235739713 0 0.015881031272448096 -0.031206227216890446 0 0.015930779466493048 -0.033599365071822852 0 0.015667713687089174 -0.032819110446723226 0 0.016143391357848865 -0.033079762925311416 0 0.015930779466493048 -0.033599365071822852 0 0.0161176028950843 -0.033953482532465239 0 0.016143391357848865 -0.033079762925311416 0 0.015930779466493048 -0.033599365071822852 0 0.015790521851869851 -0.03419633914304835 0 0.015537360800764996 -0.034196647975627471 0 0.015930779466493048 -0.033599365071822852 0 0.0161176028950843 -0.033953482532465239 0 0.015790521851869851 -0.03419633914304835 0 0.015761280620786858 -0.03454326318622071 0 0.0161176028950843 -0.033953482532465239 0 0.015790521851869851 -0.03419633914304835 0 0.015761280620786858 -0.03454326318622071 0 0.015790521851869851 -0.03419633914304835 0 0.01561985592606366 -0.034481842720660086 0 0.015664934852507691 -0.03466478919183677 0 0.01561985592606366 -0.034481842720660086 0 0.015713512314870816 -0.034526160545706397 0 0.01561985592606366 -0.034481842720660086 0 0.015537360800764996 -0.034196647975627471 0 0.015713512314870816 -0.034526160545706397 0 0.015790521851869851 -0.03419633914304835 0 0.01561985592606366 -0.034481842720660086 0 0.015537360800764996 -0.034196647975627471 0 0.015930779466493048 -0.033599365071822852 0 0.015537360800764996 -0.034196647975627471 0 0.015667713687089174 -0.032819110446723226 0 0.015667713687089174 -0.032819110446723226 0 0.014282793483366155 -0.032370034724978923 0 0.015109383732788495 -0.03163829747260094 0 0.015596453071099199 -0.03349363894354862 0 0.015381993056465705 -0.033140073943014825 0 0.015537360800764996 -0.034196647975627471 0 0.015667713687089174 -0.032819110446723226 0 0.014282793483366155 -0.032370034724978923 0 0.015804480910995795 -0.034673382628343311 0 0.015837462015806478 -0.034653935816436492 0 0.015854690641544728 -0.03466189524369237 0 0.015804480910995795 -0.034673382628343311 0 0.015837462015806478 -0.034653935816436492 0 0.015713512314870816 -0.034526160545706397 0 0.015537360800764996 -0.034196647975627471 0 0.015804480910995795 -0.034673382628343311 0 0.015713512314870816 -0.034526160545706397 0 0.015837462015806478 -0.034653935816436492 0 0.015713512314870816 -0.034526160545706397 0 0.015896810077806047 -0.034713528687322665 0 0.015713512314870816 -0.034526160545706397 0 0.015844973758202093 -0.034749080710916848 0 0.015896810077806047 -0.034713528687322665 0 0.015664934852507691 -0.03466478919183677 0 0.015713512314870816 -0.034526160545706397 0 0.015844973758202093 -0.034749080710916848 0 0.014639443657900987 -0.030549064175093135 0 0.014739000282949727 -0.029136019470201606 0 0.013808303479426258 -0.029396831967259944 0 0.014639443657900987 -0.030549064175093135 0 0.015592525161282704 -0.029485132643320412 0 0.014739000282949727 -0.029136019470201606 0 0.014282793483366155 -0.032370034724978923 0 0.014639443657900987 -0.030549064175093135 0 0.01348468803082037 -0.030805015263239768 0 0.014282793483366155 -0.032370034724978923 0 0.014639443657900987 -0.030549064175093135 0 0.015109383732788495 -0.03163829747260094 0 0.014639443657900987 -0.030549064175093135 0 0.015109383732788495 -0.03163829747260094 0 0.015911173504637718 -0.030909975764818097 0 0.015667713687089174 -0.032819110446723226 0 0.015109383732788495 -0.03163829747260094 0 0.015911173504637718 -0.030909975764818097 0 0.014639443657900987 -0.030549064175093135 0 0.015911173504637718 -0.030909975764818097 0 0.015592525161282704 -0.029485132643320412 0 0.015911173504637718 -0.030909975764818097 0 0.01660852952022954 -0.029600329154093066 0 0.015592525161282704 -0.029485132643320412 0 0.015911173504637718 -0.030909975764818097 0 0.01660852952022954 -0.029600329154093066 0 0.017163625281064902 -0.030702283628927719 0 0.015667713687089174 -0.032819110446723226 0 0.015911173504637718 -0.030909975764818097 0 0.016984167528762504 -0.031867841191622649 0 0.015911173504637718 -0.030909975764818097 0 0.016984167528762504 -0.031867841191622649 0 0.017163625281064902 -0.030702283628927719 0 0.016984167528762504 -0.031867841191622649 0 0.018137161643430245 -0.031251302182638871 0 0.017163625281064902 -0.030702283628927719 0 0.015881031272448096 -0.031206227216890446 0 0.015950244702738234 -0.030555254909564341 0 0.015950244702738234 -0.030555254909564341 0 0.016243435520045361 -0.029659162689484257 0 0.018137161643430245 -0.031251302182638871 0 0.017163625281064902 -0.030702283628927719 0 0.017664259101530067 -0.029785188704626372 0 0.01660852952022954 -0.029600329154093066 0 0.017163625281064902 -0.030702283628927719 0 0.017664259101530067 -0.029785188704626372 0 0.01660852952022954 -0.029600329154093066 0 0.017664259101530067 -0.029785188704626372 0 0.016871930605490408 -0.028442855775780995 0 0.016243435520045361 -0.029659162689484257 0 0.016308370204853432 -0.029339401014877753 0 0.016759896395961572 -0.028199905118238517 0 0.016871930605490408 -0.028442855775780995 0 0.016531540403270418 -0.028386954523704142 0 0.016266871148616014 -0.028582706932974031 0 0.015535053281031422 -0.028147834444084655 0 0.016551595337977103 -0.027606772114398315 0 0.016871930605490408 -0.028442855775780995 0 0.016266871148616014 -0.028582706932974031 0 0.016551595337977103 -0.027606772114398315 0 0.01660852952022954 -0.029600329154093066 0 0.016266871148616014 -0.028582706932974031 0 0.015592525161282704 -0.029485132643320412 0 0.01660852952022954 -0.029600329154093066 0 0.016871930605490408 -0.028442855775780995 0 0.016266871148616014 -0.028582706932974031 0 0.015592525161282704 -0.029485132643320412 0 0.015535053281031422 -0.028147834444084655 0 0.014739000282949727 -0.029136019470201606 0 0.016266871148616014 -0.028582706932974031 0 0.015592525161282704 -0.029485132643320412 0 0.015535053281031422 -0.028147834444084655 0 0.01483287120368368 -0.027530543918771903 0 0.014301576813147605 -0.028229530932243632 0 0.014290371730346065 -0.026721505921634862 0 0.015535053281031422 -0.028147834444084655 0 0.01483287120368368 -0.027530543918771903 0 0.014301576813147605 -0.028229530932243632 0 0.015535053281031422 -0.028147834444084655 0 0.014301576813147605 -0.028229530932243632 0 0.014739000282949727 -0.029136019470201606 0 0.014301576813147605 -0.028229530932243632 0 0.014739000282949727 -0.029136019470201606 0 0.013808303479426258 -0.029396831967259944 0 0.015659994335979113 -0.028535583418007233 0 0.015363348554445877 -0.029164601811854721 0 0.014661357673064314 -0.028905355031777831 0 0.015879847782709452 -0.029306082232057235 0 0.015860971404694078 -0.02958316841636071 0 0.015659994335979113 -0.028535583418007233 0 0.016263233742444455 -0.028064270073097423 0 0.016111734637807788 -0.028407562436407477 0 0.015659994335979113 -0.028535583418007233 0 0.01577647117095226 -0.028924945610693087 0 0.015755208705843255 -0.028510342933129859 0 0.015659994335979113 -0.028535583418007233 0 0.01577647117095226 -0.028924945610693087 0 0.015363348554445877 -0.029164601811854721 0 0.01577647117095226 -0.028924945610693087 0 0.015617330608596214 -0.029319398987796359 0 0.015363348554445877 -0.029164601811854721 0 0.015772232925588943 -0.029169120126949909 0 0.01577647117095226 -0.028924945610693087 0 0.015617330608596214 -0.029319398987796359 0 0.015312465789312694 -0.029540230675199241 0 0.015617330608596214 -0.029319398987796359 0 0.015363348554445877 -0.029164601811854721 0 0.014847341562070853 -0.029602667852038991 0 0.015312465789312694 -0.029540230675199241 0 0.015363348554445877 -0.029164601811854721 0 0.014847341562070853 -0.029602667852038991 0 0.015363348554445877 -0.029164601811854721 0 0.014661357673064314 -0.028905355031777831 0 0.01432984936381018 -0.029652126794324087 0 0.014847341562070853 -0.029602667852038991 0 0.014661357673064314 -0.028905355031777831 0 0.015950244702738234 -0.030555254909564341 0 0.015860971404694078 -0.02958316841636071 0 0.01432984936381018 -0.029652126794324087 0 0.013828290818999488 -0.029257224250997207 0 0.014661357673064314 -0.028905355031777831 0 0.016759896395961572 -0.028199905118238517 0 0.016263233742444455 -0.028064270073097423 0 0.016531540403270418 -0.028386954523704142 0 0.016672178003958711 -0.027914897099120616 0 0.016759896395961572 -0.028199905118238517 0 0.016263233742444455 -0.028064270073097423 0 0.016111734637807788 -0.028407562436407477 0 0.016531540403270418 -0.028386954523704142 0 0.016262342643365478 -0.028477194450525167 0 0.016263233742444455 -0.028064270073097423 0 0.016111734637807788 -0.028407562436407477 0 0.016531540403270418 -0.028386954523704142 0 0.016531540403270418 -0.028386954523704142 0 0.016262342643365478 -0.028477194450525167 0 0.016654183299363017 -0.028408860671495523 0 0.016871930605490408 -0.028442855775780995 0 0.016531540403270418 -0.028386954523704142 0 0.016654183299363017 -0.028408860671495523 0 0.015890935978213675 -0.028472308741449133 0 0.015768506358287668 -0.028495040788934067 0 0.016086297045926068 -0.028701575117910823 0 0.016262342643365478 -0.028477194450525167 0 0.015890935978213675 -0.028472308741449133 0 0.016086297045926068 -0.028701575117910823 0 0.016111734637807788 -0.028407562436407477 0 0.016262342643365478 -0.028477194450525167 0 0.015890935978213675 -0.028472308741449133 0 0.015659994335979113 -0.028535583418007233 0 0.016111734637807788 -0.028407562436407477 0 0.015890935978213675 -0.028472308741449133 0 0.015890935978213675 -0.028472308741449133 0 0.015755208705843255 -0.028510342933129859 0 0.015768506358287668 -0.028495040788934067 0 0.015858944084844971 -0.028509208805627618 0 0.01577647117095226 -0.028924945610693087 0 0.015755208705843255 -0.028510342933129859 0 0.015858944084844971 -0.028509208805627618 0 0.015755208705843255 -0.028510342933129859 0 0.015768506358287668 -0.028495040788934067 0 0.015659994335979113 -0.028535583418007233 0 0.015890935978213675 -0.028472308741449133 0 0.015755208705843255 -0.028510342933129859 0 0.015768506358287668 -0.028495040788934067 0 0.016086297045926068 -0.028701575117910823 0 0.015604601287420432 -0.028773257411743941 0 0.015013618876834367 -0.026806819531152926 0 0.014346247886815426 -0.027129265724705934 0 0.013465358325223682 -0.024194445995256778 0 0.014347071305446499 -0.024300163564188508 0 0.013403779256730954 -0.023907494218818479 0 0.013950526366873798 -0.024280324164853689 0 0.014136470738310026 -0.024347520303781945 0 0.013465358325223682 -0.024194445995256778 0 0.014086931127382947 -0.024648552600865379 0 0.014162946351852865 -0.025390395206091612 0 0.013465358325223682 -0.024194445995256778 0 0.013426287970454828 -0.023628037825623747 0 0.013471670677723927 -0.02383674829894987 0 0.013465358325223682 -0.024194445995256778 0 0.014086931127382947 -0.024648552600865379 0 0.014347071305446499 -0.024300163564188508 0 0.014086931127382947 -0.024648552600865379 0 0.014347071305446499 -0.024300163564188508 0 0.014867602917752467 -0.025215447537891476 0 0.016262342643365478 -0.028477194450525167 0 0.016086297045926068 -0.028701575117910823 0 0.016654183299363017 -0.028408860671495523 0 0.015013618876834367 -0.026806819531152926 0 0.015461708758651124 -0.026702592886683425 0 0.015209710742079751 -0.024875955566263635 0 0.014867602917752467 -0.025215447537891476 0 0.015482132980999611 -0.025422188337751086 0 0.014347071305446499 -0.024300163564188508 0 0.015209710742079751 -0.024875955566263635 0 0.014867602917752467 -0.025215447537891476 0 0.014867602917752467 -0.025215447537891476 0 0.014738476904631185 -0.025942505950458845 0 0.014162946351852865 -0.025390395206091612 0 0.014867602917752467 -0.025215447537891476 0 0.015482132980999611 -0.025422188337751086 0 0.015357326008515658 -0.025680256993621149 0 0.014516452940545864 -0.024309790138371628 0 0.014859824792272909 -0.024727100891583125 0 0.014867602917752467 -0.025215447537891476 0 0.014738476904631185 -0.025942505950458845 0 0.015357326008515658 -0.025680256993621149 0 0.01496575755571242 -0.024266801255070098 0 0.015140327578639494 -0.024290728653015917 0 0.014868220842294839 -0.024398858422451694 0 0.01496575755571242 -0.024266801255070098 0 0.014868220842294839 -0.024398858422451694 0 0.014836030389397023 -0.024239351672180744 0 0.014516452940545864 -0.024309790138371628 0 0.014502755498733869 -0.024305879953437949 0 0.013571641828020065 -0.023481237249120043 0 0.013426287970454828 -0.023628037825623747 0 0.013601556440895829 -0.023413639488177641 0 0.013667397188573197 -0.023347186036758161 0 0.013426287970454828 -0.023628037825623747 0 0.013601556440895829 -0.023413639488177641 0 0.01366377320267359 -0.023347636681153115 0 0.013667397188573197 -0.023347186036758161 0 0.013426287970454828 -0.023628037825623747 0 0.014516452940545864 -0.024309790138371628 0 0.014136470738310026 -0.024347520303781945 0 0.013571641828020065 -0.023481237249120043 0 0.013479067083980438 -0.023668220502022455 0 0.013426287970454828 -0.023628037825623747 0 0.013571641828020065 -0.023481237249120043 0 0.013479067083980438 -0.023668220502022455 0 0.013416887506744538 -0.02366538168971646 0 0.013479067083980438 -0.023668220502022455 0 0.013426287970454828 -0.023628037825623747 0 0.013471670677723927 -0.02383674829894987 0 0.014086931127382947 -0.024648552600865379 0 0.014867602917752467 -0.025215447537891476 0 0.014162946351852865 -0.025390395206091612 0 0.015082145076804663 -0.026650214023917866 0 0.014885896480863551 -0.025490750864860454 0 0.014290371730346065 -0.026721505921634862 0 0.014885896480863551 -0.025490750864860454 0 0.014290371730346065 -0.026721505921634862 0 0.014144868479660507 -0.025563912826338121 0 0.01483287120368368 -0.027530543918771903 0 0.015082145076804663 -0.026650214023917866 0 0.014290371730346065 -0.026721505921634862 0 0.015535053281031422 -0.028147834444084655 0 0.01483287120368368 -0.027530543918771903 0 0.015082145076804663 -0.026650214023917866 0 0.015535053281031422 -0.028147834444084655 0 0.015082145076804663 -0.026650214023917866 0 0.016551595337977103 -0.027606772114398315 0 0.015112308024521289 -0.02663703191254501 0 0.015426685696650668 -0.026654848726274653 0 0.015082145076804663 -0.026650214023917866 0 0.01543384749928371 -0.025771913226113132 0 0.014885896480863551 -0.025490750864860454 0 0.015082145076804663 -0.026650214023917866 0 0.01543384749928371 -0.025771913226113132 0 0.015566377729072154 -0.025592771378937944 0 0.01543384749928371 -0.025771913226113132 0 0.015566377729072154 -0.025592771378937944 0 0.015482132980999611 -0.025422188337751086 0 0.015461708758651124 -0.026702592886683425 0 0.015426685696650668 -0.026654848726274653 0 0.016871930605490408 -0.028442855775780995 0 0.016654183299363017 -0.028408860671495523 0 0.016551595337977103 -0.027606772114398315 0 0.015209710742079751 -0.024875955566263635 0 0.015566377729072154 -0.025592771378937944 0 0.015482132980999611 -0.025422188337751086 0 0.014859824792272909 -0.024727100891583125 0 0.014905204602065755 -0.024982710273079099 0 0.015482132980999611 -0.025422188337751086 0 0.015357326008515658 -0.025680256993621149 0 0.015534661693619164 -0.025490465806482593 0 0.014868220842294839 -0.024398858422451694 0 0.014981372653723717 -0.024714273060044492 0 0.014839517042022545 -0.024321960305219364 0 0.014868220842294839 -0.024398858422451694 0 0.014839517042022545 -0.024321960305219364 0 0.014836030389397023 -0.024239351672180744 0 0.014981372653723717 -0.024714273060044492 0 0.014906623111979486 -0.024588202327215172 0 0.014839517042022545 -0.024321960305219364 0 0.01543384749928371 -0.025771913226113132 0 0.015482132980999611 -0.025422188337751086 0 0.015534661693619164 -0.025490465806482593 0 0.01543384749928371 -0.025771913226113132 0 0.015534661693619164 -0.025490465806482593 0 0.014885896480863551 -0.025490750864860454 0 0.014905204602065755 -0.024982710273079099 0 0.014787475811897112 -0.02512588983848309 0 0.014981372653723717 -0.024714273060044492 0 0.014906623111979486 -0.024588202327215172 0 0.014885896480863551 -0.025490750864860454 0 0.014906623111979486 -0.024588202327215172 0 0.014559349398476997 -0.02478221136990533 0 0.014885896480863551 -0.025490750864860454 0 0.014906623111979486 -0.024588202327215172 0 0.014559349398476997 -0.02478221136990533 0 0.014756792720009966 -0.024399671681334827 0 0.014559349398476997 -0.02478221136990533 0 0.014885896480863551 -0.025490750864860454 0 0.014144868479660507 -0.025563912826338121 0 0.014719083305599389 -0.024149827109147912 0 0.014756792720009966 -0.024399671681334827 0 0.014421577114073778 -0.024333992992135796 0 0.014559349398476997 -0.02478221136990533 0 0.014756792720009966 -0.024399671681334827 0 0.014421577114073778 -0.024333992992135796 0 0.014719083305599389 -0.024149827109147912 0 0.014756792720009966 -0.024399671681334827 0 0.014901298854335891 -0.024313350956409588 0 0.014906623111979486 -0.024588202327215172 0 0.014756792720009966 -0.024399671681334827 0 0.014901298854335891 -0.024313350956409588 0 0.014510654087389666 -0.023863017057163129 0 0.014671613184180973 -0.023909977908803511 0 0.014515508324217599 -0.023557430940051811 0 0.014344126706948889 -0.023536430520897246 0 0.014446089375145419 -0.023511965213939907 0 0.014344126706948889 -0.023536430520897246 0 0.014427031703907965 -0.0235638055909566 0 0.014390505976607293 -0.023487205899191364 0 0.014906623111979486 -0.024588202327215172 0 0.014901298854335891 -0.024313350956409588 0 0.014839517042022545 -0.024321960305219364 0 0.014671613184180973 -0.023909977908803511 0 0.014756209239197434 -0.023934483848558966 0 0.014901298854335891 -0.024313350956409588 0 0.014839517042022545 -0.024321960305219364 0 0.014646751684545432 -0.02396819191074398 0 0.014839517042022545 -0.024321960305219364 0 0.014836030389397023 -0.024239351672180744 0 0.014646751684545432 -0.02396819191074398 0 0.014427031703907965 -0.0235638055909566 0 0.014646751684545432 -0.02396819191074398 0 0.014506221428882509 -0.023549951257926121 0 0.014344126706948889 -0.023536430520897246 0 0.014427031703907965 -0.0235638055909566 0 0.014646751684545432 -0.02396819191074398 0 0.014427031703907965 -0.0235638055909566 0 0.014372806670449108 -0.023494742163387372 0 0.014506221428882509 -0.023549951257926121 0 0.014372806670449108 -0.023494742163387372 0 0.014390505976607293 -0.023487205899191364 0 0.014223497106263791 -0.02346072511144047 0 0.014427031703907965 -0.0235638055909566 0 0.014372806670449108 -0.023494742163387372 0 0.014390505976607293 -0.023487205899191364 0 0.014390505976607293 -0.023487205899191364 0 0.014408032427190489 -0.023500383049369876 0 0.014223497106263791 -0.02346072511144047 0 0.014408032427190489 -0.023500383049369876 0 0.014223497106263791 -0.02346072511144047 0 0.014222541952726193 -0.023576106801975142 0 0.014390505976607293 -0.023487205899191364 0 0.014408032427190489 -0.023500383049369876 0 0.014446089375145419 -0.023511965213939907 0 0.014344126706948889 -0.023536430520897246 0 0.014390505976607293 -0.023487205899191364 0 0.014446089375145419 -0.023511965213939907 0 0.014515508324217599 -0.023557430940051811 0 0.014446089375145419 -0.023511965213939907 0 0.014508828897450071 -0.023515478877386038 0 0.014446089375145419 -0.023511965213939907 0 0.014515157680587417 -0.02347865398897174 0 0.014508828897450071 -0.023515478877386038 0 0.014408032427190489 -0.023500383049369876 0 0.014446089375145419 -0.023511965213939907 0 0.014515157680587417 -0.02347865398897174 0 0.014515157680587417 -0.02347865398897174 0 0.014533458709736179 -0.023478768272770015 0 0.014508828897450071 -0.023515478877386038 0 0.014533458709736179 -0.023478768272770015 0 0.014508828897450071 -0.023515478877386038 0 0.014507174997011353 -0.023531416726993722 0 0.014515508324217599 -0.023557430940051811 0 0.014508828897450071 -0.023515478877386038 0 0.014507174997011353 -0.023531416726993722 0 0.013799097410597257 -0.023357584636041026 0 0.013946047254686761 -0.023416996361195298 0 0.013734338234458269 -0.0233473546790674 0 0.013655684043236695 -0.023348177061152726 0 0.013799097410597257 -0.023357584636041026 0 0.013734338234458269 -0.0233473546790674 0 0.013627258117104945 -0.023301686554217778 0 0.013655684043236695 -0.023348177061152726 0 0.013734338234458269 -0.0233473546790674 0 0.013627258117104945 -0.023301686554217778 0 0.013734338234458269 -0.0233473546790674 0 0.013605614890651374 -0.023262786857841243 0 0.013571641828020065 -0.023481237249120043 0 0.013627258117104945 -0.023301686554217778 0 0.013655684043236695 -0.023348177061152726 0 0.013571641828020065 -0.023481237249120043 0 0.013601556440895829 -0.023413639488177641 0 0.013655684043236695 -0.023348177061152726 0 0.013667397188573197 -0.023347186036758161 0 0.013601556440895829 -0.023413639488177641 0 0.013655684043236695 -0.023348177061152726 0 0.01373040228319204 -0.023297058456112765 0 0.013667397188573197 -0.023347186036758161 0 0.013811707714083502 -0.023310154748233294 0 0.013655684043236695 -0.023348177061152726 0 0.013811707714083502 -0.023310154748233294 0 0.013799097410597257 -0.023357584636041026 0 0.013667397188573197 -0.023347186036758161 0 0.013655684043236695 -0.023348177061152726 0 0.013811707714083502 -0.023310154748233294 0 0.014516452940545864 -0.024309790138371628 0 0.014433245569393821 -0.024045460458526947 0 0.01496575755571242 -0.024266801255070098 0 0.015140327578639494 -0.024290728653015917 0 0.015034491140244027 -0.02407585978819126 0 0.01373040228319204 -0.023297058456112765 0 0.013811707714083502 -0.023310154748233294 0 0.014019248320183003 -0.023245369532094329 0 0.013811707714083502 -0.023310154748233294 0 0.014019248320183003 -0.023245369532094329 0 0.013915952367072656 -0.023350960299536996 0 0.013811707714083502 -0.023310154748233294 0 0.013799097410597257 -0.023357584636041026 0 0.013915952367072656 -0.023350960299536996 0 0.01496575755571242 -0.024266801255070098 0 0.014836030389397023 -0.024239351672180744 0 0.015034491140244027 -0.02407585978819126 0 0.015034491140244027 -0.02407585978819126 0 0.014646751684545432 -0.02396819191074398 0 0.014506221428882509 -0.023549951257926121 0 0.014836030389397023 -0.024239351672180744 0 0.015034491140244027 -0.02407585978819126 0 0.014646751684545432 -0.02396819191074398 0 0.014433245569393821 -0.024045460458526947 0 0.014412402000027842 -0.02396317077013594 0 0.014019248320183003 -0.023245369532094329 0 0.014506221428882509 -0.023549951257926121 0 0.014106215555733671 -0.0234412434597525 0 0.014506221428882509 -0.023549951257926121 0 0.014106215555733671 -0.0234412434597525 0 0.014201640678500752 -0.023486719137465643 0 0.014106215555733671 -0.0234412434597525 0 0.013946047254686761 -0.023416996361195298 0 0.014201640678500752 -0.023486719137465643 0 0.014372806670449108 -0.023494742163387372 0 0.014506221428882509 -0.023549951257926121 0 0.014201640678500752 -0.023486719137465643 0 0.013799097410597257 -0.023357584636041026 0 0.013915952367072656 -0.023350960299536996 0 0.013946047254686761 -0.023416996361195298 0 0.014019248320183003 -0.023245369532094329 0 0.014106215555733671 -0.0234412434597525 0 0.013915952367072656 -0.023350960299536996 0 0.014106215555733671 -0.0234412434597525 0 0.013915952367072656 -0.023350960299536996 0 0.013946047254686761 -0.023416996361195298 0 0.013946047254686761 -0.023416996361195298 0 0.013936233720859328 -0.023420567372036582 0 0.014201640678500752 -0.023486719137465643 0 0.013946047254686761 -0.023416996361195298 0 0.013936233720859328 -0.023420567372036582 0 0.013734338234458269 -0.0233473546790674 0 0.013936233720859328 -0.023420567372036582 0 0.014201640678500752 -0.023486719137465643 0 0.014223497106263791 -0.02346072511144047 0 0.014372806670449108 -0.023494742163387372 0 0.014201640678500752 -0.023486719137465643 0 0.014223497106263791 -0.02346072511144047 0 0.013936233720859328 -0.023420567372036582 0 0.014223497106263791 -0.02346072511144047 0 0.013841337817787812 -0.023405123979155004 0 0.013936233720859328 -0.023420567372036582 0 0.013770585398449007 -0.023376653622225189 0 0.013841337817787812 -0.023405123979155004 0 0.013936233720859328 -0.023420567372036582 0 0.013770585398449007 -0.023376653622225189 0 0.013734338234458269 -0.0233473546790674 0 0.013770585398449007 -0.023376653622225189 0 0.013734338234458269 -0.0233473546790674 0 0.013656295442963276 -0.023323836993338166 0 0.013734338234458269 -0.0233473546790674 0 0.013656295442963276 -0.023323836993338166 0 0.013605614890651374 -0.023262786857841243 0 0.013770585398449007 -0.023376653622225189 0 0.013656295442963276 -0.023323836993338166 0 0.013735914137557027 -0.023277729057700224 0 0.013656295442963276 -0.023323836993338166 0 0.013563189044171059 -0.023304115693754724 0 0.013492878438698407 -0.023299850718431218 0 0.013563189044171059 -0.023304115693754724 0 0.013492878438698407 -0.023299850718431218 0 0.013478669755163436 -0.023309730343013504 0 0.013492878438698407 -0.023299850718431218 0 0.013481338531489665 -0.023179745985797976 0 0.013242646962723892 -0.023280750744818408 0 0.013492878438698407 -0.023299850718431218 0 0.013605614890651374 -0.023262786857841243 0 0.013481338531489665 -0.023179745985797976 0 0.013656295442963276 -0.023323836993338166 0 0.013492878438698407 -0.023299850718431218 0 0.013605614890651374 -0.023262786857841243 0 0.013627258117104945 -0.023301686554217778 0 0.013605614890651374 -0.023262786857841243 0 0.01358710484175988 -0.023159792707267028 0 0.013605614890651374 -0.023262786857841243 0 0.013481338531489665 -0.023179745985797976 0 0.01358710484175988 -0.023159792707267028 0 0.013481338531489665 -0.023179745985797976 0 0.01358710484175988 -0.023159792707267028 0 0.01323605090940326 -0.022936249873766201 0 0.013271365601535197 -0.023385801126630152 0 0.013016874277755129 -0.023347351881292194 0 0.013571641828020065 -0.023481237249120043 0 0.013627258117104945 -0.023301686554217778 0 0.01358710484175988 -0.023159792707267028 0 0.013349801634112987 -0.023404807803206928 0 0.013271365601535197 -0.023385801126630152 0 0.012928283561787251 -0.023612686330692488 0 0.012980524459906549 -0.02366626484255431 0 0.012886414026239471 -0.023623372111176318 0 0.012928283561787251 -0.023612686330692488 0 0.012980524459906549 -0.02366626484255431 0 0.01302787906578852 -0.023739241580786694 0 0.013314770310438959 -0.023783042499539529 0 0.01302787906578852 -0.023739241580786694 0 0.013080408472856561 -0.023699675476140401 0 0.012980524459906549 -0.02366626484255431 0 0.01302787906578852 -0.023739241580786694 0 0.013080408472856561 -0.023699675476140401 0 0.013481338531489665 -0.023179745985797976 0 0.01323605090940326 -0.022936249873766201 0 0.013242646962723892 -0.023280750744818408 0 0.01323605090940326 -0.022936249873766201 0 0.012490005736448154 -0.023100882321338237 0 0.012272497221969303 -0.023006350532929407 0 0.013016874277755129 -0.023347351881292194 0 0.012550453205868711 -0.023357845116622158 0 0.012928283561787251 -0.023612686330692488 0 0.01302787906578852 -0.023739241580786694 0 0.012885058381651176 -0.023527028474727023 0 0.01323605090940326 -0.022936249873766201 0 0.013242646962723892 -0.023280750744818408 0 0.012490005736448154 -0.023100882321338237 0 0.013242646962723892 -0.023280750744818408 0 0.013087407533427232 -0.023388916325384288 0 0.012490005736448154 -0.023100882321338237 0 0.012155103695547509 -0.023003049558325769 0 0.012227012359035437 -0.023019818044451249 0 0.013492878438698407 -0.023299850718431218 0 0.013327897385487193 -0.023353342042206425 0 0.013478669755163436 -0.023309730343013504 0 0.013492878438698407 -0.023299850718431218 0 0.013242646962723892 -0.023280750744818408 0 0.013327897385487193 -0.023353342042206425 0 0.012155103695547509 -0.023003049558325769 0 0.011713696166910868 -0.022053924037098823 0 0.013327897385487193 -0.023353342042206425 0 0.013087407533427232 -0.023388916325384288 0 0.013392678298650587 -0.023307643550957199 0 0.013242646962723892 -0.023280750744818408 0 0.013327897385487193 -0.023353342042206425 0 0.013087407533427232 -0.023388916325384288 0 0.011658913676931211 -0.023852987433409537 0 0.011987301360865453 -0.023550306827688872 0 0.011922389611172604 -0.023710199576299128 0 0.012055539944378869 -0.023697806042258053 0 0.011987301360865453 -0.023550306827688872 0 0.011922389611172604 -0.023710199576299128 0 0.011658913676931211 -0.023852987433409537 0 0.011503858153182476 -0.023648268863037489 0 0.011987301360865453 -0.023550306827688872 0 0.011503858153182476 -0.023648268863037489 0 0.011987301360865453 -0.023550306827688872 0 0.011235384909978855 -0.023378151914830086 0 0.011987301360865453 -0.023550306827688872 0 0.011235384909978855 -0.023378151914830086 0 0.012272497221969303 -0.023006350532929407 0 0.012055539944378869 -0.023697806042258053 0 0.011987301360865453 -0.023550306827688872 0 0.012490005736448154 -0.023100882321338237 0 0.00059683419450708727 -0.01018854112976334 0 0.00064774210484209614 -0.010040116971563873 0 0.000942081232635972 -0.010133540624576885 0 0.00064774210484209614 -0.010040116971563873 0 0.000942081232635972 -0.010133540624576885 0 0.0010386417770945784 -0.0098297839220790589 0 0.0022290337478470521 -0.0098496973084655111 0 0.000942081232635972 -0.010133540624576885 0 0.0010386417770945784 -0.0098297839220790589 0 0.011658913676931211 -0.023852987433409537 0 0.011503858153182476 -0.023648268863037489 0 0.010663276975087229 -0.023765176953884116 0 0.0070148017178404713 -0.016932189871381887 0 0.00567789441814966 -0.016940391346436559 0 0.010663276975087229 -0.023765176953884116 0 0.010418938280320793 -0.022977139698579205 0 0.011235384909978855 -0.023378151914830086 0 0.011503858153182476 -0.023648268863037489 0 0.010663276975087229 -0.023765176953884116 0 0.011235384909978855 -0.023378151914830086 0 0.00064774210484209614 -0.010040116971563873 0 0.00056886905399627084 -0.010106404307105009 0 0.0010386417770945784 -0.0098297839220790589 0 0.0089844231727342367 -0.022819230381176465 0 0.010663276975087229 -0.023765176953884116 0 0.010418938280320793 -0.022977139698579205 0 0.0089844231727342367 -0.022819230381176465 0 0.010418938280320793 -0.022977139698579205 0 0.01013118277538525 -0.022269467530803187 0 0.004185302311937358 -0.017043570756312385 0 0.00567789441814966 -0.016940391346436559 0 0.010418938280320793 -0.022977139698579205 0 0.010956222562287786 -0.022558572101820634 0 0.01013118277538525 -0.022269467530803187 0 0.010418938280320793 -0.022977139698579205 0 0.011235384909978855 -0.023378151914830086 0 0.010956222562287786 -0.022558572101820634 0 0.011235384909978855 -0.023378151914830086 0 0.010956222562287786 -0.022558572101820634 0 0.011583009841162215 -0.022849992037037577 0 0.010956222562287786 -0.022558572101820634 0 0.010620809326203181 -0.021577036465744649 0 0.011843592869508302 -0.021945484204700782 0 0.010620809326203181 -0.021577036465744649 0 0.011843592869508302 -0.021945484204700782 0 0.011294093154523498 -0.020866637852974903 0 0.010956222562287786 -0.022558572101820634 0 0.010620809326203181 -0.021577036465744649 0 0.01013118277538525 -0.022269467530803187 0 0.010620809326203181 -0.021577036465744649 0 0.009390357021778652 -0.021464694911083836 0 0.01013118277538525 -0.022269467530803187 0 0.0089844231727342367 -0.022819230381176465 0 0.009390357021778652 -0.021464694911083836 0 0.01013118277538525 -0.022269467530803187 0 0.011987301360865453 -0.023550306827688872 0 0.012490005736448154 -0.023100882321338237 0 0.012272497221969303 -0.023006350532929407 0 0.012885058381651176 -0.023527028474727023 0 0.012386257593986521 -0.023295482111602834 0 0.012663503823033193 -0.023409515043186412 0 0.012885058381651176 -0.023527028474727023 0 0.012663503823033193 -0.023409515043186412 0 0.012825186991930491 -0.023504610149151787 0 0.012928283561787251 -0.023612686330692488 0 0.012885058381651176 -0.023527028474727023 0 0.012825186991930491 -0.023504610149151787 0 0.011235384909978855 -0.023378151914830086 0 0.012885058381651176 -0.023527028474727023 0 0.012386257593986521 -0.023295482111602834 0 0.012103199664578908 -0.023424290780669949 0 0.012550453205868711 -0.023357845116622158 0 0.011235384909978855 -0.023378151914830086 0 0.011583009841162215 -0.022849992037037577 0 0.012386257593986521 -0.023295482111602834 0 0.011583009841162215 -0.022849992037037577 0 0.012386257593986521 -0.023295482111602834 0 0.011843592869508302 -0.021945484204700782 0 0.012386257593986521 -0.023295482111602834 0 0.012807389647292576 -0.023519203236868114 0 0.012663503823033193 -0.023409515043186412 0 0.010283093661913463 -0.023763933533179776 0 0.009978317005150273 -0.023696017380010051 0 0.010956222562287786 -0.022558572101820634 0 0.011583009841162215 -0.022849992037037577 0 0.011843592869508302 -0.021945484204700782 0 0.012807389647292576 -0.023519203236868114 0 0.012781915424256891 -0.023531436767262989 0 0.012826164514198648 -0.023604036814795105 0 0.012928283561787251 -0.023612686330692488 0 0.012781915424256891 -0.023531436767262989 0 0.012886414026239471 -0.023623372111176318 0 0.012807389647292576 -0.023519203236868114 0 0.012781915424256891 -0.023531436767262989 0 0.012663503823033193 -0.023409515043186412 0 0.012781915424256891 -0.023531436767262989 0 0.012663503823033193 -0.023409515043186412 0 0.012825186991930491 -0.023504610149151787 0 0.012928283561787251 -0.023612686330692488 0 0.012781915424256891 -0.023531436767262989 0 0.012825186991930491 -0.023504610149151787 0 0.012862637705584032 -0.023637063475546286 0 0.012826164514198648 -0.023604036814795105 0 0.012839007741369857 -0.023650930921939612 0 0.012886414026239471 -0.023623372111176318 0 0.012862637705584032 -0.023637063475546286 0 0.012826164514198648 -0.023604036814795105 0 0.012781915424256891 -0.023531436767262989 0 0.012886414026239471 -0.023623372111176318 0 0.012826164514198648 -0.023604036814795105 0 0.012886414026239471 -0.023623372111176318 0 0.012907346988361112 -0.023655804261714271 0 0.012862637705584032 -0.023637063475546286 0 0.012826164514198648 -0.023604036814795105 0 0.012841087586717823 -0.023607616901280958 0 0.012839007741369857 -0.023650930921939612 0 0.012807389647292576 -0.023519203236868114 0 0.012826164514198648 -0.023604036814795105 0 0.012841087586717823 -0.023607616901280958 0 0.009978317005150273 -0.023696017380010051 0 0.009083166116157745 -0.023711452732489941 0 0.009083166116157745 -0.023711452732489941 0 0.0091608506191236273 -0.025567340891357 0 0.0056249170013360035 -0.027671162814326397 0 0.0060226799270408768 -0.027794798975355039 0 0.0057370088279335377 -0.027982037059578749 0 0.005891792705661085 -0.027356909517807431 0 0.0056249170013360035 -0.027671162814326397 0 0.0060226799270408768 -0.027794798975355039 0 0.0056249170013360035 -0.027671162814326397 0 0.0055829205319195248 -0.027934916810061144 0 0.0057370088279335377 -0.027982037059578749 0 0.0056249170013360035 -0.027671162814326397 0 0.0054115670438193743 -0.027954319965759863 0 0.0055829205319195248 -0.027934916810061144 0 0.0091608506191236273 -0.025567340891357 0 0.0092230427725590938 -0.027388079564932555 0 0.012839007741369857 -0.023650930921939612 0 0.012880682994001556 -0.023656702085319507 0 0.012879694628563218 -0.023651709043960058 0 0.012912725040155969 -0.023660402803975127 0 0.012880682994001556 -0.023656702085319507 0 0.012939263257467377 -0.023670480132443696 0 0.012912725040155969 -0.023660402803975127 0 0.012880682994001556 -0.023656702085319507 0 0.012879694628563218 -0.023651709043960058 0 0.012907346988361112 -0.023655804261714271 0 0.012880682994001556 -0.023656702085319507 0 0.012939263257467377 -0.023670480132443696 0 0.012907346988361112 -0.023655804261714271 0 0.012862637705584032 -0.023637063475546286 0 0.012880682994001556 -0.023656702085319507 0 0.012862637705584032 -0.023637063475546286 0 0.012839007741369857 -0.023650930921939612 0 0.012880682994001556 -0.023656702085319507 0 0.010620809326203181 -0.021577036465744649 0 0.009390357021778652 -0.021464694911083836 0 0.009957840331044519 -0.020498044837117198 0 0.0085972676862180429 -0.02032482804089623 0 0.009390357021778652 -0.021464694911083836 0 0.009957840331044519 -0.020498044837117198 0 0.010620809326203181 -0.021577036465744649 0 0.011190566848538364 -0.020913066744661587 0 0.009957840331044519 -0.020498044837117198 0 0.0095566272487029712 -0.023167735687425584 0 0.009083166116157745 -0.023711452732489941 0 0.009083166116157745 -0.023711452732489941 0 0.0072113389614551198 -0.024194420778195926 0 0.011190566848538364 -0.020913066744661587 0 0.009957840331044519 -0.020498044837117198 0 0.010468882358306156 -0.019537209073651376 0 0.009957840331044519 -0.020498044837117198 0 0.010468882358306156 -0.019537209073651376 0 0.0093438330947364662 -0.019509203995864144 0 0.0085972676862180429 -0.02032482804089623 0 0.009957840331044519 -0.020498044837117198 0 0.0093438330947364662 -0.019509203995864144 0 0.010468882358306156 -0.019537209073651376 0 0.0093438330947364662 -0.019509203995864144 0 0.0097557059484864681 -0.01819386458212046 0 0.0079189811990248282 -0.019018441086677156 0 0.0093438330947364662 -0.019509203995864144 0 0.0097557059484864681 -0.01819386458212046 0 0.0072113389614551198 -0.024194420778195926 0 0.004931221329043731 -0.02496545393902638 0 0.0060226799270408768 -0.027794798975355039 0 0.0058753031321751746 -0.02814680456448276 0 0.0057370088279335377 -0.027982037059578749 0 0.0060226799270408768 -0.027794798975355039 0 0.0058753031321751746 -0.02814680456448276 0 0.006112410064880355 -0.028220001096715807 0 0.0058753031321751746 -0.02814680456448276 0 0.0058358430645214215 -0.028233376031041937 0 0.0057573117210321136 -0.028178381770985115 0 0.0058949835851336112 -0.028705360207337806 0 0.0060915566978239208 -0.028926685302382488 0 0.0060469978002603572 -0.028865196599872026 0 0.0058949835851336112 -0.028705360207337806 0 0.005844302132526482 -0.0283231053163105 0 0.0059264245387200256 -0.02833738663775821 0 0.0064753036799887771 -0.028080635067455704 0 0.0068063803850960227 -0.027959822065919366 0 0.0058710565549524611 -0.028266832086587118 0 0.005844302132526482 -0.0283231053163105 0 0.0059264245387200256 -0.02833738663775821 0 0.0058753031321751746 -0.02814680456448276 0 0.0058358430645214215 -0.028233376031041937 0 0.0058710565549524611 -0.028266832086587118 0 0.0058753031321751746 -0.02814680456448276 0 0.0058710565549524611 -0.028266832086587118 0 0.0059264245387200256 -0.02833738663775821 0 0.0058358430645214215 -0.028233376031041937 0 0.0058710565549524611 -0.028266832086587118 0 0.005844302132526482 -0.0283231053163105 0 0.0058753031321751746 -0.02814680456448276 0 0.0059264245387200256 -0.02833738663775821 0 0.006112410064880355 -0.028220001096715807 0 0.0049158452226959739 -0.025085221333804093 0 0.004931221329043731 -0.02496545393902638 0 0.0058949835851336112 -0.028705360207337806 0 0.0059264245387200256 -0.02833738663775821 0 0.0059918456851152805 -0.028320724725988282 0 0.0029059329285395729 -0.026501378956767154 0 0.004931221329043731 -0.02496545393902638 0 -0.002772430526636835 -0.025091566284269052 0 -0.0029161983018655586 -0.025831445844884195 0 -0.0035737634838462653 -0.024225555299431892 0 -0.002772430526636835 -0.025091566284269052 0 -0.002833760817086273 -0.024356918538393259 0 -0.0035737634838462653 -0.024225555299431892 0 0.0054641204893405458 -0.028074198624697601 0 0.0055829205319195248 -0.027934916810061144 0 0.0056432455010015699 -0.02810550867869915 0 0.0087427694799305129 -0.029493715760360695 0 0.0088843832085306104 -0.029562535929620951 0 0.0088744531232607896 -0.029337158004188926 0 0.0086718341554625697 -0.027902888898184923 0 0.0094722231055446235 -0.027679627141406395 0 0.0087411760984385349 -0.028346332506977295 0 0.0086381616718882118 -0.02812012907435155 0 0.008532623873303417 -0.028234893323903915 0 0.0086718341554625697 -0.027902888898184923 0 0.0092230427725590938 -0.027388079564932555 0 0.012892648930201171 -0.023649196767431702 0 0.012906514262472579 -0.023633498177574541 0 0.012936356132311273 -0.023650753934232445 0 0.0092230427725590938 -0.027388079564932555 0 0.0094722231055446235 -0.027679627141406395 0 0.0092628407733049371 -0.027175099003126351 0 0.0092230427725590938 -0.027388079564932555 0 0.012912725040155969 -0.023660402803975127 0 0.012892648930201171 -0.023649196767431702 0 0.012936356132311273 -0.023650753934232445 0 0.0054641204893405458 -0.028074198624697601 0 0.0054115670438193743 -0.027954319965759863 0 0.0055829205319195248 -0.027934916810061144 0 0.0055829205319195248 -0.027934916810061144 0 0.0057370088279335377 -0.027982037059578749 0 0.0056432455010015699 -0.02810550867869915 0 0.005844302132526482 -0.0283231053163105 0 0.0054641204893405458 -0.028074198624697601 0 0.0056432455010015699 -0.02810550867869915 0 0.0058753031321751746 -0.02814680456448276 0 0.0057370088279335377 -0.027982037059578749 0 0.0057573117210321136 -0.028178381770985115 0 0.0057370088279335377 -0.027982037059578749 0 0.0056432455010015699 -0.02810550867869915 0 0.0057573117210321136 -0.028178381770985115 0 0.0060915566978239208 -0.028926685302382488 0 0.0069545799408033161 -0.029319215153915414 0 0.0064868688253158077 -0.028934104073719193 0 0.0070748866554283816 -0.029961954795724065 0 0.0078071385356025926 -0.030164537583501488 0 0.0068063803850960227 -0.027959822065919366 0 0.0086718341554625697 -0.027902888898184923 0 0.0060469978002603572 -0.028865196599872026 0 0.0064868688253158077 -0.028934104073719193 0 0.0066570102342910177 -0.028813705069919184 0 0.0060234403859664304 -0.028850077646486373 0 0.0060469978002603572 -0.028865196599872026 0 0.006020909801461442 -0.028842657945268236 0 0.0058358430645214215 -0.028233376031041937 0 0.005844302132526482 -0.0283231053163105 0 0.0057573117210321136 -0.028178381770985115 0 0.005844302132526482 -0.0283231053163105 0 0.0056432455010015699 -0.02810550867869915 0 0.0057573117210321136 -0.028178381770985115 0 0.0060915566978239208 -0.028926685302382488 0 0.0060469978002603572 -0.028865196599872026 0 0.0064868688253158077 -0.028934104073719193 0 0.0064868688253158077 -0.028934104073719193 0 0.0066570102342910177 -0.028813705069919184 0 0.0066970716025016325 -0.028893692205679621 0 0.0078701186423806233 -0.029827999373262592 0 0.0079530995931082187 -0.029832836967544088 0 0.0078071385356025926 -0.030164537583501488 0 0.0082025378670216413 -0.030081530353818206 0 0.0079530995931082187 -0.029832836967544088 0 0.0082025378670216413 -0.030081530353818206 0 0.007544657473950364 -0.030255305378178582 0 0.0076156934251448254 -0.030404317461058566 0 0.0082557327210105048 -0.030281577805744551 0 0.0078071385356025926 -0.030164537583501488 0 0.0079530995931082187 -0.029832836967544088 0 0.0086718341554625697 -0.027902888898184923 0 0.0079530995931082187 -0.029832836967544088 0 0.0087427694799305129 -0.029493715760360695 0 0.008598911339634108 -0.029215499720103389 0 0.0088744531232607896 -0.029337158004188926 0 0.0069545799408033161 -0.029319215153915414 0 0.0064868688253158077 -0.028934104073719193 0 0.0067246383185681265 -0.028882954515196981 0 0.008598911339634108 -0.029215499720103389 0 0.0088744531232607896 -0.029337158004188926 0 0.0088328133694331405 -0.029171344171370059 0 0.0094722231055446235 -0.027679627141406395 0 0.010097768585115539 -0.028951771752499942 0 0.0088744531232607896 -0.029337158004188926 0 0.0088328133694331405 -0.029171344171370059 0 0.009252761209970822 -0.029190804966848859 0 0.0082416419437757755 -0.029947877494262198 0 0.01055919160425957 -0.030048165335052748 0 0.010734664825032228 -0.0298623942697459 0 0.010190983907857701 -0.028555768808677044 0 0.010357357895124427 -0.027745670065495307 0 0.010065573994403438 -0.028551876674774886 0 0.0082416419437757755 -0.029947877494262198 0 0.010734664825032228 -0.0298623942697459 0 0.011285942306941849 -0.029387664450450848 0 0.0088843832085306104 -0.029562535929620951 0 0.0088744531232607896 -0.029337158004188926 0 0.009252761209970822 -0.029190804966848859 0 0.0082025378670216413 -0.030081530353818206 0 0.010137150923930792 -0.0305006301730915 0 0.0082025378670216413 -0.030081530353818206 0 0.010097768585115539 -0.028951771752499942 0 0.010097768585115539 -0.028951771752499942 0 0.01009763982662586 -0.02895467675261033 0 0.013451438333053432 -0.023739294516398782 0 0.013040301092674737 -0.023876718529417546 0 0.012912467220064781 -0.025581005860496615 0 0.010283275127210828 -0.027054889620546883 0 0.010689621665484263 -0.028866021821557793 0 0.010736272708362691 -0.027945483260564619 0 0.010190983907857701 -0.028555768808677044 0 0.010357357895124427 -0.027745670065495307 0 0.013208168738952881 -0.023696434950073054 0 0.013040301092674737 -0.023876718529417546 0 0.013105511775332887 -0.023746112660267087 0 0.013208168738952881 -0.023696434950073054 0 0.013451438333053432 -0.023739294516398782 0 0.013040301092674737 -0.023876718529417546 0 0.010307602475729061 -0.027048729962255554 0 0.010283275127210828 -0.027054889620546883 0 0.012906514262472579 -0.023633498177574541 0 0.012981495672068329 -0.023654590020069713 0 0.012936356132311273 -0.023650753934232445 0 0.0094722231055446235 -0.027679627141406395 0 0.010283275127210828 -0.027054889620546883 0 0.01376295599476368 -0.026172001562666497 0 0.013133349702559541 -0.027988086338493888 0 0.013040301092674737 -0.023876718529417546 0 0.013242050863893918 -0.023811237365225082 0 0.013218931198918276 -0.023845490702712701 0 0.013130297136373174 -0.023815589861686692 0 0.013040301092674737 -0.023876718529417546 0 0.013218931198918276 -0.023845490702712701 0 0.013130297136373174 -0.023815589861686692 0 0.013218931198918276 -0.023845490702712701 0 0.013207790046110956 -0.02381690558152183 0 0.013130297136373174 -0.023815589861686692 0 0.013040301092674737 -0.023876718529417546 0 0.013105511775332887 -0.023746112660267087 0 0.012853828153541682 -0.02885196196209629 0 0.011194041120299052 -0.029149725212514903 0 0.012218586622386528 -0.029685239187531597 0 0.013040301092674737 -0.023876718529417546 0 0.012912467220064781 -0.025581005860496615 0 0.011846646338132413 -0.025566145945837098 0 0.010560059384546289 -0.030046121162880492 0 0.010734664825032228 -0.0298623942697459 0 0.011027524036511716 -0.03006813964466978 0 0.010097768585115539 -0.028951771752499942 0 0.010689621665484263 -0.028866021821557793 0 0.010689621665484263 -0.028866021821557793 0 0.010137150923930792 -0.0305006301730915 0 0.010734664825032228 -0.0298623942697459 0 0.011027524036511716 -0.03006813964466978 0 0.011285942306941849 -0.029387664450450848 0 0.011007189394048916 -0.029631050121385574 0 0.011194041120299052 -0.029149725212514903 0 0.012218586622386528 -0.029685239187531597 0 0.010689621665484263 -0.028866021821557793 0 0.013133349702559541 -0.027988086338493888 0 0.013133349702559541 -0.027988086338493888 0 0.014346247886815426 -0.027129265724705934 0 0.013637351026576542 -0.028754812869599248 0 0.013133349702559541 -0.027988086338493888 0 0.013242050863893918 -0.023811237365225082 0 0.01332442582132665 -0.023897864810221756 0 0.013218931198918276 -0.023845490702712701 0 0.013242050863893918 -0.023811237365225082 0 0.01332442582132665 -0.023897864810221756 0 0.013403779256730954 -0.023907494218818479 0 0.015119566822402127 -0.028542131074090673 0 0.014945335554252473 -0.028755776656883079 0 0.015604601287420432 -0.028773257411743941 0 0.01332442582132665 -0.023897864810221756 0 0.013403779256730954 -0.023907494218818479 0 0.013389349065920288 -0.023999861326484184 0 0.013465358325223682 -0.024194445995256778 0 0.013403779256730954 -0.023907494218818479 0 0.013389349065920288 -0.023999861326484184 0 0.013465358325223682 -0.024194445995256778 0 0.013389349065920288 -0.023999861326484184 0 0.013409174261370232 -0.023936876861203701 0 0.01332442582132665 -0.023897864810221756 0 0.013389349065920288 -0.023999861326484184 0 0.013409174261370232 -0.023936876861203701 0 0.013409174261370232 -0.023936876861203701 0 0.013306756436893054 -0.023844096768293861 0 0.013385403876531877 -0.023768109332318745 0 0.013465358325223682 -0.024194445995256778 0 0.013409174261370232 -0.023936876861203701 0 0.013471670677723927 -0.02383674829894987 0 0.01332442582132665 -0.023897864810221756 0 0.013218931198918276 -0.023845490702712701 0 0.013306756436893054 -0.023844096768293861 0 0.01332442582132665 -0.023897864810221756 0 0.013409174261370232 -0.023936876861203701 0 0.013306756436893054 -0.023844096768293861 0 0.013218931198918276 -0.023845490702712701 0 0.013306756436893054 -0.023844096768293861 0 0.013207790046110956 -0.02381690558152183 0 0.013306756436893054 -0.023844096768293861 0 0.013207790046110956 -0.02381690558152183 0 0.0132404672370505 -0.023759172108499791 0 0.013306756436893054 -0.023844096768293861 0 0.0132404672370505 -0.023759172108499791 0 0.013385403876531877 -0.023768109332318745 0 0.0132404672370505 -0.023759172108499791 0 0.013385403876531877 -0.023768109332318745 0 0.013307317029184626 -0.023708772188808697 0 0.013409174261370232 -0.023936876861203701 0 0.013471670677723927 -0.02383674829894987 0 0.013385403876531877 -0.023768109332318745 0 0.013479067083980438 -0.023668220502022455 0 0.013385403876531877 -0.023768109332318745 0 0.013416887506744538 -0.02366538168971646 0 0.013479067083980438 -0.023668220502022455 0 0.013471670677723927 -0.02383674829894987 0 0.013385403876531877 -0.023768109332318745 0 0.013571641828020065 -0.023481237249120043 0 0.013314770310438959 -0.023783042499539529 0 0.013416887506744538 -0.02366538168971646 0 0.013314770310438959 -0.023783042499539529 0 0.013416887506744538 -0.02366538168971646 0 0.013307317029184626 -0.023708772188808697 0 0.013385403876531877 -0.023768109332318745 0 0.013416887506744538 -0.02366538168971646 0 0.013307317029184626 -0.023708772188808697 0 0.013314770310438959 -0.023783042499539529 0 0.013307317029184626 -0.023708772188808697 0 0.013161702302475006 -0.023704638452732758 0 0.013314770310438959 -0.023783042499539529 0 0.013161702302475006 -0.023704638452732758 0 0.013080408472856561 -0.023699675476140401 0 0.0132404672370505 -0.023759172108499791 0 0.013307317029184626 -0.023708772188808697 0 0.013161702302475006 -0.023704638452732758 0 0.013161702302475006 -0.023704638452732758 0 0.01308959188768089 -0.023691480435562587 0 0.013080408472856561 -0.023699675476140401 0 0.01308959188768089 -0.023691480435562587 0 0.013080408472856561 -0.023699675476140401 0 0.013001519019644681 -0.023669914154710901 0 0.012980524459906549 -0.02366626484255431 0 0.013080408472856561 -0.023699675476140401 0 0.013001519019644681 -0.023669914154710901 0 0.012980524459906549 -0.02366626484255431 0 0.012886414026239471 -0.023623372111176318 0 0.013001519019644681 -0.023669914154710901 0 0.012886414026239471 -0.023623372111176318 0 0.013001519019644681 -0.023669914154710901 0 0.012989113211388159 -0.02367712887009028 0 0.012886414026239471 -0.023623372111176318 0 0.012907346988361112 -0.023655804261714271 0 0.012989113211388159 -0.02367712887009028 0 0.01308959188768089 -0.023691480435562587 0 0.013001519019644681 -0.023669914154710901 0 0.012989113211388159 -0.02367712887009028 0 0.012989113211388159 -0.02367712887009028 0 0.013009279304230015 -0.02368386640387142 0 0.013101256566316033 -0.023700843700283816 0 0.01308959188768089 -0.023691480435562587 0 0.012989113211388159 -0.02367712887009028 0 0.013101256566316033 -0.023700843700283816 0 0.012939263257467377 -0.023670480132443696 0 0.012989113211388159 -0.02367712887009028 0 0.013009279304230015 -0.02368386640387142 0 0.012907346988361112 -0.023655804261714271 0 0.012939263257467377 -0.023670480132443696 0 0.012989113211388159 -0.02367712887009028 0 0.012912725040155969 -0.023660402803975127 0 0.012939263257467377 -0.023670480132443696 0 0.013009279304230015 -0.02368386640387142 0 0.012912725040155969 -0.023660402803975127 0 0.012936356132311273 -0.023650753934232445 0 0.013009279304230015 -0.02368386640387142 0 0.012981495672068329 -0.023654590020069713 0 0.012936356132311273 -0.023650753934232445 0 0.013009279304230015 -0.02368386640387142 0 0.013208168738952881 -0.023696434950073054 0 0.013009279304230015 -0.02368386640387142 0 0.013101256566316033 -0.023700843700283816 0 0.013208168738952881 -0.023696434950073054 0 0.013154117488101899 -0.023671017805237407 0 0.013009279304230015 -0.02368386640387142 0 0.010283275127210828 -0.027054889620546883 0 0.010464697412757138 -0.026679704084683498 0 0.013208168738952881 -0.023696434950073054 0 0.013101256566316033 -0.023700843700283816 0 0.013105511775332887 -0.023746112660267087 0 0.013101256566316033 -0.023700843700283816 0 0.013105511775332887 -0.023746112660267087 0 0.013137728980193129 -0.023743984618448895 0 0.013130297136373174 -0.023815589861686692 0 0.013105511775332887 -0.023746112660267087 0 0.013137728980193129 -0.023743984618448895 0 0.013130297136373174 -0.023815589861686692 0 0.013207790046110956 -0.02381690558152183 0 0.013137728980193129 -0.023743984618448895 0 0.013207790046110956 -0.02381690558152183 0 0.0132404672370505 -0.023759172108499791 0 0.013137728980193129 -0.023743984618448895 0 0.0132404672370505 -0.023759172108499791 0 0.013161702302475006 -0.023704638452732758 0 0.013137728980193129 -0.023743984618448895 0 0.013161702302475006 -0.023704638452732758 0 0.01308959188768089 -0.023691480435562587 0 0.013137728980193129 -0.023743984618448895 0 0.01308959188768089 -0.023691480435562587 0 0.013101256566316033 -0.023700843700283816 0 0.013137728980193129 -0.023743984618448895 0 0.036042459222517087 -0.027296725219964867 0 0.034998489074138835 -0.029523389319189932 0 0.034999432728987347 -0.025481801550063524 0 0.036042459222517087 -0.027296725219964867 0 0.03724263699245934 -0.025898085314243487 0 0.036287136767156294 -0.025868852057915347 0 0.036003908794666667 -0.027677106582236457 0 0.036237162854041265 -0.026935051502727157 0 0.036042459222517087 -0.027296725219964867 0 0.037423511051497757 -0.027885251751540694 0 0.03724263699245934 -0.025898085314243487 0 0.037478360203680762 -0.026244966297687869 0 0.037118529302483827 -0.026658076702456485 0 0.03724263699245934 -0.025898085314243487 0 0.037478360203680762 -0.026244966297687869 0 0.037118529302483827 -0.026658076702456485 0 0.037517859156669026 -0.026860937769240433 0 0.036042459222517087 -0.027296725219964867 0 0.037423511051497757 -0.027885251751540694 0 0.036049905416400109 -0.029349795677676527 0 0.037423511051497757 -0.027885251751540694 0 0.037323091676706888 -0.029865672059219858 0 0.036049905416400109 -0.029349795677676527 0 0.037091393013777341 -0.027327467694973896 0 0.037343852490645868 -0.027362412284273673 0 0.037517859156669026 -0.026860937769240433 0 0.036003908794666667 -0.027677106582236457 0 0.03511343808480713 -0.029416949089565454 0 0.037118529302483827 -0.026658076702456485 0 0.037091393013777341 -0.027327467694973896 0 0.037517859156669026 -0.026860937769240433 0 0.037323091676706888 -0.029865672059219858 0 0.036175369619777159 -0.031025512283783724 0 0.037339023145949606 -0.032450907077726895 0 0.03511343808480713 -0.029416949089565454 0 0.033170400169978173 -0.033353538137252892 0 0.037091393013777341 -0.027327467694973896 0 0.0372510460856397 -0.027518659324685522 0 0.037179740518572924 -0.027679075268693287 0 0.037091393013777341 -0.027327467694973896 0 0.0372510460856397 -0.027518659324685522 0 0.037343852490645868 -0.027362412284273673 0 0.037323091676706888 -0.029865672059219858 0 0.036175369619777159 -0.031025512283783724 0 0.036049905416400109 -0.029349795677676527 0 0.036049905416400109 -0.029349795677676527 0 0.034998489074138835 -0.029523389319189932 0 0.035344813647875666 -0.031348785578180258 0 0.036175369619777159 -0.031025512283783724 0 0.036049905416400109 -0.029349795677676527 0 0.035344813647875666 -0.031348785578180258 0 0.036042459222517087 -0.027296725219964867 0 0.036049905416400109 -0.029349795677676527 0 0.034998489074138835 -0.029523389319189932 0 0.034998489074138835 -0.029523389319189932 0 0.035344813647875666 -0.031348785578180258 0 0.034463897276308116 -0.034154791119781133 0 0.034998489074138835 -0.029523389319189932 0 0.034996259153662931 -0.034999201641329941 0 0.034463897276308116 -0.034154791119781133 0 0.035344813647875666 -0.031348785578180258 0 0.034463897276308116 -0.034154791119781133 0 0.035444143189306887 -0.032533243685160841 0 0.034996259153662931 -0.034999201641329941 0 0.034463897276308116 -0.034154791119781133 0 0.030864490027753575 -0.034996636408145272 0 0.034463897276308116 -0.034154791119781133 0 0.033556453277824902 -0.034037643754049995 0 0.034570920449789919 -0.033474691951126241 0 0.034463897276308116 -0.034154791119781133 0 0.030864490027753575 -0.034996636408145272 0 0.033556453277824902 -0.034037643754049995 0 0.030853681823470286 -0.034999979949104108 0 0.030924853952378192 -0.036556953031066118 0 0.029955071166107808 -0.036139639982458463 0 0.03085630011959643 -0.034998929370280867 0 0.032056256585993329 -0.03452493824467201 0 0.033556453277824902 -0.034037643754049995 0 0.034570920449789919 -0.033474691951126241 0 0.035054047684071346 -0.033065234714340128 0 0.032056256585993329 -0.03452493824467201 0 0.033170400169978173 -0.033353538137252892 0 0.030924853952378192 -0.036556953031066118 0 0.031081007083844616 -0.037931469797479786 0 0.030443687657402501 -0.037195541780770919 0 0.031081007083844616 -0.037931469797479786 0 0.030442687909586031 -0.037941674235537369 0 0.030443687657402501 -0.037195541780770919 0 0.034463897276308116 -0.034154791119781133 0 0.034570920449789919 -0.033474691951126241 0 0.035444143189306887 -0.032533243685160841 0 0.034570920449789919 -0.033474691951126241 0 0.035444143189306887 -0.032533243685160841 0 0.035054047684071346 -0.033065234714340128 0 0.033801400559385041 -0.033293577041005343 0 0.033170400169978173 -0.033353538137252892 0 0.036175369619777159 -0.031025512283783724 0 0.035444143189306887 -0.032533243685160841 0 0.037339023145949606 -0.032450907077726895 0 0.036175369619777159 -0.031025512283783724 0 0.035344813647875666 -0.031348785578180258 0 0.035444143189306887 -0.032533243685160841 0 0.037179740518572924 -0.027679075268693287 0 0.037330121277419373 -0.027574692427444803 0 0.037372857543267066 -0.027657842731810506 0 0.033170400169978173 -0.033353538137252892 0 0.032210947689370356 -0.033812784240440021 0 0.0372510460856397 -0.027518659324685522 0 0.037179740518572924 -0.027679075268693287 0 0.037330121277419373 -0.027574692427444803 0 0.036895182949561608 -0.027585443716990603 0 0.037453597761007644 -0.027493754869993198 0 0.035966750274107936 -0.027256359713060289 0 0.032210947689370356 -0.033812784240440021 0 0.03180823317557422 -0.033264886053337696 0 0.037218548290810338 -0.027587685462217737 0 0.036895182949561608 -0.027585443716990603 0 0.037453597761007644 -0.027493754869993198 0 0.0372510460856397 -0.027518659324685522 0 0.037330121277419373 -0.027574692427444803 0 0.037218548290810338 -0.027587685462217737 0 0.037330121277419373 -0.027574692427444803 0 0.037218548290810338 -0.027587685462217737 0 0.037453597761007644 -0.027493754869993198 0 0.032224345371488827 -0.033717047503095898 0 0.032210947689370356 -0.033812784240440021 0 0.036895182949561608 -0.027585443716990603 0 0.035966750274107936 -0.027256359713060289 0 0.036067086391671437 -0.02964432533829349 0 0.02875875233875444 -0.037956086738577373 0 0.02921501016369718 -0.036959008869499758 0 0.027944807476714635 -0.0370899666792655 0 0.032210947689370356 -0.033812784240440021 0 0.030677430632362085 -0.035276343464984865 0 0.030038408051915464 -0.03791825178080914 0 0.02875875233875444 -0.037956086738577373 0 0.02921501016369718 -0.036959008869499758 0 0.030442687909586031 -0.037941674235537369 0 0.029624501872149964 -0.037059684548391252 0 0.030443687657402501 -0.037195541780770919 0 0.030924853952378192 -0.036556953031066118 0 0.030443687657402501 -0.037195541780770919 0 0.029955071166107808 -0.036139639982458463 0 0.029624501872149964 -0.037059684548391252 0 0.030443687657402501 -0.037195541780770919 0 0.029955071166107808 -0.036139639982458463 0 0.02921501016369718 -0.036959008869499758 0 0.028402204396785095 -0.035991664150883756 0 0.027944807476714635 -0.0370899666792655 0 0.030677430632362085 -0.035276343464984865 0 0.029113050058656817 -0.035354941336126718 0 0.029624501872149964 -0.037059684548391252 0 0.029955071166107808 -0.036139639982458463 0 0.028672538862531443 -0.036094295639548989 0 0.028672538862531443 -0.036094295639548989 0 0.029253156564095852 -0.034999923792700442 0 0.027652107305445608 -0.034999988855503719 0 0.029955071166107808 -0.036139639982458463 0 0.028672538862531443 -0.036094295639548989 0 0.029253156564095852 -0.034999923792700442 0 0.030853681823470286 -0.034999979949104108 0 0.029955071166107808 -0.036139639982458463 0 0.029253156564095852 -0.034999923792700442 0 0.026376653945068242 -0.035690617504076434 0 0.027651644049130529 -0.034999935195298829 0 0.027023771604713923 -0.036292392665245907 0 0.026376653945068242 -0.035690617504076434 0 0.027651644049130529 -0.034999935195298829 0 0.025821422120385153 -0.034999827439226541 0 0.028402204396785095 -0.035991664150883756 0 0.027651644049130529 -0.034999935195298829 0 0.027023771604713923 -0.036292392665245907 0 0.029113050058656817 -0.035354941336126718 0 0.027654454717939141 -0.034999840644297592 0 0.028402204396785095 -0.035991664150883756 0 0.027023771604713923 -0.036292392665245907 0 0.027944807476714635 -0.0370899666792655 0 0.026376653945068242 -0.035690617504076434 0 0.027023771604713923 -0.036292392665245907 0 0.025533806604474032 -0.036041119325084324 0 0.027023771604713923 -0.036292392665245907 0 0.026843190053167577 -0.037315583418707471 0 0.027944807476714635 -0.0370899666792655 0 0.027023771604713923 -0.036292392665245907 0 0.026843190053167577 -0.037315583418707471 0 0.025881985788683916 -0.037031572351299447 0 0.02875875233875444 -0.037956086738577373 0 0.027944807476714635 -0.0370899666792655 0 0.027458841293261902 -0.037986706126542424 0 0.026843190053167577 -0.037315583418707471 0 0.027944807476714635 -0.0370899666792655 0 0.027458841293261902 -0.037986706126542424 0 0.035966750274107936 -0.027256359713060289 0 0.033534407056443089 -0.027270100167008371 0 0.034692729153102259 -0.028440668737594474 0 0.03180823317557422 -0.033264886053337696 0 0.030572436064099321 -0.032964692333239488 0 0.033534407056443089 -0.027270100167008371 0 0.033450986115368092 -0.028176101142239753 0 0.034692729153102259 -0.028440668737594474 0 0.033534407056443089 -0.027270100167008371 0 0.033450986115368092 -0.028176101142239753 0 0.031977816403073532 -0.027455937140516241 0 0.030572436064099321 -0.032964692333239488 0 0.029374602920913324 -0.032791639253434396 0 0.033534407056443089 -0.027270100167008371 0 0.031977816403073532 -0.027455937140516241 0 0.031537343663643906 -0.027427255009098594 0 0.033450986115368092 -0.028176101142239753 0 0.031977816403073532 -0.027455937140516241 0 0.033676978087081214 -0.029536886785645953 0 0.026843190053167577 -0.037315583418707471 0 0.027458841293261902 -0.037986706126542424 0 0.026157745909957949 -0.037990250526392828 0 0.031977816403073532 -0.027455937140516241 0 0.031787688790474347 -0.027979710963894833 0 0.031795981615994666 -0.027983921510062612 0 0.033044854689256088 -0.027381952620117656 0 0.033569064614657709 -0.027537104163519722 0 0.031787688790474347 -0.027979710963894833 0 0.031754769240166826 -0.027861221169419064 0 0.031792441287517528 -0.027726928814276051 0 0.030123267852470825 -0.029701192642822317 0 0.030370486532922198 -0.028909856794284792 0 0.031787688790474347 -0.027979710963894833 0 0.031754769240166826 -0.027861221169419064 0 0.031795981615994666 -0.027983921510062612 0 0.031824997647093525 -0.029197447285145842 0 0.031792441287517528 -0.027726928814276051 0 0.032083677653168621 -0.027717935422954944 0 0.031754769240166826 -0.027861221169419064 0 0.031632404731747124 -0.027775617295633791 0 0.031711935754611183 -0.027751946498841908 0 0.031754769240166826 -0.027861221169419064 0 0.031792441287517528 -0.027726928814276051 0 0.031711935754611183 -0.027751946498841908 0 0.031632404731747124 -0.027775617295633791 0 0.031795981615994666 -0.027983921510062612 0 0.031290068938899317 -0.02768482039058507 0 0.033569064614657709 -0.027537104163519722 0 0.034057391007850289 -0.025985809103628788 0 0.031754769240166826 -0.027861221169419064 0 0.031632404731747124 -0.027775617295633791 0 0.031795981615994666 -0.027983921510062612 0 0.033676978087081214 -0.029536886785645953 0 0.034692729153102259 -0.028440668737594474 0 0.036067086391671437 -0.02964432533829349 0 0.033450986115368092 -0.028176101142239753 0 0.033676978087081214 -0.029536886785645953 0 0.034692729153102259 -0.028440668737594474 0 0.035966750274107936 -0.027256359713060289 0 0.034692729153102259 -0.028440668737594474 0 0.036067086391671437 -0.02964432533829349 0 0.035399252439324992 -0.027233666032366936 0 0.03501575721536495 -0.027217201683670891 0 0.037218548290810338 -0.027587685462217737 0 0.036895182949561608 -0.027585443716990603 0 0.037686361587318112 -0.027358615338864828 0 0.037218548290810338 -0.027587685462217737 0 0.037686361587318112 -0.027358615338864828 0 0.037343852490645868 -0.027362412284273673 0 0.0372510460856397 -0.027518659324685522 0 0.037218548290810338 -0.027587685462217737 0 0.037343852490645868 -0.027362412284273673 0 0.037686361587318112 -0.027358615338864828 0 0.037343852490645868 -0.027362412284273673 0 0.037517859156669026 -0.026860937769240433 0 0.033676978087081214 -0.029536886785645953 0 0.036067086391671437 -0.02964432533829349 0 0.035267778295921627 -0.031615204986409982 0 0.037686361587318112 -0.027358615338864828 0 0.038042353034892507 -0.026801045934004678 0 0.037517859156669026 -0.026860937769240433 0 0.03501575721536495 -0.027217201683670891 0 0.034057391007850289 -0.025985809103628788 0 0.034057391007850289 -0.025985809103628788 0 0.034766066842555482 -0.023541755883233904 0 0.038042353034892507 -0.026801045934004678 0 0.037517859156669026 -0.026860937769240433 0 0.037883472596957977 -0.02613419538265737 0 0.037478360203680762 -0.026244966297687869 0 0.037517859156669026 -0.026860937769240433 0 0.037883472596957977 -0.02613419538265737 0 0.033101644360081166 -0.019039513952364508 0 0.033377677169619979 -0.019216176161446417 0 0.032920591922413839 -0.019273694708933031 0 0.031354996314772211 -0.026991144713367242 0 0.031575603694636592 -0.02735244906771166 0 0.031850865088266213 -0.026957881284834343 0 0.031290068938899317 -0.02768482039058507 0 0.031354996314772211 -0.026991144713367242 0 0.031575603694636592 -0.02735244906771166 0 0.034057391007850289 -0.025985809103628788 0 0.032232221155857978 -0.023684332208494713 0 0.031850865088266213 -0.026957881284834343 0 0.03177245750542438 -0.027479866614606333 0 0.032083677653168621 -0.027717935422954944 0 0.031575603694636592 -0.02735244906771166 0 0.031850865088266213 -0.026957881284834343 0 0.03177245750542438 -0.027479866614606333 0 0.028988660677740318 -0.027024324036790504 0 0.028452587292306934 -0.029143186600043322 0 0.023168076651631699 -0.029105242111687885 0 0.02337519222163402 -0.030831636507943114 0 0.02375461820118175 -0.030077439696418944 0 0.03177245750542438 -0.027479866614606333 0 0.031792441287517528 -0.027726928814276051 0 0.03165026852217144 -0.027622646438431396 0 0.031575603694636592 -0.02735244906771166 0 0.03177245750542438 -0.027479866614606333 0 0.03165026852217144 -0.027622646438431396 0 0.03177245750542438 -0.027479866614606333 0 0.031792441287517528 -0.027726928814276051 0 0.032083677653168621 -0.027717935422954944 0 0.031792441287517528 -0.027726928814276051 0 0.031711935754611183 -0.027751946498841908 0 0.03165026852217144 -0.027622646438431396 0 0.031632404731747124 -0.027775617295633791 0 0.031711935754611183 -0.027751946498841908 0 0.03165026852217144 -0.027622646438431396 0 0.031290068938899317 -0.02768482039058507 0 0.031575603694636592 -0.02735244906771166 0 0.03165026852217144 -0.027622646438431396 0 0.031632404731747124 -0.027775617295633791 0 0.031290068938899317 -0.02768482039058507 0 0.03165026852217144 -0.027622646438431396 0 0.024671345649836158 -0.030320466440349633 0 0.025237068385733197 -0.030908960998312661 0 0.025705227177794204 -0.031253347046058706 0 0.0246855486628547 -0.029807427817508191 0 0.025233487973970445 -0.029869225402060787 0 0.025415969302572238 -0.030480732270771756 0 0.022593230708477772 -0.031847782892176608 0 0.021245761300793819 -0.032588572169569827 0 0.024671345649836158 -0.030320466440349633 0 0.024511517381228958 -0.03080169784953056 0 0.024129197154875645 -0.030326385731867606 0 0.024671345649836158 -0.030320466440349633 0 0.025237068385733197 -0.030908960998312661 0 0.024511517381228958 -0.03080169784953056 0 0.0246855486628547 -0.029807427817508191 0 0.025233487973970445 -0.029869225402060787 0 0.025039704213937329 -0.02942667868513613 0 0.025237068385733197 -0.030908960998312661 0 0.024709286940859616 -0.031222014492860183 0 0.025048304302132784 -0.031510318201452767 0 0.025237068385733197 -0.030908960998312661 0 0.02548746569318891 -0.031448528673499787 0 0.025048304302132784 -0.031510318201452767 0 0.025237068385733197 -0.030908960998312661 0 0.024709286940859616 -0.031222014492860183 0 0.024511517381228958 -0.03080169784953056 0 0.024709286940859616 -0.031222014492860183 0 0.024511517381228958 -0.03080169784953056 0 0.024285353857869355 -0.031237529682729446 0 0.024285353857869355 -0.031237529682729446 0 0.023894424587036878 -0.031221934354167265 0 0.024064843126517407 -0.030827324640298564 0 0.023894424587036878 -0.031221934354167265 0 0.024064843126517407 -0.030827324640298564 0 0.023819642778098536 -0.030625755473475701 0 0.024511517381228958 -0.03080169784953056 0 0.024285353857869355 -0.031237529682729446 0 0.024064843126517407 -0.030827324640298564 0 0.023894424587036878 -0.031221934354167265 0 0.02337519222163402 -0.030831636507943114 0 0.023819642778098536 -0.030625755473475701 0 0.02337519222163402 -0.030831636507943114 0 0.023819642778098536 -0.030625755473475701 0 0.02375461820118175 -0.030077439696418944 0 0.023819642778098536 -0.030625755473475701 0 0.024129197154875645 -0.030326385731867606 0 0.02375461820118175 -0.030077439696418944 0 0.024511517381228958 -0.03080169784953056 0 0.024064843126517407 -0.030827324640298564 0 0.024129197154875645 -0.030326385731867606 0 0.024064843126517407 -0.030827324640298564 0 0.023819642778098536 -0.030625755473475701 0 0.024129197154875645 -0.030326385731867606 0 0.024671345649836158 -0.030320466440349633 0 0.024129197154875645 -0.030326385731867606 0 0.023840422921566011 -0.029250965828621096 0 0.023840422921566011 -0.029250965828621096 0 0.024716877506905762 -0.029063377384071932 0 0.024266761349058568 -0.028615553013251159 0 0.0246855486628547 -0.029807427817508191 0 0.023840422921566011 -0.029250965828621096 0 0.024716877506905762 -0.029063377384071932 0 0.022593230708477772 -0.031847782892176608 0 0.022713860224852313 -0.031390755395139622 0 0.024129197154875645 -0.030326385731867606 0 0.02375461820118175 -0.030077439696418944 0 0.023840422921566011 -0.029250965828621096 0 0.023168076651631699 -0.029105242111687885 0 0.02375461820118175 -0.030077439696418944 0 0.023840422921566011 -0.029250965828621096 0 0.024716877506905762 -0.029063377384071932 0 0.025039704213937329 -0.02942667868513613 0 0.025508720131837831 -0.029070408316453234 0 0.0246855486628547 -0.029807427817508191 0 0.024716877506905762 -0.029063377384071932 0 0.025039704213937329 -0.02942667868513613 0 0.01177544572381658 -0.028847318493229676 0 0.012626157481463203 -0.02884318590920423 0 0.012914163132518334 -0.030107586493543059 0 0.025233487973970445 -0.029869225402060787 0 0.025039704213937329 -0.02942667868513613 0 0.025508720131837831 -0.029070408316453234 0 0.017962630815236674 -0.03195431585862505 0 0.017472868663456084 -0.031358293514883701 0 0.012626157481463203 -0.02884318590920423 0 0.012914163132518334 -0.030107586493543059 0 0.013527884339502501 -0.028539413069862456 0 0.013947557517405684 -0.029704016713651089 0 0.012991944950635262 -0.030232481708748583 0 0.013527884339502501 -0.028539413069862456 0 0.013947557517405684 -0.029704016713651089 0 0.013527884339502501 -0.028539413069862456 0 0.014206077612093233 -0.028527827794674304 0 0.012991944950635262 -0.030232481708748583 0 0.013628668544382211 -0.031317061690683684 0 0.012435341303404674 -0.031786813361648937 0 0.013947557517405684 -0.029704016713651089 0 0.014316348451050532 -0.030826792972793088 0 0.012991944950635262 -0.030232481708748583 0 0.014316348451050532 -0.030826792972793088 0 0.012991944950635262 -0.030232481708748583 0 0.013628668544382211 -0.031317061690683684 0 0.014316348451050532 -0.030826792972793088 0 0.013628668544382211 -0.031317061690683684 0 0.014325012835044596 -0.031694439015329728 0 0.020044265463602669 -0.02913251800504469 0 0.020615226338404711 -0.032585098519133028 0 0.017962630815236674 -0.03195431585862505 0 0.020128079066546643 -0.032805230646166243 0 0.012914163132518334 -0.030107586493543059 0 0.012144657217110028 -0.031676378118963996 0 0.012324341839855172 -0.031818963426502249 0 0.01177544572381658 -0.028847318493229676 0 0.012914163132518334 -0.030107586493543059 0 0.012144657217110028 -0.031676378118963996 0 0.025233487973970445 -0.029869225402060787 0 0.025508720131837831 -0.029070408316453234 0 0.025521258704151579 -0.030581797739236614 0 0.025233487973970445 -0.029869225402060787 0 0.025415969302572238 -0.030480732270771756 0 0.025521258704151579 -0.030581797739236614 0 0.021558097754365874 -0.032664454857408813 0 0.021245761300793819 -0.032588572169569827 0 0.025237068385733197 -0.030908960998312661 0 0.025834900933624002 -0.031272646032635382 0 0.02548746569318891 -0.031448528673499787 0 0.02548746569318891 -0.031448528673499787 0 0.02568048658553335 -0.031706238426580907 0 0.025821272809425578 -0.031518143422978304 0 0.025834900933624002 -0.031272646032635382 0 0.02548746569318891 -0.031448528673499787 0 0.025821272809425578 -0.031518143422978304 0 0.02548746569318891 -0.031448528673499787 0 0.02568048658553335 -0.031706238426580907 0 0.025325918394932093 -0.031905333731200011 0 0.02568048658553335 -0.031706238426580907 0 0.026078871022577919 -0.031816096973393056 0 0.025665903094962191 -0.031963381116941789 0 0.02568048658553335 -0.031706238426580907 0 0.025665903094962191 -0.031963381116941789 0 0.025325918394932093 -0.031905333731200011 0 0.02568048658553335 -0.031706238426580907 0 0.026078871022577919 -0.031816096973393056 0 0.025821272809425578 -0.031518143422978304 0 0.020682004831151558 -0.0332597923029119 0 0.020615226338404711 -0.032585098519133028 0 0.026078871022577919 -0.031816096973393056 0 0.025821272809425578 -0.031518143422978304 0 0.026024366111433835 -0.031422982976473578 0 0.021669655462712954 -0.03278542779619268 0 0.021636375833953073 -0.032288137923529761 0 0.021816176136606927 -0.032437106160270401 0 0.020615226338404711 -0.032585098519133028 0 0.020128079066546643 -0.032805230646166243 0 0.025834900933624002 -0.031272646032635382 0 0.025821272809425578 -0.031518143422978304 0 0.026024366111433835 -0.031422982976473578 0 0.021245761300793819 -0.032588572169569827 0 0.020615226338404711 -0.032585098519133028 0 0.020682004831151558 -0.0332597923029119 0 0.020128079066546643 -0.032805230646166243 0 0.020128079066546643 -0.032805230646166243 0 0.02019231780763471 -0.034525455075231234 0 0.022799183546321232 -0.040269721108347617 0 0.022643918106793396 -0.039776481050717405 0 0.022165419463552324 -0.039833850883666477 0 0.022861668595583855 -0.040125186015662742 0 0.022799183546321232 -0.040269721108347617 0 0.022643918106793396 -0.039776481050717405 0 0.026078871022577919 -0.031816096973393056 0 0.025528780242925049 -0.032454590051181023 0 0.025665903094962191 -0.031963381116941789 0 0.025528780242925049 -0.032454590051181023 0 0.025665903094962191 -0.031963381116941789 0 0.025325918394932093 -0.031905333731200011 0 0.012435341303404674 -0.031786813361648937 0 0.013945238421880043 -0.032606335778773768 0 0.014107959070214721 -0.032819508636461651 0 0.012435341303404674 -0.031786813361648937 0 0.013756643178401137 -0.0319511158558968 0 0.013945238421880043 -0.032606335778773768 0 0.020128079066546643 -0.032805230646166243 0 0.017937276047463594 -0.033469965715684086 0 0.019462324645892103 -0.033678727718479504 0 0.019310989009829513 -0.033689878875250032 0 0.019251087060102982 -0.033707023983195937 0 0.013756643178401137 -0.0319511158558968 0 0.014325012835044596 -0.031694439015329728 0 0.014432287587486254 -0.032391217790728802 0 0.013628668544382211 -0.031317061690683684 0 0.013756643178401137 -0.0319511158558968 0 0.014325012835044596 -0.031694439015329728 0 0.013628668544382211 -0.031317061690683684 0 0.012435341303404674 -0.031786813361648937 0 0.013756643178401137 -0.0319511158558968 0 0.013756643178401137 -0.0319511158558968 0 0.013945238421880043 -0.032606335778773768 0 0.014432287587486254 -0.032391217790728802 0 0.017901362809553196 -0.033439286410621251 0 0.017937276047463594 -0.033469965715684086 0 0.013945238421880043 -0.032606335778773768 0 0.014108712696469503 -0.032810792398337819 0 0.014432287587486254 -0.032391217790728802 0 0.022165419463552324 -0.039833850883666477 0 0.022099923579622857 -0.038971786341569024 0 0.021343569737208173 -0.039362457797415401 0 0.022165419463552324 -0.039833850883666477 0 0.02246299883245597 -0.039381487142220666 0 0.022099923579622857 -0.038971786341569024 0 0.019310989009829513 -0.033689878875250032 0 0.019251087060102982 -0.033707023983195937 0 0.019161801399194867 -0.033699021288915512 0 0.02019231780763471 -0.034525455075231234 0 0.018861166088321758 -0.034652935681183751 0 0.022643918106793396 -0.039776481050717405 0 0.022165419463552324 -0.039833850883666477 0 0.02246299883245597 -0.039381487142220666 0 0.02246299883245597 -0.039381487142220666 0 0.022935765071194859 -0.039007883336715891 0 0.022099923579622857 -0.038971786341569024 0 0.022099923579622857 -0.038971786341569024 0 0.021586200540444148 -0.038859989758950719 0 0.021343569737208173 -0.039362457797415401 0 0.020682004831151558 -0.0332597923029119 0 0.022071753089454121 -0.036225432177285806 0 0.022643918106793396 -0.039776481050717405 0 0.02246299883245597 -0.039381487142220666 0 0.022935765071194859 -0.039007883336715891 0 0.026078871022577919 -0.031816096973393056 0 0.025528780242925049 -0.032454590051181023 0 0.025332857370664794 -0.033718125318394125 0 0.022861668595583855 -0.040125186015662742 0 0.022643918106793396 -0.039776481050717405 0 0.022935765071194859 -0.039007883336715891 0 0.020682004831151558 -0.0332597923029119 0 0.022206340237058208 -0.033722265671504832 0 0.02379245100003358 -0.035487597456636238 0 0.023872284675218573 -0.035606454117582634 0 0.023848768097569816 -0.035614051893134491 0 0.025332857370664794 -0.033718125318394125 0 0.024692645825152171 -0.03335616873509166 0 0.025021380989256593 -0.032958134121690102 0 0.025332857370664794 -0.033718125318394125 0 0.02422157684965023 -0.033826899718477049 0 0.024132863425019729 -0.034362448268420741 0 0.02422157684965023 -0.033826899718477049 0 0.024692645825152171 -0.03335616873509166 0 0.024225969997987797 -0.033096552089298327 0 0.025332857370664794 -0.033718125318394125 0 0.02422157684965023 -0.033826899718477049 0 0.024692645825152171 -0.03335616873509166 0 0.024692645825152171 -0.03335616873509166 0 0.024554175527392631 -0.032857184639632706 0 0.025021380989256593 -0.032958134121690102 0 0.024692645825152171 -0.03335616873509166 0 0.024225969997987797 -0.033096552089298327 0 0.024554175527392631 -0.032857184639632706 0 0.024225969997987797 -0.033096552089298327 0 0.024554175527392631 -0.032857184639632706 0 0.024126632791531627 -0.032590184679883463 0 0.025528780242925049 -0.032454590051181023 0 0.025332857370664794 -0.033718125318394125 0 0.025021380989256593 -0.032958134121690102 0 0.024554175527392631 -0.032857184639632706 0 0.025021380989256593 -0.032958134121690102 0 0.025006872063832571 -0.032433430105212047 0 0.025528780242925049 -0.032454590051181023 0 0.025021380989256593 -0.032958134121690102 0 0.025006872063832571 -0.032433430105212047 0 0.025528780242925049 -0.032454590051181023 0 0.025006872063832571 -0.032433430105212047 0 0.025325918394932093 -0.031905333731200011 0 0.025006872063832571 -0.032433430105212047 0 0.025325918394932093 -0.031905333731200011 0 0.024935584442460652 -0.03193372267857144 0 0.024554175527392631 -0.032857184639632706 0 0.025006872063832571 -0.032433430105212047 0 0.024443846849600388 -0.032222035819234586 0 0.024554175527392631 -0.032857184639632706 0 0.024443846849600388 -0.032222035819234586 0 0.024126632791531627 -0.032590184679883463 0 0.025006872063832571 -0.032433430105212047 0 0.024443846849600388 -0.032222035819234586 0 0.024935584442460652 -0.03193372267857144 0 0.024443846849600388 -0.032222035819234586 0 0.024597130607994896 -0.031698611612990674 0 0.024935584442460652 -0.03193372267857144 0 0.024597130607994896 -0.031698611612990674 0 0.025048304302132784 -0.031510318201452767 0 0.024935584442460652 -0.03193372267857144 0 0.024443846849600388 -0.032222035819234586 0 0.024597130607994896 -0.031698611612990674 0 0.024135255087775174 -0.031708557867689516 0 0.024285353857869355 -0.031237529682729446 0 0.024597130607994896 -0.031698611612990674 0 0.024135255087775174 -0.031708557867689516 0 0.024709286940859616 -0.031222014492860183 0 0.024285353857869355 -0.031237529682729446 0 0.024597130607994896 -0.031698611612990674 0 0.024709286940859616 -0.031222014492860183 0 0.024597130607994896 -0.031698611612990674 0 0.025048304302132784 -0.031510318201452767 0 0.02548746569318891 -0.031448528673499787 0 0.025048304302132784 -0.031510318201452767 0 0.025325918394932093 -0.031905333731200011 0 0.025048304302132784 -0.031510318201452767 0 0.025325918394932093 -0.031905333731200011 0 0.024935584442460652 -0.03193372267857144 0 0.031824997647093525 -0.029197447285145842 0 0.032083677653168621 -0.027717935422954944 0 0.032395864946705363 -0.029198040901768193 0 0.028452587292306934 -0.029143186600043322 0 0.028264349637196706 -0.030986515887464459 0 0.02337519222163402 -0.030831636507943114 0 0.023911286010746297 -0.03190147800546321 0 0.023599433835245192 -0.032818050563238998 0 0.023894424587036878 -0.031221934354167265 0 0.02337519222163402 -0.030831636507943114 0 0.023911286010746297 -0.03190147800546321 0 0.023894424587036878 -0.031221934354167265 0 0.024135255087775174 -0.031708557867689516 0 0.023911286010746297 -0.03190147800546321 0 0.024285353857869355 -0.031237529682729446 0 0.023894424587036878 -0.031221934354167265 0 0.024135255087775174 -0.031708557867689516 0 0.024443846849600388 -0.032222035819234586 0 0.023911286010746297 -0.03190147800546321 0 0.024126632791531627 -0.032590184679883463 0 0.023911286010746297 -0.03190147800546321 0 0.023599433835245192 -0.032818050563238998 0 0.024126632791531627 -0.032590184679883463 0 0.024443846849600388 -0.032222035819234586 0 0.024135255087775174 -0.031708557867689516 0 0.023911286010746297 -0.03190147800546321 0 0.030123267852470825 -0.029701192642822317 0 0.029374602920913324 -0.032791639253434396 0 0.031824997647093525 -0.029197447285145842 0 0.032395864946705363 -0.029198040901768193 0 0.032054400270755859 -0.030730547548694323 0 0.028264349637196706 -0.030986515887464459 0 0.028172789884147002 -0.032671517784822357 0 0.02422157684965023 -0.033826899718477049 0 0.023599433835245192 -0.032818050563238998 0 0.024132863425019729 -0.034362448268420741 0 0.02422157684965023 -0.033826899718477049 0 0.024225969997987797 -0.033096552089298327 0 0.023599433835245192 -0.032818050563238998 0 0.024225969997987797 -0.033096552089298327 0 0.023599433835245192 -0.032818050563238998 0 0.024126632791531627 -0.032590184679883463 0 0.032395864946705363 -0.029198040901768193 0 0.032054400270755859 -0.030730547548694323 0 0.032813848261733274 -0.03074064343394458 0 0.031977816403073532 -0.027455937140516241 0 0.031787688790474347 -0.027979710963894833 0 0.031537343663643906 -0.027427255009098594 0 0.023599433835245192 -0.032818050563238998 0 0.024132863425019729 -0.034362448268420741 0 0.023918524474842748 -0.035083220519034002 0 0.029374602920913324 -0.032791639253434396 0 0.028172789884147002 -0.032671517784822357 0 0.025801919777964841 -0.03744365487531677 0 0.025307998395503177 -0.037455024389096703 0 0.025544995283991241 -0.037174992404286962 0 0.023848768097569816 -0.035614051893134491 0 0.024021067597832613 -0.035477350078657342 0 0.023887555719368216 -0.035604217311753325 0 0.022206340237058208 -0.033722265671504832 0 0.022530815107074012 -0.034102564218621685 0 0.025332857370664794 -0.033718125318394125 0 0.024070705935214501 -0.035090380390964154 0 0.024021067597832613 -0.035477350078657342 0 0.025332857370664794 -0.033718125318394125 0 0.024132863425019729 -0.034362448268420741 0 0.024070705935214501 -0.035090380390964154 0 0.024132863425019729 -0.034362448268420741 0 0.024070705935214501 -0.035090380390964154 0 0.023918524474842748 -0.035083220519034002 0 0.028147809562102218 -0.032675699667980021 0 0.028172789884147002 -0.032671517784822357 0 0.024070705935214501 -0.035090380390964154 0 0.023983204414198402 -0.035247795804906487 0 0.024021067597832613 -0.035477350078657342 0 0.023983204414198402 -0.035247795804906487 0 0.024021067597832613 -0.035477350078657342 0 0.023943730148859994 -0.035828853015180719 0 0.028172789884147002 -0.032671517784822357 0 0.026770546726373898 -0.03464733219775918 0 0.025307998395503177 -0.037455024389096703 0 0.025544995283991241 -0.037174992404286962 0 0.024849403692120294 -0.036599113712463521 0 0.023930203293096978 -0.035627607702459478 0 0.024021067597832613 -0.035477350078657342 0 0.023943730148859994 -0.035828853015180719 0 0.023930203293096978 -0.035627607702459478 0 0.024021067597832613 -0.035477350078657342 0 0.023887555719368216 -0.035604217311753325 0 0.025650682340637616 -0.036813669057236383 0 0.025544995283991241 -0.037174992404286962 0 0.024849403692120294 -0.036599113712463521 0 0.026843190053167577 -0.037315583418707471 0 0.026157745909957949 -0.037990250526392828 0 0.025881985788683916 -0.037031572351299447 0 0.029374602920913324 -0.032791639253434396 0 0.028625790094819779 -0.034836217193896325 0 0.025801919777964841 -0.03744365487531677 0 0.025650682340637616 -0.036813669057236383 0 0.025544995283991241 -0.037174992404286962 0 0.027023771604713923 -0.036292392665245907 0 0.025881985788683916 -0.037031572351299447 0 0.025533806604474032 -0.036041119325084324 0 0.025650682340637616 -0.036813669057236383 0 0.025533806604474032 -0.036041119325084324 0 0.024849403692120294 -0.036599113712463521 0 0.028625790094819779 -0.034836217193896325 0 0.028332216302445149 -0.03518269223333606 0 0.026770546726373898 -0.03464733219775918 0 0.02622083653498598 -0.034783991547966187 0 0.024849403692120294 -0.036599113712463521 0 0.024825408851475623 -0.035853170444324844 0 0.024027647687895518 -0.035294552841349268 0 0.025533806604474032 -0.036041119325084324 0 0.024849403692120294 -0.036599113712463521 0 0.024825408851475623 -0.035853170444324844 0 0.025533806604474032 -0.036041119325084324 0 0.024841117226440387 -0.035460477652001367 0 0.024825408851475623 -0.035853170444324844 0 0.024841117226440387 -0.035460477652001367 0 0.025821422120385153 -0.034999827439226541 0 0.023990268459328199 -0.034999980527074377 0 0.024841117226440387 -0.035460477652001367 0 0.024825408851475623 -0.035853170444324844 0 0.024027647687895518 -0.035294552841349268 0 0.024841117226440387 -0.035460477652001367 0 0.024027647687895518 -0.035294552841349268 0 0.023990268459328199 -0.034999980527074377 0 0.026376653945068242 -0.035690617504076434 0 0.025533806604474032 -0.036041119325084324 0 0.025821422120385153 -0.034999827439226541 0 0.025533806604474032 -0.036041119325084324 0 0.024841117226440387 -0.035460477652001367 0 0.025821422120385153 -0.034999827439226541 0 0.022303135316325304 -0.035695639689350085 0 0.022159504588406948 -0.034999489528197425 0 0.023334013759494791 -0.035727748123369658 0 0.022303135316325304 -0.035695639689350085 0 0.022159504588406948 -0.034999489528197425 0 0.021518007876617149 -0.035606175356925236 0 0.022159504588406948 -0.034999489528197425 0 0.023990268459328199 -0.034999980527074377 0 0.023334013759494791 -0.035727748123369658 0 0.024027647687895518 -0.035294552841349268 0 0.023990268459328199 -0.034999980527074377 0 0.023334013759494791 -0.035727748123369658 0 0.022763552348307053 -0.036040366490848491 0 0.022628868115966354 -0.03632412833963513 0 0.023943730148859994 -0.035828853015180719 0 0.024027647687895518 -0.035294552841349268 0 0.023334013759494791 -0.035727748123369658 0 0.023943730148859994 -0.035828853015180719 0 0.023334013759494791 -0.035727748123369658 0 0.023839593799176141 -0.035697397673964161 0 0.023334013759494791 -0.035727748123369658 0 0.022224522036812824 -0.036651750008394463 0 0.023094084597690589 -0.037506761974887122 0 0.022303135316325304 -0.035695639689350085 0 0.023334013759494791 -0.035727748123369658 0 0.022224522036812824 -0.036651750008394463 0 0.022303135316325304 -0.035695639689350085 0 0.022224522036812824 -0.036651750008394463 0 0.021518007876617149 -0.035606175356925236 0 0.022224522036812824 -0.036651750008394463 0 0.021699416983437976 -0.037363089906971056 0 0.023094084597690589 -0.037506761974887122 0 0.021699416983437976 -0.037363089906971056 0 0.023094084597690589 -0.037506761974887122 0 0.021806778284243298 -0.03816164789652305 0 0.023930203293096978 -0.035627607702459478 0 0.023943730148859994 -0.035828853015180719 0 0.023839593799176141 -0.035697397673964161 0 0.023930203293096978 -0.035627607702459478 0 0.023839593799176141 -0.035697397673964161 0 0.023887555719368216 -0.035604217311753325 0 0.022071753089454121 -0.036225432177285806 0 0.022628868115966354 -0.03632412833963513 0 0.023872284675218573 -0.035606454117582634 0 0.023839593799176141 -0.035697397673964161 0 0.023887555719368216 -0.035604217311753325 0 0.022935765071194859 -0.039007883336715891 0 0.023094084597690589 -0.037506761974887122 0 0.022099923579622857 -0.038971786341569024 0 0.023872284675218573 -0.035606454117582634 0 0.023848768097569816 -0.035614051893134491 0 0.023887555719368216 -0.035604217311753325 0 0.023094084597690589 -0.037506761974887122 0 0.021806778284243298 -0.03816164789652305 0 0.022099923579622857 -0.038971786341569024 0 0.021806778284243298 -0.03816164789652305 0 0.022099923579622857 -0.038971786341569024 0 0.021586200540444148 -0.038859989758950719 0 0.018196951710349855 -0.034338905241329827 0 0.018861166088321758 -0.034652935681183751 0 0.018789640563737577 -0.035599905209849111 0 0.018861166088321758 -0.034652935681183751 0 0.021132020977581267 -0.038679150603229177 0 0.02028428594854953 -0.038495932940127736 0 0.021343569737208173 -0.039362457797415401 0 0.021586200540444148 -0.038859989758950719 0 0.021132020977581267 -0.038679150603229177 0 0.021343569737208173 -0.039362457797415401 0 0.016965094742827026 -0.034595623074306206 0 0.016942269531261583 -0.034608870618124017 0 0.017059875434138137 -0.034608850199151726 0 0.021806778284243298 -0.03816164789652305 0 0.021586200540444148 -0.038859989758950719 0 0.021132020977581267 -0.038679150603229177 0 0.021132020977581267 -0.038679150603229177 0 0.020737027080244511 -0.038309112195829977 0 0.020996821853523268 -0.037930015122210628 0 0.021132020977581267 -0.038679150603229177 0 0.020737027080244511 -0.038309112195829977 0 0.02028428594854953 -0.038495932940127736 0 0.020537225521807964 -0.03811612177242471 0 0.020737027080244511 -0.038309112195829977 0 0.02028428594854953 -0.038495932940127736 0 0.020537225521807964 -0.03811612177242471 0 0.020737027080244511 -0.038309112195829977 0 0.020996821853523268 -0.037930015122210628 0 0.021806778284243298 -0.03816164789652305 0 0.021132020977581267 -0.038679150603229177 0 0.020996821853523268 -0.037930015122210628 0 0.017115242653772567 -0.033788889896895782 0 0.017076274219339577 -0.033577837572916464 0 0.016965094742827026 -0.034595623074306206 0 0.017124546854659389 -0.034542206253994602 0 0.016955159635096487 -0.034530529396962238 0 0.017124546854659389 -0.034542206253994602 0 0.016573056760376383 -0.033680496559694482 0 0.015743993817366436 -0.033804172480799755 0 0.016942269531261583 -0.034608870618124017 0 0.016990585425370179 -0.034653161085249976 0 0.017020361983479042 -0.034751676646217464 0 0.016965094742827026 -0.034595623074306206 0 0.016942269531261583 -0.034608870618124017 0 0.016990585425370179 -0.034653161085249976 0 0.016965094742827026 -0.034595623074306206 0 0.016990585425370179 -0.034653161085249976 0 0.017124546854659389 -0.034542206253994602 0 0.016990585425370179 -0.034653161085249976 0 0.017020361983479042 -0.034751676646217464 0 0.017124546854659389 -0.034542206253994602 0 0.016942269531261583 -0.034608870618124017 0 0.017020361983479042 -0.034751676646217464 0 0.017066936737760888 -0.034979670169965907 0 0.02028428594854953 -0.038495932940127736 0 0.020059663768097463 -0.037628832944445835 0 0.018727764784979742 -0.037234868637291176 0 0.018789640563737577 -0.035599905209849111 0 0.018318514935831028 -0.035554661473329037 0 0.020537225521807964 -0.03811612177242471 0 0.02028428594854953 -0.038495932940127736 0 0.020059663768097463 -0.037628832944445835 0 0.020059663768097463 -0.037628832944445835 0 0.019944722509756561 -0.036877238087359626 0 0.018727764784979742 -0.037234868637291176 0 0.021699416983437976 -0.037363089906971056 0 0.021806778284243298 -0.03816164789652305 0 0.020996821853523268 -0.037930015122210628 0 0.020537225521807964 -0.03811612177242471 0 0.020059663768097463 -0.037628832944445835 0 0.020996821853523268 -0.037930015122210628 0 0.020059663768097463 -0.037628832944445835 0 0.020996821853523268 -0.037930015122210628 0 0.020908687400043958 -0.037066010138614977 0 0.020059663768097463 -0.037628832944445835 0 0.019944722509756561 -0.036877238087359626 0 0.020908687400043958 -0.037066010138614977 0 0.022224522036812824 -0.036651750008394463 0 0.021699416983437976 -0.037363089906971056 0 0.020908687400043958 -0.037066010138614977 0 0.021699416983437976 -0.037363089906971056 0 0.020996821853523268 -0.037930015122210628 0 0.020908687400043958 -0.037066010138614977 0 0.020883543357593487 -0.036311623815067522 0 0.019653199243949603 -0.035976544852175135 0 0.021518007876617149 -0.035606175356925236 0 0.022224522036812824 -0.036651750008394463 0 0.020908687400043958 -0.037066010138614977 0 0.020883543357593487 -0.036311623815067522 0 0.022224522036812824 -0.036651750008394463 0 0.020883543357593487 -0.036311623815067522 0 0.021518007876617149 -0.035606175356925236 0 0.019944722509756561 -0.036877238087359626 0 0.020908687400043958 -0.037066010138614977 0 0.020883543357593487 -0.036311623815067522 0 0.019944722509756561 -0.036877238087359626 0 0.018727764784979742 -0.037234868637291176 0 0.019653199243949603 -0.035976544852175135 0 0.019653199243949603 -0.035976544852175135 0 0.018253718862501048 -0.034500805706875685 0 0.021518007876617149 -0.035606175356925236 0 0.019944722509756561 -0.036877238087359626 0 0.020883543357593487 -0.036311623815067522 0 0.019653199243949603 -0.035976544852175135 0 0.018727764784979742 -0.037234868637291176 0 0.018404248839218443 -0.035673924576681566 0 0.019653199243949603 -0.035976544852175135 0 0.018404248839218443 -0.035673924576681566 0 0.019653199243949603 -0.035976544852175135 0 0.018253718862501048 -0.034500805706875685 0 0.020328757972658797 -0.034999895143129997 0 0.019726103638380791 -0.035812675889503424 0 0.021518007876617149 -0.035606175356925236 0 0.018797007494330713 -0.035252724653722915 0 0.019848124281657862 -0.035340772186533274 0 0.022159504588406948 -0.034999489528197425 0 0.020328757972658797 -0.034999895143129997 0 0.021518007876617149 -0.035606175356925236 0 0.016665621202810173 -0.034999252610934603 0 0.018498294689410076 -0.035000166156970415 0 0.017802638025636582 -0.035746575780259013 0 0.018253718862501048 -0.034500805706875685 0 0.015709656291258912 -0.034476742009931179 0 0.016738235461352381 -0.034879118481489793 0 0.019726103638380791 -0.035812675889503424 0 0.018498294689410076 -0.035000166156970415 0 0.017802638025636582 -0.035746575780259013 0 0.018797007494330713 -0.035252724653722915 0 0.017329837484278389 -0.035166372129496179 0 0.020328757972658797 -0.034999895143129997 0 0.019726103638380791 -0.035812675889503424 0 0.018498294689410076 -0.035000166156970415 0 0.018318514935831028 -0.035554661473329037 0 0.018005582557869878 -0.035324727155649799 0 0.018727764784979742 -0.037234868637291176 0 0.018404248839218443 -0.035673924576681566 0 0.01698328769131419 -0.034981073133515755 0 0.016264042474797905 -0.034506328188104063 0 0.016150121098608118 -0.034387735245620638 0 0.018253718862501048 -0.034500805706875685 0 0.016738235461352381 -0.034879118481489793 0 0.01698328769131419 -0.034981073133515755 0 0.016738235461352381 -0.034879118481489793 0 0.01698328769131419 -0.034981073133515755 0 0.017050154834226117 -0.034979448646099649 0 0.017066936737760888 -0.034979670169965907 0 0.01698328769131419 -0.034981073133515755 0 0.017050154834226117 -0.034979448646099649 0 0.016738235461352381 -0.034879118481489793 0 0.016044949502834069 -0.034841550781354508 0 0.015871099888193477 -0.03477715334719552 0 0.016738235461352381 -0.034879118481489793 0 0.017050154834226117 -0.034979448646099649 0 0.017245258360313681 -0.035014798665643374 0 0.018404248839218443 -0.035673924576681566 0 0.018253718862501048 -0.034500805706875685 0 0.01698328769131419 -0.034981073133515755 0 0.015709656291258912 -0.034476742009931179 0 0.016738235461352381 -0.034879118481489793 0 0.015969096528255539 -0.034804359308208632 0 0.016738235461352381 -0.034879118481489793 0 0.016044949502834069 -0.034841550781354508 0 0.015969096528255539 -0.034804359308208632 0 0.015736475829775068 -0.034725908628320756 0 0.015709656291258912 -0.034476742009931179 0 0.015969096528255539 -0.034804359308208632 0 0.015736475829775068 -0.034725908628320756 0 0.015969096528255539 -0.034804359308208632 0 0.015844973758202093 -0.034749080710916848 0 0.016044949502834069 -0.034841550781354508 0 0.015969096528255539 -0.034804359308208632 0 0.015844973758202093 -0.034749080710916848 0 0.016044949502834069 -0.034841550781354508 0 0.015844973758202093 -0.034749080710916848 0 0.015896810077806047 -0.034713528687322665 0 0.016044949502834069 -0.034841550781354508 0 0.015896810077806047 -0.034713528687322665 0 0.015871099888193477 -0.03477715334719552 0 0.015896810077806047 -0.034713528687322665 0 0.015871099888193477 -0.03477715334719552 0 0.015854690641544728 -0.03466189524369237 0 0.017020361983479042 -0.034751676646217464 0 0.017066936737760888 -0.034979670169965907 0 0.017245258360313681 -0.035014798665643374 0 0.017020361983479042 -0.034751676646217464 0 0.017245258360313681 -0.035014798665643374 0 0.017124546854659389 -0.034542206253994602 0 0.017066936737760888 -0.034979670169965907 0 0.017050154834226117 -0.034979448646099649 0 0.017245258360313681 -0.035014798665643374 0 0.016150121098608118 -0.034387735245620638 0 0.015748115634402454 -0.033633522027967759 0 0.015871099888193477 -0.03477715334719552 0 0.015854690641544728 -0.03466189524369237 0 0.015749143524422752 -0.03459435764741052 0 0.017245258360313681 -0.035014798665643374 0 0.017124546854659389 -0.034542206253994602 0 0.017403636945122196 -0.033844686909075397 0 0.017124546854659389 -0.034542206253994602 0 0.017403636945122196 -0.033844686909075397 0 0.016573056760376383 -0.033680496559694482 0 0.015837462015806478 -0.034653935816436492 0 0.015896810077806047 -0.034713528687322665 0 0.015854690641544728 -0.03466189524369237 0 0.015804480910995795 -0.034673382628343311 0 0.015854690641544728 -0.03466189524369237 0 0.015847309055211409 -0.034531825552144998 0 0.015381993056465705 -0.033140073943014825 0 0.015040530368533521 -0.032375918824117299 0 0.015854690641544728 -0.03466189524369237 0 0.015847309055211409 -0.034531825552144998 0 0.015749143524422752 -0.03459435764741052 0 0.01348468803082037 -0.030805015263239768 0 0.012781245887334333 -0.029526159591634266 0 0.013808303479426258 -0.029396831967259944 0 0.014639443657900987 -0.030549064175093135 0 0.01348468803082037 -0.030805015263239768 0 0.013808303479426258 -0.029396831967259944 0 0.014761898483977277 -0.031368484727037342 0 0.015748115634402454 -0.033633522027967759 0 0.015040530368533521 -0.032375918824117299 0 0.014761898483977277 -0.031368484727037342 0 0.015847309055211409 -0.034531825552144998 0 0.015690198721156557 -0.034324291928559382 0 0.015749143524422752 -0.03459435764741052 0 0.017315382678950077 -0.031836076004838433 0 0.017403636945122196 -0.033844686909075397 0 0.01662321734027505 -0.032928845888068832 0 0.017403636945122196 -0.033844686909075397 0 0.016573056760376383 -0.033680496559694482 0 0.01662321734027505 -0.032928845888068832 0 0.016573056760376383 -0.033680496559694482 0 0.015743993817366436 -0.033804172480799755 0 0.015967725986557241 -0.033099207254586212 0 0.016573056760376383 -0.033680496559694482 0 0.015967725986557241 -0.033099207254586212 0 0.01662321734027505 -0.032928845888068832 0 0.017937276047463594 -0.033469965715684086 0 0.017076274219339577 -0.033577837572916464 0 0.014108712696469503 -0.032810792398337819 0 0.015743993817366436 -0.033804172480799755 0 0.015210166028330261 -0.03287044706544405 0 0.016965094742827026 -0.034595623074306206 0 0.016955159635096487 -0.034530529396962238 0 0.016949469519129835 -0.034496603867388051 0 0.016958743854148993 -0.034445207686533252 0 0.016955159635096487 -0.034530529396962238 0 0.016949469519129835 -0.034496603867388051 0 0.015743993817366436 -0.033804172480799755 0 0.015967725986557241 -0.033099207254586212 0 0.015210166028330261 -0.03287044706544405 0 0.017937276047463594 -0.033469965715684086 0 0.018861166088321758 -0.034652935681183751 0 0.015210166028330261 -0.03287044706544405 0 0.014432287587486254 -0.032391217790728802 0 0.015120145714458496 -0.031689334072234898 0 0.014108712696469503 -0.032810792398337819 0 0.015210166028330261 -0.03287044706544405 0 0.014432287587486254 -0.032391217790728802 0 0.015210166028330261 -0.03287044706544405 0 0.015120145714458496 -0.031689334072234898 0 0.016089090264047312 -0.032071507645030736 0 0.014325012835044596 -0.031694439015329728 0 0.014432287587486254 -0.032391217790728802 0 0.015120145714458496 -0.031689334072234898 0 0.017315382678950077 -0.031836076004838433 0 0.01662321734027505 -0.032928845888068832 0 0.016089090264047312 -0.032071507645030736 0 0.015967725986557241 -0.033099207254586212 0 0.01662321734027505 -0.032928845888068832 0 0.016089090264047312 -0.032071507645030736 0 0.015967725986557241 -0.033099207254586212 0 0.015210166028330261 -0.03287044706544405 0 0.016089090264047312 -0.032071507645030736 0 0.013043762840458217 -0.028862938361504331 0 0.012533745436048519 -0.028100361216760031 0 0.012976153707379898 -0.028343008582722685 0 0.014761898483977277 -0.031368484727037342 0 0.013923309802616361 -0.029650845984997856 0 0.015120145714458496 -0.031689334072234898 0 0.016089090264047312 -0.032071507645030736 0 0.015854312234904456 -0.030293723078541907 0 0.017315382678950077 -0.031836076004838433 0 0.016089090264047312 -0.032071507645030736 0 0.015854312234904456 -0.030293723078541907 0 0.013947557517405684 -0.029704016713651089 0 0.014316348451050532 -0.030826792972793088 0 0.015854312234904456 -0.030293723078541907 0 0.014316348451050532 -0.030826792972793088 0 0.015120145714458496 -0.031689334072234898 0 0.015854312234904456 -0.030293723078541907 0 0.014316348451050532 -0.030826792972793088 0 0.014325012835044596 -0.031694439015329728 0 0.015120145714458496 -0.031689334072234898 0 0.012533745436048519 -0.028100361216760031 0 0.012498045471416488 -0.027439018916721951 0 0.012172648104263608 -0.027116011601998599 0 0.013947557517405684 -0.029704016713651089 0 0.015854312234904456 -0.030293723078541907 0 0.014206077612093233 -0.028527827794674304 0 0.013923309802616361 -0.029650845984997856 0 0.013094425418066803 -0.028380757079913804 0 0.012533745436048519 -0.028100361216760031 0 0.012498045471416488 -0.027439018916721951 0 0.012992565448175382 -0.027565476797466123 0 0.012533745436048519 -0.028100361216760031 0 0.012992565448175382 -0.027565476797466123 0 0.012976153707379898 -0.028343008582722685 0 0.012992565448175382 -0.027565476797466123 0 0.013577328591337185 -0.027485049849687263 0 0.012976153707379898 -0.028343008582722685 0 0.013577328591337185 -0.027485049849687263 0 0.013578592088006419 -0.028479791618147347 0 0.012976153707379898 -0.028343008582722685 0 0.014301576813147605 -0.028229530932243632 0 0.013577328591337185 -0.027485049849687263 0 0.013578592088006419 -0.028479791618147347 0 0.014301576813147605 -0.028229530932243632 0 0.013577328591337185 -0.027485049849687263 0 0.014290371730346065 -0.026721505921634862 0 0.012781245887334333 -0.029526159591634266 0 0.013808303479426258 -0.029396831967259944 0 0.013578592088006419 -0.028479791618147347 0 0.014301576813147605 -0.028229530932243632 0 0.013808303479426258 -0.029396831967259944 0 0.013578592088006419 -0.028479791618147347 0 0.012781245887334333 -0.029526159591634266 0 0.013578592088006419 -0.028479791618147347 0 0.012976153707379898 -0.028343008582722685 0 0.014761898483977277 -0.031368484727037342 0 0.014515110182927036 -0.03048463174374216 0 0.013405806803416303 -0.026456182671278385 0 0.014290371730346065 -0.026721505921634862 0 0.014144868479660507 -0.025563912826338121 0 0.013577328591337185 -0.027485049849687263 0 0.013405806803416303 -0.026456182671278385 0 0.014290371730346065 -0.026721505921634862 0 0.012992565448175382 -0.027565476797466123 0 0.013577328591337185 -0.027485049849687263 0 0.013405806803416303 -0.026456182671278385 0 0.012498045471416488 -0.027439018916721951 0 0.012992565448175382 -0.027565476797466123 0 0.012730296079590179 -0.027027730542739013 0 0.012992565448175382 -0.027565476797466123 0 0.013405806803416303 -0.026456182671278385 0 0.012730296079590179 -0.027027730542739013 0 0.012498045471416488 -0.027439018916721951 0 0.012403016337676357 -0.027031820169619691 0 0.012172648104263608 -0.027116011601998599 0 0.012403016337676357 -0.027031820169619691 0 0.012243478622229784 -0.026828311902331828 0 0.012172648104263608 -0.027116011601998599 0 0.012498045471416488 -0.027439018916721951 0 0.012730296079590179 -0.027027730542739013 0 0.012403016337676357 -0.027031820169619691 0 0.012730296079590179 -0.027027730542739013 0 0.012403016337676357 -0.027031820169619691 0 0.012458178426389552 -0.026693226949478177 0 0.012730296079590179 -0.027027730542739013 0 0.012458178426389552 -0.026693226949478177 0 0.012800606985351567 -0.02639489508288529 0 0.012403016337676357 -0.027031820169619691 0 0.012458178426389552 -0.026693226949478177 0 0.012243478622229784 -0.026828311902331828 0 0.012458178426389552 -0.026693226949478177 0 0.012800606985351567 -0.02639489508288529 0 0.012451907932045139 -0.026108460141606071 0 0.012458178426389552 -0.026693226949478177 0 0.012451907932045139 -0.026108460141606071 0 0.012252093016388721 -0.026580951486794409 0 0.012458178426389552 -0.026693226949478177 0 0.012252093016388721 -0.026580951486794409 0 0.012243478622229784 -0.026828311902331828 0 0.013405806803416303 -0.026456182671278385 0 0.012730296079590179 -0.027027730542739013 0 0.012800606985351567 -0.02639489508288529 0 0.013405806803416303 -0.026456182671278385 0 0.012800606985351567 -0.02639489508288529 0 0.013037991396153272 -0.025690785952515591 0 0.012800606985351567 -0.02639489508288529 0 0.013037991396153272 -0.025690785952515591 0 0.012451907932045139 -0.026108460141606071 0 0.013037991396153272 -0.025690785952515591 0 0.013329292205488367 -0.024913549026885754 0 0.013647850046590842 -0.025439263149427696 0 0.013774227984541684 -0.025360352979076739 0 0.01417044896534744 -0.024809422566099373 0 0.012451907932045139 -0.026108460141606071 0 0.012727857508651248 -0.025352521913330327 0 0.012223032891571303 -0.025886816454740485 0 0.013037991396153272 -0.025690785952515591 0 0.012451907932045139 -0.026108460141606071 0 0.012343062436564588 -0.024814922405345694 0 0.013037991396153272 -0.025690785952515591 0 0.012343062436564588 -0.024814922405345694 0 0.013329292205488367 -0.024913549026885754 0 0.012343062436564588 -0.024814922405345694 0 0.013329292205488367 -0.024913549026885754 0 0.013173248087388217 -0.024287540140288815 0 0.013329292205488367 -0.024913549026885754 0 0.014096915284216966 -0.024714668145387517 0 0.013647850046590842 -0.025439263149427696 0 0.013329292205488367 -0.024913549026885754 0 0.014096915284216966 -0.024714668145387517 0 0.013173248087388217 -0.024287540140288815 0 0.013405806803416303 -0.026456182671278385 0 0.013037991396153272 -0.025690785952515591 0 0.013647850046590842 -0.025439263149427696 0 0.013405806803416303 -0.026456182671278385 0 0.013647850046590842 -0.025439263149427696 0 0.014144868479660507 -0.025563912826338121 0 0.014096915284216966 -0.024714668145387517 0 0.013647850046590842 -0.025439263149427696 0 0.014144868479660507 -0.025563912826338121 0 0.014559349398476997 -0.02478221136990533 0 0.014096915284216966 -0.024714668145387517 0 0.014144868479660507 -0.025563912826338121 0 0.014559349398476997 -0.02478221136990533 0 0.014096915284216966 -0.024714668145387517 0 0.014421577114073778 -0.024333992992135796 0 0.014096915284216966 -0.024714668145387517 0 0.014421577114073778 -0.024333992992135796 0 0.014304993778906665 -0.024173287501168452 0 0.014096915284216966 -0.024714668145387517 0 0.014304993778906665 -0.024173287501168452 0 0.014256062066781894 -0.024119851681721521 0 0.014520302740117563 -0.023945544382645647 0 0.014553859661059831 -0.023695124350218807 0 0.014304993778906665 -0.024173287501168452 0 0.014340889181572565 -0.023999979017242271 0 0.014256062066781894 -0.024119851681721521 0 0.014304993778906665 -0.024173287501168452 0 0.014340889181572565 -0.023999979017242271 0 0.014473322097352068 -0.023821628402047702 0 0.014421577114073778 -0.024333992992135796 0 0.014304993778906665 -0.024173287501168452 0 0.014473322097352068 -0.023821628402047702 0 0.014421577114073778 -0.024333992992135796 0 0.014355831717061498 -0.023625246107172478 0 0.014386663006415197 -0.023789756525273788 0 0.014355831717061498 -0.023625246107172478 0 0.014386663006415197 -0.023789756525273788 0 0.014461877452469287 -0.023606793765323018 0 0.014340889181572565 -0.023999979017242271 0 0.014473322097352068 -0.023821628402047702 0 0.014403330326338882 -0.023843909535922747 0 0.014525491777528807 -0.023969921018686079 0 0.014481029289682671 -0.023765370930132448 0 0.014719083305599389 -0.024149827109147912 0 0.014421577114073778 -0.024333992992135796 0 0.014386663006415197 -0.023789756525273788 0 0.014515508324217599 -0.023557430940051811 0 0.014386663006415197 -0.023789756525273788 0 0.014461877452469287 -0.023606793765323018 0 0.014510654087389666 -0.023863017057163129 0 0.01439268809972369 -0.023834514182032106 0 0.014515508324217599 -0.023557430940051811 0 0.014507174997011353 -0.023531416726993722 0 0.014461877452469287 -0.023606793765323018 0 0.014507174997011353 -0.023531416726993722 0 0.014461877452469287 -0.023606793765323018 0 0.014473421482083785 -0.023503312859940902 0 0.014481029289682671 -0.023765370930132448 0 0.01448375229426699 -0.023569424369759194 0 0.014355831717061498 -0.023625246107172478 0 0.014473421482083785 -0.023503312859940902 0 0.014511564314382089 -0.023442425771973276 0 0.014355831717061498 -0.023625246107172478 0 0.014461877452469287 -0.023606793765323018 0 0.014473421482083785 -0.023503312859940902 0 0.014473322097352068 -0.023821628402047702 0 0.014450706635921944 -0.023700562681712195 0 0.014403330326338882 -0.023843909535922747 0 0.014473421482083785 -0.023503312859940902 0 0.01452815935573676 -0.023457350627018286 0 0.014511564314382089 -0.023442425771973276 0 0.014507174997011353 -0.023531416726993722 0 0.014473421482083785 -0.023503312859940902 0 0.01452815935573676 -0.023457350627018286 0 0.014533458709736179 -0.023478768272770015 0 0.014507174997011353 -0.023531416726993722 0 0.01452815935573676 -0.023457350627018286 0 0.014587392378616174 -0.023471405331797705 0 0.014484111471956305 -0.02356334163297949 0 0.014519558334289522 -0.02346918159420127 0 0.014587392378616174 -0.023471405331797705 0 0.014519558334289522 -0.02346918159420127 0 0.014672778816933027 -0.02344893180722725 0 0.014519558334289522 -0.02346918159420127 0 0.014672778816933027 -0.02344893180722725 0 0.014672347153364377 -0.023421391617425451 0 0.014587392378616174 -0.023471405331797705 0 0.014672778816933027 -0.02344893180722725 0 0.014743110386169338 -0.023437648625347085 0 0.014587392378616174 -0.023471405331797705 0 0.014541158486137433 -0.02350709259334385 0 0.014484111471956305 -0.02356334163297949 0 0.014484111471956305 -0.02356334163297949 0 0.014426962159304321 -0.023687077195427439 0 0.014436522499602311 -0.023625436089673702 0 0.014473322097352068 -0.023821628402047702 0 0.014541158486137433 -0.02350709259334385 0 0.014450706635921944 -0.023700562681712195 0 0.014484111471956305 -0.02356334163297949 0 0.014450706635921944 -0.023700562681712195 0 0.014426962159304321 -0.023687077195427439 0 0.014541158486137433 -0.02350709259334385 0 0.014484111471956305 -0.02356334163297949 0 0.014450706635921944 -0.023700562681712195 0 0.014450706635921944 -0.023700562681712195 0 0.014403330326338882 -0.023843909535922747 0 0.014383555703780049 -0.02380848265504883 0 0.014450706635921944 -0.023700562681712195 0 0.014426962159304321 -0.023687077195427439 0 0.014383555703780049 -0.02380848265504883 0 0.014426962159304321 -0.023687077195427439 0 0.014377097012328267 -0.023755649986113053 0 0.014383555703780049 -0.02380848265504883 0 0.014377097012328267 -0.023755649986113053 0 0.014378868200680413 -0.023694187845061151 0 0.014341479986619429 -0.023772587520709616 0 0.014378868200680413 -0.023694187845061151 0 0.014346706134662168 -0.023660394558000931 0 0.014341479986619429 -0.023772587520709616 0 0.014378868200680413 -0.023694187845061151 0 0.014436522499602311 -0.023625436089673702 0 0.014402014279951908 -0.023612690656531717 0 0.014377097012328267 -0.023755649986113053 0 0.014378868200680413 -0.023694187845061151 0 0.014436522499602311 -0.023625436089673702 0 0.014426962159304321 -0.023687077195427439 0 0.014377097012328267 -0.023755649986113053 0 0.014436522499602311 -0.023625436089673702 0 0.014484111471956305 -0.02356334163297949 0 0.014436522499602311 -0.023625436089673702 0 0.014519558334289522 -0.02346918159420127 0 0.014519558334289522 -0.02346918159420127 0 0.014550284605873497 -0.023277282989285789 0 0.014702416800606837 -0.023336648908954618 0 0.014519558334289522 -0.02346918159420127 0 0.014402014279951908 -0.023612690656531717 0 0.014350603180886488 -0.023649103369044258 0 0.016062269355482536 -0.023700153825991051 0 0.016102060503548614 -0.023708710316753381 0 0.014436522499602311 -0.023625436089673702 0 0.014519558334289522 -0.02346918159420127 0 0.014402014279951908 -0.023612690656531717 0 0.016102060503548614 -0.023708710316753381 0 0.017088703978443816 -0.023358757604144392 0 0.014378868200680413 -0.023694187845061151 0 0.014402014279951908 -0.023612690656531717 0 0.014346706134662168 -0.023660394558000931 0 0.016095995684825743 -0.023712570140498768 0 0.016102060503548614 -0.023708710316753381 0 0.016102060503548614 -0.023708710316753381 0 0.015571278237329603 -0.023507169365561333 0 0.015847825759434556 -0.022879026438127215 0 0.015857382517616446 -0.024432542328288752 0 0.015076853320183872 -0.02389088499249116 0 0.014318358638463188 -0.023883752007104093 0 0.014273763049629009 -0.023861087833628111 0 0.014256062066781894 -0.024119851681721521 0 0.014346706134662168 -0.023660394558000931 0 0.014341479986619429 -0.023772587520709616 0 0.014273763049629009 -0.023861087833628111 0 0.015571278237329603 -0.023507169365561333 0 0.017088703978443816 -0.023358757604144392 0 0.014341479986619429 -0.023772587520709616 0 0.014318358638463188 -0.023883752007104093 0 0.014273763049629009 -0.023861087833628111 0 0.014377097012328267 -0.023755649986113053 0 0.014341479986619429 -0.023772587520709616 0 0.014318358638463188 -0.023883752007104093 0 0.014403330326338882 -0.023843909535922747 0 0.014383555703780049 -0.02380848265504883 0 0.014338794220151533 -0.023937167767320352 0 0.014377097012328267 -0.023755649986113053 0 0.014318358638463188 -0.023883752007104093 0 0.014383555703780049 -0.02380848265504883 0 0.014318358638463188 -0.023883752007104093 0 0.014383555703780049 -0.02380848265504883 0 0.014338794220151533 -0.023937167767320352 0 0.014318358638463188 -0.023883752007104093 0 0.014338794220151533 -0.023937167767320352 0 0.014256062066781894 -0.024119851681721521 0 0.014340889181572565 -0.023999979017242271 0 0.014338794220151533 -0.023937167767320352 0 0.014256062066781894 -0.024119851681721521 0 0.014340889181572565 -0.023999979017242271 0 0.014403330326338882 -0.023843909535922747 0 0.014338794220151533 -0.023937167767320352 0 0.012727857508651248 -0.025352521913330327 0 0.012856373950365166 -0.024414027561001656 0 0.012454147983482039 -0.024953165207320539 0 0.01417044896534744 -0.024809422566099373 0 0.015571278237329603 -0.023507169365561333 0 0.015571278237329603 -0.023507169365561333 0 0.014553859661059831 -0.023695124350218807 0 0.012343062436564588 -0.024814922405345694 0 0.012378262273368346 -0.023726477469710114 0 0.013173248087388217 -0.024287540140288815 0 0.02032960069450622 -0.02377595954051686 0 0.018073733481210715 -0.022984749095620882 0 0.012454147983482039 -0.024953165207320539 0 0.012044956288962962 -0.024947751352757473 0 0.012198833364983406 -0.025368729063362183 0 0.012454147983482039 -0.024953165207320539 0 0.012044956288962962 -0.024947751352757473 0 0.012539994738985259 -0.024529169778281339 0 0.027558918099266083 -0.021625108964036504 0 0.026973477340848855 -0.021458807352606139 0 0.02696782642010884 -0.022430253497806221 0 0.027558918099266083 -0.021625108964036504 0 0.027360786263602027 -0.020991986441410586 0 0.026973477340848855 -0.021458807352606139 0 0.027558918099266083 -0.021625108964036504 0 0.027360786263602027 -0.020991986441410586 0 0.027648462336676161 -0.020913212483509785 0 0.027360786263602027 -0.020991986441410586 0 0.027166175200129566 -0.020638096929977544 0 0.026973477340848855 -0.021458807352606139 0 0.027648462336676161 -0.020913212483509785 0 0.027443043467308113 -0.020639892963625978 0 0.027772580517081688 -0.02056587378220498 0 0.027360786263602027 -0.020991986441410586 0 0.027648462336676161 -0.020913212483509785 0 0.027443043467308113 -0.020639892963625978 0 0.027360786263602027 -0.020991986441410586 0 0.027443043467308113 -0.020639892963625978 0 0.027166175200129566 -0.020638096929977544 0 0.027558918099266083 -0.021625108964036504 0 0.027648462336676161 -0.020913212483509785 0 0.027979375410783873 -0.020953660368242328 0 0.012044956288962962 -0.024947751352757473 0 0.012469134804737401 -0.024372155419570652 0 0.012539994738985259 -0.024529169778281339 0 0.012463144347485291 -0.024362026272444794 0 0.012539994738985259 -0.024529169778281339 0 0.012586976133063381 -0.024203496897657245 0 0.012856373950365166 -0.024414027561001656 0 0.012454147983482039 -0.024953165207320539 0 0.012539994738985259 -0.024529169778281339 0 0.012856373950365166 -0.024414027561001656 0 0.012539994738985259 -0.024529169778281339 0 0.012586976133063381 -0.024203496897657245 0 0.018073733481210715 -0.022984749095620882 0 0.018001165118278366 -0.022965540450618733 0 0.027648462336676161 -0.020913212483509785 0 0.027979375410783873 -0.020953660368242328 0 0.027772580517081688 -0.02056587378220498 0 0.018073733481210715 -0.022984749095620882 0 0.019372334509582468 -0.023100834394882235 0 0.017088703978443816 -0.023358757604144392 0 0.019372334509582468 -0.023100834394882235 0 0.019326387932129933 -0.02380735641232937 0 0.019924526077076184 -0.023023092831379353 0 0.018292310984491928 -0.021888778047835299 0 0.018073733481210715 -0.022984749095620882 0 0.017088703978443816 -0.023358757604144392 0 0.014550284605873497 -0.023277282989285789 0 0.014708488944713907 -0.02312316694503502 0 0.014714899162749427 -0.02324989485230301 0 0.014708488944713907 -0.02312316694503502 0 0.014714899162749427 -0.02324989485230301 0 0.014837485143377868 -0.023225029391023572 0 0.014550284605873497 -0.023277282989285789 0 0.014714899162749427 -0.02324989485230301 0 0.014702416800606837 -0.023336648908954618 0 0.014803967316276447 -0.023336747463567575 0 0.014837485143377868 -0.023225029391023572 0 0.014964782970798412 -0.023457817503311478 0 0.014519558334289522 -0.02346918159420127 0 0.014702416800606837 -0.023336648908954618 0 0.014672347153364377 -0.023421391617425451 0 0.014714899162749427 -0.02324989485230301 0 0.014702416800606837 -0.023336648908954618 0 0.014803967316276447 -0.023336747463567575 0 0.014702416800606837 -0.023336648908954618 0 0.014672347153364377 -0.023421391617425451 0 0.014783162043928877 -0.023404805680378442 0 0.014702416800606837 -0.023336648908954618 0 0.014803967316276447 -0.023336747463567575 0 0.014783162043928877 -0.023404805680378442 0 0.014714899162749427 -0.02324989485230301 0 0.014803967316276447 -0.023336747463567575 0 0.014837485143377868 -0.023225029391023572 0 0.019372334509582468 -0.023100834394882235 0 0.020704027095166153 -0.022068162309283663 0 0.019372334509582468 -0.023100834394882235 0 0.021571672693097479 -0.02352185958958463 0 0.027443043467308113 -0.020639892963625978 0 0.027772580517081688 -0.02056587378220498 0 0.027258146920066367 -0.02016342451916741 0 0.026997295713015266 -0.020137795204230948 0 0.027258146920066367 -0.02016342451916741 0 0.027226802360764555 -0.020158628919429284 0 0.027443043467308113 -0.020639892963625978 0 0.027258146920066367 -0.02016342451916741 0 0.027166175200129566 -0.020638096929977544 0 0.027226802360764555 -0.020158628919429284 0 0.027282533625614287 -0.020097947173395022 0 0.027296033075290591 -0.020106473917005846 0 0.027226802360764555 -0.020158628919429284 0 0.027282533625614287 -0.020097947173395022 0 0.027236309203193452 -0.020104147105478625 0 0.027258146920066367 -0.02016342451916741 0 0.027226802360764555 -0.020158628919429284 0 0.027236309203193452 -0.020104147105478625 0 0.014964782970798412 -0.023457817503311478 0 0.014855722863503538 -0.023420384448927641 0 0.015006865687715054 -0.023305417910227465 0 0.014855722863503538 -0.023420384448927641 0 0.014672778816933027 -0.02344893180722725 0 0.014743110386169338 -0.023437648625347085 0 0.014855722863503538 -0.023420384448927641 0 0.014672778816933027 -0.02344893180722725 0 0.014783162043928877 -0.023404805680378442 0 0.014672778816933027 -0.02344893180722725 0 0.014672347153364377 -0.023421391617425451 0 0.014783162043928877 -0.023404805680378442 0 0.014803967316276447 -0.023336747463567575 0 0.014964782970798412 -0.023457817503311478 0 0.014783162043928877 -0.023404805680378442 0 0.014964782970798412 -0.023457817503311478 0 0.014855722863503538 -0.023420384448927641 0 0.014783162043928877 -0.023404805680378442 0 0.027600660195357656 -0.020049046835058287 0 0.027399443355858453 -0.020090030501906959 0 0.027195299494626044 -0.020043736076412622 0 0.027600660195357656 -0.020049046835058287 0 0.02761231067956323 -0.020058560059472635 0 0.027399443355858453 -0.020090030501906959 0 0.02761231067956323 -0.020058560059472635 0 0.027399443355858453 -0.020090030501906959 0 0.027451322919427191 -0.020092740292826237 0 0.027399443355858453 -0.020090030501906959 0 0.027282533625614287 -0.020097947173395022 0 0.027451322919427191 -0.020092740292826237 0 0.027282533625614287 -0.020097947173395022 0 0.027236309203193452 -0.020104147105478625 0 0.027195299494626044 -0.020043736076412622 0 0.027399443355858453 -0.020090030501906959 0 0.027282533625614287 -0.020097947173395022 0 0.027195299494626044 -0.020043736076412622 0 0.027195299494626044 -0.020043736076412622 0 0.027058418435645319 -0.020373337167415441 0 0.025775314774245467 -0.020991495049428488 0 0.027236309203193452 -0.020104147105478625 0 0.027195299494626044 -0.020043736076412622 0 0.027058418435645319 -0.020373337167415441 0 0.027258146920066367 -0.02016342451916741 0 0.027236309203193452 -0.020104147105478625 0 0.027058418435645319 -0.020373337167415441 0 0.027258146920066367 -0.02016342451916741 0 0.027058418435645319 -0.020373337167415441 0 0.027166175200129566 -0.020638096929977544 0 0.027243891416563516 -0.020944835797505557 0 0.027261775044648759 -0.021173934961198029 0 0.027195299494626044 -0.020043736076412622 0 0.027786318854083319 -0.020165431296266974 0 0.027784001208107062 -0.020031366785068044 0 0.027600660195357656 -0.020049046835058287 0 0.027195299494626044 -0.020043736076412622 0 0.027784001208107062 -0.020031366785068044 0 0.027786318854083319 -0.020165431296266974 0 0.027931290456157606 -0.020081386126049032 0 0.027784001208107062 -0.020031366785068044 0 0.025775314774245467 -0.020991495049428488 0 0.02672184851262905 -0.021135834553975087 0 0.026029160283162475 -0.022230506612096291 0 0.027786318854083319 -0.020165431296266974 0 0.028194368209074627 -0.020099301963322477 0 0.027931290456157606 -0.020081386126049032 0 0.024476938993617664 -0.022184944385233722 0 0.024075944475987741 -0.022875553429657462 0 0.027166175200129566 -0.020638096929977544 0 0.02672184851262905 -0.021135834553975087 0 0.027388983725919303 -0.022111589531329814 0 0.027058418435645319 -0.020373337167415441 0 0.027166175200129566 -0.020638096929977544 0 0.02672184851262905 -0.021135834553975087 0 0.027058418435645319 -0.020373337167415441 0 0.025775314774245467 -0.020991495049428488 0 0.02672184851262905 -0.021135834553975087 0 0.027388983725919303 -0.022111589531329814 0 0.026546500284885734 -0.023077742869414098 0 0.026029160283162475 -0.022230506612096291 0 0.02672184851262905 -0.021135834553975087 0 0.027388983725919303 -0.022111589531329814 0 0.026029160283162475 -0.022230506612096291 0 0.024075944475987741 -0.022875553429657462 0 0.022727441248384626 -0.024784772715187569 0 0.027388983725919303 -0.022111589531329814 0 0.026546500284885734 -0.023077742869414098 0 0.027562593880476199 -0.024019412135411786 0 0.026546500284885734 -0.023077742869414098 0 0.026029160283162475 -0.022230506612096291 0 0.025554230103192379 -0.023228364637564884 0 0.025775314774245467 -0.020991495049428488 0 0.026029160283162475 -0.022230506612096291 0 0.024519246136026934 -0.022851134865773746 0 0.027261775044648759 -0.021173934961198029 0 0.027511226186826856 -0.021622191189739497 0 0.027786318854083319 -0.020165431296266974 0 0.028290939181257069 -0.01956210598661387 0 0.028194368209074627 -0.020099301963322477 0 0.026029160283162475 -0.022230506612096291 0 0.024519246136026934 -0.022851134865773746 0 0.025554230103192379 -0.023228364637564884 0 0.024519246136026934 -0.022851134865773746 0 0.025554230103192379 -0.023228364637564884 0 0.02485438700088663 -0.024074267841160485 0 0.025554230103192379 -0.023228364637564884 0 0.02589526646468264 -0.024140865135902887 0 0.02485438700088663 -0.024074267841160485 0 0.02589526646468264 -0.024140865135902887 0 0.02485438700088663 -0.024074267841160485 0 0.0248683909804507 -0.025074183544884134 0 0.02485438700088663 -0.024074267841160485 0 0.0248683909804507 -0.025074183544884134 0 0.023400792908581415 -0.025096980471168786 0 0.02589526646468264 -0.024140865135902887 0 0.0248683909804507 -0.025074183544884134 0 0.026043124335514482 -0.025984371988034324 0 0.0248683909804507 -0.025074183544884134 0 0.024311751093417152 -0.026319354961423628 0 0.023400792908581415 -0.025096980471168786 0 0.0248683909804507 -0.025074183544884134 0 0.024311751093417152 -0.026319354961423628 0 0.026043124335514482 -0.025984371988034324 0 0.023722351406134639 -0.02551452452981853 0 0.022727441248384626 -0.024784772715187569 0 0.024656556940356018 -0.027134592284466678 0 0.025242452977030733 -0.026277774366642286 0 0.025389003185505903 -0.027575944169514671 0 0.02589526646468264 -0.024140865135902887 0 0.026043124335514482 -0.025984371988034324 0 0.027562593880476199 -0.024019412135411786 0 0.026546500284885734 -0.023077742869414098 0 0.02589526646468264 -0.024140865135902887 0 0.027562593880476199 -0.024019412135411786 0 0.026546500284885734 -0.023077742869414098 0 0.025554230103192379 -0.023228364637564884 0 0.02589526646468264 -0.024140865135902887 0 0.02032960069450622 -0.02377595954051686 0 0.022727441248384626 -0.024784772715187569 0 0.012044956288962962 -0.024947751352757473 0 0.011697706359932548 -0.025458285272353817 0 0.012198833364983406 -0.025368729063362183 0 0.011697706359932548 -0.025458285272353817 0 0.012198833364983406 -0.025368729063362183 0 0.012223032891571303 -0.025886816454740485 0 0.012727857508651248 -0.025352521913330327 0 0.012454147983482039 -0.024953165207320539 0 0.012198833364983406 -0.025368729063362183 0 0.012727857508651248 -0.025352521913330327 0 0.012198833364983406 -0.025368729063362183 0 0.012223032891571303 -0.025886816454740485 0 0.011697706359932548 -0.025458285272353817 0 0.011989667115563953 -0.026163567395976514 0 0.011596832421907627 -0.026329489066619541 0 0.011697706359932548 -0.025458285272353817 0 0.012223032891571303 -0.025886816454740485 0 0.011989667115563953 -0.026163567395976514 0 0.022727441248384626 -0.024784772715187569 0 0.020607432649729453 -0.026992644127979089 0 0.011596832421907627 -0.026329489066619541 0 0.012109305916329001 -0.026762661297203998 0 0.012293451623823563 -0.027854566734216095 0 0.011989667115563953 -0.026163567395976514 0 0.011596832421907627 -0.026329489066619541 0 0.012109305916329001 -0.026762661297203998 0 0.012223032891571303 -0.025886816454740485 0 0.011989667115563953 -0.026163567395976514 0 0.012252093016388721 -0.026580951486794409 0 0.012451907932045139 -0.026108460141606071 0 0.012223032891571303 -0.025886816454740485 0 0.012252093016388721 -0.026580951486794409 0 0.012109305916329001 -0.026762661297203998 0 0.012252093016388721 -0.026580951486794409 0 0.012243478622229784 -0.026828311902331828 0 0.011989667115563953 -0.026163567395976514 0 0.012109305916329001 -0.026762661297203998 0 0.012252093016388721 -0.026580951486794409 0 0.012109305916329001 -0.026762661297203998 0 0.012243478622229784 -0.026828311902331828 0 0.012172648104263608 -0.027116011601998599 0 0.012603347850967407 -0.027769145376589519 0 0.013094425418066803 -0.028380757079913804 0 0.012109305916329001 -0.026762661297203998 0 0.013527884339502501 -0.028539413069862456 0 0.014206077612093233 -0.028527827794674304 0 0.012626157481463203 -0.02884318590920423 0 0.013527884339502501 -0.028539413069862456 0 0.012293451623823563 -0.027854566734216095 0 0.01177544572381658 -0.028847318493229676 0 0.011596832421907627 -0.026329489066619541 0 0.012293451623823563 -0.027854566734216095 0 0.012109305916329001 -0.026762661297203998 0 0.013527884339502501 -0.028539413069862456 0 0.012293451623823563 -0.027854566734216095 0 0.020044265463602669 -0.02913251800504469 0 0.020607432649729453 -0.026992644127979089 0 0.01177544572381658 -0.028847318493229676 0 0.012626157481463203 -0.02884318590920423 0 0.012293451623823563 -0.027854566734216095 0 0.025508720131837831 -0.029070408316453234 0 0.025389003185505903 -0.027575944169514671 0 0.024822820559934247 -0.028327204807922293 0 0.024716877506905762 -0.029063377384071932 0 0.025508720131837831 -0.029070408316453234 0 0.024822820559934247 -0.028327204807922293 0 0.024716877506905762 -0.029063377384071932 0 0.024822820559934247 -0.028327204807922293 0 0.024266761349058568 -0.028615553013251159 0 0.024822820559934247 -0.028327204807922293 0 0.024266761349058568 -0.028615553013251159 0 0.024129596423345796 -0.02786636193080215 0 0.023840422921566011 -0.029250965828621096 0 0.024266761349058568 -0.028615553013251159 0 0.023661526919970678 -0.028465237359353326 0 0.024266761349058568 -0.028615553013251159 0 0.024129596423345796 -0.02786636193080215 0 0.023661526919970678 -0.028465237359353326 0 0.024822820559934247 -0.028327204807922293 0 0.024129596423345796 -0.02786636193080215 0 0.024731080318935852 -0.027724355192664519 0 0.024311751093417152 -0.026319354961423628 0 0.026043124335514482 -0.025984371988034324 0 0.024129596423345796 -0.02786636193080215 0 0.024656556940356018 -0.027134592284466678 0 0.024129596423345796 -0.02786636193080215 0 0.024731080318935852 -0.027724355192664519 0 0.023722351406134639 -0.02551452452981853 0 0.023687955904443152 -0.026126941633904003 0 0.024656556940356018 -0.027134592284466678 0 0.025389003185505903 -0.027575944169514671 0 0.024731080318935852 -0.027724355192664519 0 0.025389003185505903 -0.027575944169514671 0 0.024822820559934247 -0.028327204807922293 0 0.024731080318935852 -0.027724355192664519 0 0.032600678367812823 -0.01969609244265156 0 0.03304020429368533 -0.019524538960620064 0 0.032933377387068058 -0.019902071300795337 0 0.024311751093417152 -0.026319354961423628 0 0.024129596423345796 -0.02786636193080215 0 0.022586263662589118 -0.027298138893718401 0 0.028988660677740318 -0.027024324036790504 0 0.029954267722315134 -0.023085805915891263 0 0.023168076651631699 -0.029105242111687885 0 0.022586263662589118 -0.027298138893718401 0 0.023661526919970678 -0.028465237359353326 0 0.024129596423345796 -0.02786636193080215 0 0.022586263662589118 -0.027298138893718401 0 0.023661526919970678 -0.028465237359353326 0 0.023168076651631699 -0.029105242111687885 0 0.023840422921566011 -0.029250965828621096 0 0.023661526919970678 -0.028465237359353326 0 0.032232221155857978 -0.023684332208494713 0 0.029954267722315134 -0.023085805915891263 0 0.031354996314772211 -0.026991144713367242 0 0.031850865088266213 -0.026957881284834343 0 0.031576162575866151 -0.026133668760666643 0 0.032920591922413839 -0.019273694708933031 0 0.032600678367812823 -0.01969609244265156 0 0.03304020429368533 -0.019524538960620064 0 0.033377677169619979 -0.019216176161446417 0 0.032920591922413839 -0.019273694708933031 0 0.03304020429368533 -0.019524538960620064 0 0.033377677169619979 -0.019216176161446417 0 0.03304020429368533 -0.019524538960620064 0 0.033426247300166093 -0.019482949199895908 0 0.033377677169619979 -0.019216176161446417 0 0.033426247300166093 -0.019482949199895908 0 0.033984711259132924 -0.019492836256021866 0 0.034766066842555482 -0.023541755883233904 0 0.035380266801798912 -0.022622869713483897 0 0.033314540031456341 -0.019766692764304348 0 0.033847027780233976 -0.020135183905047732 0 0.033984711259132924 -0.019492836256021866 0 0.033426247300166093 -0.019482949199895908 0 0.033314540031456341 -0.019766692764304348 0 0.033984711259132924 -0.019492836256021866 0 0.03304020429368533 -0.019524538960620064 0 0.033314540031456341 -0.019766692764304348 0 0.032933377387068058 -0.019902071300795337 0 0.03304020429368533 -0.019524538960620064 0 0.033426247300166093 -0.019482949199895908 0 0.033314540031456341 -0.019766692764304348 0 0.032933377387068058 -0.019902071300795337 0 0.033112916353445494 -0.02024656240142645 0 0.032637021606086454 -0.020328319224876899 0 0.033314540031456341 -0.019766692764304348 0 0.032933377387068058 -0.019902071300795337 0 0.033112916353445494 -0.02024656240142645 0 0.033314540031456341 -0.019766692764304348 0 0.033112916353445494 -0.02024656240142645 0 0.033847027780233976 -0.020135183905047732 0 0.033112916353445494 -0.02024656240142645 0 0.033847027780233976 -0.020135183905047732 0 0.033585947584733697 -0.020841856113143271 0 0.033112916353445494 -0.02024656240142645 0 0.032876049179852991 -0.020627151433492814 0 0.032637021606086454 -0.020328319224876899 0 0.033112916353445494 -0.02024656240142645 0 0.032876049179852991 -0.020627151433492814 0 0.033585947584733697 -0.020841856113143271 0 0.03093308838289063 -0.017891036053375511 0 0.030179639649527829 -0.01923724831346799 0 0.03087813838415485 -0.019939120923877156 0 0.03093308838289063 -0.017891036053375511 0 0.029505262467895914 -0.018706085930811092 0 0.030179639649527829 -0.01923724831346799 0 0.030018300499026644 -0.015673423097784446 0 0.03093308838289063 -0.017891036053375511 0 0.029308712460258502 -0.017393035361229253 0 0.032600678367812823 -0.01969609244265156 0 0.032933377387068058 -0.019902071300795337 0 0.032637021606086454 -0.020328319224876899 0 0.029954267722315134 -0.023085805915891263 0 0.030644385754584069 -0.020332262374943393 0 0.029954267722315134 -0.023085805915891263 0 0.028301685935162278 -0.022132638221907832 0 0.024311751093417152 -0.026319354961423628 0 0.022586263662589118 -0.027298138893718401 0 0.023400792908581415 -0.025096980471168786 0 0.024519246136026934 -0.022851134865773746 0 0.02485438700088663 -0.024074267841160485 0 0.023400792908581415 -0.025096980471168786 0 0.027511226186826856 -0.021622191189739497 0 0.028301685935162278 -0.022132638221907832 0 0.03093308838289063 -0.017891036053375511 0 0.029308712460258502 -0.017393035361229253 0 0.029505262467895914 -0.018706085930811092 0 0.028290939181257069 -0.01956210598661387 0 0.029308712460258502 -0.017393035361229253 0 0.029505262467895914 -0.018706085930811092 0 0.028290939181257069 -0.01956210598661387 0 0.029505262467895914 -0.018706085930811092 0 0.029549412240378263 -0.019790697125354986 0 0.028290939181257069 -0.01956210598661387 0 0.029549412240378263 -0.019790697125354986 0 0.028194368209074627 -0.020099301963322477 0 0.029549412240378263 -0.019790697125354986 0 0.028194368209074627 -0.020099301963322477 0 0.031777484695972399 -0.02161910947509341 0 0.029505262467895914 -0.018706085930811092 0 0.029549412240378263 -0.019790697125354986 0 0.030179639649527829 -0.01923724831346799 0 0.03093308838289063 -0.017891036053375511 0 0.03087813838415485 -0.019939120923877156 0 0.032353867055559281 -0.021098874665651638 0 0.030644385754584069 -0.020332262374943393 0 0.031187559138556087 -0.020723757783729663 0 0.029549412240378263 -0.019790697125354986 0 0.03087813838415485 -0.019939120923877156 0 0.031777484695972399 -0.02161910947509341 0 0.029549412240378263 -0.019790697125354986 0 0.030179639649527829 -0.01923724831346799 0 0.03087813838415485 -0.019939120923877156 0 0.03087813838415485 -0.019939120923877156 0 0.031777484695972399 -0.02161910947509341 0 0.032353867055559281 -0.021098874665651638 0 0.027879144987873167 -0.019958731404541855 0 0.027958674723852012 -0.019984397483693496 0 0.027904639363040711 -0.019943554062987288 0 0.027919686287961213 -0.019999086468558455 0 0.027958674723852012 -0.019984397483693496 0 0.027904639363040711 -0.019943554062987288 0 0.027879144987873167 -0.019958731404541855 0 0.027904639363040711 -0.019943554062987288 0 0.027946438334694682 -0.019921937144179259 0 0.029258200225303777 -0.020094682283619054 0 0.029979896939374105 -0.02014909109182832 0 0.028194368209074627 -0.020099301963322477 0 0.027879144987873167 -0.019958731404541855 0 0.027958674723852012 -0.019984397483693496 0 0.028194368209074627 -0.020099301963322477 0 0.027919686287961213 -0.019999086468558455 0 0.027931290456157606 -0.020081386126049032 0 0.028194368209074627 -0.020099301963322477 0 0.027919686287961213 -0.019999086468558455 0 0.027958674723852012 -0.019984397483693496 0 0.027919686287961213 -0.019999086468558455 0 0.027931290456157606 -0.020081386126049032 0 0.027784001208107062 -0.020031366785068044 0 0.027919686287961213 -0.019999086468558455 0 0.027784001208107062 -0.020031366785068044 0 0.027802406081367449 -0.019991866832043102 0 0.027919686287961213 -0.019999086468558455 0 0.027802406081367449 -0.019991866832043102 0 0.027904639363040711 -0.019943554062987288 0 0.027600660195357656 -0.020049046835058287 0 0.027784001208107062 -0.020031366785068044 0 0.027802406081367449 -0.019991866832043102 0 0.027904639363040711 -0.019943554062987288 0 0.027874725311291475 -0.01996020357999399 0 0.027939811864662101 -0.019930210136110162 0 0.027802406081367449 -0.019991866832043102 0 0.027904639363040711 -0.019943554062987288 0 0.027874725311291475 -0.01996020357999399 0 0.027874725311291475 -0.01996020357999399 0 0.027795552295882285 -0.01999888460392869 0 0.027927563731093581 -0.019946633824780829 0 0.027874725311291475 -0.01996020357999399 0 0.027939811864662101 -0.019930210136110162 0 0.027927563731093581 -0.019946633824780829 0 0.02761231067956323 -0.020058560059472635 0 0.027802406081367449 -0.019991866832043102 0 0.027795552295882285 -0.01999888460392869 0 0.027802406081367449 -0.019991866832043102 0 0.027874725311291475 -0.01996020357999399 0 0.027795552295882285 -0.01999888460392869 0 0.027600660195357656 -0.020049046835058287 0 0.02761231067956323 -0.020058560059472635 0 0.027802406081367449 -0.019991866832043102 0 0.02801386710629648 -0.019916614474802512 0 0.028100311461817611 -0.019895577376956724 0 0.028084824068139971 -0.019898132455016506 0 0.02801386710629648 -0.019916614474802512 0 0.028008043255972736 -0.019906151692376604 0 0.028100311461817611 -0.019895577376956724 0 0.02801386710629648 -0.019916614474802512 0 0.027939811864662101 -0.019930210136110162 0 0.027927563731093581 -0.019946633824780829 0 0.02801386710629648 -0.019916614474802512 0 0.027939811864662101 -0.019930210136110162 0 0.028008043255972736 -0.019906151692376604 0 0.027946438334694682 -0.019921937144179259 0 0.028008043255972736 -0.019906151692376604 0 0.02806395798631418 -0.019854261997849544 0 0.027939811864662101 -0.019930210136110162 0 0.027946438334694682 -0.019921937144179259 0 0.028008043255972736 -0.019906151692376604 0 0.027904639363040711 -0.019943554062987288 0 0.027939811864662101 -0.019930210136110162 0 0.027946438334694682 -0.019921937144179259 0 0.028008043255972736 -0.019906151692376604 0 0.02806395798631418 -0.019854261997849544 0 0.028100311461817611 -0.019895577376956724 0 0.033554643447015295 -0.021708138666372247 0 0.033309122197826224 -0.021128598527560289 0 0.033927226821379552 -0.021450495046480108 0 0.029979896939374105 -0.02014909109182832 0 0.03114465115938073 -0.019886918759931465 0 0.027879144987873167 -0.019958731404541855 0 0.027946438334694682 -0.019921937144179259 0 0.02806395798631418 -0.019854261997849544 0 0.033554643447015295 -0.021708138666372247 0 0.032353867055559281 -0.021098874665651638 0 0.033309122197826224 -0.021128598527560289 0 0.031777484695972399 -0.02161910947509341 0 0.033554643447015295 -0.021708138666372247 0 0.032353867055559281 -0.021098874665651638 0 0.032876049179852991 -0.020627151433492814 0 0.032637021606086454 -0.020328319224876899 0 0.032353867055559281 -0.021098874665651638 0 0.032876049179852991 -0.020627151433492814 0 0.032353867055559281 -0.021098874665651638 0 0.033309122197826224 -0.021128598527560289 0 0.032876049179852991 -0.020627151433492814 0 0.033309122197826224 -0.021128598527560289 0 0.033585947584733697 -0.020841856113143271 0 0.033309122197826224 -0.021128598527560289 0 0.033585947584733697 -0.020841856113143271 0 0.033927226821379552 -0.021450495046480108 0 0.033585947584733697 -0.020841856113143271 0 0.034915507493292704 -0.021462487037945659 0 0.034628786285430591 -0.020741281215557295 0 0.034317411995987354 -0.020667141505837774 0 0.03461933693258254 -0.020695704424238379 0 0.033585947584733697 -0.020841856113143271 0 0.034157765597014077 -0.021149684536736508 0 0.033927226821379552 -0.021450495046480108 0 0.034915507493292704 -0.021462487037945659 0 0.035920793948448042 -0.021125525195816564 0 0.03605284616951606 -0.021441033499740129 0 0.034915507493292704 -0.021462487037945659 0 0.03605284616951606 -0.021441033499740129 0 0.034628786285430591 -0.020741281215557295 0 0.034262868355015547 -0.021487435713621161 0 0.034407997961205534 -0.021511458661570917 0 0.034540712754249921 -0.021358742518805197 0 0.03461933693258254 -0.020695704424238379 0 0.035008609983567668 -0.020501269440792069 0 0.034157765597014077 -0.021149684536736508 0 0.034262868355015547 -0.021487435713621161 0 0.034540712754249921 -0.021358742518805197 0 0.034262868355015547 -0.021487435713621161 0 0.034407997961205534 -0.021511458661570917 0 0.034289912165649333 -0.021581344044906661 0 0.033554643447015295 -0.021708138666372247 0 0.033927226821379552 -0.021450495046480108 0 0.03429170300203082 -0.021678553516750916 0 0.034157765597014077 -0.021149684536736508 0 0.034262868355015547 -0.021487435713621161 0 0.033927226821379552 -0.021450495046480108 0 0.034262868355015547 -0.021487435713621161 0 0.033927226821379552 -0.021450495046480108 0 0.03429170300203082 -0.021678553516750916 0 0.03114465115938073 -0.019886918759931465 0 0.033510784742391747 -0.019205851965225063 0 0.02806395798631418 -0.019854261997849544 0 0.028194299744402719 -0.01985128959674792 0 0.028100311461817611 -0.019895577376956724 0 0.033549809809169204 -0.019455527126958735 0 0.033510784742391747 -0.019205851965225063 0 0.034407997961205534 -0.021511458661570917 0 0.034289912165649333 -0.021581344044906661 0 0.034537248409688692 -0.021545708696218802 0 0.033510784742391747 -0.019205851965225063 0 0.033240895089478084 -0.018636539893569185 0 0.037656925185899873 -0.019252469198293355 0 0.037558476819579918 -0.017727796103542748 0 0.036877913416632338 -0.018540679341829826 0 0.037558476819579918 -0.017727796103542748 0 0.036618421543714169 -0.017707736795487414 0 0.036877913416632338 -0.018540679341829826 0 0.028164763253250253 -0.019888665958276396 0 0.028100311461817611 -0.019895577376956724 0 0.028132433908558397 -0.019887046466274708 0 0.028194299744402719 -0.01985128959674792 0 0.028164763253250253 -0.019888665958276396 0 0.028100311461817611 -0.019895577376956724 0 0.035597428246614694 -0.018307566030234829 0 0.03499996458451398 -0.017778454796563023 0 0.035479924362409959 -0.018969486848896249 0 0.035597428246614694 -0.018307566030234829 0 0.035861087178500749 -0.017824695273984486 0 0.036048520147608822 -0.018660729540746528 0 0.035597428246614694 -0.018307566030234829 0 0.03499996458451398 -0.017778454796563023 0 0.035861087178500749 -0.017824695273984486 0 0.035575430928364946 -0.018812027706829361 0 0.035234627811054388 -0.019265806615038052 0 0.036618421543714169 -0.017707736795487414 0 0.035988797919552187 -0.018611474672660028 0 0.036877913416632338 -0.018540679341829826 0 0.035861087178500749 -0.017824695273984486 0 0.036618421543714169 -0.017707736795487414 0 0.036048520147608822 -0.018660729540746528 0 0.037656925185899873 -0.019252469198293355 0 0.036877913416632338 -0.018540679341829826 0 0.035876493834729246 -0.018778515875887344 0 0.033510784742391747 -0.019205851965225063 0 0.035106198476786851 -0.019434275154870371 0 0.034289912165649333 -0.021581344044906661 0 0.034537248409688692 -0.021545708696218802 0 0.034732313522762431 -0.021656562571068592 0 0.035988797919552187 -0.018611474672660028 0 0.036877913416632338 -0.018540679341829826 0 0.035876493834729246 -0.018778515875887344 0 0.034407997961205534 -0.021511458661570917 0 0.034537248409688692 -0.021545708696218802 0 0.034553037677744744 -0.021477573217110323 0 0.034537248409688692 -0.021545708696218802 0 0.034682326263382975 -0.021512360260159461 0 0.034553037677744744 -0.021477573217110323 0 0.034537248409688692 -0.021545708696218802 0 0.034682326263382975 -0.021512360260159461 0 0.034732313522762431 -0.021656562571068592 0 0.035106198476786851 -0.019434275154870371 0 0.035107850427070347 -0.019867568157920235 0 0.035935779645112076 -0.018844935442356811 0 0.035479924362409959 -0.018969486848896249 0 0.035434226805816156 -0.019629411815862613 0 0.034682326263382975 -0.021512360260159461 0 0.034732313522762431 -0.021656562571068592 0 0.034839477423602619 -0.02149327044977245 0 0.03499996458451398 -0.017778454796563023 0 0.035479924362409959 -0.018969486848896249 0 0.034999966455347906 -0.019419639423037097 0 0.036048520147608822 -0.018660729540746528 0 0.035935779645112076 -0.018844935442356811 0 0.035479924362409959 -0.018969486848896249 0 0.035597428246614694 -0.018307566030234829 0 0.036048520147608822 -0.018660729540746528 0 0.035479924362409959 -0.018969486848896249 0 0.035234627811054388 -0.019265806615038052 0 0.035106198476786851 -0.019434275154870371 0 0.035479924362409959 -0.018969486848896249 0 0.035434226805816156 -0.019629411815862613 0 0.034999966455347906 -0.019419639423037097 0 0.035107850427070347 -0.019867568157920235 0 0.034999853880616459 -0.019422340902283366 0 0.035446517182946349 -0.019645240052336609 0 0.034999995680060028 -0.019419723422244212 0 0.034999997435205391 -0.020313071117547741 0 0.03521815751969333 -0.020159751532215015 0 0.034999464134339443 -0.020314716656154742 0 0.035920793948448042 -0.021125525195816564 0 0.035107850427070347 -0.019867568157920235 0 0.034999955686693091 -0.020311939967859405 0 0.034999464134339443 -0.020314716656154742 0 0.035920793948448042 -0.021125525195816564 0 0.03605284616951606 -0.021441033499740129 0 0.035107850427070347 -0.019867568157920235 0 0.035008609983567668 -0.020501269440792069 0 0.034682326263382975 -0.021512360260159461 0 0.034839477423602619 -0.02149327044977245 0 0.034540712754249921 -0.021358742518805197 0 0.034407997961205534 -0.021511458661570917 0 0.034553037677744744 -0.021477573217110323 0 0.034540712754249921 -0.021358742518805197 0 0.034682326263382975 -0.021512360260159461 0 0.034553037677744744 -0.021477573217110323 0 0.034540712754249921 -0.021358742518805197 0 0.034999464134339443 -0.020314716656154742 0 0.03605284616951606 -0.021441033499740129 0 0.034999432728987347 -0.025481801550063524 0 0.03605284616951606 -0.021441033499740129 0 0.037177844194166101 -0.023317026273175435 0 0.034999432728987347 -0.025481801550063524 0 0.03571719852585177 -0.021840172282888849 0 0.035662817136178901 -0.022068307351452987 0 0.03605284616951606 -0.021441033499740129 0 0.034628786285430591 -0.020741281215557295 0 0.034995079256471079 -0.020139808250771739 0 0.033847027780233976 -0.020135183905047732 0 0.033585947584733697 -0.020841856113143271 0 0.034628786285430591 -0.020741281215557295 0 0.033847027780233976 -0.020135183905047732 0 0.034628786285430591 -0.020741281215557295 0 0.034995079256471079 -0.020139808250771739 0 0.035662817136178901 -0.022068307351452987 0 0.035380266801798912 -0.022622869713483897 0 0.033847027780233976 -0.020135183905047732 0 0.034995079256471079 -0.020139808250771739 0 0.033984711259132924 -0.019492836256021866 0 0.037177844194166101 -0.023317026273175435 0 0.036860969021759928 -0.024860173633556307 0 0.037837014870882514 -0.0251098590470634 0 0.037478360203680762 -0.026244966297687869 0 0.037837014870882514 -0.0251098590470634 0 0.03724263699245934 -0.025898085314243487 0 0.037478360203680762 -0.026244966297687869 0 0.037883472596957977 -0.02613419538265737 0 0.037837014870882514 -0.0251098590470634 0 0.036860969021759928 -0.024860173633556307 0 0.037837014870882514 -0.0251098590470634 0 0.03724263699245934 -0.025898085314243487 0 0.036860969021759928 -0.024860173633556307 0 0.03724263699245934 -0.025898085314243487 0 0.036287136767156294 -0.025868852057915347 0 0.037177844194166101 -0.023317026273175435 0 0.036860969021759928 -0.024860173633556307 0 0.034999432728987347 -0.025481801550063524 0 0.036042459222517087 -0.027296725219964867 0 0.036287136767156294 -0.025868852057915347 0 0.034999432728987347 -0.025481801550063524 0 0.036860969021759928 -0.024860173633556307 0 0.036287136767156294 -0.025868852057915347 0 0.034999432728987347 -0.025481801550063524 0 0.036829177134737386 -0.0095283820815000274 0 0.036554816195744445 -0.010332635394947901 0 0.036904211466426647 -0.010901577484262556 0 0.034642785877914403 -0.011396629271558236 0 0.034429285229955559 -0.012030427630131808 0 0.036391236677591469 -0.0099181851094842406 0 0.036097797469645018 -0.010300736474907134 0 0.036091510715044954 -0.0094831480286323554 0 0.036097797469645018 -0.010300736474907134 0 0.035524232440388943 -0.0099102988176638339 0 0.036091510715044954 -0.0094831480286323554 0 0.036391236677591469 -0.0099181851094842406 0 0.036829177134737386 -0.0095283820815000274 0 0.036554816195744445 -0.010332635394947901 0 0.036391236677591469 -0.0099181851094842406 0 0.036829177134737386 -0.0095283820815000274 0 0.036091510715044954 -0.0094831480286323554 0 0.036554816195744445 -0.010332635394947901 0 0.036346227518294805 -0.010821936326809034 0 0.036904211466426647 -0.010901577484262556 0 0.036554816195744445 -0.010332635394947901 0 0.036097797469645018 -0.010300736474907134 0 0.036346227518294805 -0.010821936326809034 0 0.036391236677591469 -0.0099181851094842406 0 0.036554816195744445 -0.010332635394947901 0 0.036097797469645018 -0.010300736474907134 0 0.036097797469645018 -0.010300736474907134 0 0.035976039949714649 -0.010772032547472036 0 0.036346227518294805 -0.010821936326809034 0 0.036097797469645018 -0.010300736474907134 0 0.035976039949714649 -0.010772032547472036 0 0.035734783994081094 -0.010463090179745909 0 0.035976039949714649 -0.010772032547472036 0 0.035734783994081094 -0.010463090179745909 0 0.035416237228625733 -0.010824197086264515 0 0.036097797469645018 -0.010300736474907134 0 0.035734783994081094 -0.010463090179745909 0 0.035524232440388943 -0.0099102988176638339 0 0.035734783994081094 -0.010463090179745909 0 0.035416237228625733 -0.010824197086264515 0 0.035524232440388943 -0.0099102988176638339 0 0.034999801683916046 -0.010817583347955923 0 0.035524232440388943 -0.0099102988176638339 0 0.034999494122696331 -0.0087793002942971061 0 0.034999801683916046 -0.010817583347955923 0 0.035416237228625733 -0.010824197086264515 0 0.035524232440388943 -0.0099102988176638339 0 0.035524232440388943 -0.0099102988176638339 0 0.034999494122696331 -0.0087793002942971061 0 0.03567214146397988 -0.0088120081271357044 0 0.035524232440388943 -0.0099102988176638339 0 0.03567214146397988 -0.0088120081271357044 0 0.036091510715044954 -0.0094831480286323554 0 0.03567214146397988 -0.0088120081271357044 0 0.036258488732992915 -0.008454888478949707 0 0.035740541498583807 -0.0073437343364340961 0 0.036258488732992915 -0.008454888478949707 0 0.037434995890178444 -0.009518813833620559 0 0.03670806243315284 -0.0067141272304108157 0 0.03567214146397988 -0.0088120081271357044 0 0.036091510715044954 -0.0094831480286323554 0 0.036258488732992915 -0.008454888478949707 0 0.036829177134737386 -0.0095283820815000274 0 0.036091510715044954 -0.0094831480286323554 0 0.036258488732992915 -0.008454888478949707 0 0.036829177134737386 -0.0095283820815000274 0 0.036258488732992915 -0.008454888478949707 0 0.037434995890178444 -0.009518813833620559 0 0.036296315372874727 -0.0057937510967093174 0 0.036881831648483847 -0.0044641223673845603 0 0.03670806243315284 -0.0067141272304108157 0 0.034944955241564754 -0.0078515508962484631 0 0.035195335709494152 -0.007431867772046255 0 0.036296315372874727 -0.0057937510967093174 0 0.036336092693942577 -0.0048415539560927555 0 0.036030182014546316 -0.0048697883105765886 0 0.036336092693942577 -0.0048415539560927555 0 0.036030182014546316 -0.0048697883105765886 0 0.03619993385038206 -0.0043101440567948858 0 0.036336092693942577 -0.0048415539560927555 0 0.036881831648483847 -0.0044641223673845603 0 0.03619993385038206 -0.0043101440567948858 0 0.036296315372874727 -0.0057937510967093174 0 0.036336092693942577 -0.0048415539560927555 0 0.036881831648483847 -0.0044641223673845603 0 0.036296315372874727 -0.0057937510967093174 0 0.036030182014546316 -0.0048697883105765886 0 0.035778837730421405 -0.005131498284787428 0 0.036030182014546316 -0.0048697883105765886 0 0.03556000690525396 -0.0043019344836736362 0 0.035882782602596808 -0.004342916707599332 0 0.036030182014546316 -0.0048697883105765886 0 0.035882782602596808 -0.004342916707599332 0 0.03619993385038206 -0.0043101440567948858 0 0.03556000690525396 -0.0043019344836736362 0 0.03517974514510265 -0.0042810867621306753 0 0.035778837730421405 -0.005131498284787428 0 0.036030182014546316 -0.0048697883105765886 0 0.03556000690525396 -0.0043019344836736362 0 0.035778837730421405 -0.005131498284787428 0 0.03556000690525396 -0.0043019344836736362 0 0.03579114262367742 -0.003920538927416917 0 0.035401014110199448 -0.0037635954675290873 0 0.03579114262367742 -0.003920538927416917 0 0.03619993385038206 -0.0043101440567948858 0 0.036175256011901885 -0.0037666974889420694 0 0.03556000690525396 -0.0043019344836736362 0 0.035882782602596808 -0.004342916707599332 0 0.03579114262367742 -0.003920538927416917 0 0.035882782602596808 -0.004342916707599332 0 0.03579114262367742 -0.003920538927416917 0 0.03619993385038206 -0.0043101440567948858 0 0.03579114262367742 -0.003920538927416917 0 0.036175256011901885 -0.0037666974889420694 0 0.035718748685201446 -0.0034485948495385048 0 0.035401014110199448 -0.0037635954675290873 0 0.035718748685201446 -0.0034485948495385048 0 0.035160801188633801 -0.0033093772893766494 0 0.03579114262367742 -0.003920538927416917 0 0.035401014110199448 -0.0037635954675290873 0 0.035718748685201446 -0.0034485948495385048 0 0.037434995890178444 -0.009518813833620559 0 0.037421813283634774 -0.011306359698993259 0 0.036848101907633518 -0.011032540504051572 0 0.036829177134737386 -0.0095283820815000274 0 0.037434995890178444 -0.009518813833620559 0 0.036848101907633518 -0.011032540504051572 0 0.034944955241564754 -0.0078515508962484631 0 0.034062864903445608 -0.0093692977961751106 0 0.036881831648483847 -0.0044641223673845603 0 0.036175256011901885 -0.0037666974889420694 0 0.036490490724950427 -0.0033226214770193311 0 0.036881831648483847 -0.0044641223673845603 0 0.03619993385038206 -0.0043101440567948858 0 0.036175256011901885 -0.0037666974889420694 0 0.036490490724950427 -0.0033226214770193311 0 0.035766525049048238 -0.0029509649446554887 0 0.036241029931482524 -0.0024798442191272608 0 0.034062864903445608 -0.0093692977961751106 0 0.032472611786297435 -0.013811035099228751 0 0.037421813283634774 -0.011306359698993259 0 0.036905598816914228 -0.012340191393193109 0 0.036848101907633518 -0.011032540504051572 0 0.036175256011901885 -0.0037666974889420694 0 0.036490490724950427 -0.0033226214770193311 0 0.036034278000543617 -0.0033628982967453354 0 0.036490490724950427 -0.0033226214770193311 0 0.036034278000543617 -0.0033628982967453354 0 0.035766525049048238 -0.0029509649446554887 0 0.035718748685201446 -0.0034485948495385048 0 0.035766525049048238 -0.0029509649446554887 0 0.035160801188633801 -0.0033093772893766494 0 0.036175256011901885 -0.0037666974889420694 0 0.036034278000543617 -0.0033628982967453354 0 0.035718748685201446 -0.0034485948495385048 0 0.036034278000543617 -0.0033628982967453354 0 0.035718748685201446 -0.0034485948495385048 0 0.035766525049048238 -0.0029509649446554887 0 0.03226857050331064 -0.014184988272471567 0 0.031668971156487306 -0.012716474667999975 0 0.028656850974352891 -0.019945201134408484 0 0.028375895862031722 -0.019855422637446333 0 0.02826415442815812 -0.020020626020331084 0 0.035766525049048238 -0.0029509649446554887 0 0.036148769125447955 -0.0024142338212105371 0 0.03497008749838304 -0.0024117975513501966 0 0.037421813283634774 -0.011306359698993259 0 0.036905598816914228 -0.012340191393193109 0 0.0375269380921536 -0.012866595028860259 0 0.033706725551470341 -0.013614409517413804 0 0.032472611786297435 -0.013811035099228751 0 0.033706725551470341 -0.013614409517413804 0 0.033363289213812215 -0.014414303555275435 0 0.035766525049048238 -0.0029509649446554887 0 0.036241029931482524 -0.0024798442191272608 0 0.036148769125447955 -0.0024142338212105371 0 0.032472611786297435 -0.013811035099228751 0 0.03226857050331064 -0.014184988272471567 0 0.034029583796791697 -0.01505579172461545 0 0.033830321678250966 -0.013753667857686627 0 0.032360616723622858 -0.013778022809154198 0 0.032472611786297435 -0.013811035099228751 0 0.0324044088411456 -0.014227475769854359 0 0.0324044088411456 -0.014227475769854359 0 0.03226857050331064 -0.014184988272471567 0 0.033638249762540137 -0.014190998880445234 0 0.033383319953181258 -0.014009228633144657 0 0.033611302486004968 -0.013963433773207462 0 0.0324044088411456 -0.014227475769854359 0 0.033363289213812215 -0.014414303555275435 0 0.033383319953181258 -0.014009228633144657 0 0.033376055529940871 -0.01396811415968313 0 0.033611302486004968 -0.013963433773207462 0 0.037136682188455845 -0.012911731363791626 0 0.036072514642851945 -0.012905606025195082 0 0.036567164772147644 -0.01370866200010231 0 0.033363289213812215 -0.014414303555275435 0 0.034807247265900204 -0.0135495929348276 0 0.037095278934555102 -0.012777082332185635 0 0.036061133003420759 -0.012797998601531644 0 0.036416158452702151 -0.012232313958975708 0 0.037050173846234033 -0.012222943602440715 0 0.037095278934555102 -0.012777082332185635 0 0.036416158452702151 -0.012232313958975708 0 0.033706725551470341 -0.013614409517413804 0 0.034429285229955559 -0.012030427630131808 0 0.033706725551470341 -0.013614409517413804 0 0.034367224078187854 -0.013193234176764306 0 0.036967818866772056 -0.012052022163369881 0 0.036140045017242065 -0.011373068342418587 0 0.036904211466426647 -0.010901577484262556 0 0.037050173846234033 -0.012222943602440715 0 0.036416158452702151 -0.012232313958975708 0 0.036281039150264691 -0.011563881310664227 0 0.036416158452702151 -0.012232313958975708 0 0.036281039150264691 -0.011563881310664227 0 0.035452159591625489 -0.011890860234002435 0 0.035976039949714649 -0.010772032547472036 0 0.036140045017242065 -0.011373068342418587 0 0.036346227518294805 -0.010821936326809034 0 0.036140045017242065 -0.011373068342418587 0 0.036346227518294805 -0.010821936326809034 0 0.036904211466426647 -0.010901577484262556 0 0.034999801683916046 -0.010817583347955923 0 0.035452159591625489 -0.011890860234002435 0 0.034999966262495352 -0.01285467595763852 0 0.034999801683916046 -0.010817583347955923 0 0.035416237228625733 -0.010824197086264515 0 0.035452159591625489 -0.011890860234002435 0 0.035416237228625733 -0.010824197086264515 0 0.036281039150264691 -0.011563881310664227 0 0.035452159591625489 -0.011890860234002435 0 0.034434955579571741 -0.012953738968435786 0 0.034367224078187854 -0.013193234176764306 0 0.035976039949714649 -0.010772032547472036 0 0.035416237228625733 -0.010824197086264515 0 0.036140045017242065 -0.011373068342418587 0 0.034807247265900204 -0.0135495929348276 0 0.034999973575153408 -0.012856772805545055 0 0.036061133003420759 -0.012797998601531644 0 0.035452159591625489 -0.011890860234002435 0 0.034999966262495352 -0.01285467595763852 0 0.036061133003420759 -0.012797998601531644 0 0.036416158452702151 -0.012232313958975708 0 0.035452159591625489 -0.011890860234002435 0 0.036072514642851945 -0.012905606025195082 0 0.034999964001574721 -0.012854911563830659 0 0.035866442399066084 -0.013920056404057383 0 0.034999964001574721 -0.012854911563830659 0 0.035866442399066084 -0.013920056404057383 0 0.034999953669369553 -0.014495995838431124 0 0.037136682188455845 -0.012911731363791626 0 0.036567164772147644 -0.01370866200010231 0 0.037312463145831566 -0.014500842214195351 0 0.036072514642851945 -0.012905606025195082 0 0.035866442399066084 -0.013920056404057383 0 0.036567164772147644 -0.01370866200010231 0 0.035866442399066084 -0.013920056404057383 0 0.036567164772147644 -0.01370866200010231 0 0.036511626403607757 -0.014503396187549937 0 0.036567164772147644 -0.01370866200010231 0 0.036511626403607757 -0.014503396187549937 0 0.037312463145831566 -0.014500842214195351 0 0.035866442399066084 -0.013920056404057383 0 0.036511626403607757 -0.014503396187549937 0 0.035890177162663621 -0.01512495307826159 0 0.036511626403607757 -0.014503396187549937 0 0.036785252861345236 -0.015324180948401198 0 0.037312463145831566 -0.014500842214195351 0 0.036511626403607757 -0.014503396187549937 0 0.036785252861345236 -0.015324180948401198 0 0.035890177162663621 -0.01512495307826159 0 0.034999953669369553 -0.014495995838431124 0 0.035890177162663621 -0.01512495307826159 0 0.0349999495322477 -0.016137259011824449 0 0.035866442399066084 -0.013920056404057383 0 0.034999953669369553 -0.014495995838431124 0 0.035890177162663621 -0.01512495307826159 0 0.035890177162663621 -0.01512495307826159 0 0.0349999495322477 -0.016137259011824449 0 0.036089605931057214 -0.016620906181433477 0 0.036785252861345236 -0.015324180948401198 0 0.036089605931057214 -0.016620906181433477 0 0.0374560253869771 -0.016131323811829166 0 0.036785252861345236 -0.015324180948401198 0 0.035890177162663621 -0.01512495307826159 0 0.036089605931057214 -0.016620906181433477 0 0.035861087178500749 -0.017824695273984486 0 0.036618421543714169 -0.017707736795487414 0 0.036089605931057214 -0.016620906181433477 0 0.036618421543714169 -0.017707736795487414 0 0.036089605931057214 -0.016620906181433477 0 0.0374560253869771 -0.016131323811829166 0 0.03499996458451398 -0.017778454796563023 0 0.0349999495322477 -0.016137259011824449 0 0.036089605931057214 -0.016620906181433477 0 0.03499996458451398 -0.017778454796563023 0 0.035861087178500749 -0.017824695273984486 0 0.036089605931057214 -0.016620906181433477 0 0.028100311461817611 -0.019895577376956724 0 0.028132433908558397 -0.019887046466274708 0 0.028084824068139971 -0.019898132455016506 0 0.028132433908558397 -0.019887046466274708 0 0.028145715259313073 -0.01984397534957431 0 0.028084824068139971 -0.019898132455016506 0 0.033240895089478084 -0.018636539893569185 0 0.033134152737788136 -0.017794044493764021 0 0.028164763253250253 -0.019888665958276396 0 0.028132433908558397 -0.019887046466274708 0 0.028132516651913467 -0.019859744990412202 0 0.037558476819579918 -0.017727796103542748 0 0.036618421543714169 -0.017707736795487414 0 0.0374560253869771 -0.016131323811829166 0 0.028132433908558397 -0.019887046466274708 0 0.028132516651913467 -0.019859744990412202 0 0.028145715259313073 -0.01984397534957431 0 0.028132516651913467 -0.019859744990412202 0 0.028145715259313073 -0.01984397534957431 0 0.028161318920099241 -0.019772409584777186 0 0.028145715259313073 -0.01984397534957431 0 0.028179891608268864 -0.019759160580674538 0 0.028161318920099241 -0.019772409584777186 0 0.028179891608268864 -0.019759160580674538 0 0.028161318920099241 -0.019772409584777186 0 0.028212168905295223 -0.019655217635316549 0 0.028132516651913467 -0.019859744990412202 0 0.028161318920099241 -0.019772409584777186 0 0.028044771368065827 -0.019686335119096367 0 0.036785252861345236 -0.015324180948401198 0 0.0374560253869771 -0.016131323811829166 0 0.037312463145831566 -0.014500842214195351 0 0.033134152737788136 -0.017794044493764021 0 0.033169617221001306 -0.016606993881346684 0 0.028161318920099241 -0.019772409584777186 0 0.028212168905295223 -0.019655217635316549 0 0.028044771368065827 -0.019686335119096367 0 0.028253627014791591 -0.019601035827684962 0 0.02825243448563413 -0.019604496397467207 0 0.028212168905295223 -0.019655217635316549 0 0.0324044088411456 -0.014227475769854359 0 0.031948076945247157 -0.016580876469069989 0 0.02800903308658903 -0.018953953107247394 0 0.028212168905295223 -0.019655217635316549 0 0.028044771368065827 -0.019686335119096367 0 0.028250843538228966 -0.018943702962772594 0 0.02800903308658903 -0.018953953107247394 0 0.028212168905295223 -0.019655217635316549 0 0.033363289213812215 -0.014414303555275435 0 0.033169617221001306 -0.016606993881346684 0 0.03226857050331064 -0.014184988272471567 0 0.030965942358398883 -0.016152116254749365 0 0.02825243448563413 -0.019604496397467207 0 0.028212168905295223 -0.019655217635316549 0 0.028204693931988462 -0.01969400269921075 0 0.028179891608268864 -0.019759160580674538 0 0.028212168905295223 -0.019655217635316549 0 0.028204693931988462 -0.01969400269921075 0 0.030965942358398883 -0.016152116254749365 0 0.030540591030083039 -0.016720714642308274 0 0.028375895862031722 -0.019855422637446333 0 0.028126130900119832 -0.01994277928832049 0 0.02826415442815812 -0.020020626020331084 0 0.028375895862031722 -0.019855422637446333 0 0.028126130900119832 -0.01994277928832049 0 0.02812437725592179 -0.019848500326404225 0 0.028126130900119832 -0.01994277928832049 0 0.02812437725592179 -0.019848500326404225 0 0.027956590371052779 -0.019942185089130805 0 0.028126130900119832 -0.01994277928832049 0 0.027956590371052779 -0.019942185089130805 0 0.027983223031694673 -0.020046852420771335 0 0.02812437725592179 -0.019848500326404225 0 0.027941414450671338 -0.019928332195978272 0 0.027956590371052779 -0.019942185089130805 0 0.028179891608268864 -0.019759160580674538 0 0.028204693931988462 -0.01969400269921075 0 0.02812437725592179 -0.019848500326404225 0 0.028145715259313073 -0.01984397534957431 0 0.028179891608268864 -0.019759160580674538 0 0.02812437725592179 -0.019848500326404225 0 0.028145715259313073 -0.01984397534957431 0 0.02812437725592179 -0.019848500326404225 0 0.028076340256959802 -0.019884236063313309 0 0.028145715259313073 -0.01984397534957431 0 0.028076340256959802 -0.019884236063313309 0 0.028084824068139971 -0.019898132455016506 0 0.02812437725592179 -0.019848500326404225 0 0.028076340256959802 -0.019884236063313309 0 0.027941414450671338 -0.019928332195978272 0 0.028076340256959802 -0.019884236063313309 0 0.027941414450671338 -0.019928332195978272 0 0.028008853051452853 -0.019915548427140977 0 0.02801386710629648 -0.019916614474802512 0 0.028008853051452853 -0.019915548427140977 0 0.027927563731093581 -0.019946633824780829 0 0.027941414450671338 -0.019928332195978272 0 0.028008853051452853 -0.019915548427140977 0 0.027927563731093581 -0.019946633824780829 0 0.02801386710629648 -0.019916614474802512 0 0.028008853051452853 -0.019915548427140977 0 0.028084824068139971 -0.019898132455016506 0 0.028076340256959802 -0.019884236063313309 0 0.028008853051452853 -0.019915548427140977 0 0.028084824068139971 -0.019898132455016506 0 0.027678888059736544 -0.02004657464293123 0 0.027829137093216987 -0.019978883172031333 0 0.027755440469962565 -0.019991422273558462 0 0.027795552295882285 -0.01999888460392869 0 0.027678888059736544 -0.02004657464293123 0 0.027829137093216987 -0.019978883172031333 0 0.02761231067956323 -0.020058560059472635 0 0.027795552295882285 -0.01999888460392869 0 0.027678888059736544 -0.02004657464293123 0 0.027795552295882285 -0.01999888460392869 0 0.027927563731093581 -0.019946633824780829 0 0.027829137093216987 -0.019978883172031333 0 0.027941414450671338 -0.019928332195978272 0 0.027927563731093581 -0.019946633824780829 0 0.027829137093216987 -0.019978883172031333 0 0.027941414450671338 -0.019928332195978272 0 0.027755440469962565 -0.019991422273558462 0 0.027795334517594181 -0.019964879593576793 0 0.027941414450671338 -0.019928332195978272 0 0.027829137093216987 -0.019978883172031333 0 0.027755440469962565 -0.019991422273558462 0 0.027755440469962565 -0.019991422273558462 0 0.027681060142420225 -0.019980154003233167 0 0.027589212395295718 -0.020092303116088533 0 0.027678888059736544 -0.02004657464293123 0 0.027755440469962565 -0.019991422273558462 0 0.027589212395295718 -0.020092303116088533 0 0.027755440469962565 -0.019991422273558462 0 0.027681060142420225 -0.019980154003233167 0 0.027795334517594181 -0.019964879593576793 0 0.027681060142420225 -0.019980154003233167 0 0.027795334517594181 -0.019964879593576793 0 0.027651753166610973 -0.019949784379939037 0 0.027795334517594181 -0.019964879593576793 0 0.027689955934559234 -0.019993689773258827 0 0.027651753166610973 -0.019949784379939037 0 0.027941414450671338 -0.019928332195978272 0 0.027795334517594181 -0.019964879593576793 0 0.027956590371052779 -0.019942185089130805 0 0.027956590371052779 -0.019942185089130805 0 0.027836452865164174 -0.019999427700429267 0 0.027983223031694673 -0.020046852420771335 0 0.027795334517594181 -0.019964879593576793 0 0.027956590371052779 -0.019942185089130805 0 0.027836452865164174 -0.019999427700429267 0 0.027795334517594181 -0.019964879593576793 0 0.027836452865164174 -0.019999427700429267 0 0.027689955934559234 -0.019993689773258827 0 0.027836452865164174 -0.019999427700429267 0 0.027770229275763822 -0.02006730769434124 0 0.027689955934559234 -0.019993689773258827 0 0.033480734848461924 -0.002788434660145602 0 0.033633052234056618 -0.0029580888016966993 0 0.033408034228605339 -0.0029570781989326262 0 0.033633052234056618 -0.0029580888016966993 0 0.033480024465721576 -0.0030635106808943042 0 0.033590788111642303 -0.0031162726712791865 0 0.033633052234056618 -0.0029580888016966993 0 0.033480024465721576 -0.0030635106808943042 0 0.033408034228605339 -0.0029570781989326262 0 0.033633052234056618 -0.0029580888016966993 0 0.034087298281555649 -0.0029371472078217591 0 0.03386295322798992 -0.0031260687438186348 0 0.033633052234056618 -0.0029580888016966993 0 0.033976632570775836 -0.0025662502358718697 0 0.034087298281555649 -0.0029371472078217591 0 0.033633052234056618 -0.0029580888016966993 0 0.033590788111642303 -0.0031162726712791865 0 0.03386295322798992 -0.0031260687438186348 0 0.033480734848461924 -0.002788434660145602 0 0.033633052234056618 -0.0029580888016966993 0 0.033976632570775836 -0.0025662502358718697 0 0.03052009786552775 -0.011872952887172864 0 0.031083203019987404 -0.012080211282959294 0 0.027836452865164174 -0.019999427700429267 0 0.027770229275763822 -0.02006730769434124 0 0.027983223031694673 -0.020046852420771335 0 0.031083203019987404 -0.012080211282959294 0 0.031668971156487306 -0.012716474667999975 0 0.033976632570775836 -0.0025662502358718697 0 0.03469022340795043 -0.0028778025149472216 0 0.034087298281555649 -0.0029371472078217591 0 0.028126130900119832 -0.01994277928832049 0 0.027983223031694673 -0.020046852420771335 0 0.02826415442815812 -0.020020626020331084 0 0.033976632570775836 -0.0025662502358718697 0 0.03497008749838304 -0.0024117975513501966 0 0.03469022340795043 -0.0028778025149472216 0 0.035766525049048238 -0.0029509649446554887 0 0.03497008749838304 -0.0024117975513501966 0 0.03469022340795043 -0.0028778025149472216 0 0.035766525049048238 -0.0029509649446554887 0 0.03469022340795043 -0.0028778025149472216 0 0.035160801188633801 -0.0033093772893766494 0 0.03469022340795043 -0.0028778025149472216 0 0.035160801188633801 -0.0033093772893766494 0 0.034434183424970781 -0.0032467672277697334 0 0.03469022340795043 -0.0028778025149472216 0 0.034087298281555649 -0.0029371472078217591 0 0.034434183424970781 -0.0032467672277697334 0 0.034087298281555649 -0.0029371472078217591 0 0.034434183424970781 -0.0032467672277697334 0 0.03386295322798992 -0.0031260687438186348 0 0.034434183424970781 -0.0032467672277697334 0 0.034091459380257011 -0.0033271753207153643 0 0.03386295322798992 -0.0031260687438186348 0 0.034434183424970781 -0.0032467672277697334 0 0.03445596114208789 -0.0035289544997592738 0 0.03495821873368115 -0.0037557316284234955 0 0.034434183424970781 -0.0032467672277697334 0 0.03445596114208789 -0.0035289544997592738 0 0.034091459380257011 -0.0033271753207153643 0 0.03445596114208789 -0.0035289544997592738 0 0.034091459380257011 -0.0033271753207153643 0 0.034146698091169672 -0.0035297151247071835 0 0.035160801188633801 -0.0033093772893766494 0 0.034434183424970781 -0.0032467672277697334 0 0.03495821873368115 -0.0037557316284234955 0 0.035401014110199448 -0.0037635954675290873 0 0.035160801188633801 -0.0033093772893766494 0 0.03495821873368115 -0.0037557316284234955 0 0.03445596114208789 -0.0035289544997592738 0 0.03495821873368115 -0.0037557316284234955 0 0.034703806022102525 -0.003949194346246656 0 0.03556000690525396 -0.0043019344836736362 0 0.035401014110199448 -0.0037635954675290873 0 0.03495821873368115 -0.0037557316284234955 0 0.03517974514510265 -0.0042810867621306753 0 0.035135112052921302 -0.0046101910699932044 0 0.035778837730421405 -0.005131498284787428 0 0.03556000690525396 -0.0043019344836736362 0 0.03495821873368115 -0.0037557316284234955 0 0.03517974514510265 -0.0042810867621306753 0 0.03495821873368115 -0.0037557316284234955 0 0.03517974514510265 -0.0042810867621306753 0 0.034703806022102525 -0.003949194346246656 0 0.03517974514510265 -0.0042810867621306753 0 0.034703806022102525 -0.003949194346246656 0 0.035135112052921302 -0.0046101910699932044 0 0.034146698091169672 -0.0035297151247071835 0 0.034703806022102525 -0.003949194346246656 0 0.034327669971586289 -0.0040363213923703825 0 0.03445596114208789 -0.0035289544997592738 0 0.034146698091169672 -0.0035297151247071835 0 0.034703806022102525 -0.003949194346246656 0 0.034703806022102525 -0.003949194346246656 0 0.034327669971586289 -0.0040363213923703825 0 0.035135112052921302 -0.0046101910699932044 0 0.034146698091169672 -0.0035297151247071835 0 0.034327669971586289 -0.0040363213923703825 0 0.033775015999767594 -0.0033457429293957618 0 0.033199993121044914 -0.0028675030287439222 0 0.03351414655468736 -0.0031010999644805639 0 0.033596526018496144 -0.0032060353048270168 0 0.034327669971586289 -0.0040363213923703825 0 0.033775015999767594 -0.0033457429293957618 0 0.033199993121044914 -0.0028675030287439222 0 0.033775015999767594 -0.0033457429293957618 0 0.033199993121044914 -0.0028675030287439222 0 0.033596526018496144 -0.0032060353048270168 0 0.034146698091169672 -0.0035297151247071835 0 0.033775015999767594 -0.0033457429293957618 0 0.033596526018496144 -0.0032060353048270168 0 0.033199993121044914 -0.0028675030287439222 0 0.03351414655468736 -0.0031010999644805639 0 0.033712903033510336 -0.0028809894143049905 0 0.033199993121044914 -0.0028675030287439222 0 0.033712903033510336 -0.0028809894143049905 0 0.033199294366222765 -0.0017708202429771857 0 0.03351414655468736 -0.0031010999644805639 0 0.033590788111642303 -0.0031162726712791865 0 0.033596526018496144 -0.0032060353048270168 0 0.03351414655468736 -0.0031010999644805639 0 0.033480024465721576 -0.0030635106808943042 0 0.033590788111642303 -0.0031162726712791865 0 0.033590788111642303 -0.0031162726712791865 0 0.03386295322798992 -0.0031260687438186348 0 0.033596526018496144 -0.0032060353048270168 0 0.034091459380257011 -0.0033271753207153643 0 0.03386295322798992 -0.0031260687438186348 0 0.033596526018496144 -0.0032060353048270168 0 0.034091459380257011 -0.0033271753207153643 0 0.034146698091169672 -0.0035297151247071835 0 0.033596526018496144 -0.0032060353048270168 0 0.033267176094186397 -0.0030595919133225634 0 0.03334307769158127 -0.0030145094345664977 0 0.033498894763816713 -0.003035910120206401 0 0.033267176094186397 -0.0030595919133225634 0 0.03334307769158127 -0.0030145094345664977 0 0.033207322398094194 -0.0030217456636032914 0 0.03351414655468736 -0.0031010999644805639 0 0.033480024465721576 -0.0030635106808943042 0 0.033498894763816713 -0.003035910120206401 0 0.033480024465721576 -0.0030635106808943042 0 0.03334307769158127 -0.0030145094345664977 0 0.033498894763816713 -0.003035910120206401 0 0.033498894763816713 -0.003035910120206401 0 0.033712903033510336 -0.0028809894143049905 0 0.033339909418563914 -0.0031370404428210773 0 0.032089346738982297 -0.0017419024614110088 0 0.031367399816281984 -0.001884580778992753 0 0.03351414655468736 -0.0031010999644805639 0 0.033498894763816713 -0.003035910120206401 0 0.033712903033510336 -0.0028809894143049905 0 0.033267176094186397 -0.0030595919133225634 0 0.033498894763816713 -0.003035910120206401 0 0.033339909418563914 -0.0031370404428210773 0 0.031367399816281984 -0.001884580778992753 0 0.029645457235963749 -0.0022502627523723786 0 0.033267176094186397 -0.0030595919133225634 0 0.033339909418563914 -0.0031370404428210773 0 0.033083264902051067 -0.0031396235690468333 0 0.030812639823439954 0.00098186097199939523 0 0.029048118712181374 0.0013427769965680459 0 0.030247697743098465 0.00011681456562435169 0 0.028723069899556104 0.00011334272706454903 0 0.02855595924889193 -4.3762066694577269e-05 0 0.028536996568670276 -0.00035924792329216618 0 0.028723069899556104 0.00011334272706454903 0 0.028536996568670276 -0.00035924792329216618 0 0.02897669738488411 0.00026470479942234645 0 0.028723069899556104 0.00011334272706454903 0 0.02855595924889193 -4.3762066694577269e-05 0 0.02888067463537216 0.0004239303167625237 0 0.029645457235963749 -0.0022502627523723786 0 0.029636295519080001 -0.0017323890882330547 0 0.026688653484955697 -0.00014735621320759382 0 0.028536996568670276 -0.00035924792329216618 0 0.027370096986909915 -0.0014317612080775714 0 0.029645457235963749 -0.0022502627523723786 0 0.029316829194874744 -0.0020770670139973798 0 0.027370096986909915 -0.0014317612080775714 0 0.027031727163602765 -0.0029495435007894752 0 0.029622389319014834 -0.0010546009245890841 0 0.026688653484955697 -0.00014735621320759382 0 0.027370096986909915 -0.0014317612080775714 0 0.026470400683463374 -0.0033973465658491343 0 0.029645457235963749 -0.0022502627523723786 0 0.02811938218129607 -0.0047222666512750115 0 0.027370096986909915 -0.0014317612080775714 0 0.027031727163602765 -0.0029495435007894752 0 0.026470400683463374 -0.0033973465658491343 0 0.027031727163602765 -0.0029495435007894752 0 0.026646175559259289 -0.0033309810674641712 0 0.026369546331533145 -0.0035991041140594564 0 0.033267176094186397 -0.0030595919133225634 0 0.033083264902051067 -0.0031396235690468333 0 0.033166579507717349 -0.0030565286834505745 0 0.033083264902051067 -0.0031396235690468333 0 0.033166579507717349 -0.0030565286834505745 0 0.03310200657226 -0.003017481264666251 0 0.033166579507717349 -0.0030565286834505745 0 0.033207322398094194 -0.0030217456636032914 0 0.03310200657226 -0.003017481264666251 0 0.033267176094186397 -0.0030595919133225634 0 0.033166579507717349 -0.0030565286834505745 0 0.033207322398094194 -0.0030217456636032914 0 0.02811938218129607 -0.0047222666512750115 0 0.025334764324498292 -0.012261709881385403 0 0.033207322398094194 -0.0030217456636032914 0 0.03310200657226 -0.003017481264666251 0 0.033187334062327552 -0.0029801223028132753 0 0.03310200657226 -0.003017481264666251 0 0.033187334062327552 -0.0029801223028132753 0 0.033060083708852155 -0.0029750722524485621 0 0.026470400683463374 -0.0033973465658491343 0 0.026590239769286837 -0.0033241051520260362 0 0.02666162542208262 -0.003303326155476803 0 0.026646175559259289 -0.0033309810674641712 0 0.026577123915136378 -0.0033134519773112079 0 0.02635159984575209 -0.0033490802254839171 0 0.027031727163602765 -0.0029495435007894752 0 0.026646175559259289 -0.0033309810674641712 0 0.026695163212286915 -0.0033295120070227454 0 0.026646175559259289 -0.0033309810674641712 0 0.026695163212286915 -0.0033295120070227454 0 0.026577123915136378 -0.0033134519773112079 0 0.026470400683463374 -0.0033973465658491343 0 0.026695163212286915 -0.0033295120070227454 0 0.026590239769286837 -0.0033241051520260362 0 0.027031727163602765 -0.0029495435007894752 0 0.026470400683463374 -0.0033973465658491343 0 0.026695163212286915 -0.0033295120070227454 0 0.026577123915136378 -0.0033134519773112079 0 0.0263778293370741 -0.0031568379933423706 0 0.02635159984575209 -0.0033490802254839171 0 0.026590239769286837 -0.0033241051520260362 0 0.026577123915136378 -0.0033134519773112079 0 0.0263778293370741 -0.0031568379933423706 0 0.026695163212286915 -0.0033295120070227454 0 0.026590239769286837 -0.0033241051520260362 0 0.026577123915136378 -0.0033134519773112079 0 0.023232292798690511 -0.013389254182382654 0 0.024240630154961178 -0.012035761757594968 0 0.026590239769286837 -0.0033241051520260362 0 0.026517832872910256 -0.0032261481682349952 0 0.0263778293370741 -0.0031568379933423706 0 0.026590239769286837 -0.0033241051520260362 0 0.026517832872910256 -0.0032261481682349952 0 0.02666162542208262 -0.003303326155476803 0 0.023232292798690511 -0.013389254182382654 0 0.021301954778533177 -0.018638122818363131 0 0.023232292798690511 -0.013389254182382654 0 0.025334764324498292 -0.012261709881385403 0 0.023681966582114064 -0.013688994688946247 0 0.024190239536175266 -0.013701250278839314 0 0.024227982925027373 -0.013207394588551457 0 0.025334764324498292 -0.012261709881385403 0 0.029434549183171396 -0.011926030804375728 0 0.027110637175468771 -0.020069718680867061 0 0.027518359835367056 -0.020084557190059683 0 0.027208709041265555 -0.01995668996644185 0 0.033187334062327552 -0.0029801223028132753 0 0.033060083708852155 -0.0029750722524485621 0 0.033264357863800331 -0.0029106604899542402 0 0.025334764324498292 -0.012261709881385403 0 0.021301954778533177 -0.018638122818363131 0 0.03334307769158127 -0.0030145094345664977 0 0.033187334062327552 -0.0029801223028132753 0 0.033264357863800331 -0.0029106604899542402 0 0.03334307769158127 -0.0030145094345664977 0 0.033207322398094194 -0.0030217456636032914 0 0.033187334062327552 -0.0029801223028132753 0 0.033480024465721576 -0.0030635106808943042 0 0.03334307769158127 -0.0030145094345664977 0 0.033408034228605339 -0.0029570781989326262 0 0.03334307769158127 -0.0030145094345664977 0 0.033264357863800331 -0.0029106604899542402 0 0.033408034228605339 -0.0029570781989326262 0 0.03052009786552775 -0.011872952887172864 0 0.029434549183171396 -0.011926030804375728 0 0.027770229275763822 -0.02006730769434124 0 0.027518359835367056 -0.020084557190059683 0 0.027689955934559234 -0.019993689773258827 0 0.033480734848461924 -0.002788434660145602 0 0.033264357863800331 -0.0029106604899542402 0 0.033408034228605339 -0.0029570781989326262 0 0.027518359835367056 -0.020084557190059683 0 0.027689955934559234 -0.019993689773258827 0 0.027543438732263406 -0.019954737856357943 0 0.027689955934559234 -0.019993689773258827 0 0.027543438732263406 -0.019954737856357943 0 0.027651753166610973 -0.019949784379939037 0 0.027518359835367056 -0.020084557190059683 0 0.027407867247083738 -0.01996566914805413 0 0.027208709041265555 -0.01995668996644185 0 0.027518359835367056 -0.020084557190059683 0 0.027407867247083738 -0.01996566914805413 0 0.027543438732263406 -0.019954737856357943 0 0.027407867247083738 -0.01996566914805413 0 0.027543438732263406 -0.019954737856357943 0 0.027358462772175272 -0.019879770300098704 0 0.027358462772175272 -0.019879770300098704 0 0.02759078178055243 -0.01991082911758334 0 0.027527410574610847 -0.019823542091574751 0 0.027543438732263406 -0.019954737856357943 0 0.027358462772175272 -0.019879770300098704 0 0.02759078178055243 -0.01991082911758334 0 0.023954452926176845 -0.020962269171223416 0 0.023821564565490803 -0.02092802943106814 0 0.015157894676521474 -0.021470538990747919 0 0.014595872896132204 -0.022147525006719505 0 0.015080249926641032 -0.022266694768781854 0 0.022132871610472435 -0.020192224164947759 0 0.023821564565490803 -0.02092802943106814 0 0.027543438732263406 -0.019954737856357943 0 0.027651753166610973 -0.019949784379939037 0 0.02759078178055243 -0.01991082911758334 0 0.02759078178055243 -0.01991082911758334 0 0.027618967054131985 -0.019988032824375685 0 0.027652380316268658 -0.019976187039569167 0 0.027651753166610973 -0.019949784379939037 0 0.02759078178055243 -0.01991082911758334 0 0.027618967054131985 -0.019988032824375685 0 0.027681060142420225 -0.019980154003233167 0 0.027651753166610973 -0.019949784379939037 0 0.027618967054131985 -0.019988032824375685 0 0.027681060142420225 -0.019980154003233167 0 0.027589212395295718 -0.020092303116088533 0 0.027618967054131985 -0.019988032824375685 0 0.027589212395295718 -0.020092303116088533 0 0.027401146428974597 -0.02028224413141903 0 0.027435662471428507 -0.020129875300516603 0 0.027589212395295718 -0.020092303116088533 0 0.027618967054131985 -0.019988032824375685 0 0.027652380316268658 -0.019976187039569167 0 0.024686683782419783 -0.020337984905293132 0 0.023821564565490803 -0.02092802943106814 0 0.014595872896132204 -0.022147525006719505 0 0.015080249926641032 -0.022266694768781854 0 0.014970477747648935 -0.023046132586553657 0 0.023821564565490803 -0.02092802943106814 0 0.021975722293505903 -0.021366502071143829 0 0.027401146428974597 -0.02028224413141903 0 0.027435662471428507 -0.020129875300516603 0 0.027296033075290591 -0.020106473917005846 0 0.027435662471428507 -0.020129875300516603 0 0.027296033075290591 -0.020106473917005846 0 0.027451322919427191 -0.020092740292826237 0 0.027282533625614287 -0.020097947173395022 0 0.027296033075290591 -0.020106473917005846 0 0.027451322919427191 -0.020092740292826237 0 0.02761231067956323 -0.020058560059472635 0 0.027678888059736544 -0.02004657464293123 0 0.027451322919427191 -0.020092740292826237 0 0.027678888059736544 -0.02004657464293123 0 0.027589212395295718 -0.020092303116088533 0 0.027451322919427191 -0.020092740292826237 0 0.027589212395295718 -0.020092303116088533 0 0.027435662471428507 -0.020129875300516603 0 0.027451322919427191 -0.020092740292826237 0 0.014844148979086263 -0.023419447228970103 0 0.014743110386169338 -0.023437648625347085 0 0.014661292578637266 -0.023427556741147888 0 0.014844148979086263 -0.023419447228970103 0 0.014743110386169338 -0.023437648625347085 0 0.014868104255671167 -0.023388138931465442 0 0.014855722863503538 -0.023420384448927641 0 0.014743110386169338 -0.023437648625347085 0 0.014868104255671167 -0.023388138931465442 0 0.017379435021596067 -0.022901388264998889 0 0.018192897405010851 -0.022271009931086872 0 0.014855722863503538 -0.023420384448927641 0 0.014868104255671167 -0.023388138931465442 0 0.015006865687715054 -0.023305417910227465 0 0.020704027095166153 -0.022068162309283663 0 0.021975722293505903 -0.021366502071143829 0 0.014844148979086263 -0.023419447228970103 0 0.014868104255671167 -0.023388138931465442 0 0.015006865687715054 -0.023305417910227465 0 0.014964782970798412 -0.023457817503311478 0 0.014970477747648935 -0.023046132586553657 0 0.015006865687715054 -0.023305417910227465 0 0.014844148979086263 -0.023419447228970103 0 0.015006865687715054 -0.023305417910227465 0 0.014892151215612126 -0.0234658830226636 0 0.014970477747648935 -0.023046132586553657 0 0.015006865687715054 -0.023305417910227465 0 0.015602061449956564 -0.022293370617596116 0 0.015080249926641032 -0.022266694768781854 0 0.014970477747648935 -0.023046132586553657 0 0.015602061449956564 -0.022293370617596116 0 0.014844148979086263 -0.023419447228970103 0 0.014805058885368717 -0.023456177872980096 0 0.014661292578637266 -0.023427556741147888 0 0.014844148979086263 -0.023419447228970103 0 0.014892151215612126 -0.0234658830226636 0 0.014805058885368717 -0.023456177872980096 0 0.014805058885368717 -0.023456177872980096 0 0.014856956404800954 -0.023471655986362579 0 0.014775602956212937 -0.02348056909557476 0 0.014892151215612126 -0.0234658830226636 0 0.014805058885368717 -0.023456177872980096 0 0.014856956404800954 -0.023471655986362579 0 0.014892151215612126 -0.0234658830226636 0 0.014856956404800954 -0.023471655986362579 0 0.014927373560244855 -0.023475785006962513 0 0.018192897405010851 -0.022271009931086872 0 0.021301954778533177 -0.018638122818363131 0 0.015157894676521474 -0.021470538990747919 0 0.015602061449956564 -0.022293370617596116 0 0.015940257891998696 -0.020708679421874134 0 0.015157894676521474 -0.021470538990747919 0 0.015080249926641032 -0.022266694768781854 0 0.015602061449956564 -0.022293370617596116 0 0.027358462772175272 -0.019879770300098704 0 0.027142682947403022 -0.019937329900532822 0 0.027208709041265555 -0.01995668996644185 0 0.022132871610472435 -0.020192224164947759 0 0.021301954778533177 -0.018638122818363131 0 0.027407867247083738 -0.01996566914805413 0 0.027358462772175272 -0.019879770300098704 0 0.027208709041265555 -0.01995668996644185 0 0.027110637175468771 -0.020069718680867061 0 0.027115948057003205 -0.019924203557450747 0 0.027208709041265555 -0.01995668996644185 0 0.021301954778533177 -0.018638122818363131 0 0.021506853549253305 -0.01869237675463992 0 0.018070610444074962 -0.024212496441556073 0 0.018901745577078778 -0.023405430545474795 0 0.017322858819201307 -0.023097040121463103 0 0.014856956404800954 -0.023471655986362579 0 0.014927373560244855 -0.023475785006962513 0 0.014775602956212937 -0.02348056909557476 0 0.021301954778533177 -0.018638122818363131 0 0.017537403892724786 -0.02065353267440817 0 0.014775602956212937 -0.02348056909557476 0 0.014635517617639123 -0.02340689502907467 0 0.014661292578637266 -0.023427556741147888 0 0.014805058885368717 -0.023456177872980096 0 0.014775602956212937 -0.02348056909557476 0 0.014661292578637266 -0.023427556741147888 0 0.017322858819201307 -0.023097040121463103 0 0.015887715930933029 -0.022963075107557171 0 0.016385770883366929 -0.024232883335899454 0 0.015887715930933029 -0.022963075107557171 0 0.015409863483585138 -0.023637336278282742 0 0.016385770883366929 -0.024232883335899454 0 0.017537403892724786 -0.02065353267440817 0 0.016134048811895629 -0.021654760051475309 0 0.014635517617639123 -0.02340689502907467 0 0.014661292578637266 -0.023427556741147888 0 0.014609902525876645 -0.023392589694221592 0 0.014661292578637266 -0.023427556741147888 0 0.014587369424732325 -0.023420342089978879 0 0.014609902525876645 -0.023392589694221592 0 0.014511564314382089 -0.023442425771973276 0 0.014661292578637266 -0.023427556741147888 0 0.014587369424732325 -0.023420342089978879 0 0.01448375229426699 -0.023569424369759194 0 0.014509691362216004 -0.023518430989351625 0 0.014587392378616174 -0.023471405331797705 0 0.014541158486137433 -0.02350709259334385 0 0.014661292578637266 -0.023427556741147888 0 0.014587392378616174 -0.023471405331797705 0 0.014743110386169338 -0.023437648625347085 0 0.014661292578637266 -0.023427556741147888 0 0.01452815935573676 -0.023457350627018286 0 0.014573434583194966 -0.023419839930637235 0 0.014573253774673667 -0.023419586692660425 0 0.014573434583194966 -0.023419839930637235 0 0.014630665434058403 -0.023371412113046761 0 0.014573253774673667 -0.023419586692660425 0 0.014533458709736179 -0.023478768272770015 0 0.01452815935573676 -0.023457350627018286 0 0.014573253774673667 -0.023419586692660425 0 0.014511564314382089 -0.023442425771973276 0 0.014587369424732325 -0.023420342089978879 0 0.014573434583194966 -0.023419839930637235 0 0.01452815935573676 -0.023457350627018286 0 0.014511564314382089 -0.023442425771973276 0 0.014573434583194966 -0.023419839930637235 0 0.014573434583194966 -0.023419839930637235 0 0.014609902525876645 -0.023392589694221592 0 0.014630665434058403 -0.023371412113046761 0 0.014587369424732325 -0.023420342089978879 0 0.014573434583194966 -0.023419839930637235 0 0.014609902525876645 -0.023392589694221592 0 0.014630665434058403 -0.023371412113046761 0 0.014604430672541658 -0.023353731209059127 0 0.014573253774673667 -0.023419586692660425 0 0.014609902525876645 -0.023392589694221592 0 0.014630665434058403 -0.023371412113046761 0 0.0147383701337342 -0.023254640302100713 0 0.014630665434058403 -0.023371412113046761 0 0.0147383701337342 -0.023254640302100713 0 0.014604430672541658 -0.023353731209059127 0 0.0147383701337342 -0.023254640302100713 0 0.014853315146026034 -0.023521693924793679 0 0.014568779203980078 -0.023346562616734585 0 0.0147383701337342 -0.023254640302100713 0 0.015087717582723046 -0.023426478623202917 0 0.014853315146026034 -0.023521693924793679 0 0.016134048811895629 -0.021654760051475309 0 0.015702058772352926 -0.021946444105273306 0 0.014635517617639123 -0.02340689502907467 0 0.014609902525876645 -0.023392589694221592 0 0.0147383701337342 -0.023254640302100713 0 0.015887715930933029 -0.022963075107557171 0 0.0147383701337342 -0.023254640302100713 0 0.015087717582723046 -0.023426478623202917 0 0.015887715930933029 -0.022963075107557171 0 0.015087717582723046 -0.023426478623202917 0 0.015409863483585138 -0.023637336278282742 0 0.015087717582723046 -0.023426478623202917 0 0.015409863483585138 -0.023637336278282742 0 0.015054591302597247 -0.023723816272675412 0 0.015409863483585138 -0.023637336278282742 0 0.015054591302597247 -0.023723816272675412 0 0.015071166328930538 -0.024142759719365234 0 0.014853315146026034 -0.023521693924793679 0 0.014911771042726139 -0.023996931655508598 0 0.014568779203980078 -0.023346562616734585 0 0.016899207522008308 -0.01853853217962104 0 0.015757996888222606 -0.02054045627649034 0 0.014853315146026034 -0.023521693924793679 0 0.015054591302597247 -0.023723816272675412 0 0.014911771042726139 -0.023996931655508598 0 0.016899207522008308 -0.01853853217962104 0 0.015928632345428736 -0.021908039845053958 0 0.015087717582723046 -0.023426478623202917 0 0.014853315146026034 -0.023521693924793679 0 0.015054591302597247 -0.023723816272675412 0 0.01743068857202654 -0.016994856276870012 0 0.017759790264912197 -0.014757708612010664 0 0.023527220183291241 -0.0026926241931079882 0 0.023294961129059225 -0.0032560834470723552 0 0.02187210374015032 -0.0027922343981464206 0 0.014448773342888381 -0.022778587254484579 0 0.014513922842214259 -0.022798299522117076 0 0.014140240669607798 -0.022875086138524091 0 0.015054591302597247 -0.023723816272675412 0 0.014911771042726139 -0.023996931655508598 0 0.015071166328930538 -0.024142759719365234 0 0.016899207522008308 -0.01853853217962104 0 0.01743068857202654 -0.016994856276870012 0 0.023527220183291241 -0.0026926241931079882 0 0.023294961129059225 -0.0032560834470723552 0 0.023826617651841794 -0.0028527989536169212 0 0.023294961129059225 -0.0032560834470723552 0 0.023881649139807254 -0.00367490413983997 0 0.022864960159649537 -0.0042781987005746022 0 0.023294961129059225 -0.0032560834470723552 0 0.022864960159649537 -0.0042781987005746022 0 0.02187210374015032 -0.0027922343981464206 0 0.023881649139807254 -0.00367490413983997 0 0.024749831205419418 -0.0036529157617894649 0 0.024207487772620245 -0.004242855511116965 0 0.023294961129059225 -0.0032560834470723552 0 0.023881649139807254 -0.00367490413983997 0 0.023818018694156097 -0.0032611390543023978 0 0.023881649139807254 -0.00367490413983997 0 0.023818018694156097 -0.0032611390543023978 0 0.024256366993159102 -0.0033201228164689749 0 0.023881649139807254 -0.00367490413983997 0 0.024256366993159102 -0.0033201228164689749 0 0.024749831205419418 -0.0036529157617894649 0 0.024256366993159102 -0.0033201228164689749 0 0.024846074501346054 -0.0031766165405256435 0 0.024749831205419418 -0.0036529157617894649 0 0.01743068857202654 -0.016994856276870012 0 0.020681637634320571 -0.014766359367273951 0 0.023533056752162558 -0.0026949116426537843 0 0.023826617651841794 -0.0028527989536169212 0 0.02533051195225702 -0.0026702538690325846 0 0.024256366993159102 -0.0033201228164689749 0 0.023826617651841794 -0.0028527989536169212 0 0.024846074501346054 -0.0031766165405256435 0 0.015409863483585138 -0.023637336278282742 0 0.015071166328930538 -0.024142759719365234 0 0.016385770883366929 -0.024232883335899454 0 0.023294961129059225 -0.0032560834470723552 0 0.023818018694156097 -0.0032611390543023978 0 0.023826617651841794 -0.0028527989536169212 0 0.023818018694156097 -0.0032611390543023978 0 0.024256366993159102 -0.0033201228164689749 0 0.023826617651841794 -0.0028527989536169212 0 0.01743068857202654 -0.016994856276870012 0 0.01743630365961242 -0.016809179445015789 0 0.023826617651841794 -0.0028527989536169212 0 0.02533051195225702 -0.0026702538690325846 0 0.024846074501346054 -0.0031766165405256435 0 0.02533051195225702 -0.0026702538690325846 0 0.025721450319729184 -0.0033992365740893151 0 0.024846074501346054 -0.0031766165405256435 0 0.023232292798690511 -0.013389254182382654 0 0.020681637634320571 -0.014766359367273951 0 0.026760985039833398 -0.0028441390833363156 0 0.02533051195225702 -0.0026702538690325846 0 0.0263778293370741 -0.0031568379933423706 0 0.02533051195225702 -0.0026702538690325846 0 0.0263778293370741 -0.0031568379933423706 0 0.025721450319729184 -0.0033992365740893151 0 0.018070610444074962 -0.024212496441556073 0 0.017322858819201307 -0.023097040121463103 0 0.016385770883366929 -0.024232883335899454 0 0.025721450319729184 -0.0033992365740893151 0 0.025201130099627954 -0.0040944046465370568 0 0.026369546331533145 -0.0035991041140594564 0 0.0263778293370741 -0.0031568379933423706 0 0.025721450319729184 -0.0033992365740893151 0 0.02635159984575209 -0.0033490802254839171 0 0.025721450319729184 -0.0033992365740893151 0 0.02635159984575209 -0.0033490802254839171 0 0.026369546331533145 -0.0035991041140594564 0 0.026646175559259289 -0.0033309810674641712 0 0.02635159984575209 -0.0033490802254839171 0 0.026369546331533145 -0.0035991041140594564 0 0.025721450319729184 -0.0033992365740893151 0 0.024846074501346054 -0.0031766165405256435 0 0.024749831205419418 -0.0036529157617894649 0 0.025721450319729184 -0.0033992365740893151 0 0.024749831205419418 -0.0036529157617894649 0 0.025201130099627954 -0.0040944046465370568 0 0.026876702832327976 -0.0023734776132982457 0 0.026615175557591374 -0.0019965081204562432 0 0.024749831205419418 -0.0036529157617894649 0 0.025201130099627954 -0.0040944046465370568 0 0.024207487772620245 -0.004242855511116965 0 0.025201130099627954 -0.0040944046465370568 0 0.025779947916908633 -0.0044480652220624233 0 0.024183644190564887 -0.0050790973049514394 0 0.025201130099627954 -0.0040944046465370568 0 0.025779947916908633 -0.0044480652220624233 0 0.026369546331533145 -0.0035991041140594564 0 0.026721413722986549 -0.002551468589433315 0 0.026876702832327976 -0.0023734776132982457 0 0.028536996568670276 -0.00035924792329216618 0 0.027370096986909915 -0.0014317612080775714 0 0.029622389319014834 -0.0010546009245890841 0 0.027031727163602765 -0.0029495435007894752 0 0.025779947916908633 -0.0044480652220624233 0 0.026369546331533145 -0.0035991041140594564 0 0.028536996568670276 -0.00035924792329216618 0 0.029578559041480983 7.4830918370821027e-05 0 0.02897669738488411 0.00026470479942234645 0 0.028536996568670276 -0.00035924792329216618 0 0.029622389319014834 -0.0010546009245890841 0 0.029578559041480983 7.4830918370821027e-05 0 0.029622389319014834 -0.0010546009245890841 0 0.029578559041480983 7.4830918370821027e-05 0 0.030160091868242738 -0.00018007162531942175 0 0.029578559041480983 7.4830918370821027e-05 0 0.030160091868242738 -0.00018007162531942175 0 0.029995915804894767 0.00038185940544852606 0 0.026615175557591374 -0.0019965081204562432 0 0.025734378365390463 -0.0013501623298954046 0 0.030160091868242738 -0.00018007162531942175 0 0.030319492958258636 0.00054623222987835833 0 0.030357269672272223 0.00036157988898790749 0 0.024183644190564887 -0.0050790973049514394 0 0.022864960159649537 -0.0042781987005746022 0 0.022591363809966569 -0.0055242294315597726 0 0.023881649139807254 -0.00367490413983997 0 0.022864960159649537 -0.0042781987005746022 0 0.024207487772620245 -0.004242855511116965 0 0.024183644190564887 -0.0050790973049514394 0 0.022864960159649537 -0.0042781987005746022 0 0.024207487772620245 -0.004242855511116965 0 0.025201130099627954 -0.0040944046465370568 0 0.024183644190564887 -0.0050790973049514394 0 0.024207487772620245 -0.004242855511116965 0 0.03019040650035363 0.00072378562253433865 0 0.029973506507831784 0.00087781601246382502 0 0.029995915804894767 0.00038185940544852606 0 0.03019040650035363 0.00072378562253433865 0 0.029973506507831784 0.00087781601246382502 0 0.030218251184423416 0.0010406811718551658 0 0.03019040650035363 0.00072378562253433865 0 0.030321986045505653 0.00082948111291028298 0 0.030319492958258636 0.00054623222987835833 0 0.03019040650035363 0.00072378562253433865 0 0.030321986045505653 0.00082948111291028298 0 0.030218251184423416 0.0010406811718551658 0 0.030321986045505653 0.00082948111291028298 0 0.030319492958258636 0.00054623222987835833 0 0.030355713603812749 0.0007464186483629974 0 0.030160091868242738 -0.00018007162531942175 0 0.030319492958258636 0.00054623222987835833 0 0.029995915804894767 0.00038185940544852606 0 0.03019040650035363 0.00072378562253433865 0 0.030319492958258636 0.00054623222987835833 0 0.029995915804894767 0.00038185940544852606 0 0.029578559041480983 7.4830918370821027e-05 0 0.029285591728668639 0.00048058063685506807 0 0.029646378795793075 0.00060267991168960213 0 0.029578559041480983 7.4830918370821027e-05 0 0.029995915804894767 0.00038185940544852606 0 0.029646378795793075 0.00060267991168960213 0 0.029578559041480983 7.4830918370821027e-05 0 0.02897669738488411 0.00026470479942234645 0 0.029285591728668639 0.00048058063685506807 0 0.02897669738488411 0.00026470479942234645 0 0.029285591728668639 0.00048058063685506807 0 0.029006485065614939 0.00055698933252250923 0 0.029285591728668639 0.00048058063685506807 0 0.029006485065614939 0.00055698933252250923 0 0.029326033238739793 0.00081488042618665186 0 0.029285591728668639 0.00048058063685506807 0 0.029326033238739793 0.00081488042618665186 0 0.029646378795793075 0.00060267991168960213 0 0.029326033238739793 0.00081488042618665186 0 0.029665582368102603 0.0010601934540019331 0 0.029344315085986492 0.0012657285018020138 0 0.029006485065614939 0.00055698933252250923 0 0.029326033238739793 0.00081488042618665186 0 0.028984448421951345 0.0010905003188136897 0 0.029973506507831784 0.00087781601246382502 0 0.029995915804894767 0.00038185940544852606 0 0.029646378795793075 0.00060267991168960213 0 0.029326033238739793 0.00081488042618665186 0 0.029646378795793075 0.00060267991168960213 0 0.029665582368102603 0.0010601934540019331 0 0.029973506507831784 0.00087781601246382502 0 0.029646378795793075 0.00060267991168960213 0 0.029665582368102603 0.0010601934540019331 0 0.029973506507831784 0.00087781601246382502 0 0.029665582368102603 0.0010601934540019331 0 0.029983437701618744 0.0013432021726218029 0 0.029665582368102603 0.0010601934540019331 0 0.029983437701618744 0.0013432021726218029 0 0.029604378500161663 0.0016650070686097835 0 0.029665582368102603 0.0010601934540019331 0 0.029604378500161663 0.0016650070686097835 0 0.029344315085986492 0.0012657285018020138 0 0.029983437701618744 0.0013432021726218029 0 0.029604378500161663 0.0016650070686097835 0 0.029774808961307776 0.0022776238942290102 0 0.028984448421951345 0.0010905003188136897 0 0.029099626118614826 0.0018519190091440905 0 0.028490977123296981 0.0021066597153641445 0 0.028984448421951345 0.0010905003188136897 0 0.029344315085986492 0.0012657285018020138 0 0.029099626118614826 0.0018519190091440905 0 0.029326033238739793 0.00081488042618665186 0 0.028984448421951345 0.0010905003188136897 0 0.029344315085986492 0.0012657285018020138 0 0.029604378500161663 0.0016650070686097835 0 0.029344315085986492 0.0012657285018020138 0 0.029099626118614826 0.0018519190091440905 0 0.029770259216056614 0.0022200784435333831 0 0.029647135636699729 0.0013945521992542126 0 0.029099626118614826 0.0018519190091440905 0 0.0293480796752657 0.0028585890365179526 0 0.028490977123296981 0.0021066597153641445 0 0.0293480796752657 0.0028585890365179526 0 0.029179241310905827 0.0038509417026190069 0 0.028490977123296981 0.0021066597153641445 0 0.029604378500161663 0.0016650070686097835 0 0.029099626118614826 0.0018519190091440905 0 0.0293480796752657 0.0028585890365179526 0 0.029506553409417977 0.0034468499787418932 0 0.02945143023172658 0.0043648734674524101 0 0.029562468299463643 0.0040771207656778129 0 0.029604378500161663 0.0016650070686097835 0 0.0293480796752657 0.0028585890365179526 0 0.029774808961307776 0.0022776238942290102 0 0.028734754137505435 0.0029313358722727278 0 0.02873959853045175 0.0029266898761924356 0 0.0293480796752657 0.0028585890365179526 0 0.029506553409417977 0.0034468499787418932 0 0.029476679286404402 0.0036890198707780655 0 0.029983437701618744 0.0013432021726218029 0 0.029774808961307776 0.0022776238942290102 0 0.030276592201277333 0.0013921841231613662 0 0.02873959853045175 0.0029266898761924356 0 0.028302641852103662 0.0033064553302909407 0 0.02873959853045175 0.0029266898761924356 0 0.028662484246068286 0.0025247610274770817 0 0.028961926828422795 0.0028961028131140108 0 0.0280549171657077 0.0027513209325834868 0 0.027905719832885804 0.0031584665685723376 0 0.029983437701618744 0.0013432021726218029 0 0.030276592201277333 0.0013921841231613662 0 0.030218251184423416 0.0010406811718551658 0 0.029973506507831784 0.00087781601246382502 0 0.029983437701618744 0.0013432021726218029 0 0.030218251184423416 0.0010406811718551658 0 0.030276592201277333 0.0013921841231613662 0 0.030361933765503526 0.0010600039018977725 0 0.030486509602832317 0.0010085195965717204 0 0.028662484246068286 0.0025247610274770817 0 0.027551374173351871 0.0024484086177290858 0 0.030321986045505653 0.00082948111291028298 0 0.030361933765503526 0.0010600039018977725 0 0.03035889401264965 0.00085846106255561046 0 0.030321986045505653 0.00082948111291028298 0 0.030218251184423416 0.0010406811718551658 0 0.030361933765503526 0.0010600039018977725 0 0.030276592201277333 0.0013921841231613662 0 0.030218251184423416 0.0010406811718551658 0 0.030361933765503526 0.0010600039018977725 0 0.027905719832885804 0.0031584665685723376 0 0.027131357902020505 0.002607394647827244 0 0.02682968061449725 0.0034206859582665027 0 0.0280549171657077 0.0027513209325834868 0 0.027905719832885804 0.0031584665685723376 0 0.027131357902020505 0.002607394647827244 0 0.028302641852103662 0.0033064553302909407 0 0.027421950196569886 0.0035509179263771679 0 0.02945143023172658 0.0043648734674524101 0 0.029353907300344307 0.0044786617774540656 0 0.028994711519642381 0.0049639740784553042 0 0.029353907300344307 0.0044786617774540656 0 0.028994711519642381 0.0049639740784553042 0 0.028862818867742449 0.0049348210308554699 0 0.02945143023172658 0.0043648734674524101 0 0.029353907300344307 0.0044786617774540656 0 0.029562468299463643 0.0040771207656778129 0 0.029353907300344307 0.0044786617774540656 0 0.029678910541568976 0.0040293351244387243 0 0.029562468299463643 0.0040771207656778129 0 0.029353907300344307 0.0044786617774540656 0 0.02939318693594304 0.0044932666565954118 0 0.029678910541568976 0.0040293351244387243 0 0.029353907300344307 0.0044786617774540656 0 0.029144097365572316 0.0047313832331533131 0 0.02939318693594304 0.0044932666565954118 0 0.029353907300344307 0.0044786617774540656 0 0.029144097365572316 0.0047313832331533131 0 0.028862818867742449 0.0049348210308554699 0 0.029144097365572316 0.0047313832331533131 0 0.02939318693594304 0.0044932666565954118 0 0.029282400016290146 0.0047381025158047879 0 0.02939318693594304 0.0044932666565954118 0 0.029404107458645815 0.0044706912988017261 0 0.029248717264523823 0.0048576797182625434 0 0.02939318693594304 0.0044932666565954118 0 0.029282400016290146 0.0047381025158047879 0 0.029248717264523823 0.0048576797182625434 0 0.029282400016290146 0.0047381025158047879 0 0.029344191452582807 0.005013730028423812 0 0.029248717264523823 0.0048576797182625434 0 0.029103067124183597 0.0045951395723398359 0 0.029404107458645815 0.0044706912988017261 0 0.029040371219722975 0.0050559136723678875 0 0.029404107458645815 0.0044706912988017261 0 0.029040371219722975 0.0050559136723678875 0 0.029248717264523823 0.0048576797182625434 0 0.02939318693594304 0.0044932666565954118 0 0.029404107458645815 0.0044706912988017261 0 0.029678910541568976 0.0040293351244387243 0 0.029103067124183597 0.0045951395723398359 0 0.029404107458645815 0.0044706912988017261 0 0.029560237182246762 0.0035410366457468839 0 0.029404107458645815 0.0044706912988017261 0 0.029678910541568976 0.0040293351244387243 0 0.029560237182246762 0.0035410366457468839 0 0.029840735830078544 0.0026364135133886326 0 0.029770259216056614 0.0022200784435333831 0 0.029678910541568976 0.0040293351244387243 0 0.030446311822718373 0.0021050652109652146 0 0.029560237182246762 0.0035410366457468839 0 0.029678910541568976 0.0040293351244387243 0 0.029562468299463643 0.0040771207656778129 0 0.029179241310905827 0.0038509417026190069 0 0.029562468299463643 0.0040771207656778129 0 0.029476679286404402 0.0036890198707780655 0 0.029179241310905827 0.0038509417026190069 0 0.029506553409417977 0.0034468499787418932 0 0.029562468299463643 0.0040771207656778129 0 0.029476679286404402 0.0036890198707780655 0 0.0293480796752657 0.0028585890365179526 0 0.029476679286404402 0.0036890198707780655 0 0.029179241310905827 0.0038509417026190069 0 0.03000465387906388 0.0014233619956963888 0 0.028803686240589405 0.0026053303528388578 0 0.030559893111766438 -0.00015955604819654857 0 0.030446311822718373 0.0021050652109652146 0 0.03000465387906388 0.0014233619956963888 0 0.029560237182246762 0.0035410366457468839 0 0.032506186386670022 -0.00075904361408426796 0 0.031575812523854385 -0.00072300973635833026 0 0.030559893111766438 -0.00015955604819654857 0 0.030904920975404777 0.0018964471062131688 0 0.030824882132402993 0.0013388550976054648 0 0.030904920975404777 0.0018964471062131688 0 0.031091537839854268 0.0032810107284266372 0 0.028803686240589405 0.0026053303528388578 0 0.029560237182246762 0.0035410366457468839 0 0.028606879368377313 0.004270952405295762 0 0.03000465387906388 0.0014233619956963888 0 0.028803686240589405 0.0026053303528388578 0 0.029560237182246762 0.0035410366457468839 0 0.029103067124183597 0.0045951395723398359 0 0.029560237182246762 0.0035410366457468839 0 0.028606879368377313 0.004270952405295762 0 0.034038322152881904 0.001422031934232289 0 0.03284334267073722 0.0033530689385041462 0 0.03221010265904202 0.00019255749130645021 0 0.032506186386670022 -0.00075904361408426796 0 0.034038322152881904 0.001422031934232289 0 0.03221010265904202 0.00019255749130645021 0 0.034038322152881904 0.001422031934232289 0 0.03284334267073722 0.0033530689385041462 0 0.03372777655183283 0.0049745332688718863 0 0.031091537839854268 0.0032810107284266372 0 0.031186854540103934 0.0052424497912352142 0 0.034038322152881904 0.001422031934232289 0 0.03372777655183283 0.0049745332688718863 0 0.034331563945123586 0.005293312755245365 0 0.028606879368377313 0.004270952405295762 0 0.028810545557771728 0.0047198049852790486 0 0.028621083293881834 0.0050104556782533567 0 0.029103067124183597 0.0045951395723398359 0 0.028606879368377313 0.004270952405295762 0 0.028810545557771728 0.0047198049852790486 0 0.029103067124183597 0.0045951395723398359 0 0.028810545557771728 0.0047198049852790486 0 0.028899245064525809 0.0049457562000482956 0 0.031957678290087659 0.001885953317467344 0 0.032616848478684582 0.001425909767836623 0 0.031880093563563305 0.0033364179497519359 0 0.031080213830481523 -0.00033178806930749503 0 0.028503637770371584 0.0030668619278792992 0 0.031880093563563305 0.0033364179497519359 0 0.030825564385326288 0.004681064225454592 0 0.031362334587700665 0.005244967416553975 0 0.031880093563563305 0.0033364179497519359 0 0.03284334267073722 0.0033530689385041462 0 0.032264533765555006 0.0048832366295016583 0 0.031880093563563305 0.0033364179497519359 0 0.03284334267073722 0.0033530689385041462 0 0.03221010265904202 0.00019255749130645021 0 0.03221010265904202 0.00019255749130645021 0 0.031080213830481523 -0.00033178806930749503 0 0.031689107792189738 -0.00079849688096467512 0 0.031880093563563305 0.0033364179497519359 0 0.03221010265904202 0.00019255749130645021 0 0.031080213830481523 -0.00033178806930749503 0 0.03221010265904202 0.00019255749130645021 0 0.031689107792189738 -0.00079849688096467512 0 0.031871527838958136 -0.00086596205084816505 0 0.032506186386670022 -0.00075904361408426796 0 0.03221010265904202 0.00019255749130645021 0 0.031871527838958136 -0.00086596205084816505 0 0.032506186386670022 -0.00075904361408426796 0 0.031871527838958136 -0.00086596205084816505 0 0.031575812523854385 -0.00072300973635833026 0 0.031689107792189738 -0.00079849688096467512 0 0.031871527838958136 -0.00086596205084816505 0 0.032058519691544295 -0.00098602459864669044 0 0.031871527838958136 -0.00086596205084816505 0 0.03192686054430826 -0.00087903954425780134 0 0.032058519691544295 -0.00098602459864669044 0 0.03192686054430826 -0.00087903954425780134 0 0.032154822075193622 -0.00080742988124236903 0 0.032315942465716174 -0.00096448073728721108 0 0.03192686054430826 -0.00087903954425780134 0 0.032315942465716174 -0.00096448073728721108 0 0.032058519691544295 -0.00098602459864669044 0 0.03192686054430826 -0.00087903954425780134 0 0.032154822075193622 -0.00080742988124236903 0 0.031565759284592439 -0.00063395897289744122 0 0.032154822075193622 -0.00080742988124236903 0 0.031565759284592439 -0.00063395897289744122 0 0.031705158858728974 -0.00052600978600906689 0 0.031565759284592439 -0.00063395897289744122 0 0.031575812523854385 -0.00072300973635833026 0 0.030950777419016882 -0.00034323739585913793 0 0.031565759284592439 -0.00063395897289744122 0 0.030950777419016882 -0.00034323739585913793 0 0.030986551464853799 -0.00038200655252295773 0 0.03192686054430826 -0.00087903954425780134 0 0.031565759284592439 -0.00063395897289744122 0 0.031575812523854385 -0.00072300973635833026 0 0.031871527838958136 -0.00086596205084816505 0 0.03192686054430826 -0.00087903954425780134 0 0.031575812523854385 -0.00072300973635833026 0 0.031575812523854385 -0.00072300973635833026 0 0.030559893111766438 -0.00015955604819654857 0 0.030950777419016882 -0.00034323739585913793 0 0.03000465387906388 0.0014233619956963888 0 0.030559893111766438 -0.00015955604819654857 0 0.030584094252173608 0.00012210847852079827 0 0.030446311822718373 0.0021050652109652146 0 0.03000465387906388 0.0014233619956963888 0 0.030584094252173608 0.00012210847852079827 0 0.030559893111766438 -0.00015955604819654857 0 0.030584094252173608 0.00012210847852079827 0 0.030669733191515103 -0.00030325838410901309 0 0.028984448421951345 0.0010905003188136897 0 0.028490977123296981 0.0021066597153641445 0 0.028670246813086851 0.00056942268797013809 0 0.029647135636699729 0.0013945521992542126 0 0.029719411129642027 0.00092481472268926307 0 0.030559893111766438 -0.00015955604819654857 0 0.030950777419016882 -0.00034323739585913793 0 0.030669733191515103 -0.00030325838410901309 0 0.030950777419016882 -0.00034323739585913793 0 0.030669733191515103 -0.00030325838410901309 0 0.030986551464853799 -0.00038200655252295773 0 0.029719411129642027 0.00092481472268926307 0 0.029852865003488813 0.00088178485705103251 0 0.028670246813086851 0.00056942268797013809 0 0.028964974696975246 0.00033951244703977221 0 0.030247697743098465 0.00011681456562435169 0 0.030669733191515103 -0.00030325838410901309 0 0.030247697743098465 0.00011681456562435169 0 0.030986551464853799 -0.00038200655252295773 0 0.029006485065614939 0.00055698933252250923 0 0.028984448421951345 0.0010905003188136897 0 0.028670246813086851 0.00056942268797013809 0 0.029006485065614939 0.00055698933252250923 0 0.028670246813086851 0.00056942268797013809 0 0.028964974696975246 0.00033951244703977221 0 0.029006485065614939 0.00055698933252250923 0 0.028897594016285433 0.00039246115329775549 0 0.028964974696975246 0.00033951244703977221 0 0.02897669738488411 0.00026470479942234645 0 0.029006485065614939 0.00055698933252250923 0 0.028897594016285433 0.00039246115329775549 0 0.028897594016285433 0.00039246115329775549 0 0.028964974696975246 0.00033951244703977221 0 0.02888067463537216 0.0004239303167625237 0 0.028723069899556104 0.00011334272706454903 0 0.028897594016285433 0.00039246115329775549 0 0.02888067463537216 0.0004239303167625237 0 0.028723069899556104 0.00011334272706454903 0 0.02897669738488411 0.00026470479942234645 0 0.028897594016285433 0.00039246115329775549 0 0.028964974696975246 0.00033951244703977221 0 0.02888067463537216 0.0004239303167625237 0 0.030247697743098465 0.00011681456562435169 0 0.029048118712181374 0.0013427769965680459 0 0.02888067463537216 0.0004239303167625237 0 0.030247697743098465 0.00011681456562435169 0 0.032323364907712336 0.00012659859538193498 0 0.030812639823439954 0.00098186097199939523 0 0.031336844304997898 -3.1730396237255087e-05 0 0.030247697743098465 0.00011681456562435169 0 0.031336844304997898 -3.1730396237255087e-05 0 0.030986551464853799 -0.00038200655252295773 0 0.030812639823439954 0.00098186097199939523 0 0.030247697743098465 0.00011681456562435169 0 0.031336844304997898 -3.1730396237255087e-05 0 0.032323364907712336 0.00012659859538193498 0 0.031336844304997898 -3.1730396237255087e-05 0 0.032128326255344175 -0.00046841106181291981 0 0.032323364907712336 0.00012659859538193498 0 0.032128326255344175 -0.00046841106181291981 0 0.032768277062362176 -0.00084806421425974378 0 0.032128326255344175 -0.00046841106181291981 0 0.031705158858728974 -0.00052600978600906689 0 0.032466809879289051 -0.00074542493997084742 0 0.031336844304997898 -3.1730396237255087e-05 0 0.032128326255344175 -0.00046841106181291981 0 0.031705158858728974 -0.00052600978600906689 0 0.032154822075193622 -0.00080742988124236903 0 0.031705158858728974 -0.00052600978600906689 0 0.032466809879289051 -0.00074542493997084742 0 0.031565759284592439 -0.00063395897289744122 0 0.031705158858728974 -0.00052600978600906689 0 0.030986551464853799 -0.00038200655252295773 0 0.031336844304997898 -3.1730396237255087e-05 0 0.031705158858728974 -0.00052600978600906689 0 0.030986551464853799 -0.00038200655252295773 0 0.032914074939170868 -0.00083520805321866465 0 0.032857430074462075 -0.00072829349143475278 0 0.033116414987038503 -0.00090594245394931409 0 0.032914074939170868 -0.00083520805321866465 0 0.032466809879289051 -0.00074542493997084742 0 0.032768277062362176 -0.00084806421425974378 0 0.032914074939170868 -0.00083520805321866465 0 0.032466809879289051 -0.00074542493997084742 0 0.032701426079834721 -0.00093012049891422481 0 0.032128326255344175 -0.00046841106181291981 0 0.032466809879289051 -0.00074542493997084742 0 0.032768277062362176 -0.00084806421425974378 0 0.032323364907712336 0.00012659859538193498 0 0.032768277062362176 -0.00084806421425974378 0 0.033199294366222765 -0.0017708202429771857 0 0.032914074939170868 -0.00083520805321866465 0 0.032768277062362176 -0.00084806421425974378 0 0.033199294366222765 -0.0017708202429771857 0 0.032089346738982297 -0.0017419024614110088 0 0.032242842302065096 -0.0017160255559697918 0 0.032914074939170868 -0.00083520805321866465 0 0.033199294366222765 -0.0017708202429771857 0 0.032857430074462075 -0.00072829349143475278 0 0.034048842666648538 -0.003013676045561802 0 0.034271647742911374 -0.0030414180394611368 0 0.033199993121044914 -0.0028675030287439222 0 0.033199294366222765 -0.0017708202429771857 0 0.032857430074462075 -0.00072829349143475278 0 0.034327669971586289 -0.0040363213923703825 0 0.034683374136917806 -0.0053548063092614794 0 0.035135112052921302 -0.0046101910699932044 0 0.034327669971586289 -0.0040363213923703825 0 0.033199993121044914 -0.0028675030287439222 0 0.034683374136917806 -0.0053548063092614794 0 0.034683374136917806 -0.0053548063092614794 0 0.0357427081898508 -0.0053559845070822176 0 0.035135112052921302 -0.0046101910699932044 0 0.0357427081898508 -0.0053559845070822176 0 0.035135112052921302 -0.0046101910699932044 0 0.035778837730421405 -0.005131498284787428 0 0.034271647742911374 -0.0030414180394611368 0 0.034794203844814416 -0.0031431427265797289 0 0.034683374136917806 -0.0053548063092614794 0 0.0357427081898508 -0.0053559845070822176 0 0.036314034273424479 -0.0053321803840404051 0 0.032857430074462075 -0.00072829349143475278 0 0.033116414987038503 -0.00090594245394931409 0 0.034294840014066977 -0.00098618893249743304 0 0.033116414987038503 -0.00090594245394931409 0 0.034294840014066977 -0.00098618893249743304 0 0.033420368215055091 -0.0014022682232491986 0 0.034294840014066977 -0.00098618893249743304 0 0.034437765042163442 -0.0021304380612617679 0 0.033420368215055091 -0.0014022682232491986 0 0.034437765042163442 -0.0021304380612617679 0 0.033420368215055091 -0.0014022682232491986 0 0.033633583691097146 -0.0016851637397537365 0 0.033420368215055091 -0.0014022682232491986 0 0.032763603684491389 -0.0011940650431810087 0 0.032701426079834721 -0.00093012049891422481 0 0.033116414987038503 -0.00090594245394931409 0 0.033420368215055091 -0.0014022682232491986 0 0.032701426079834721 -0.00093012049891422481 0 0.032914074939170868 -0.00083520805321866465 0 0.033116414987038503 -0.00090594245394931409 0 0.032701426079834721 -0.00093012049891422481 0 0.032154822075193622 -0.00080742988124236903 0 0.032466809879289051 -0.00074542493997084742 0 0.032701426079834721 -0.00093012049891422481 0 0.032154822075193622 -0.00080742988124236903 0 0.032701426079834721 -0.00093012049891422481 0 0.032315942465716174 -0.00096448073728721108 0 0.032763603684491389 -0.0011940650431810087 0 0.032701426079834721 -0.00093012049891422481 0 0.032315942465716174 -0.00096448073728721108 0 0.032763603684491389 -0.0011940650431810087 0 0.032315942465716174 -0.00096448073728721108 0 0.032058519691544295 -0.00098602459864669044 0 0.031689107792189738 -0.00079849688096467512 0 0.032058519691544295 -0.00098602459864669044 0 0.032334673417969112 -0.0011100507137009241 0 0.032763603684491389 -0.0011940650431810087 0 0.032058519691544295 -0.00098602459864669044 0 0.032334673417969112 -0.0011100507137009241 0 0.032763603684491389 -0.0011940650431810087 0 0.032334673417969112 -0.0011100507137009241 0 0.033633583691097146 -0.0016851637397537365 0 0.032334673417969112 -0.0011100507137009241 0 0.033038894174959449 -0.0016631872876724928 0 0.033633583691097146 -0.0016851637397537365 0 0.031080213830481523 -0.00033178806930749503 0 0.031689107792189738 -0.00079849688096467512 0 0.032334673417969112 -0.0011100507137009241 0 0.031080213830481523 -0.00033178806930749503 0 0.032334673417969112 -0.0011100507137009241 0 0.033038894174959449 -0.0016631872876724928 0 0.031080213830481523 -0.00033178806930749503 0 0.033038894174959449 -0.0016631872876724928 0 0.032183864586179646 -0.0026500537039758623 0 0.033038894174959449 -0.0016631872876724928 0 0.032183864586179646 -0.0026500537039758623 0 0.033802172183425329 -0.002841082343594605 0 0.032616848478684582 0.001425909767836623 0 0.034097850450700615 0.00013489620238319843 0 0.032341831546820014 0.00099768711473953962 0 0.032616848478684582 0.001425909767836623 0 0.034981012062530667 -0.0027177966584190647 0 0.033802172183425329 -0.002841082343594605 0 0.034606387907123587 -0.0021675484628378519 0 0.034877065339513742 -0.00042578036481262651 0 0.034097850450700615 0.00013489620238319843 0 0.033038894174959449 -0.0016631872876724928 0 0.033802172183425329 -0.002841082343594605 0 0.034606387907123587 -0.0021675484628378519 0 0.034606387907123587 -0.0021675484628378519 0 0.033633583691097146 -0.0016851637397537365 0 0.034867817625988846 -0.0022717469284390716 0 0.033038894174959449 -0.0016631872876724928 0 0.034606387907123587 -0.0021675484628378519 0 0.033633583691097146 -0.0016851637397537365 0 0.033420368215055091 -0.0014022682232491986 0 0.032763603684491389 -0.0011940650431810087 0 0.033633583691097146 -0.0016851637397537365 0 0.034437765042163442 -0.0021304380612617679 0 0.033633583691097146 -0.0016851637397537365 0 0.034867817625988846 -0.0022717469284390716 0 0.034437765042163442 -0.0021304380612617679 0 0.034867817625988846 -0.0022717469284390716 0 0.035898751810090349 -0.003333998910395747 0 0.035516158008869557 -0.00240038748781692 0 0.035709971258373115 -0.0032024844162460951 0 0.035898751810090349 -0.003333998910395747 0 0.034867817625988846 -0.0022717469284390716 0 0.035516158008869557 -0.00240038748781692 0 0.035898751810090349 -0.003333998910395747 0 0.035516158008869557 -0.00240038748781692 0 0.035764043425833079 -0.0021808583997934708 0 0.035709971258373115 -0.0032024844162460951 0 0.034606387907123587 -0.0021675484628378519 0 0.034867817625988846 -0.0022717469284390716 0 0.035516158008869557 -0.00240038748781692 0 0.034981012062530667 -0.0027177966584190647 0 0.034606387907123587 -0.0021675484628378519 0 0.035576632882193759 -0.0021577743384492633 0 0.034606387907123587 -0.0021675484628378519 0 0.035516158008869557 -0.00240038748781692 0 0.035576632882193759 -0.0021577743384492633 0 0.035516158008869557 -0.00240038748781692 0 0.035576632882193759 -0.0021577743384492633 0 0.035764043425833079 -0.0021808583997934708 0 0.035576632882193759 -0.0021577743384492633 0 0.035818607902649055 -0.0017194297620833892 0 0.035764043425833079 -0.0021808583997934708 0 0.035576632882193759 -0.0021577743384492633 0 0.035770415108988561 -0.0020348736688089787 0 0.035818607902649055 -0.0017194297620833892 0 0.034981012062530667 -0.0027177966584190647 0 0.035576632882193759 -0.0021577743384492633 0 0.035770415108988561 -0.0020348736688089787 0 0.034877065339513742 -0.00042578036481262651 0 0.035209838747289897 -0.00058945726303560886 0 0.034999628505045441 -0.00063341560570704389 0 0.03572656381711703 -0.00043204522474904098 0 0.035534082844039042 -0.0014867031478148908 0 0.03572656381711703 -0.00043204522474904098 0 0.035818607902649055 -0.0017194297620833892 0 0.035534082844039042 -0.0014867031478148908 0 0.035770415108988561 -0.0020348736688089787 0 0.03572656381711703 -0.00043204522474904098 0 0.035818607902649055 -0.0017194297620833892 0 0.035209838747289897 -0.00058945726303560886 0 0.035208478201159403 -0.00058794823700571066 0 0.035881972468111166 0.0001717163464486349 0 0.03572656381711703 -0.00043204522474904098 0 0.035883030423573645 -2.0523686620253567e-05 0 0.035818607902649055 -0.0017194297620833892 0 0.035764043425833079 -0.0021808583997934708 0 0.035534082844039042 -0.0014867031478148908 0 0.035764043425833079 -0.0021808583997934708 0 0.035534082844039042 -0.0014867031478148908 0 0.034999748808123371 -0.0026694190098209398 0 0.034999628505045441 -0.00063341560570704389 0 0.035534082844039042 -0.0014867031478148908 0 0.034999748808123371 -0.0026694190098209398 0 0.035764043425833079 -0.0021808583997934708 0 0.034999748808123371 -0.0026694190098209398 0 0.035709971258373115 -0.0032024844162460951 0 0.034999748808123371 -0.0026694190098209398 0 0.035709971258373115 -0.0032024844162460951 0 0.034999359828462341 -0.0047056363510512757 0 0.035709971258373115 -0.0032024844162460951 0 0.034999359828462341 -0.0047056363510512757 0 0.035602463534349364 -0.0044697570428790757 0 0.034999359828462341 -0.0047056363510512757 0 0.035602463534349364 -0.0044697570428790757 0 0.034999714216873229 -0.0067423800715136067 0 0.035602463534349364 -0.0044697570428790757 0 0.034999714216873229 -0.0067423800715136067 0 0.035887776677823988 -0.0056324378481050069 0 0.035709971258373115 -0.0032024844162460951 0 0.035602463534349364 -0.0044697570428790757 0 0.035898751810090349 -0.003333998910395747 0 0.035898751810090349 -0.003333998910395747 0 0.036237815191254512 -0.005899509446091392 0 0.035887776677823988 -0.0056324378481050069 0 0.036314034273424479 -0.0053321803840404051 0 0.035898751810090349 -0.003333998910395747 0 0.036237815191254512 -0.005899509446091392 0 0.034294840014066977 -0.00098618893249743304 0 0.034437765042163442 -0.0021304380612617679 0 0.035898751810090349 -0.003333998910395747 0 0.034794203844814416 -0.0031431427265797289 0 0.035067877587906512 -0.0032201734787301933 0 0.035602463534349364 -0.0044697570428790757 0 0.035898751810090349 -0.003333998910395747 0 0.035887776677823988 -0.0056324378481050069 0 0.036237815191254512 -0.005899509446091392 0 0.03670806243315284 -0.0067141272304108157 0 0.035887776677823988 -0.0056324378481050069 0 0.0357427081898508 -0.0053559845070822176 0 0.036314034273424479 -0.0053321803840404051 0 0.036237815191254512 -0.005899509446091392 0 0.036296315372874727 -0.0057937510967093174 0 0.036237815191254512 -0.005899509446091392 0 0.035778837730421405 -0.005131498284787428 0 0.0357427081898508 -0.0053559845070822176 0 0.036237815191254512 -0.005899509446091392 0 0.035778837730421405 -0.005131498284787428 0 0.036296315372874727 -0.0057937510967093174 0 0.036237815191254512 -0.005899509446091392 0 0.03670806243315284 -0.0067141272304108157 0 0.036258488732992915 -0.008454888478949707 0 0.03670806243315284 -0.0067141272304108157 0 0.035740541498583807 -0.0073437343364340961 0 0.03670806243315284 -0.0067141272304108157 0 0.035740541498583807 -0.0073437343364340961 0 0.035887776677823988 -0.0056324378481050069 0 0.034999494122696331 -0.0087793002942971061 0 0.035740541498583807 -0.0073437343364340961 0 0.034999714216873229 -0.0067423800715136067 0 0.034999494122696331 -0.0087793002942971061 0 0.03567214146397988 -0.0088120081271357044 0 0.035740541498583807 -0.0073437343364340961 0 0.035740541498583807 -0.0073437343364340961 0 0.034999714216873229 -0.0067423800715136067 0 0.035887776677823988 -0.0056324378481050069 0 0.01407439658648554 0.0045554912548068831 0 0.014155809521353563 0.0046014717008626294 0 0.014079347249114343 0.0045414639910046845 0 0.014155809521353563 0.0046014717008626294 0 0.014079347249114343 0.0045414639910046845 0 0.014208014580497693 0.0046040550854483777 0 0.014079347249114343 0.0045414639910046845 0 0.014208014580497693 0.0046040550854483777 0 0.014108886911018644 0.0045400222328764754 0 0.014079347249114343 0.0045414639910046845 0 0.014030078812526558 0.0045062032071371489 0 0.014037077922571892 0.0045042914737664936 0 0.014030078812526558 0.0045062032071371489 0 0.014037077922571892 0.0045042914737664936 0 0.013988131819732821 0.0044487166325563451 0 0.014030078812526558 0.0045062032071371489 0 0.013974958574431521 0.0044833926032006458 0 0.013988131819732821 0.0044487166325563451 0 0.014039524292877538 0.0045331105923204044 0 0.014030078812526558 0.0045062032071371489 0 0.013974958574431521 0.0044833926032006458 0 0.01407439658648554 0.0045554912548068831 0 0.014039524292877538 0.0045331105923204044 0 0.014030078812526558 0.0045062032071371489 0 0.01407439658648554 0.0045554912548068831 0 0.014079347249114343 0.0045414639910046845 0 0.014030078812526558 0.0045062032071371489 0 0.013974958574431521 0.0044833926032006458 0 0.014078949344428488 0.0045887329997433314 0 0.013898770236582503 0.0044334231364598891 0 0.0057742192047927649 -0.012323812290038988 0 0.0063697647444197888 -0.012562846169204275 0 0.0052456318287835849 -0.01243467178311033 0 0.010382686615794928 -0.0057435993619289584 0 0.0081670551643605437 -0.0041437398523860311 0 0.014039524292877538 0.0045331105923204044 0 0.013974958574431521 0.0044833926032006458 0 0.014078949344428488 0.0045887329997433314 0 0.0057742192047927649 -0.012323812290038988 0 0.0054656628876831948 -0.012189554658529935 0 0.0056548350774033359 -0.012098534462563921 0 0.0057742192047927649 -0.012323812290038988 0 0.0058691146199378293 -0.012065081649142799 0 0.0056548350774033359 -0.012098534462563921 0 0.0057742192047927649 -0.012323812290038988 0 0.0060775912764151081 -0.012376363870945113 0 0.0063697647444197888 -0.012562846169204275 0 0.0057742192047927649 -0.012323812290038988 0 0.0060775912764151081 -0.012376363870945113 0 0.0058691146199378293 -0.012065081649142799 0 0.0060775912764151081 -0.012376363870945113 0 0.006123526367099826 -0.012203416909544181 0 0.0058691146199378293 -0.012065081649142799 0 0.0060775912764151081 -0.012376363870945113 0 0.006123526367099826 -0.012203416909544181 0 0.0062470937216009739 -0.012372659696264093 0 0.0064171984870932596 -0.012350057255350199 0 0.0063697647444197888 -0.012562846169204275 0 0.007640404471233363 -0.012533111021613842 0 0.006123526367099826 -0.012203416909544181 0 0.0064171984870932596 -0.012350057255350199 0 0.0062470937216009739 -0.012372659696264093 0 0.0060775912764151081 -0.012376363870945113 0 0.0062470937216009739 -0.012372659696264093 0 0.0063697647444197888 -0.012562846169204275 0 0.0064171984870932596 -0.012350057255350199 0 0.0062470937216009739 -0.012372659696264093 0 0.0063697647444197888 -0.012562846169204275 0 0.01407439658648554 0.0045554912548068831 0 0.014155809521353563 0.0046014717008626294 0 0.014078949344428488 0.0045887329997433314 0 0.01407439658648554 0.0045554912548068831 0 0.014039524292877538 0.0045331105923204044 0 0.014078949344428488 0.0045887329997433314 0 0.010382686615794928 -0.0057435993619289584 0 0.012935484709036991 -0.0087110824271310235 0 0.014155809521353563 0.0046014717008626294 0 0.014078949344428488 0.0045887329997433314 0 0.014372908642393632 0.0047387719300490587 0 0.012935484709036991 -0.0087110824271310235 0 0.011908549948495347 -0.014498443579053029 0 0.0064171984870932596 -0.012350057255350199 0 0.007640404471233363 -0.012533111021613842 0 0.0068583361418592878 -0.011959878185231778 0 0.013605199348210398 -0.02297787017623314 0 0.013636920206677883 -0.02304110587378351 0 0.013674139169999757 -0.022984053434010027 0 0.012935484709036991 -0.0087110824271310235 0 0.014621875782975363 -0.011056352215215174 0 0.012935484709036991 -0.0087110824271310235 0 0.013540491029060601 -0.0032881371979233778 0 0.014372908642393632 0.0047387719300490587 0 0.014363282669027635 0.004614676035694292 0 0.014677207973633208 0.0047666409840846462 0 0.014372908642393632 0.0047387719300490587 0 0.014208014580497693 0.0046040550854483777 0 0.014363282669027635 0.004614676035694292 0 0.014155809521353563 0.0046014717008626294 0 0.014372908642393632 0.0047387719300490587 0 0.014208014580497693 0.0046040550854483777 0 0.014208014580497693 0.0046040550854483777 0 0.014363282669027635 0.004614676035694292 0 0.014108886911018644 0.0045400222328764754 0 0.014363282669027635 0.004614676035694292 0 0.014192210630058691 0.0045211384703171759 0 0.014108886911018644 0.0045400222328764754 0 0.014363282669027635 0.004614676035694292 0 0.014332861888803654 0.0044192428887573207 0 0.014710393932101285 0.0045706378703161922 0 0.014363282669027635 0.004614676035694292 0 0.014677207973633208 0.0047666409840846462 0 0.014710393932101285 0.0045706378703161922 0 0.014332861888803654 0.0044192428887573207 0 0.014710393932101285 0.0045706378703161922 0 0.015031169703711713 0.0041795079557250371 0 0.014332861888803654 0.0044192428887573207 0 0.014192210630058691 0.0045211384703171759 0 0.01416398903308968 0.0045872314470272934 0 0.014363282669027635 0.004614676035694292 0 0.014332861888803654 0.0044192428887573207 0 0.014192210630058691 0.0045211384703171759 0 0.014192210630058691 0.0045211384703171759 0 0.014091066222386182 0.0045968822324346332 0 0.01416398903308968 0.0045872314470272934 0 0.014192210630058691 0.0045211384703171759 0 0.014091066222386182 0.0045968822324346332 0 0.014108886911018644 0.0045400222328764754 0 0.014079347249114343 0.0045414639910046845 0 0.014108886911018644 0.0045400222328764754 0 0.014037077922571892 0.0045042914737664936 0 0.014108886911018644 0.0045400222328764754 0 0.014037077922571892 0.0045042914737664936 0 0.014060287996446721 0.0045426516591705593 0 0.014091066222386182 0.0045968822324346332 0 0.014108886911018644 0.0045400222328764754 0 0.014060287996446721 0.0045426516591705593 0 0.014091066222386182 0.0045968822324346332 0 0.014060287996446721 0.0045426516591705593 0 0.014086520387091444 0.0046155946379642186 0 0.014060287996446721 0.0045426516591705593 0 0.01411081731779746 0.0045405029565383868 0 0.014086520387091444 0.0046155946379642186 0 0.013593680744420088 0.003630678750061094 0 0.01410605181009989 0.0036306301818168269 0 0.014060068744562657 0.0043217469142107483 0 0.013593680744420088 0.003630678750061094 0 0.01410605181009989 0.0036306301818168269 0 0.013676053946313186 0.0029738251258057563 0 0.01411081731779746 0.0045405029565383868 0 0.014039563672029225 0.0044802655581829371 0 0.01406591345606727 0.004426551471455379 0 0.011691519659335911 0.0030324100445410923 0 0.010006957118679202 0.00035957481484416966 0 0.014060287996446721 0.0045426516591705593 0 0.01411081731779746 0.0045405029565383868 0 0.014039563672029225 0.0044802655581829371 0 0.014037077922571892 0.0045042914737664936 0 0.014060287996446721 0.0045426516591705593 0 0.014039563672029225 0.0044802655581829371 0 0.0047610537193292736 -9.3920952419959531e-05 0 0.0048064178350591793 -0.0016351788129654373 0 0.015038163122277548 0.0039905118354218502 0 0.01410605181009989 0.0036306301818168269 0 0.014455299540908151 0.0020741878662482319 0 0.015038163122277548 0.0039905118354218502 0 0.01410605181009989 0.0036306301818168269 0 0.014486666097357933 0.0043342619068172349 0 0.01410605181009989 0.0036306301818168269 0 0.014455299540908151 0.0020741878662482319 0 0.01231682490384379 0.0012300643303371616 0 0.012032121145400299 0.0027546101780061239 0 0.010006957118679202 0.00035957481484416966 0 -0.0047515414335083774 -0.0040127395156486527 0 -0.0049379243184278767 -0.0047685421885774702 0 -0.0046671130695465721 -0.0046385231216178029 0 -0.0049379243184278767 -0.0047685421885774702 0 -0.0046671130695465721 -0.0046385231216178029 0 -0.0046960808092642529 -0.0050634668477452776 0 -0.0044496966066527128 -0.0049478432843829672 0 -0.0046671130695465721 -0.0046385231216178029 0 -0.0046960808092642529 -0.0050634668477452776 0 -0.0049379243184278767 -0.0047685421885774702 0 -0.0046960808092642529 -0.0050634668477452776 0 -0.0048826455657419504 -0.0052192114966813155 0 -0.0043793764882999195 -0.0052548169305660719 0 -0.0046960808092642529 -0.0050634668477452776 0 -0.0047122525549584682 -0.0054849579868537527 0 -0.0046960808092642529 -0.0050634668477452776 0 -0.0048826455657419504 -0.0052192114966813155 0 -0.0047122525549584682 -0.0054849579868537527 0 0.0048064178350591793 -0.0016351788129654373 0 0.004686922694226184 -0.0037958493443669104 0 0.014455299540908151 0.0020741878662482319 0 0.013123023558763545 -0.00056012883632190129 0 0.01231682490384379 0.0012300643303371616 0 -0.0049379243184278767 -0.0047685421885774702 0 -0.0048826455657419504 -0.0052192114966813155 0 -0.0051029996256666196 -0.0054284117223975239 0 -0.0057342222339769071 -0.0058973152906483224 0 -0.0046068928662601092 -0.006668689048668173 0 -0.0038453386736152745 -0.005923091519282617 0 0.004686922694226184 -0.0037958493443669104 0 -0.0017668077802274343 -0.0045503867624120467 0 -0.0048826455657419504 -0.0052192114966813155 0 -0.0051029996256666196 -0.0054284117223975239 0 -0.0047122525549584682 -0.0054849579868537527 0 -0.0057342222339769071 -0.0058973152906483224 0 -0.0066233287540027235 -0.0076336395060104065 0 -0.0053532018108242213 -0.0071441642767565853 0 -0.0057342222339769071 -0.0058973152906483224 0 -0.0046068928662601092 -0.006668689048668173 0 -0.0053532018108242213 -0.0071441642767565853 0 -0.0046068928662601092 -0.006668689048668173 0 -0.0039786627167440079 -0.0067387554480388577 0 -0.0038453386736152745 -0.005923091519282617 0 -0.003534605222268629 -0.0059872726546393775 0 -0.0039786627167440079 -0.0067387554480388577 0 -0.0038453386736152745 -0.005923091519282617 0 0.014039563672029225 0.0044802655581829371 0 0.014015497523688485 0.0044040456418582398 0 0.01406591345606727 0.004426551471455379 0 0.014015497523688485 0.0044040456418582398 0 0.013988131819732821 0.0044487166325563451 0 0.013973991287585693 0.0043100544241128367 0 0.013974958574431521 0.0044833926032006458 0 0.013988131819732821 0.0044487166325563451 0 0.013898770236582503 0.0044334231364598891 0 0.0082203714073314088 -0.0028403384900652557 0 0.0081670551643605437 -0.0041437398523860311 0 0.014039563672029225 0.0044802655581829371 0 0.014015497523688485 0.0044040456418582398 0 0.013988131819732821 0.0044487166325563451 0 0.014037077922571892 0.0045042914737664936 0 0.014039563672029225 0.0044802655581829371 0 0.013988131819732821 0.0044487166325563451 0 0.010006957118679202 0.00035957481484416966 0 0.0070393945514164629 -0.0034582798801088993 0 0.014015497523688485 0.0044040456418582398 0 0.01406591345606727 0.004426551471455379 0 0.014001517618904303 0.0043109368220745061 0 0.013123023558763545 -0.00056012883632190129 0 0.01231682490384379 0.0012300643303371616 0 0.012632973220031152 -0.00057062686478082179 0 0.010006957118679202 0.00035957481484416966 0 0.0083332850223832144 -0.0038572634603865601 0 0.0088755297378516496 -0.0030817201914459481 0 0.0089192393709257821 -0.0033642466925817831 0 0.0087159419465518036 -0.0033751733839935145 0 0.004686922694226184 -0.0037958493443669104 0 0.00454693037454032 -0.0073602191209473089 0 0.0058793723255334647 -0.00436994045012496 0 0.0058972538708186965 -0.0043746179442504356 0 0.0058965660399864037 -0.004377683671929488 0 0.0058669868825049929 -0.0043541255804461073 0 0.0058715807715917631 -0.0043585301730829041 0 0.0058644681195855076 -0.0043829699845927602 0 0.0058715807715917631 -0.0043585301730829041 0 0.0058793723255334647 -0.00436994045012496 0 0.0058644681195855076 -0.0043829699845927602 0 0.0058715807715917631 -0.0043585301730829041 0 0.0058793723255334647 -0.00436994045012496 0 0.0058965660399864037 -0.004377683671929488 0 0.0070393945514164629 -0.0034582798801088993 0 0.0083332850223832144 -0.0038572634603865601 0 0.004686922694226184 -0.0037958493443669104 0 0.0070393945514164629 -0.0034582798801088993 0 0.0058793723255334647 -0.00436994045012496 0 0.0058972538708186965 -0.0043746179442504356 0 0.0058644681195855076 -0.0043829699845927602 0 0.005177827045817123 -0.012300700807887723 0 0.0052456318287835849 -0.01243467178311033 0 0.0054656628876831948 -0.012189554658529935 0 0.0075267014876873074 -0.0053506746200425344 0 0.0083332850223832144 -0.0038572634603865601 0 0.0083332850223832144 -0.0038572634603865601 0 0.0081670551643605437 -0.0041437398523860311 0 0.014015497523688485 0.0044040456418582398 0 0.014001517618904303 0.0043109368220745061 0 0.013973991287585693 0.0043100544241128367 0 0.0068960913555618855 -0.0008431708575235054 0 0.0047686791750180015 -0.0044302851534299102 0 0.0093602771803535084 -0.0043601086962153437 0 0.0075267014876873074 -0.0053506746200425344 0 0.0081670551643605437 -0.0041437398523860311 0 0.0057742192047927649 -0.012323812290038988 0 0.0052456318287835849 -0.01243467178311033 0 0.0054656628876831948 -0.012189554658529935 0 0.0054656628876831948 -0.012189554658529935 0 0.0055128939813918571 -0.01184885527879484 0 0.0056548350774033359 -0.012098534462563921 0 0.0042045901311153671 -0.01270733811790201 0 0.004573486602999461 -0.012230609274462987 0 0.0041797292356231053 -0.012193336701062847 0 0.005177827045817123 -0.012300700807887723 0 0.0054656628876831948 -0.012189554658529935 0 0.0055128939813918571 -0.01184885527879484 0 0.0075267014876873074 -0.0053506746200425344 0 0.0055157265075532055 -0.009568865212111026 0 0.004573486602999461 -0.012230609274462987 0 0.0041797292356231053 -0.012193336701062847 0 0.0043624807658269489 -0.011867642165615006 0 0.0042045901311153671 -0.01270733811790201 0 0.0041797292356231053 -0.012193336701062847 0 0.0038016781922444137 -0.012236125059458669 0 0.0075267014876873074 -0.0053506746200425344 0 0.00454693037454032 -0.0073602191209473089 0 0.00454693037454032 -0.0073602191209473089 0 0.0021410420800003927 -0.0084121390117336235 0 0.0041797292356231053 -0.012193336701062847 0 0.0038016781922444137 -0.012236125059458669 0 0.0039280425218769198 -0.011807898860667526 0 0.00454693037454032 -0.0073602191209473089 0 0.0041751422217545806 -0.0082944762981618809 0 0.0039280425218769198 -0.011807898860667526 0 0.0036234703443660467 -0.011417858785638113 0 0.0032762341001795242 -0.011679667405931824 0 0.0036924114205262541 -0.012212160572220774 0 0.0039280425218769198 -0.011807898860667526 0 0.0032762341001795242 -0.011679667405931824 0 0.0036234703443660467 -0.011417858785638113 0 0.0032762341001795242 -0.011679667405931824 0 0.0034942664346481419 -0.011018805384524521 0 0.0039280425218769198 -0.011807898860667526 0 0.0036234703443660467 -0.011417858785638113 0 0.0038138591148102119 -0.011215578402480213 0 0.0039280425218769198 -0.011807898860667526 0 0.0043599348315397097 -0.011428528702109192 0 0.0038138591148102119 -0.011215578402480213 0 0.0043599348315397097 -0.011428528702109192 0 0.0046598379203516152 -0.011755361960962716 0 0.0043624807658269489 -0.011867642165615006 0 0.0043599348315397097 -0.011428528702109192 0 0.0046598379203516152 -0.011755361960962716 0 0.0053598855912503412 -0.011475518721526998 0 0.004573486602999461 -0.012230609274462987 0 0.0046598379203516152 -0.011755361960962716 0 0.0043624807658269489 -0.011867642165615006 0 0.0041797292356231053 -0.012193336701062847 0 0.0039280425218769198 -0.011807898860667526 0 0.0043624807658269489 -0.011867642165615006 0 0.0039280425218769198 -0.011807898860667526 0 0.0043599348315397097 -0.011428528702109192 0 0.0043624807658269489 -0.011867642165615006 0 -0.0026084971172040477 -0.0080373762656657955 0 -0.0042418911729072521 -0.0076786679359283697 0 -0.0033199048485651238 -0.0088102806334218603 0 -0.0031737634812385555 -0.0070990124121326163 0 -0.0039786627167440079 -0.0067387554480388577 0 -0.0042418911729072521 -0.0076786679359283697 0 -0.0046068928662601092 -0.006668689048668173 0 -0.0039786627167440079 -0.0067387554480388577 0 -0.0042418911729072521 -0.0076786679359283697 0 -0.0042418911729072521 -0.0076786679359283697 0 -0.0052373232100302427 -0.0081258420446559398 0 -0.0043235242379850965 -0.009081638091113434 0 -0.0066233287540027235 -0.0076336395060104065 0 -0.0052373232100302427 -0.0081258420446559398 0 -0.0058389219920155231 -0.0089193323524498665 0 -0.0066233287540027235 -0.0076336395060104065 0 -0.0052373232100302427 -0.0081258420446559398 0 -0.0053532018108242213 -0.0071441642767565853 0 -0.0042418911729072521 -0.0076786679359283697 0 -0.0052373232100302427 -0.0081258420446559398 0 -0.0053532018108242213 -0.0071441642767565853 0 -0.0046068928662601092 -0.006668689048668173 0 -0.0042418911729072521 -0.0076786679359283697 0 -0.0053532018108242213 -0.0071441642767565853 0 -0.0058389219920155231 -0.0089193323524498665 0 -0.0043235242379850965 -0.009081638091113434 0 -0.0050031931298539101 -0.010213216827309163 0 -0.0052373232100302427 -0.0081258420446559398 0 -0.0058389219920155231 -0.0089193323524498665 0 -0.0043235242379850965 -0.009081638091113434 0 0.0021410420800003927 -0.0084121390117336235 0 0.000770456624061659 -0.0092756467690174628 0 -0.0028999513420956331 -0.0098306536870378068 0 -0.0043235242379850965 -0.009081638091113434 0 -0.0033199048485651238 -0.0088102806334218603 0 -0.0028999513420956331 -0.0098306536870378068 0 -0.0043235242379850965 -0.009081638091113434 0 -0.0050031931298539101 -0.010213216827309163 0 -0.0042418911729072521 -0.0076786679359283697 0 -0.0043235242379850965 -0.009081638091113434 0 -0.0033199048485651238 -0.0088102806334218603 0 0.00061769002876128529 -0.01044818201814094 0 0.00079232944017185842 -0.010554454716071743 0 0.00080626500523956304 -0.010570963163587155 0 -0.00047620246461763425 -0.0097068796263589351 0 0.000770456624061659 -0.0092756467690174628 0 0.00042522042446094423 -0.010372356379415193 0 0.00061769002876128529 -0.01044818201814094 0 0.00079232944017185842 -0.010554454716071743 0 0.001256387120142773 -0.01136095285757564 0 0.0015827666318587431 -0.010466045496251129 0 0.00080626500523956304 -0.010570963163587155 0 0.0032762341001795242 -0.011679667405931824 0 0.0028992850731231574 -0.011161043245092752 0 0.0034942664346481419 -0.011018805384524521 0 0.001256387120142773 -0.01136095285757564 0 0.0015827666318587431 -0.010466045496251129 0 0.0022938380644649515 -0.011230823636266211 0 0.000770456624061659 -0.0092756467690174628 0 0.00089639994267807317 -0.0095361529240285594 0 0.000770456624061659 -0.0092756467690174628 0 0.0018782520748134141 -0.0095467408401662662 0 0.0022290337478470521 -0.0098496973084655111 0 0.000942081232635972 -0.010133540624576885 0 0.0015827666318587431 -0.010466045496251129 0 0.000942081232635972 -0.010133540624576885 0 0.0015827666318587431 -0.010466045496251129 0 0.00080626500523956304 -0.010570963163587155 0 0.00059683419450708727 -0.01018854112976334 0 0.000942081232635972 -0.010133540624576885 0 0.00058945365109270187 -0.010346664472961432 0 0.000942081232635972 -0.010133540624576885 0 0.00080626500523956304 -0.010570963163587155 0 0.00058945365109270187 -0.010346664472961432 0 0.00061769002876128529 -0.01044818201814094 0 0.00080626500523956304 -0.010570963163587155 0 0.00058945365109270187 -0.010346664472961432 0 0.0043599348315397097 -0.011428528702109192 0 0.0043188851014356192 -0.010835345079295839 0 0.0053598855912503412 -0.011475518721526998 0 0.0037846466163402692 -0.010886310184932871 0 0.0040492950461820621 -0.011106450920877153 0 0.0038138591148102119 -0.011215578402480213 0 0.0037846466163402692 -0.010886310184932871 0 0.0043188851014356192 -0.010835345079295839 0 0.0040492950461820621 -0.011106450920877153 0 0.0043599348315397097 -0.011428528702109192 0 0.0043188851014356192 -0.010835345079295839 0 0.0040492950461820621 -0.011106450920877153 0 0.0043599348315397097 -0.011428528702109192 0 0.0040492950461820621 -0.011106450920877153 0 0.0038138591148102119 -0.011215578402480213 0 0.0036234703443660467 -0.011417858785638113 0 0.0038138591148102119 -0.011215578402480213 0 0.0034942664346481419 -0.011018805384524521 0 0.0037846466163402692 -0.010886310184932871 0 0.0038138591148102119 -0.011215578402480213 0 0.0034942664346481419 -0.011018805384524521 0 0.0023075552977970585 -0.009608214697998713 0 0.0018782520748134141 -0.0095467408401662662 0 0.0022290337478470521 -0.0098496973084655111 0 0.0015827666318587431 -0.010466045496251129 0 0.0022938380644649515 -0.011230823636266211 0 0.0022290337478470521 -0.0098496973084655111 0 0.0037846466163402692 -0.010886310184932871 0 0.0022938380644649515 -0.011230823636266211 0 0.0022290337478470521 -0.0098496973084655111 0 0.0037846466163402692 -0.010886310184932871 0 0.0043188851014356192 -0.010835345079295839 0 0.0070148017178404713 -0.016932189871381887 0 0.0083759559412952718 -0.016937031849214752 0 0.011658913676931211 -0.023852987433409537 0 0.011964831054107471 -0.023498648258165937 0 0.011922389611172604 -0.023710199576299128 0 0.011964831054107471 -0.023498648258165937 0 0.011922389611172604 -0.023710199576299128 0 0.01170532500332893 -0.023584337535250618 0 0.012055539944378869 -0.023697806042258053 0 0.011922389611172604 -0.023710199576299128 0 0.01170532500332893 -0.023584337535250618 0 0.013327897385487193 -0.023353342042206425 0 0.013392678298650587 -0.023307643550957199 0 0.013453548348805161 -0.023268148967091135 0 0.013327897385487193 -0.023353342042206425 0 0.013453548348805161 -0.023268148967091135 0 0.013478669755163436 -0.023309730343013504 0 0.013453548348805161 -0.023268148967091135 0 0.013489813919828147 -0.023162678251229096 0 0.013525998516461678 -0.023210400603650674 0 0.013453548348805161 -0.023268148967091135 0 0.013525998516461678 -0.023210400603650674 0 0.013478669755163436 -0.023309730343013504 0 0.0083759559412952718 -0.016937031849214752 0 0.010071869608809909 -0.016913615963847876 0 0.013392678298650587 -0.023307643550957199 0 0.013453548348805161 -0.023268148967091135 0 0.013489813919828147 -0.023162678251229096 0 0.011964831054107471 -0.023498648258165937 0 0.01170532500332893 -0.023584337535250618 0 0.011525147478316322 -0.022779742655892082 0 0.0043188851014356192 -0.010835345079295839 0 0.0057264437395430981 -0.011555648914632897 0 0.0053598855912503412 -0.011475518721526998 0 0.011713696166910868 -0.022053924037098823 0 0.010071869608809909 -0.016913615963847876 0 0.004573486602999461 -0.012230609274462987 0 0.0046598379203516152 -0.011755361960962716 0 0.0053598855912503412 -0.011475518721526998 0 0.0055128939813918571 -0.01184885527879484 0 0.0056512708622777057 -0.011761316460236645 0 0.0053598855912503412 -0.011475518721526998 0 0.0055157265075532055 -0.009568865212111026 0 0.0052141955673759227 -0.010324627174875442 0 0.010071869608809909 -0.016913615963847876 0 0.0088720253160193031 -0.014157325009944616 0 0.0056512708622777057 -0.011761316460236645 0 0.0057264437395430981 -0.011555648914632897 0 0.006017029160768691 -0.011879987380212667 0 0.0056512708622777057 -0.011761316460236645 0 0.0057264437395430981 -0.011555648914632897 0 0.0053598855912503412 -0.011475518721526998 0 0.013489813919828147 -0.023162678251229096 0 0.013553513993211584 -0.023069906610399933 0 0.013525998516461678 -0.023210400603650674 0 0.010071869608809909 -0.016913615963847876 0 0.011908549948495347 -0.014498443579053029 0 0.0064692754031751409 -0.011790331606579801 0 0.0065182997936889574 -0.011976896151248884 0 0.0068583361418592878 -0.011959878185231778 0 0.0064171984870932596 -0.012350057255350199 0 0.0065182997936889574 -0.011976896151248884 0 0.0068583361418592878 -0.011959878185231778 0 0.006123526367099826 -0.012203416909544181 0 0.0064171984870932596 -0.012350057255350199 0 0.006017029160768691 -0.011879987380212667 0 0.0085487834378720449 -0.01352555808389215 0 0.0088720253160193031 -0.014157325009944616 0 0.006123526367099826 -0.012203416909544181 0 0.006017029160768691 -0.011879987380212667 0 0.0058691146199378293 -0.012065081649142799 0 0.0055128939813918571 -0.01184885527879484 0 0.0058691146199378293 -0.012065081649142799 0 0.0056548350774033359 -0.012098534462563921 0 0.0055128939813918571 -0.01184885527879484 0 0.0056512708622777057 -0.011761316460236645 0 0.0058691146199378293 -0.012065081649142799 0 0.0056512708622777057 -0.011761316460236645 0 0.006017029160768691 -0.011879987380212667 0 0.0058691146199378293 -0.012065081649142799 0 0.013605199348210398 -0.02297787017623314 0 0.013636920206677883 -0.02304110587378351 0 0.013553513993211584 -0.023069906610399933 0 0.013636920206677883 -0.02304110587378351 0 0.013553513993211584 -0.023069906610399933 0 0.013617912923095742 -0.023139651463013774 0 0.013553513993211584 -0.023069906610399933 0 0.013617912923095742 -0.023139651463013774 0 0.013525998516461678 -0.023210400603650674 0 0.013617912923095742 -0.023139651463013774 0 0.013603792931090231 -0.023261988259563077 0 0.013670470271202868 -0.02320157906120528 0 0.013617912923095742 -0.023139651463013774 0 0.013525998516461678 -0.023210400603650674 0 0.013603792931090231 -0.023261988259563077 0 0.013525998516461678 -0.023210400603650674 0 0.013478669755163436 -0.023309730343013504 0 0.013603792931090231 -0.023261988259563077 0 0.013563189044171059 -0.023304115693754724 0 0.013478669755163436 -0.023309730343013504 0 0.013603792931090231 -0.023261988259563077 0 0.013656295442963276 -0.023323836993338166 0 0.013563189044171059 -0.023304115693754724 0 0.013603792931090231 -0.023261988259563077 0 0.013656295442963276 -0.023323836993338166 0 0.013603792931090231 -0.023261988259563077 0 0.013735914137557027 -0.023277729057700224 0 0.013735914137557027 -0.023277729057700224 0 0.013670470271202868 -0.02320157906120528 0 0.013707171002098445 -0.023113679081510446 0 0.013603792931090231 -0.023261988259563077 0 0.013735914137557027 -0.023277729057700224 0 0.013670470271202868 -0.02320157906120528 0 0.013735914137557027 -0.023277729057700224 0 0.013760649585830528 -0.02315605942862017 0 0.013707171002098445 -0.023113679081510446 0 0.013735914137557027 -0.023277729057700224 0 0.013841337817787812 -0.023405123979155004 0 0.013760649585830528 -0.02315605942862017 0 0.013770585398449007 -0.023376653622225189 0 0.013735914137557027 -0.023277729057700224 0 0.013841337817787812 -0.023405123979155004 0 0.01417406303214366 -0.023011954296058602 0 0.014261649798359822 -0.022916698715637104 0 0.013841337817787812 -0.023405123979155004 0 0.01371274748666656 -0.023115001030295797 0 0.013760649585830528 -0.02315605942862017 0 0.014223497106263791 -0.02346072511144047 0 0.013841337817787812 -0.023405123979155004 0 0.014222541952726193 -0.023576106801975142 0 0.01371274748666656 -0.023115001030295797 0 0.013745014923870534 -0.022995310410807906 0 0.013781535422833504 -0.0229390706217273 0 0.01371274748666656 -0.023115001030295797 0 0.013760649585830528 -0.02315605942862017 0 0.013745014923870534 -0.022995310410807906 0 0.013760649585830528 -0.02315605942862017 0 0.013745014923870534 -0.022995310410807906 0 0.013707171002098445 -0.023113679081510446 0 0.013745014923870534 -0.022995310410807906 0 0.013704034713402527 -0.023014409374481869 0 0.013741414398457797 -0.022953089823688811 0 0.013636920206677883 -0.02304110587378351 0 0.013704034713402527 -0.023014409374481869 0 0.013707171002098445 -0.023113679081510446 0 0.013617912923095742 -0.023139651463013774 0 0.013670470271202868 -0.02320157906120528 0 0.013707171002098445 -0.023113679081510446 0 0.013636920206677883 -0.02304110587378351 0 0.013617912923095742 -0.023139651463013774 0 0.013707171002098445 -0.023113679081510446 0 0.013745014923870534 -0.022995310410807906 0 0.013704034713402527 -0.023014409374481869 0 0.013707171002098445 -0.023113679081510446 0 0.014604430672541658 -0.023353731209059127 0 0.014556208478985458 -0.023426950853652803 0 0.014568779203980078 -0.023346562616734585 0 0.014604430672541658 -0.023353731209059127 0 0.014573253774673667 -0.023419586692660425 0 0.014556208478985458 -0.023426950853652803 0 0.014515157680587417 -0.02347865398897174 0 0.014533458709736179 -0.023478768272770015 0 0.014573253774673667 -0.023419586692660425 0 0.014408032427190489 -0.023500383049369876 0 0.014515157680587417 -0.02347865398897174 0 0.014556208478985458 -0.023426950853652803 0 0.014515157680587417 -0.02347865398897174 0 0.014573253774673667 -0.023419586692660425 0 0.014556208478985458 -0.023426950853652803 0 0.014408032427190489 -0.023500383049369876 0 0.014222541952726193 -0.023576106801975142 0 0.014395184364391781 -0.023534661882166165 0 0.014408032427190489 -0.023500383049369876 0 0.014414151819849232 -0.023501639621175026 0 0.014395184364391781 -0.023534661882166165 0 0.014414151819849232 -0.023501639621175026 0 0.014395184364391781 -0.023534661882166165 0 0.014433071532639237 -0.023375856646961596 0 0.014987840084174621 -0.022996425639183773 0 0.01520919462802298 -0.022789349649877673 0 0.014261649798359822 -0.022916698715637104 0 0.014499729721240291 -0.02258803277266409 0 0.013745014923870534 -0.022995310410807906 0 0.013781535422833504 -0.0229390706217273 0 0.013833095829151579 -0.022890287565354505 0 0.013745014923870534 -0.022995310410807906 0 0.013833095829151579 -0.022890287565354505 0 0.013797764996537525 -0.022914166977725404 0 0.013833095829151579 -0.022890287565354505 0 0.013934172864904788 -0.022804382132029444 0 0.013991348985246645 -0.022833159254724018 0 0.013833095829151579 -0.022890287565354505 0 0.013991348985246645 -0.022833159254724018 0 0.013908400883864927 -0.022896755354877119 0 0.013781535422833504 -0.0229390706217273 0 0.013833095829151579 -0.022890287565354505 0 0.013934172864904788 -0.022804382132029444 0 0.014499729721240291 -0.02258803277266409 0 0.014939772267114336 -0.021897100904394059 0 0.01520919462802298 -0.022789349649877673 0 0.015928632345428736 -0.021908039845053958 0 0.014414151819849232 -0.023501639621175026 0 0.014433071532639237 -0.023375856646961596 0 0.014342225144948274 -0.023316384797655042 0 0.014939772267114336 -0.021897100904394059 0 0.015757996888222606 -0.02054045627649034 0 0.013934172864904788 -0.022804382132029444 0 0.013991348985246645 -0.022833159254724018 0 0.014182286524614184 -0.022740897509008522 0 0.013991348985246645 -0.022833159254724018 0 0.014182286524614184 -0.022740897509008522 0 0.014140240669607798 -0.022875086138524091 0 0.014433071532639237 -0.023375856646961596 0 0.014354845780969291 -0.023142640097181033 0 0.014342225144948274 -0.023316384797655042 0 0.014233898276713767 -0.022942594984577066 0 0.014354845780969291 -0.023142640097181033 0 0.014342225144948274 -0.023316384797655042 0 0.0147383701337342 -0.023254640302100713 0 0.014604430672541658 -0.023353731209059127 0 0.014568779203980078 -0.023346562616734585 0 0.022864960159649537 -0.0042781987005746022 0 0.02187210374015032 -0.0027922343981464206 0 0.021254944531678012 -0.0044482276887476994 0 0.014448773342888381 -0.022778587254484579 0 0.014182286524614184 -0.022740897509008522 0 0.014140240669607798 -0.022875086138524091 0 0.02187210374015032 -0.0027922343981464206 0 0.020478756023580097 -0.0038588999401534727 0 0.020312543444857761 -0.0029223749228219089 0 0.013991348985246645 -0.022833159254724018 0 0.014140240669607798 -0.022875086138524091 0 0.013908400883864927 -0.022896755354877119 0 0.017759790264912197 -0.014757708612010664 0 0.017114740147965511 -0.013640138224373185 0 0.02187210374015032 -0.0027922343981464206 0 0.020478756023580097 -0.0038588999401534727 0 0.021254944531678012 -0.0044482276887476994 0 0.020478756023580097 -0.0038588999401534727 0 0.020312543444857761 -0.0029223749228219089 0 0.018832030388516958 -0.0030364448293570554 0 0.013833095829151579 -0.022890287565354505 0 0.013908400883864927 -0.022896755354877119 0 0.013797764996537525 -0.022914166977725404 0 0.017114740147965511 -0.013640138224373185 0 0.016335045050791572 -0.012945289309531899 0 0.020478756023580097 -0.0038588999401534727 0 0.018832030388516958 -0.0030364448293570554 0 0.018806924234602819 -0.0041425655501631936 0 0.019881390573978981 -0.004641620332037715 0 0.018806924234602819 -0.0041425655501631936 0 0.018538125875100227 -0.005144410014017449 0 0.020478756023580097 -0.0038588999401534727 0 0.019881390573978981 -0.004641620332037715 0 0.018806924234602819 -0.0041425655501631936 0 0.018538125875100227 -0.005144410014017449 0 0.018408764149409129 -0.0058837400156629893 0 0.019590285320071572 -0.0062060163942738861 0 0.019881390573978981 -0.004641620332037715 0 0.018538125875100227 -0.005144410014017449 0 0.019590285320071572 -0.0062060163942738861 0 0.019881390573978981 -0.004641620332037715 0 0.02066560619363824 -0.0053725003586342444 0 0.019590285320071572 -0.0062060163942738861 0 0.02066560619363824 -0.0053725003586342444 0 0.021057263952372982 -0.0058777292764993321 0 0.019590285320071572 -0.0062060163942738861 0 0.020478756023580097 -0.0038588999401534727 0 0.019881390573978981 -0.004641620332037715 0 0.021254944531678012 -0.0044482276887476994 0 0.019881390573978981 -0.004641620332037715 0 0.021254944531678012 -0.0044482276887476994 0 0.02066560619363824 -0.0053725003586342444 0 0.021254944531678012 -0.0044482276887476994 0 0.02066560619363824 -0.0053725003586342444 0 0.021198414354126102 -0.0052030683242412709 0 0.021254944531678012 -0.0044482276887476994 0 0.021198414354126102 -0.0052030683242412709 0 0.021730624597575261 -0.0051849615884910008 0 0.02066560619363824 -0.0053725003586342444 0 0.021057263952372982 -0.0058777292764993321 0 0.021198414354126102 -0.0052030683242412709 0 0.021057263952372982 -0.0058777292764993321 0 0.021198414354126102 -0.0052030683242412709 0 0.021730624597575261 -0.0051849615884910008 0 0.021057263952372982 -0.0058777292764993321 0 0.021730624597575261 -0.0051849615884910008 0 0.022591363809966569 -0.0055242294315597726 0 0.023849009369141434 -0.00018130418365408082 0 0.025734378365390463 -0.0013501623298954046 0 0.022864960159649537 -0.0042781987005746022 0 0.021254944531678012 -0.0044482276887476994 0 0.021730624597575261 -0.0051849615884910008 0 0.022864960159649537 -0.0042781987005746022 0 0.021730624597575261 -0.0051849615884910008 0 0.022591363809966569 -0.0055242294315597726 0 0.016709854765560004 -0.003932036041113968 0 0.015578962832896431 -0.0040725125144377679 0 0.016439131734080108 -0.0048439672349373181 0 0.016709854765560004 -0.003932036041113968 0 0.015578962832896431 -0.0040725125144377679 0 0.016058754862398512 -0.0032366809554639818 0 0.014734364177892884 -0.0033379777989391035 0 0.015578962832896431 -0.0040725125144377679 0 0.016058754862398512 -0.0032366809554639818 0 0.013636920206677883 -0.02304110587378351 0 0.013704034713402527 -0.023014409374481869 0 0.013674139169999757 -0.022984053434010027 0 0.016709854765560004 -0.003932036041113968 0 0.016058754862398512 -0.0032366809554639818 0 0.017418559139302358 -0.0031375400711026627 0 0.014621875782975363 -0.011056352215215174 0 0.015543466663749162 -0.012233065601999946 0 0.013704034713402527 -0.023014409374481869 0 0.013674139169999757 -0.022984053434010027 0 0.013741414398457797 -0.022953089823688811 0 0.013745014923870534 -0.022995310410807906 0 0.013797764996537525 -0.022914166977725404 0 0.013741414398457797 -0.022953089823688811 0 0.016335045050791572 -0.012945289309531899 0 0.015543466663749162 -0.012233065601999946 0 0.018832030388516958 -0.0030364448293570554 0 0.017418559139302358 -0.0031375400711026627 0 0.018806924234602819 -0.0041425655501631936 0 0.017418559139302358 -0.0031375400711026627 0 0.018806924234602819 -0.0041425655501631936 0 0.017575509049876925 -0.004448691962369601 0 0.016709854765560004 -0.003932036041113968 0 0.017418559139302358 -0.0031375400711026627 0 0.017575509049876925 -0.004448691962369601 0 0.018806924234602819 -0.0041425655501631936 0 0.017575509049876925 -0.004448691962369601 0 0.018538125875100227 -0.005144410014017449 0 0.018538125875100227 -0.005144410014017449 0 0.017319616808285067 -0.0056686582694909721 0 0.018408764149409129 -0.0058837400156629893 0 0.017575509049876925 -0.004448691962369601 0 0.018538125875100227 -0.005144410014017449 0 0.017319616808285067 -0.0056686582694909721 0 0.017048657844869974 -0.00041237856094165649 0 0.015230197606843779 -0.001353975196776674 0 0.016109975423000505 0.0042114879885518193 0 0.015311497773164812 0.0046520951918145393 0 0.015576919297960899 0.0039618784728346311 0 0.016709854765560004 -0.003932036041113968 0 0.017575509049876925 -0.004448691962369601 0 0.016439131734080108 -0.0048439672349373181 0 0.017575509049876925 -0.004448691962369601 0 0.017319616808285067 -0.0056686582694909721 0 0.016439131734080108 -0.0048439672349373181 0 0.014677207973633208 0.0047666409840846462 0 0.015311497773164812 0.0046520951918145393 0 0.014710393932101285 0.0045706378703161922 0 0.013540491029060601 -0.0032881371979233778 0 0.015230197606843779 -0.001353975196776674 0 0.015311497773164812 0.0046520951918145393 0 0.015031169703711713 0.0041795079557250371 0 0.015576919297960899 0.0039618784728346311 0 0.015311497773164812 0.0046520951918145393 0 0.014710393932101285 0.0045706378703161922 0 0.015031169703711713 0.0041795079557250371 0 0.015031169703711713 0.0041795079557250371 0 0.015300300060601338 0.0037350524957628067 0 0.014974108665503657 0.0035419824301990035 0 0.015031169703711713 0.0041795079557250371 0 0.015300300060601338 0.0037350524957628067 0 0.015576919297960899 0.0039618784728346311 0 0.014123002244835401 0.0046900837367564998 0 0.014315582276957443 0.0045989146981806426 0 0.014152146141622772 0.0046795852811804583 0 0.014974108665503657 0.0035419824301990035 0 0.015406943304226057 0.0034429581831722971 0 0.015537496396577999 0.0030993427906281573 0 0.014907462492201314 0.004294371316717522 0 0.015404777648925068 0.0041202173760201541 0 0.015300300060601338 0.0037350524957628067 0 0.014974108665503657 0.0035419824301990035 0 0.015406943304226057 0.0034429581831722971 0 0.015300300060601338 0.0037350524957628067 0 0.015406943304226057 0.0034429581831722971 0 0.015592846917390163 0.0035773023806150209 0 0.015931225636302275 0.0033434246221532684 0 0.015632325009889127 0.003332380297758575 0 0.015592846917390163 0.0035773023806150209 0 0.015406943304226057 0.0034429581831722971 0 0.015632325009889127 0.003332380297758575 0 0.015592846917390163 0.0035773023806150209 0 0.016109975423000505 0.0042114879885518193 0 0.015576919297960899 0.0039618784728346311 0 0.016198921453067484 0.0034604579378024864 0 0.015592846917390163 0.0035773023806150209 0 0.015576919297960899 0.0039618784728346311 0 0.016198921453067484 0.0034604579378024864 0 0.015300300060601338 0.0037350524957628067 0 0.015592846917390163 0.0035773023806150209 0 0.015576919297960899 0.0039618784728346311 0 0.017319616808285067 -0.0056686582694909721 0 0.018408764149409129 -0.0058837400156629893 0 0.0182109359310468 -0.0065230689342367981 0 0.018969258167131332 0.0007342794915517674 0 0.018282924767589363 0.00094513671718455172 0 0.017048657844869974 -0.00041237856094165649 0 0.018969258167131332 0.0007342794915517674 0 0.016109975423000505 0.0042114879885518193 0 0.016816857009405887 0.0036010409529949089 0 0.016198921453067484 0.0034604579378024864 0 0.018408764149409129 -0.0058837400156629893 0 0.0182109359310468 -0.0065230689342367981 0 0.019590285320071572 -0.0062060163942738861 0 0.017232463853214253 0.0038050658650744598 0 0.016723518223589046 0.0031377744880081936 0 0.018506966898609544 0.0026063923642682132 0 0.017520987746552089 0.0030542918959830618 0 0.021167435321301092 0.0020257565569103022 0 0.018969258167131332 0.0007342794915517674 0 0.021167435321301092 0.0020257565569103022 0 0.016288628535306132 0.0035448147435774425 0 0.016565301607128293 0.003332482724889012 0 0.016893274430691756 0.0033654796717195331 0 0.016288628535306132 0.0035448147435774425 0 0.016283713355823366 0.0032585924884958629 0 0.016565301607128293 0.003332482724889012 0 0.015931225636302275 0.0033434246221532684 0 0.015592846917390163 0.0035773023806150209 0 0.016288628535306132 0.0035448147435774425 0 0.015592846917390163 0.0035773023806150209 0 0.016198921453067484 0.0034604579378024864 0 0.016723518223589046 0.0031377744880081936 0 0.017232463853214253 0.0038050658650744598 0 0.016198921453067484 0.0034604579378024864 0 0.016723518223589046 0.0031377744880081936 0 0.016652902907298019 0.0032806881261776086 0 0.017520987746552089 0.0030542918959830618 0 0.015931225636302275 0.0033434246221532684 0 0.016288628535306132 0.0035448147435774425 0 0.016283713355823366 0.0032585924884958629 0 0.015931225636302275 0.0033434246221532684 0 0.016283713355823366 0.0032585924884958629 0 0.016077507777769819 0.0031659487844253754 0 0.016283713355823366 0.0032585924884958629 0 0.016270072856277511 0.0030816721899870341 0 0.016077507777769819 0.0031659487844253754 0 0.016283713355823366 0.0032585924884958629 0 0.016270072856277511 0.0030816721899870341 0 0.01649289317136712 0.0030783025867875615 0 0.016270072856277511 0.0030816721899870341 0 0.016077507777769819 0.0031659487844253754 0 0.016136402073997084 0.0030067478607497121 0 0.017702833927299103 0.0043099170726889277 0 0.019251940806646158 0.0057107745188510195 0 0.019035504535430507 0.0035013664553368183 0 0.019309105780756949 0.0020844467984590508 0 0.021167435321301092 0.0020257565569103022 0 0.016565301607128293 0.003332482724889012 0 0.01649289317136712 0.0030783025867875615 0 0.016893274430691756 0.0033654796717195331 0 0.016283713355823366 0.0032585924884958629 0 0.016565301607128293 0.003332482724889012 0 0.01649289317136712 0.0030783025867875615 0 0.017644056688172274 0.0030650593198836978 0 0.017021761912330059 0.0031928708585988847 0 0.018148615697692001 0.0035256383355788366 0 0.017702833927299103 0.0043099170726889277 0 0.017021761912330059 0.0031928708585988847 0 0.019035504535430507 0.0035013664553368183 0 0.01903006761656241 0.0027668302843357 0 0.02006736907807154 0.0028370644395104409 0 0.017644056688172274 0.0030650593198836978 0 0.017021761912330059 0.0031928708585988847 0 0.017026451069619575 0.0027740419818322172 0 0.016077507777769819 0.0031659487844253754 0 0.016136402073997084 0.0030067478607497121 0 0.015885164368887129 0.0029731751011200023 0 0.016270072856277511 0.0030816721899870341 0 0.016136402073997084 0.0030067478607497121 0 0.01632215778039544 0.0029362953892361526 0 0.017702833927299103 0.0043099170726889277 0 0.017021761912330059 0.0031928708585988847 0 0.01632215778039544 0.0029362953892361526 0 0.016270072856277511 0.0030816721899870341 0 0.01649289317136712 0.0030783025867875615 0 0.01632215778039544 0.0029362953892361526 0 0.019309105780756949 0.0020844467984590508 0 0.018639446369924036 0.0019943075234515471 0 0.017021761912330059 0.0031928708585988847 0 0.016463253637897614 0.0026792512388928366 0 0.017026451069619575 0.0027740419818322172 0 0.017021761912330059 0.0031928708585988847 0 0.01632215778039544 0.0029362953892361526 0 0.016463253637897614 0.0026792512388928366 0 0.01632215778039544 0.0029362953892361526 0 0.016119216382828917 0.0028550972254192371 0 0.016463253637897614 0.0026792512388928366 0 0.016136402073997084 0.0030067478607497121 0 0.01632215778039544 0.0029362953892361526 0 0.016119216382828917 0.0028550972254192371 0 0.015404777648925068 0.0041202173760201541 0 0.016210024371883732 0.0042105323298073033 0 0.016119216382828917 0.0028550972254192371 0 0.015885164368887129 0.0029731751011200023 0 0.015862889931426715 0.0025233376062505893 0 0.015885164368887129 0.0029731751011200023 0 0.015537496396577999 0.0030993427906281573 0 0.015862889931426715 0.0025233376062505893 0 0.014315582276957443 0.0045989146981806426 0 0.014304914100106297 0.0043737331601018505 0 0.014506008979985878 0.004331298978319127 0 0.016136402073997084 0.0030067478607497121 0 0.016119216382828917 0.0028550972254192371 0 0.015885164368887129 0.0029731751011200023 0 0.014229889829527437 0.0044919710785969666 0 0.014315582276957443 0.0045989146981806426 0 0.014161668267149216 0.0045719733642999904 0 0.014229889829527437 0.0044919710785969666 0 0.014315582276957443 0.0045989146981806426 0 0.014304914100106297 0.0043737331601018505 0 0.014229889829527437 0.0044919710785969666 0 0.014304914100106297 0.0043737331601018505 0 0.01414203104841625 0.0044197946141346246 0 0.014315582276957443 0.0045989146981806426 0 0.014161668267149216 0.0045719733642999904 0 0.014152146141622772 0.0046795852811804583 0 0.015406943304226057 0.0034429581831722971 0 0.015632325009889127 0.003332380297758575 0 0.015537496396577999 0.0030993427906281573 0 0.015632325009889127 0.003332380297758575 0 0.015537496396577999 0.0030993427906281573 0 0.015787457475992455 0.0031696509700027435 0 0.015931225636302275 0.0033434246221532684 0 0.016077507777769819 0.0031659487844253754 0 0.015787457475992455 0.0031696509700027435 0 0.015931225636302275 0.0033434246221532684 0 0.015632325009889127 0.003332380297758575 0 0.015787457475992455 0.0031696509700027435 0 0.016077507777769819 0.0031659487844253754 0 0.015885164368887129 0.0029731751011200023 0 0.015787457475992455 0.0031696509700027435 0 0.015885164368887129 0.0029731751011200023 0 0.015537496396577999 0.0030993427906281573 0 0.015787457475992455 0.0031696509700027435 0 0.030355713603812749 0.0007464186483629974 0 0.030347334464918618 0.00067318769322030256 0 0.030311986402780645 0.0007563009997305026 0 0.030321986045505653 0.00082948111291028298 0 0.03035889401264965 0.00085846106255561046 0 0.030355713603812749 0.0007464186483629974 0 0.03035889401264965 0.00085846106255561046 0 0.030355713603812749 0.0007464186483629974 0 0.030311986402780645 0.0007563009997305026 0 0.030319492958258636 0.00054623222987835833 0 0.030355713603812749 0.0007464186483629974 0 0.030347334464918618 0.00067318769322030256 0 0.030319492958258636 0.00054623222987835833 0 0.030357269672272223 0.00036157988898790749 0 0.030347334464918618 0.00067318769322030256 0 0.030289091292455834 0.00073104582347296326 0 0.030357269672272223 0.00036157988898790749 0 0.030347334464918618 0.00067318769322030256 0 0.030347334464918618 0.00067318769322030256 0 0.030220224039159471 0.00071081537070542291 0 0.030232015129770157 0.00066964479567875254 0 0.030289091292455834 0.00073104582347296326 0 0.030220224039159471 0.00071081537070542291 0 0.029830165850694267 0.00078305595658542996 0 0.030289091292455834 0.00073104582347296326 0 0.030347334464918618 0.00067318769322030256 0 0.030220224039159471 0.00071081537070542291 0 0.030347334464918618 0.00067318769322030256 0 0.030232015129770157 0.00066964479567875254 0 0.030311986402780645 0.0007563009997305026 0 0.030232015129770157 0.00066964479567875254 0 0.030311986402780645 0.0007563009997305026 0 0.030272809738535463 0.00076041427476109381 0 0.025841196434938121 0.0020472296709575276 0 0.025304379877350121 0.0022458598159419119 0 0.029844886753495947 0.00044469880398532557 0 0.029029604985153595 0.0002575019824558409 0 0.030022200686671573 4.920470654500753e-05 0 0.030232015129770157 0.00066964479567875254 0 0.029844886753495947 0.00044469880398532557 0 0.030022200686671573 4.920470654500753e-05 0 0.029844886753495947 0.00044469880398532557 0 0.029830165850694267 0.00078305595658542996 0 0.029029604985153595 0.0002575019824558409 0 0.030232015129770157 0.00066964479567875254 0 0.029844886753495947 0.00044469880398532557 0 0.029830165850694267 0.00078305595658542996 0 0.023849009369141434 -0.00018130418365408082 0 0.0206470747800254 -0.00057637445942489943 0 0.022733816924552619 0.00087052733986838643 0 0.022043123353056998 0.00029420022101240114 0 0.021675529671570881 0.00062761673255635846 0 0.023849009369141434 -0.00018130418365408082 0 0.023662584802272901 0.0013155058771044143 0 0.030220224039159471 0.00071081537070542291 0 0.030232015129770157 0.00066964479567875254 0 0.029830165850694267 0.00078305595658542996 0 0.018969258167131332 0.0007342794915517674 0 0.0206470747800254 -0.00057637445942489943 0 0.022043123353056998 0.00029420022101240114 0 0.021675529671570881 0.00062761673255635846 0 0.021404981804995567 0.00014240866639894786 0 0.02064360048812337 0.00036054566619159656 0 0.021675529671570881 0.00062761673255635846 0 0.021404981804995567 0.00014240866639894786 0 0.023662584802272901 0.0013155058771044143 0 0.021167435321301092 0.0020257565569103022 0 0.022043123353056998 0.00029420022101240114 0 0.021404981804995567 0.00014240866639894786 0 0.021341335340424827 -0.0003209907291375528 0 0.02064360048812337 0.00036054566619159656 0 0.021404981804995567 0.00014240866639894786 0 0.021341335340424827 -0.0003209907291375528 0 0.021167435321301092 0.0020257565569103022 0 0.023296087151970877 0.0030284832570587517 0 0.019251940806646158 0.0057107745188510195 0 0.019035504535430507 0.0035013664553368183 0 0.021077521203437755 0.003892198694516083 0 0.022812529269962238 0.0018738705517652365 0 0.023032715606288483 0.0016958386352473689 0 0.022966633723765981 0.0017955001533284326 0 0.02006736907807154 0.0028370644395104409 0 0.023296087151970877 0.0030284832570587517 0 0.018148615697692001 0.0035256383355788366 0 0.018585780391486589 0.0034844588749689872 0 0.018431150319435565 0.0033553196231491029 0 0.017644056688172274 0.0030650593198836978 0 0.018148615697692001 0.0035256383355788366 0 0.01833479706542172 0.0032098324086757934 0 0.018148615697692001 0.0035256383355788366 0 0.01833479706542172 0.0032098324086757934 0 0.018431150319435565 0.0033553196231491029 0 0.01833479706542172 0.0032098324086757934 0 0.018431150319435565 0.0033553196231491029 0 0.01834916939599877 0.0032534607806595619 0 0.018431150319435565 0.0033553196231491029 0 0.018612012051655434 0.003446662034580595 0 0.01834916939599877 0.0032534607806595619 0 0.023789154793652373 0.0039038044502769345 0 0.023707446352278162 0.0040042165844615405 0 0.023824135312303738 0.004027898372984339 0 0.023696482674811278 0.0030570447877709219 0 0.023064462073157332 0.0040833646228506009 0 0.018585780391486589 0.0034844588749689872 0 0.018431150319435565 0.0033553196231491029 0 0.018612012051655434 0.003446662034580595 0 0.025568282441928904 0.0030862960797171293 0 0.025598351963526108 0.0031774683071192382 0 0.02620239362294274 0.0024658098042026053 0 0.023696482674811278 0.0030570447877709219 0 0.023876445165006397 0.0029743421460395355 0 0.025884202701238077 0.0017148500372777724 0 0.023917778877464314 0.003704453171550025 0 0.023089995987282692 0.0011513148111270929 0 0.023296087151970877 0.0030284832570587517 0 0.023876445165006397 0.0029743421460395355 0 0.023296087151970877 0.0030284832570587517 0 0.023696482674811278 0.0030570447877709219 0 0.023876445165006397 0.0029743421460395355 0 0.025304379877350121 0.0022458598159419119 0 0.023059590372248976 0.0017009153588102488 0 0.022966633723765981 0.0017955001533284326 0 0.023105354124536778 0.0018261985841764676 0 0.022812529269962238 0.0018738705517652365 0 0.022966633723765981 0.0017955001533284326 0 0.023105354124536778 0.0018261985841764676 0 0.021167435321301092 0.0020257565569103022 0 0.025304379877350121 0.0022458598159419119 0 0.023032715606288483 0.0016958386352473689 0 0.023059590372248976 0.0017009153588102488 0 0.022966633723765981 0.0017955001533284326 0 0.023876445165006397 0.0029743421460395355 0 0.027551374173351871 0.0024484086177290858 0 0.025304379877350121 0.0022458598159419119 0 0.027551374173351871 0.0024484086177290858 0 0.024788505410351155 0.0026072686847151468 0 0.025022699750102052 0.0033055101395459111 0 0.026489136308827915 0.0029392448039540493 0 0.030311986402780645 0.0007563009997305026 0 0.030272809738535463 0.00076041427476109381 0 0.030329431043790392 0.00087131361550085511 0 0.025598351963526108 0.0031774683071192382 0 0.02682968061449725 0.0034206859582665027 0 0.02620239362294274 0.0024658098042026053 0 0.023696482674811278 0.0030570447877709219 0 0.025512405565726964 0.0035879800734720762 0 0.027131357902020505 0.002607394647827244 0 0.02682968061449725 0.0034206859582665027 0 0.02620239362294274 0.0024658098042026053 0 0.028150515869991562 0.0024332113321103061 0 0.027551374173351871 0.0024484086177290858 0 0.03035889401264965 0.00085846106255561046 0 0.030311986402780645 0.0007563009997305026 0 0.030329431043790392 0.00087131361550085511 0 0.030361933765503526 0.0010600039018977725 0 0.03035889401264965 0.00085846106255561046 0 0.030329431043790392 0.00087131361550085511 0 0.029144097365572316 0.0047313832331533131 0 0.028626221531053188 0.0050764606864362547 0 0.028862818867742449 0.0049348210308554699 0 0.028626221531053188 0.0050764606864362547 0 0.028862818867742449 0.0049348210308554699 0 0.028431718005716772 0.0051618085813200992 0 0.028994711519642381 0.0049639740784553042 0 0.028862818867742449 0.0049348210308554699 0 0.02853727050054743 0.0051850947955114114 0 0.028994711519642381 0.0049639740784553042 0 0.02853727050054743 0.0051850947955114114 0 0.028427919558705158 0.0053000325423431258 0 0.027421950196569886 0.0035509179263771679 0 0.025512405565726964 0.0035879800734720762 0 0.028862818867742449 0.0049348210308554699 0 0.02853727050054743 0.0051850947955114114 0 0.028431718005716772 0.0051618085813200992 0 0.02853727050054743 0.0051850947955114114 0 0.028271799132559266 0.0052633009843219601 0 0.028431718005716772 0.0051618085813200992 0 0.02853727050054743 0.0051850947955114114 0 0.028352831886738823 0.0053502071621273524 0 0.028271799132559266 0.0052633009843219601 0 0.025603868296877798 0.0035827751645665269 0 0.025512405565726964 0.0035879800734720762 0 0.028271799132559266 0.0052633009843219601 0 0.028431718005716772 0.0051618085813200992 0 0.028160876288879574 0.0052511778696992892 0 0.028431718005716772 0.0051618085813200992 0 0.028135049620345701 0.0052399081273019543 0 0.028160876288879574 0.0052511778696992892 0 0.028626221531053188 0.0050764606864362547 0 0.028431718005716772 0.0051618085813200992 0 0.028135049620345701 0.0052399081273019543 0 0.028626221531053188 0.0050764606864362547 0 0.028135049620345701 0.0052399081273019543 0 0.02791488264007698 0.0053444419830924158 0 0.028135049620345701 0.0052399081273019543 0 0.028160876288879574 0.0052511778696992892 0 0.027997211301823019 0.0054494088360454067 0 0.028160876288879574 0.0052511778696992892 0 0.028078184057409934 0.0052932985668154705 0 0.027997211301823019 0.0054494088360454067 0 0.028352831886738823 0.0053502071621273524 0 0.028271799132559266 0.0052633009843219601 0 0.028078184057409934 0.0052932985668154705 0 0.025512405565726964 0.0035879800734720762 0 0.023064462073157332 0.0040833646228506009 0 0.028271799132559266 0.0052633009843219601 0 0.028160876288879574 0.0052511778696992892 0 0.028078184057409934 0.0052932985668154705 0 0.01833479706542172 0.0032098324086757934 0 0.01834916939599877 0.0032534607806595619 0 0.0184491180258941 0.0036390622205126474 0 0.018268058971305467 0.0043038794411305193 0 0.018553990322973515 0.0043518350309251219 0 0.018385833536889849 0.0048698447605957321 0 0.023064462073157332 0.0040833646228506009 0 0.020646505371346772 0.0038737811060466998 0 0.018553990322973515 0.0043518350309251219 0 0.018385833536889849 0.0048698447605957321 0 0.018652648036323539 0.0046821040512057335 0 0.023064462073157332 0.0040833646228506009 0 0.023028401278440854 0.00507826435615121 0 0.023028401278440854 0.00507826435615121 0 0.022810993114894464 0.0056920427865418703 0 0.018385833536889849 0.0048698447605957321 0 0.018535897154464381 0.0054540665746983814 0 0.018822655117940335 0.005048135529921202 0 0.027997211301823019 0.0054494088360454067 0 0.027591789691794516 0.0064861135648986348 0 0.027678441316066938 0.0061515064867234109 0 0.027591789691794516 0.0064861135648986348 0 0.027678441316066938 0.0061515064867234109 0 0.027304715183618891 0.0068262407514002813 0 0.027678441316066938 0.0061515064867234109 0 0.027175591436355964 0.0066823896890930165 0 0.027304715183618891 0.0068262407514002813 0 0.028135049620345701 0.0052399081273019543 0 0.027997211301823019 0.0054494088360454067 0 0.02791488264007698 0.0053444419830924158 0 0.027997211301823019 0.0054494088360454067 0 0.027678441316066938 0.0061515064867234109 0 0.02791488264007698 0.0053444419830924158 0 0.028626221531053188 0.0050764606864362547 0 0.02791488264007698 0.0053444419830924158 0 0.02894256605654839 0.0049048499232429779 0 0.028254496102661834 0.0058430565893230228 0 0.02834453112372191 0.0059760161137346734 0 0.02791488264007698 0.0053444419830924158 0 0.02894256605654839 0.0049048499232429779 0 0.029216623332154947 0.0046735922724806082 0 0.027678441316066938 0.0061515064867234109 0 0.02791488264007698 0.0053444419830924158 0 0.027175591436355964 0.0066823896890930165 0 0.029282400016290146 0.0047381025158047879 0 0.029216623332154947 0.0046735922724806082 0 0.029344191452582807 0.005013730028423812 0 0.029282400016290146 0.0047381025158047879 0 0.02894256605654839 0.0049048499232429779 0 0.029216623332154947 0.0046735922724806082 0 0.029144097365572316 0.0047313832331533131 0 0.028626221531053188 0.0050764606864362547 0 0.02894256605654839 0.0049048499232429779 0 0.029144097365572316 0.0047313832331533131 0 0.029282400016290146 0.0047381025158047879 0 0.02894256605654839 0.0049048499232429779 0 0.019314159494591896 0.0046843037901129706 0 0.019145331829972603 0.0047664307679647199 0 0.019315573336650613 0.0051317624552207723 0 0.019314159494591896 0.0046843037901129706 0 0.019758518995642523 0.0048966450792019001 0 0.019315573336650613 0.0051317624552207723 0 0.017917637227957826 0.0050637897901162042 0 0.018474626453064736 0.0049134362187057724 0 0.017840943962789162 0.0046815315376947612 0 0.017917637227957826 0.0050637897901162042 0 0.016905025268533491 0.0045644482652113473 0 0.016796199908542291 0.0045387423643661693 0 0.016837460052078014 0.0045931684659934208 0 0.016796199908542291 0.0045387423643661693 0 0.016837460052078014 0.0045931684659934208 0 0.016784285581575197 0.0046056765943677499 0 0.016837460052078014 0.0045931684659934208 0 0.016825644306353821 0.004651692687318602 0 0.016889559026540237 0.004599489879289871 0 0.016784285581575197 0.0046056765943677499 0 0.016825644306353821 0.004651692687318602 0 0.01673571173681504 0.0046747151473599917 0 0.015834533709580038 0.0045877664155923393 0 0.015716713380744891 0.0049414159629407395 0 0.016837460052078014 0.0045931684659934208 0 0.016784285581575197 0.0046056765943677499 0 0.016825644306353821 0.004651692687318602 0 0.016825644306353821 0.004651692687318602 0 0.016889559026540237 0.004599489879289871 0 0.016915883291717653 0.0046230611670223069 0 0.015834533709580038 0.0045877664155923393 0 0.016210024371883732 0.0042105323298073033 0 0.016905025268533491 0.0045644482652113473 0 0.016837460052078014 0.0045931684659934208 0 0.016889559026540237 0.004599489879289871 0 0.016905025268533491 0.0045644482652113473 0 0.016889559026540237 0.004599489879289871 0 0.016927885975287927 0.0045983437100564134 0 0.016889559026540237 0.004599489879289871 0 0.016927885975287927 0.0045983437100564134 0 0.016915883291717653 0.0046230611670223069 0 0.016214932546318828 0.0042141300582674741 0 0.016210024371883732 0.0042105323298073033 0 0.015862889931426715 0.0025233376062505893 0 0.016463253637897614 0.0026792512388928366 0 0.016795324470042595 0.0022123243795081856 0 0.016927885975287927 0.0045983437100564134 0 0.016916704533650535 0.0046171285150364023 0 0.017014671591376929 0.0045836556397316061 0 0.016905025268533491 0.0045644482652113473 0 0.016927885975287927 0.0045983437100564134 0 0.017014671591376929 0.0045836556397316061 0 0.017840943962789162 0.0046815315376947612 0 0.017308253315906609 0.0042029970177835524 0 0.016210024371883732 0.0042105323298073033 0 0.017308253315906609 0.0042029970177835524 0 0.016119216382828917 0.0028550972254192371 0 0.015862889931426715 0.0025233376062505893 0 0.016463253637897614 0.0026792512388928366 0 0.016463253637897614 0.0026792512388928366 0 0.016795324470042595 0.0022123243795081856 0 0.017026451069619575 0.0027740419818322172 0 0.018979216663810344 0.0043437510971246146 0 0.018934917740200504 0.0044920033682609101 0 0.019145331829972603 0.0047664307679647199 0 0.018942090461694032 0.0043141776320241645 0 0.018979216663810344 0.0043437510971246146 0 0.018934917740200504 0.0044920033682609101 0 0.017320555118169829 0.0042013223551153655 0 0.017308253315906609 0.0042029970177835524 0 0.018553990322973515 0.0043518350309251219 0 0.018880234601952664 0.0042904937467164121 0 0.018767779483201998 0.0045021252959446586 0 0.01833479706542172 0.0032098324086757934 0 0.0184491180258941 0.0036390622205126474 0 0.018880234601952664 0.0042904937467164121 0 0.01833479706542172 0.0032098324086757934 0 0.018942090461694032 0.0043141776320241645 0 0.018880234601952664 0.0042904937467164121 0 0.017644056688172274 0.0030650593198836978 0 0.01833479706542172 0.0032098324086757934 0 0.016795324470042595 0.0022123243795081856 0 0.01833479706542172 0.0032098324086757934 0 0.018942090461694032 0.0043141776320241645 0 0.019004251002800947 0.0043472214821529192 0 0.020646505371346772 0.0038737811060466998 0 0.020118267670167844 0.0038536419533724314 0 0.017536737487649397 0.0039709213780580533 0 0.017308253315906609 0.0042029970177835524 0 0.017644056688172274 0.0030650593198836978 0 0.016795324470042595 0.0022123243795081856 0 0.017026451069619575 0.0027740419818322172 0 0.018942090461694032 0.0043141776320241645 0 0.018934917740200504 0.0044920033682609101 0 0.018880234601952664 0.0042904937467164121 0 0.018934917740200504 0.0044920033682609101 0 0.018880234601952664 0.0042904937467164121 0 0.018767779483201998 0.0045021252959446586 0 0.018553990322973515 0.0043518350309251219 0 0.018767779483201998 0.0045021252959446586 0 0.018652648036323539 0.0046821040512057335 0 0.018385833536889849 0.0048698447605957321 0 0.018652648036323539 0.0046821040512057335 0 0.018822655117940335 0.005048135529921202 0 0.018767779483201998 0.0045021252959446586 0 0.018652648036323539 0.0046821040512057335 0 0.018877131183179741 0.0047137384633283439 0 0.018934917740200504 0.0044920033682609101 0 0.018767779483201998 0.0045021252959446586 0 0.018877131183179741 0.0047137384633283439 0 0.018877131183179741 0.0047137384633283439 0 0.018994215852774162 0.0049042783553566484 0 0.018822655117940335 0.005048135529921202 0 0.018652648036323539 0.0046821040512057335 0 0.018877131183179741 0.0047137384633283439 0 0.018822655117940335 0.005048135529921202 0 0.019314159494591896 0.0046843037901129706 0 0.018979216663810344 0.0043437510971246146 0 0.019145331829972603 0.0047664307679647199 0 0.019145331829972603 0.0047664307679647199 0 0.018994215852774162 0.0049042783553566484 0 0.019148229271738048 0.0051207131684615007 0 0.018934917740200504 0.0044920033682609101 0 0.018877131183179741 0.0047137384633283439 0 0.019145331829972603 0.0047664307679647199 0 0.018877131183179741 0.0047137384633283439 0 0.019145331829972603 0.0047664307679647199 0 0.018994215852774162 0.0049042783553566484 0 0.018994215852774162 0.0049042783553566484 0 0.019148229271738048 0.0051207131684615007 0 0.018822655117940335 0.005048135529921202 0 0.019148229271738048 0.0051207131684615007 0 0.018822655117940335 0.005048135529921202 0 0.019113037713499974 0.0054441247685164925 0 0.018535897154464381 0.0054540665746983814 0 0.018822655117940335 0.005048135529921202 0 0.019113037713499974 0.0054441247685164925 0 0.019113037713499974 0.0054441247685164925 0 0.019277367451167791 0.0052362452828285406 0 0.019497522290224504 0.0055490149514237242 0 0.019148229271738048 0.0051207131684615007 0 0.019113037713499974 0.0054441247685164925 0 0.019277367451167791 0.0052362452828285406 0 0.019145331829972603 0.0047664307679647199 0 0.019148229271738048 0.0051207131684615007 0 0.019315573336650613 0.0051317624552207723 0 0.019148229271738048 0.0051207131684615007 0 0.019277367451167791 0.0052362452828285406 0 0.019315573336650613 0.0051317624552207723 0 0.019010335313030043 0.0055213746067766193 0 0.019141573619189597 0.005180175890076329 0 0.018799302740340175 0.0052558363704440685 0 0.019277367451167791 0.0052362452828285406 0 0.019315573336650613 0.0051317624552207723 0 0.019141573619189597 0.005180175890076329 0 0.019010335313030043 0.0055213746067766193 0 0.019315573336650613 0.0051317624552207723 0 0.019141573619189597 0.005180175890076329 0 0.01922260571887599 0.0051977248981869735 0 0.018858277302017168 0.0049261590690725622 0 0.019497522290224504 0.0055490149514237242 0 0.019277367451167791 0.0052362452828285406 0 0.01922260571887599 0.0051977248981869735 0 0.019497522290224504 0.0055490149514237242 0 0.019141573619189597 0.005180175890076329 0 0.01922260571887599 0.0051977248981869735 0 0.018858277302017168 0.0049261590690725622 0 0.019277367451167791 0.0052362452828285406 0 0.019141573619189597 0.005180175890076329 0 0.01922260571887599 0.0051977248981869735 0 0.019020233507892063 0.0074298289571769691 0 0.018606964012387033 0.00737259825066678 0 0.018529706471845091 0.0075815302953689294 0 0.019020233507892063 0.0074298289571769691 0 0.018606964012387033 0.00737259825066678 0 0.018827691343160188 0.0072373476525119133 0 0.019020233507892063 0.0074298289571769691 0 0.018529706471845091 0.0075815302953689294 0 0.018572926146108257 0.007846676648351536 0 0.017688081191605632 0.0053198451416921581 0 0.018370864125270864 0.0051178166379961445 0 0.017622397137106113 0.0056965294469919475 0 0.018395780524104111 0.0061586344896944834 0 0.017525675015090978 0.0061178618819815091 0 0.018858277302017168 0.0049261590690725622 0 0.017540337065628697 0.0050575920269956545 0 0.017854790614320049 0.0050990505428008173 0 0.017367709816220687 0.0050425548329085055 0 0.017688081191605632 0.0053198451416921581 0 0.017208034299675986 0.0055195101837277952 0 0.017367709816220687 0.0050425548329085055 0 0.017688081191605632 0.0053198451416921581 0 0.017854790614320049 0.0050990505428008173 0 0.017525675015090978 0.0061178618819815091 0 0.017541776768466587 0.0061005204750222445 0 0.017688081191605632 0.0053198451416921581 0 0.017854790614320049 0.0050990505428008173 0 0.018370864125270864 0.0051178166379961445 0 0.018799302740340175 0.0052558363704440685 0 0.018370864125270864 0.0051178166379961445 0 0.018542351440546705 0.0054879476387356615 0 0.018858277302017168 0.0049261590690725622 0 0.017854790614320049 0.0050990505428008173 0 0.018370864125270864 0.0051178166379961445 0 0.019141573619189597 0.005180175890076329 0 0.018858277302017168 0.0049261590690725622 0 0.018799302740340175 0.0052558363704440685 0 0.018858277302017168 0.0049261590690725622 0 0.018799302740340175 0.0052558363704440685 0 0.018370864125270864 0.0051178166379961445 0 0.014429378710358893 0.0073156177042325767 0 0.014572956062589425 0.0071433769561750453 0 0.014581694984718042 0.0073370849120954111 0 0.014567275160940642 0.0074735719339493892 0 0.014429378710358893 0.0073156177042325767 0 0.014572663171692365 0.0077337888791632198 0 0.014567275160940642 0.0074735719339493892 0 0.014581694984718042 0.0073370849120954111 0 0.014657911119306328 0.0075021438446515928 0 0.014567275160940642 0.0074735719339493892 0 0.014429378710358893 0.0073156177042325767 0 0.014581694984718042 0.0073370849120954111 0 0.018606964012387033 0.00737259825066678 0 0.018083091422750514 0.0075104311650022139 0 0.018538341890841709 0.0070470401688662501 0 0.018606964012387033 0.00737259825066678 0 0.018529706471845091 0.0075815302953689294 0 0.018083091422750514 0.0075104311650022139 0 0.018529706471845091 0.0075815302953689294 0 0.018083091422750514 0.0075104311650022139 0 0.018324486799984607 0.0077366023410503533 0 0.018572926146108257 0.007846676648351536 0 0.018324486799984607 0.0077366023410503533 0 0.018108319902749945 0.0079525542008271593 0 0.017147237712332696 0.0048008352401290007 0 0.015930672791354412 0.0050556994932732446 0 0.016385318245535681 0.0054952460951444883 0 0.018083091422750514 0.0075104311650022139 0 0.018324486799984607 0.0077366023410503533 0 0.018108319902749945 0.0079525542008271593 0 0.017525675015090978 0.0061178618819815091 0 0.016868195631519953 0.006508529786404529 0 0.018529706471845091 0.0075815302953689294 0 0.018572926146108257 0.007846676648351536 0 0.018324486799984607 0.0077366023410503533 0 0.017525675015090978 0.0061178618819815091 0 0.017401710718805103 0.0060746123404531536 0 0.016243215658666398 0.0073505394132167782 0 0.015957454474469019 0.0069443535416832177 0 0.018083091422750514 0.0075104311650022139 0 0.018108319902749945 0.0079525542008271593 0 0.017615482110641595 0.0080426477562468238 0 0.014429378710358893 0.0073156177042325767 0 0.014536975603547537 0.0069658458024459838 0 0.014572956062589425 0.0071433769561750453 0 0.016868195631519953 0.006508529786404529 0 0.015957454474469019 0.0069443535416832177 0 0.015930672791354412 0.0050556994932732446 0 0.015309348452790321 0.0054980132350600031 0 0.014890618124332764 0.0053886232252831181 0 0.015122315213104934 0.0057881306570732186 0 0.015309348452790321 0.0054980132350600031 0 0.01562788088572872 0.005554651794075386 0 0.015122315213104934 0.0057881306570732186 0 0.01562788088572872 0.005554651794075386 0 0.015460214032677135 0.005899087938727769 0 0.015122315213104934 0.0057881306570732186 0 0.015309348452790321 0.0054980132350600031 0 0.014993927999092641 0.0056481425418156948 0 0.015930672791354412 0.0050556994932732446 0 0.015309348452790321 0.0054980132350600031 0 0.01562788088572872 0.005554651794075386 0 0.01562788088572872 0.005554651794075386 0 0.015460214032677135 0.005899087938727769 0 0.015899988783602537 0.0058211752077845878 0 0.01562788088572872 0.005554651794075386 0 0.015899988783602537 0.0058211752077845878 0 0.016385318245535681 0.0054952460951444883 0 0.015899988783602537 0.0058211752077845878 0 0.016385318245535681 0.0054952460951444883 0 0.016307913617509186 0.006027331167022385 0 0.015930672791354412 0.0050556994932732446 0 0.01562788088572872 0.005554651794075386 0 0.016385318245535681 0.0054952460951444883 0 0.017367709816220687 0.0050425548329085055 0 0.016385318245535681 0.0054952460951444883 0 0.017208034299675986 0.0055195101837277952 0 0.016385318245535681 0.0054952460951444883 0 0.01699466289991379 0.0059543097265200937 0 0.017208034299675986 0.0055195101837277952 0 0.016385318245535681 0.0054952460951444883 0 0.01699466289991379 0.0059543097265200937 0 0.016307913617509186 0.006027331167022385 0 0.01699466289991379 0.0059543097265200937 0 0.016513153989734741 0.0065969437770734335 0 0.016307913617509186 0.006027331167022385 0 0.016513153989734741 0.0065969437770734335 0 0.016307913617509186 0.006027331167022385 0 0.015812403191342122 0.0062387816091491908 0 0.015899988783602537 0.0058211752077845878 0 0.016307913617509186 0.006027331167022385 0 0.015812403191342122 0.0062387816091491908 0 0.015812403191342122 0.0062387816091491908 0 0.014804521441311809 0.006374859440337834 0 0.014935840867268037 0.0061888841926798456 0 0.016513153989734741 0.0065969437770734335 0 0.015812403191342122 0.0062387816091491908 0 0.014804521441311809 0.006374859440337834 0 0.015460214032677135 0.005899087938727769 0 0.015899988783602537 0.0058211752077845878 0 0.015812403191342122 0.0062387816091491908 0 0.015460214032677135 0.005899087938727769 0 0.015812403191342122 0.0062387816091491908 0 0.015361785920058029 0.006108320264767108 0 0.015812403191342122 0.0062387816091491908 0 0.015361785920058029 0.006108320264767108 0 0.014935840867268037 0.0061888841926798456 0 0.015361785920058029 0.006108320264767108 0 0.015020535919619481 0.0060547788736366372 0 0.014935840867268037 0.0061888841926798456 0 0.015460214032677135 0.005899087938727769 0 0.015361785920058029 0.006108320264767108 0 0.015020535919619481 0.0060547788736366372 0 0.015122315213104934 0.0057881306570732186 0 0.015460214032677135 0.005899087938727769 0 0.015020535919619481 0.0060547788736366372 0 0.017258832051744839 0.005423630716088864 0 0.016998895911174275 0.0053795291810778264 0 0.018370864125270864 0.0051178166379961445 0 0.018602038653492109 0.0058672944319706549 0 0.018542351440546705 0.0054879476387356615 0 0.016796199908542291 0.0045387423643661693 0 0.016784285581575197 0.0046056765943677499 0 0.016727401904756498 0.0045737691749125359 0 0.017917637227957826 0.0050637897901162042 0 0.016998895911174275 0.0053795291810778264 0 0.017917637227957826 0.0050637897901162042 0 0.018119858193602775 0.0051524364210863401 0 0.018981146302569793 0.0056472114263551743 0 0.018602038653492109 0.0058672944319706549 0 0.018542351440546705 0.0054879476387356615 0 0.019010335313030043 0.0055213746067766193 0 0.018799302740340175 0.0052558363704440685 0 0.018542351440546705 0.0054879476387356615 0 0.018370864125270864 0.0051178166379961445 0 0.018293618913671671 0.0060156600204329122 0 0.017622397137106113 0.0056965294469919475 0 0.01699466289991379 0.0059543097265200937 0 0.018293618913671671 0.0060156600204329122 0 0.017622397137106113 0.0056965294469919475 0 0.01699466289991379 0.0059543097265200937 0 0.017622397137106113 0.0056965294469919475 0 0.017208034299675986 0.0055195101837277952 0 0.017688081191605632 0.0053198451416921581 0 0.017622397137106113 0.0056965294469919475 0 0.017208034299675986 0.0055195101837277952 0 0.01699466289991379 0.0059543097265200937 0 0.016513153989734741 0.0065969437770734335 0 0.018293618913671671 0.0060156600204329122 0 0.016169416479724596 0.005931988714295817 0 0.016998895911174275 0.0053795291810778264 0 0.015570168702314294 0.0059099164977565984 0 0.01641726063525361 0.0054739122487977993 0 0.016083233445761562 0.0058697000722858651 0 0.016083233445761562 0.0058697000722858651 0 0.015966428937737184 0.0060484219422895788 0 0.016521912415029739 0.0061125530128097157 0 0.015570168702314294 0.0059099164977565984 0 0.016083233445761562 0.0058697000722858651 0 0.015966428937737184 0.0060484219422895788 0 0.016998895911174275 0.0053795291810778264 0 0.015716713380744891 0.0049414159629407395 0 0.016784285581575197 0.0046056765943677499 0 0.016727401904756498 0.0045737691749125359 0 0.01673571173681504 0.0046747151473599917 0 0.01641726063525361 0.0054739122487977993 0 0.016083233445761562 0.0058697000722858651 0 0.016521912415029739 0.0061125530128097157 0 0.014229889829527437 0.0044919710785969666 0 0.01414203104841625 0.0044197946141346246 0 0.014161668267149216 0.0045719733642999904 0 0.014163794400461725 0.0047602330463626307 0 0.014145774469115394 0.0047565156999363244 0 0.014146161077632063 0.0047696717682387457 0 0.015716713380744891 0.0049414159629407395 0 0.015300248612348339 0.0046985106833859419 0 0.015300248612348339 0.0046985106833859419 0 0.015175583416278227 0.0046496731666079436 0 0.014145774469115394 0.0047565156999363244 0 0.014153743017038232 0.0047197569181330681 0 0.014152146141622772 0.0046795852811804583 0 0.014145774469115394 0.0047565156999363244 0 0.014149430192800521 0.0047529206397656258 0 0.014153743017038232 0.0047197569181330681 0 0.014145774469115394 0.0047565156999363244 0 0.014149430192800521 0.0047529206397656258 0 0.014146161077632063 0.0047696717682387457 0 0.014137827578652408 0.0047644223152467548 0 0.014123192654695567 0.0047951352374408472 0 0.01410823435759366 0.0047809694022088629 0 0.014149430192800521 0.0047529206397656258 0 0.014153743017038232 0.0047197569181330681 0 0.014137827578652408 0.0047644223152467548 0 0.014149430192800521 0.0047529206397656258 0 0.014137827578652408 0.0047644223152467548 0 0.014146161077632063 0.0047696717682387457 0 0.014137827578652408 0.0047644223152467548 0 0.014123192654695567 0.0047951352374408472 0 0.014146161077632063 0.0047696717682387457 0 0.015716713380744891 0.0049414159629407395 0 0.014995867504950505 0.0053278523899289894 0 0.014123192654695567 0.0047951352374408472 0 0.014146161077632063 0.0047696717682387457 0 0.014123278785478156 0.0047762150176558493 0 0.014163794400461725 0.0047602330463626307 0 0.014146161077632063 0.0047696717682387457 0 0.014123278785478156 0.0047762150176558493 0 0.015966428937737184 0.0060484219422895788 0 0.016521912415029739 0.0061125530128097157 0 0.015686239193662504 0.0063003103196331975 0 0.015570168702314294 0.0059099164977565984 0 0.015966428937737184 0.0060484219422895788 0 0.015686239193662504 0.0063003103196331975 0 0.014995867504950505 0.0053278523899289894 0 0.014721989371419475 0.0054889957967240539 0 0.015570168702314294 0.0059099164977565984 0 0.015686239193662504 0.0063003103196331975 0 0.015229050617107776 0.0062663300613815739 0 0.015686239193662504 0.0063003103196331975 0 0.015229050617107776 0.0062663300613815739 0 0.014870989777440797 0.0064893060487752488 0 0.015570168702314294 0.0059099164977565984 0 0.015229050617107776 0.0062663300613815739 0 0.014804521441311809 0.006374859440337834 0 0.014123278785478156 0.0047762150176558493 0 0.013974777100148453 0.0049662227168134742 0 0.014027002595322042 0.0049197430403932658 0 0.016169416479724596 0.005931988714295817 0 0.015637031319841486 0.0061781823796229719 0 0.015229050617107776 0.0062663300613815739 0 0.014870989777440797 0.0064893060487752488 0 0.014804521441311809 0.006374859440337834 0 0.014020653562120136 0.004938460400083838 0 0.014070276175333109 0.0048609256536571079 0 0.0140899749369876 0.0047436587919973102 0 0.014027002595322042 0.0049197430403932658 0 0.014020653562120136 0.004938460400083838 0 0.013992945159085678 0.0050551120908253712 0 0.013974777100148453 0.0049662227168134742 0 0.014027002595322042 0.0049197430403932658 0 0.013992945159085678 0.0050551120908253712 0 0.014027002595322042 0.0049197430403932658 0 0.014020653562120136 0.004938460400083838 0 0.014070276175333109 0.0048609256536571079 0 0.014123278785478156 0.0047762150176558493 0 0.014027002595322042 0.0049197430403932658 0 0.014070276175333109 0.0048609256536571079 0 0.014123192654695567 0.0047951352374408472 0 0.014123278785478156 0.0047762150176558493 0 0.014070276175333109 0.0048609256536571079 0 0.014123192654695567 0.0047951352374408472 0 0.014070276175333109 0.0048609256536571079 0 0.01410823435759366 0.0047809694022088629 0 0.01410823435759366 0.0047809694022088629 0 0.0140899749369876 0.0047436587919973102 0 0.01415335151929842 0.0046938476004290052 0 0.014070276175333109 0.0048609256536571079 0 0.01410823435759366 0.0047809694022088629 0 0.0140899749369876 0.0047436587919973102 0 0.0140899749369876 0.0047436587919973102 0 0.01416398903308968 0.0045872314470272934 0 0.01415335151929842 0.0046938476004290052 0 0.014020653562120136 0.004938460400083838 0 0.0140899749369876 0.0047436587919973102 0 0.014050064813525281 0.004768139161850665 0 0.014091066222386182 0.0045968822324346332 0 0.0140899749369876 0.0047436587919973102 0 0.014050064813525281 0.004768139161850665 0 0.014091066222386182 0.0045968822324346332 0 0.014050064813525281 0.004768139161850665 0 0.014086520387091444 0.0046155946379642186 0 0.014091066222386182 0.0045968822324346332 0 0.0140899749369876 0.0047436587919973102 0 0.01416398903308968 0.0045872314470272934 0 0.014332861888803654 0.0044192428887573207 0 0.01416398903308968 0.0045872314470272934 0 0.01415335151929842 0.0046938476004290052 0 0.014332861888803654 0.0044192428887573207 0 0.015031169703711713 0.0041795079557250371 0 0.014974108665503657 0.0035419824301990035 0 0.014332861888803654 0.0044192428887573207 0 0.014123002244835401 0.0046900837367564998 0 0.014172102727497625 0.0046735947447992497 0 0.014332861888803654 0.0044192428887573207 0 0.014172102727497625 0.0046735947447992497 0 0.01415335151929842 0.0046938476004290052 0 0.01471640794901782 0.0044263290571035186 0 0.014907462492201314 0.004294371316717522 0 0.014123002244835401 0.0046900837367564998 0 0.014172102727497625 0.0046735947447992497 0 0.014152146141622772 0.0046795852811804583 0 0.014153743017038232 0.0047197569181330681 0 0.014172102727497625 0.0046735947447992497 0 0.014152146141622772 0.0046795852811804583 0 0.014153743017038232 0.0047197569181330681 0 0.014172102727497625 0.0046735947447992497 0 0.01415335151929842 0.0046938476004290052 0 0.014153743017038232 0.0047197569181330681 0 0.014137827578652408 0.0047644223152467548 0 0.01415335151929842 0.0046938476004290052 0 0.014137827578652408 0.0047644223152467548 0 0.01410823435759366 0.0047809694022088629 0 0.01415335151929842 0.0046938476004290052 0 0.014472853599934703 0.0048419078481336695 0 0.014122295358391686 0.0049795555522479914 0 0.0144759982714943 0.0053969050950739743 0 0.014472853599934703 0.0048419078481336695 0 0.0144759982714943 0.0053969050950739743 0 0.014821593944010916 0.0052263334301159061 0 0.014472853599934703 0.0048419078481336695 0 0.014060068744562657 0.0043217469142107483 0 0.014122295358391686 0.0049795555522479914 0 0.014472853599934703 0.0048419078481336695 0 0.014806861485245392 0.0046826453147434345 0 0.014821593944010916 0.0052263334301159061 0 0.015179809882525663 0.0048810941423641603 0 0.014806861485245392 0.0046826453147434345 0 0.014821593944010916 0.0052263334301159061 0 0.014472853599934703 0.0048419078481336695 0 0.014806861485245392 0.0046826453147434345 0 0.014486666097357933 0.0043342619068172349 0 0.015179809882525663 0.0048810941423641603 0 0.015038163122277548 0.0039905118354218502 0 0.014806861485245392 0.0046826453147434345 0 0.015038163122277548 0.0039905118354218502 0 0.014806861485245392 0.0046826453147434345 0 0.014486666097357933 0.0043342619068172349 0 0.01410605181009989 0.0036306301818168269 0 0.014486666097357933 0.0043342619068172349 0 0.014060068744562657 0.0043217469142107483 0 0.014472853599934703 0.0048419078481336695 0 0.014486666097357933 0.0043342619068172349 0 0.014060068744562657 0.0043217469142107483 0 0.014060068744562657 0.0043217469142107483 0 0.013673495720277465 0.0045389017401072746 0 0.014122295358391686 0.0049795555522479914 0 0.011691519659335911 0.0030324100445410923 0 0.012549134885848912 0.0040130532463801549 0 0.013593680744420088 0.003630678750061094 0 0.014060068744562657 0.0043217469142107483 0 0.013673495720277465 0.0045389017401072746 0 0.01411081731779746 0.0045405029565383868 0 0.014165117471991418 0.0047101870919076102 0 0.014086520387091444 0.0046155946379642186 0 0.014050064813525281 0.004768139161850665 0 0.014165117471991418 0.0047101870919076102 0 0.014086520387091444 0.0046155946379642186 0 0.012549134885848912 0.0040130532463801549 0 0.012802532023336342 0.0043342801111313119 0 0.014020653562120136 0.004938460400083838 0 0.014050064813525281 0.004768139161850665 0 0.013998116788937864 0.0050880899493424827 0 0.014050064813525281 0.004768139161850665 0 0.014165117471991418 0.0047101870919076102 0 0.013998116788937864 0.0050880899493424827 0 0.013673495720277465 0.0045389017401072746 0 0.014122295358391686 0.0049795555522479914 0 0.013998116788937864 0.0050880899493424827 0 0.014122295358391686 0.0049795555522479914 0 0.014250403292602108 0.0056039402540045543 0 0.0144759982714943 0.0053969050950739743 0 0.014122295358391686 0.0049795555522479914 0 0.014250403292602108 0.0056039402540045543 0 0.013998116788937864 0.0050880899493424827 0 0.014250403292602108 0.0056039402540045543 0 0.013998116788937864 0.0050880899493424827 0 0.013992945159085678 0.0050551120908253712 0 0.013974777100148453 0.0049662227168134742 0 0.014250403292602108 0.0056039402540045543 0 0.013992945159085678 0.0050551120908253712 0 0.014020653562120136 0.004938460400083838 0 0.013998116788937864 0.0050880899493424827 0 0.013992945159085678 0.0050551120908253712 0 0.014870989777440797 0.0064893060487752488 0 0.014250403292602108 0.0056039402540045543 0 0.014596200479652821 0.0061404075801298049 0 0.014721989371419475 0.0054889957967240539 0 0.014693700570502575 0.0055118807566580108 0 0.014870989777440797 0.0064893060487752488 0 0.014804521441311809 0.006374859440337834 0 0.014596200479652821 0.0061404075801298049 0 0.014596200479652821 0.0061404075801298049 0 0.014671709142441718 0.0061766854192428413 0 0.014465140899743795 0.0060511325416806412 0 0.014804521441311809 0.006374859440337834 0 0.014596200479652821 0.0061404075801298049 0 0.014671709142441718 0.0061766854192428413 0 0.014804521441311809 0.006374859440337834 0 0.014671709142441718 0.0061766854192428413 0 0.014935840867268037 0.0061888841926798456 0 0.014250403292602108 0.0056039402540045543 0 0.014465140899743795 0.0060511325416806412 0 0.014454844504567705 0.0059989820131638189 0 0.014250403292602108 0.0056039402540045543 0 0.014454844504567705 0.0059989820131638189 0 0.014495106379841837 0.0057565295506159355 0 0.014250403292602108 0.0056039402540045543 0 0.014596200479652821 0.0061404075801298049 0 0.014465140899743795 0.0060511325416806412 0 0.014454844504567705 0.0059989820131638189 0 0.014495106379841837 0.0057565295506159355 0 0.014607706325028313 0.0060418400702372723 0 0.014495106379841837 0.0057565295506159355 0 0.014715639067216547 0.0056553277070003505 0 0.014607706325028313 0.0060418400702372723 0 0.014250403292602108 0.0056039402540045543 0 0.014495106379841837 0.0057565295506159355 0 0.0144759982714943 0.0053969050950739743 0 0.014495106379841837 0.0057565295506159355 0 0.0144759982714943 0.0053969050950739743 0 0.014715639067216547 0.0056553277070003505 0 0.0144759982714943 0.0053969050950739743 0 0.014821593944010916 0.0052263334301159061 0 0.014715639067216547 0.0056553277070003505 0 0.014821593944010916 0.0052263334301159061 0 0.014920250010841945 0.0055811040063937084 0 0.014715639067216547 0.0056553277070003505 0 0.015073301369211402 0.0053721492218882921 0 0.014821593944010916 0.0052263334301159061 0 0.014920250010841945 0.0055811040063937084 0 0.014920250010841945 0.0055811040063937084 0 0.014715639067216547 0.0056553277070003505 0 0.014859045261448727 0.0058609719460947776 0 0.014859045261448727 0.0058609719460947776 0 0.014763618198963359 0.0061306548147729177 0 0.014607706325028313 0.0060418400702372723 0 0.014715639067216547 0.0056553277070003505 0 0.014859045261448727 0.0058609719460947776 0 0.014607706325028313 0.0060418400702372723 0 0.014763618198963359 0.0061306548147729177 0 0.014607706325028313 0.0060418400702372723 0 0.014579736010331282 0.0064334586999144298 0 0.014763618198963359 0.0061306548147729177 0 0.014579736010331282 0.0064334586999144298 0 0.014736406039706414 0.0064616329808621122 0 0.014454844504567705 0.0059989820131638189 0 0.014579736010331282 0.0064334586999144298 0 0.014468102740732583 0.0060729508155613092 0 0.014454844504567705 0.0059989820131638189 0 0.014607706325028313 0.0060418400702372723 0 0.014579736010331282 0.0064334586999144298 0 0.015069543142924005 0.0067810267985741546 0 0.015215198074002616 0.0068292276241497833 0 0.014579736010331282 0.0064334586999144298 0 0.014580639148089812 0.0068296013246474741 0 0.014607525688139274 0.0068780125111429875 0 0.014579736010331282 0.0064334586999144298 0 0.014657806802808445 0.006781700490256057 0 0.014607525688139274 0.0068780125111429875 0 0.014579736010331282 0.0064334586999144298 0 0.01472599042071184 0.0066700102995710048 0 0.014657806802808445 0.006781700490256057 0 0.01472599042071184 0.0066700102995710048 0 0.014754466851966555 0.0066243787684044948 0 0.014736406039706414 0.0064616329808621122 0 0.01475621542438086 0.0066906029656280666 0 0.01472599042071184 0.0066700102995710048 0 0.014754466851966555 0.0066243787684044948 0 0.014579736010331282 0.0064334586999144298 0 0.01472599042071184 0.0066700102995710048 0 0.014736406039706414 0.0064616329808621122 0 0.015122315213104934 0.0057881306570732186 0 0.014813775193665429 0.005949623896201287 0 0.015020535919619481 0.0060547788736366372 0 0.014813775193665429 0.005949623896201287 0 0.015020535919619481 0.0060547788736366372 0 0.014637507327310999 0.0060746717968995622 0 0.014671709142441718 0.0061766854192428413 0 0.014935840867268037 0.0061888841926798456 0 0.014637507327310999 0.0060746717968995622 0 0.015020535919619481 0.0060547788736366372 0 0.014935840867268037 0.0061888841926798456 0 0.014637507327310999 0.0060746717968995622 0 0.014671709142441718 0.0061766854192428413 0 0.014465140899743795 0.0060511325416806412 0 0.014637507327310999 0.0060746717968995622 0 0.014813775193665429 0.005949623896201287 0 0.014637507327310999 0.0060746717968995622 0 0.014642747854056587 0.0059487167808327471 0 0.014637507327310999 0.0060746717968995622 0 0.014468102740732583 0.0060729508155613092 0 0.014642747854056587 0.0059487167808327471 0 0.014465140899743795 0.0060511325416806412 0 0.014637507327310999 0.0060746717968995622 0 0.014468102740732583 0.0060729508155613092 0 0.014465140899743795 0.0060511325416806412 0 0.014454844504567705 0.0059989820131638189 0 0.014468102740732583 0.0060729508155613092 0 0.014579736010331282 0.0064334586999144298 0 0.014468102740732583 0.0060729508155613092 0 0.014495395699989191 0.0059969835870309351 0 0.014468102740732583 0.0060729508155613092 0 0.014495395699989191 0.0059969835870309351 0 0.014642747854056587 0.0059487167808327471 0 0.015215198074002616 0.0068292276241497833 0 0.015957454474469019 0.0069443535416832177 0 0.014495395699989191 0.0059969835870309351 0 0.0147602265515992 0.005723446567571594 0 0.014819864943483863 0.0055952367099778967 0 0.014495395699989191 0.0059969835870309351 0 0.014642747854056587 0.0059487167808327471 0 0.0147602265515992 0.005723446567571594 0 0.014580639148089812 0.0068296013246474741 0 0.014536975603547537 0.0069658458024459838 0 0.014577884168904126 0.0069881382400346229 0 0.014642747854056587 0.0059487167808327471 0 0.0147602265515992 0.005723446567571594 0 0.014860620992088005 0.0058151918849617566 0 0.015309348452790321 0.0054980132350600031 0 0.014890618124332764 0.0053886232252831181 0 0.014993927999092641 0.0056481425418156948 0 0.01595194761698196 0.0069130615929265272 0 0.015957454474469019 0.0069443535416832177 0 0.0147602265515992 0.005723446567571594 0 0.014890618124332764 0.0053886232252831181 0 0.014993927999092641 0.0056481425418156948 0 0.015122315213104934 0.0057881306570732186 0 0.014993927999092641 0.0056481425418156948 0 0.014860620992088005 0.0058151918849617566 0 0.0147602265515992 0.005723446567571594 0 0.014993927999092641 0.0056481425418156948 0 0.014860620992088005 0.0058151918849617566 0 0.014813775193665429 0.005949623896201287 0 0.014642747854056587 0.0059487167808327471 0 0.014860620992088005 0.0058151918849617566 0 0.015122315213104934 0.0057881306570732186 0 0.014813775193665429 0.005949623896201287 0 0.014860620992088005 0.0058151918849617566 0 0.014536975603547537 0.0069658458024459838 0 0.014572956062589425 0.0071433769561750453 0 0.014577884168904126 0.0069881382400346229 0 0.014572956062589425 0.0071433769561750453 0 0.014577884168904126 0.0069881382400346229 0 0.014611115964586932 0.0070261790878267446 0 0.014572956062589425 0.0071433769561750453 0 0.014611115964586932 0.0070261790878267446 0 0.014636793411050628 0.0072248037475206644 0 0.014611115964586932 0.0070261790878267446 0 0.01466169023167372 0.0071012725211071232 0 0.014636793411050628 0.0072248037475206644 0 0.014580639148089812 0.0068296013246474741 0 0.014577884168904126 0.0069881382400346229 0 0.014611115964586932 0.0070261790878267446 0 0.014580639148089812 0.0068296013246474741 0 0.014611115964586932 0.0070261790878267446 0 0.014607525688139274 0.0068780125111429875 0 0.014611115964586932 0.0070261790878267446 0 0.01466169023167372 0.0071012725211071232 0 0.014607525688139274 0.0068780125111429875 0 0.01466169023167372 0.0071012725211071232 0 0.01470177375498446 0.0073634565624847489 0 0.014755583579193942 0.0073090014613345069 0 0.01466169023167372 0.0071012725211071232 0 0.01470177375498446 0.0073634565624847489 0 0.014636793411050628 0.0072248037475206644 0 0.01470177375498446 0.0073634565624847489 0 0.014636793411050628 0.0072248037475206644 0 0.014657911119306328 0.0075021438446515928 0 0.014636793411050628 0.0072248037475206644 0 0.014581694984718042 0.0073370849120954111 0 0.014657911119306328 0.0075021438446515928 0 0.014572956062589425 0.0071433769561750453 0 0.014636793411050628 0.0072248037475206644 0 0.014581694984718042 0.0073370849120954111 0 0.014711200754158039 0.0068281704869827854 0 0.01475640186445778 0.0067762879625671664 0 0.014704070366443816 0.0070422720689172413 0 0.014711200754158039 0.0068281704869827854 0 0.014654899625990264 0.0069749819646179921 0 0.014704070366443816 0.0070422720689172413 0 0.014711200754158039 0.0068281704869827854 0 0.01475640186445778 0.0067762879625671664 0 0.014743312977900795 0.0067407964117590143 0 0.01475621542438086 0.0066906029656280666 0 0.01475640186445778 0.0067762879625671664 0 0.014743312977900795 0.0067407964117590143 0 0.01475621542438086 0.0066906029656280666 0 0.01472599042071184 0.0066700102995710048 0 0.014743312977900795 0.0067407964117590143 0 0.01472599042071184 0.0066700102995710048 0 0.014711200754158039 0.0068281704869827854 0 0.014743312977900795 0.0067407964117590143 0 0.01472599042071184 0.0066700102995710048 0 0.014711200754158039 0.0068281704869827854 0 0.014657806802808445 0.006781700490256057 0 0.014657806802808445 0.006781700490256057 0 0.014607525688139274 0.0068780125111429875 0 0.014654899625990264 0.0069749819646179921 0 0.01466169023167372 0.0071012725211071232 0 0.014607525688139274 0.0068780125111429875 0 0.014654899625990264 0.0069749819646179921 0 0.014711200754158039 0.0068281704869827854 0 0.014657806802808445 0.006781700490256057 0 0.014654899625990264 0.0069749819646179921 0 0.012313358248638051 0.0084514853857849299 0 0.011478288334325478 0.00973908503610596 0 0.004310368451783432 0.015096661293904577 0 0.004443501725347505 0.014415708020305014 0 0.0055093166671073184 0.014749247365095952 0 0.01466169023167372 0.0071012725211071232 0 0.014654899625990264 0.0069749819646179921 0 0.014755583579193942 0.0073090014613345069 0 0.0093685179455667462 0.010009192153930356 0 0.011478288334325478 0.00973908503610596 0 0.014654899625990264 0.0069749819646179921 0 0.014704070366443816 0.0070422720689172413 0 0.014489263389914129 0.0072332016685080474 0 0.0033661806447087875 0.014856895655487225 0 0.004310368451783432 0.015096661293904577 0 0.0035289953167670627 0.014603151556384145 0 0.0033661806447087875 0.014856895655487225 0 0.0034494809223763628 0.015072885569229744 0 0.004310368451783432 0.015096661293904577 0 0.0074930509585790749 0.0098169751186653782 0 0.0093685179455667462 0.010009192153930356 0 0.0032708774765647583 0.015177857955761657 0 0.0034494809223763628 0.015072885569229744 0 0.004310368451783432 0.015096661293904577 0 0.004310368451783432 0.015096661293904577 0 0.004443501725347505 0.014415708020305014 0 0.0035289953167670627 0.014603151556384145 0 0.014799538529776441 0.0067455346129229347 0 0.01475640186445778 0.0067762879625671664 0 0.014704070366443816 0.0070422720689172413 0 0.004443501725347505 0.014415708020305014 0 0.0035289953167670627 0.014603151556384145 0 0.0028840407988536313 0.014162455150164559 0 0.004443501725347505 0.014415708020305014 0 0.0046269050755537834 0.013653763905420379 0 0.0028840407988536313 0.014162455150164559 0 0.0055093166671073184 0.014749247365095952 0 0.005290009956603366 0.013922400421796471 0 0.0063481828834927147 0.013579409381336801 0 0.004443501725347505 0.014415708020305014 0 0.0055093166671073184 0.014749247365095952 0 0.005290009956603366 0.013922400421796471 0 0.004443501725347505 0.014415708020305014 0 0.005290009956603366 0.013922400421796471 0 0.0046269050755537834 0.013653763905420379 0 0.005290009956603366 0.013922400421796471 0 0.0055214669300653269 0.013194039076554044 0 0.0046269050755537834 0.013653763905420379 0 0.005290009956603366 0.013922400421796471 0 0.0055214669300653269 0.013194039076554044 0 0.0063481828834927147 0.013579409381336801 0 0.0046269050755537834 0.013653763905420379 0 0.0040687046570065466 0.012697918245179024 0 0.0028840407988536313 0.014162455150164559 0 0.0055214669300653269 0.013194039076554044 0 0.0046269050755537834 0.013653763905420379 0 0.0040687046570065466 0.012697918245179024 0 0.014657911119306328 0.0075021438446515928 0 0.014772584314183374 0.007682227507665387 0 0.014572663171692365 0.0077337888791632198 0 0.01470177375498446 0.0073634565624847489 0 0.014657911119306328 0.0075021438446515928 0 0.014772584314183374 0.007682227507665387 0 0.013808047802153178 0.0095202407866560694 0 0.014684996392967716 0.0090603247461924288 0 0.014219445688785543 0.0087551987361449094 0 0.011478288334325478 0.00973908503610596 0 0.010787608464208375 0.010740757769186279 0 0.01470177375498446 0.0073634565624847489 0 0.014755583579193942 0.0073090014613345069 0 0.014772584314183374 0.007682227507665387 0 0.011478288334325478 0.00973908503610596 0 0.013895047687917226 0.008624570774846213 0 0.0055214669300653269 0.013194039076554044 0 0.0063481828834927147 0.013579409381336801 0 0.0061937205226010386 0.012756697707071286 0 0.014684996392967716 0.0090603247461924288 0 0.014219445688785543 0.0087551987361449094 0 0.014606488689540864 0.0088284390937625485 0 0.014219445688785543 0.0087551987361449094 0 0.014606488689540864 0.0088284390937625485 0 0.014265788954153783 0.0086260905096300442 0 0.014606488689540864 0.0088284390937625485 0 0.014867505889604019 0.0086207935105358322 0 0.014913283211986724 0.0087987343520069851 0 0.014684996392967716 0.0090603247461924288 0 0.014606488689540864 0.0088284390937625485 0 0.014913283211986724 0.0087987343520069851 0 0.014265788954153783 0.0086260905096300442 0 0.014064649431209589 0.0088650931559012963 0 0.012384759686553993 0.009479798646383512 0 0.014265788954153783 0.0086260905096300442 0 0.015454567616122529 0.0073800735335953953 0 0.015204358748677576 0.008150833495497058 0 0.014867505889604019 0.0086207935105358322 0 0.014265788954153783 0.0086260905096300442 0 0.015204358748677576 0.008150833495497058 0 0.014606488689540864 0.0088284390937625485 0 0.014867505889604019 0.0086207935105358322 0 0.014265788954153783 0.0086260905096300442 0 0.010787608464208375 0.010740757769186279 0 0.010845186601795986 0.010412103120045051 0 0.014219445688785543 0.0087551987361449094 0 0.014265788954153783 0.0086260905096300442 0 0.014064649431209589 0.0088650931559012963 0 0.0063481828834927147 0.013579409381336801 0 0.0073727713751200272 0.012460731994458447 0 0.0061937205226010386 0.012756697707071286 0 0.0073727713751200272 0.012460731994458447 0 0.0061937205226010386 0.012756697707071286 0 0.0063636041992554656 0.012164403238794416 0 0.0063636041992554656 0.012164403238794416 0 0.0068447256770934987 0.011492431848383267 0 0.0070941117536510541 0.012042348549136665 0 0.0063636041992554656 0.012164403238794416 0 0.0068447256770934987 0.011492431848383267 0 0.0055165014933627058 0.01150417330892485 0 0.0068447256770934987 0.011492431848383267 0 0.0070941117536510541 0.012042348549136665 0 0.0076703015034562012 0.011655941981998891 0 0.0073727713751200272 0.012460731994458447 0 0.0070941117536510541 0.012042348549136665 0 0.0076703015034562012 0.011655941981998891 0 0.0073727713751200272 0.012460731994458447 0 0.0063636041992554656 0.012164403238794416 0 0.0070941117536510541 0.012042348549136665 0 0.014064649431209589 0.0088650931559012963 0 0.012449701833627039 0.0097351298548874546 0 0.012384759686553993 0.009479798646383512 0 0.013985409536751821 0.0088733081012041925 0 0.014045048974047214 0.0087275385516331419 0 0.010845186601795986 0.010412103120045051 0 0.010987270261094931 0.0099782812603824728 0 0.0073727713751200272 0.012460731994458447 0 0.0076703015034562012 0.011655941981998891 0 0.0087641156884095718 0.011392593541620935 0 0.0040687046570065466 0.012697918245179024 0 0.0042775020388529416 0.011591035668385739 0 0.0025306829987066476 0.011929834914133918 0 0.0040687046570065466 0.012697918245179024 0 0.0052893937476548945 0.012321130642898963 0 0.0042775020388529416 0.011591035668385739 0 0.0055214669300653269 0.013194039076554044 0 0.0040687046570065466 0.012697918245179024 0 0.0052893937476548945 0.012321130642898963 0 0.0055214669300653269 0.013194039076554044 0 0.0061937205226010386 0.012756697707071286 0 0.0052893937476548945 0.012321130642898963 0 0.0061937205226010386 0.012756697707071286 0 0.0063636041992554656 0.012164403238794416 0 0.0052893937476548945 0.012321130642898963 0 0.0055165014933627058 0.01150417330892485 0 0.0042775020388529416 0.011591035668385739 0 0.0049347066480563773 0.010533561035052172 0 0.0052893937476548945 0.012321130642898963 0 0.0055165014933627058 0.01150417330892485 0 0.0042775020388529416 0.011591035668385739 0 0.0063636041992554656 0.012164403238794416 0 0.0052893937476548945 0.012321130642898963 0 0.0055165014933627058 0.01150417330892485 0 0.0042775020388529416 0.011591035668385739 0 0.0049347066480563773 0.010533561035052172 0 0.0033126588752071195 0.010525886857843262 0 0.0039224926679197712 0.0096203172482075827 0 0.0049347066480563773 0.010533561035052172 0 0.0033126588752071195 0.010525886857843262 0 0.0039224926679197712 0.0096203172482075827 0 0.0035372609726651225 0.0086199785568397466 0 0.005403546996715412 0.008986153350495343 0 0.0039224926679197712 0.0096203172482075827 0 0.0049347066480563773 0.010533561035052172 0 0.005403546996715412 0.008986153350495343 0 0.0049347066480563773 0.010533561035052172 0 0.0064627559178702136 0.010542810906468645 0 0.005403546996715412 0.008986153350495343 0 0.0064627559178702136 0.010542810906468645 0 0.0071378591024226674 0.009657338382962519 0 0.005403546996715412 0.008986153350495343 0 0.0055165014933627058 0.01150417330892485 0 0.0049347066480563773 0.010533561035052172 0 0.0064627559178702136 0.010542810906468645 0 0.0068447256770934987 0.011492431848383267 0 0.0055165014933627058 0.01150417330892485 0 0.0064627559178702136 0.010542810906468645 0 0.0068447256770934987 0.011492431848383267 0 0.0076258014764362904 0.011046448328035878 0 0.0064627559178702136 0.010542810906468645 0 0.0068447256770934987 0.011492431848383267 0 0.0076703015034562012 0.011655941981998891 0 0.0076258014764362904 0.011046448328035878 0 0.0076258014764362904 0.011046448328035878 0 0.0064627559178702136 0.010542810906468645 0 0.0078033146051703934 0.010302527388909218 0 0.0076703015034562012 0.011655941981998891 0 0.0076258014764362904 0.011046448328035878 0 0.0081236584642172972 0.011230013804671859 0 0.0076703015034562012 0.011655941981998891 0 0.0087641156884095718 0.011392593541620935 0 0.0081236584642172972 0.011230013804671859 0 0.0087641156884095718 0.011392593541620935 0 0.0081236584642172972 0.011230013804671859 0 0.0084274964845314354 0.010781973776197131 0 0.0076258014764362904 0.011046448328035878 0 0.0081236584642172972 0.011230013804671859 0 0.0084274964845314354 0.010781973776197131 0 0.0076258014764362904 0.011046448328035878 0 0.0084274964845314354 0.010781973776197131 0 0.0078033146051703934 0.010302527388909218 0 0.0087641156884095718 0.011392593541620935 0 0.0084274964845314354 0.010781973776197131 0 0.0093917584010571042 0.010367851146366257 0 0.0087641156884095718 0.011392593541620935 0 0.0093917584010571042 0.010367851146366257 0 0.011020494534179059 0.0098291832687723013 0 0.0093917584010571042 0.010367851146366257 0 0.0088707815653959587 0.010092067399932366 0 0.0096452567713941773 0.0095436804864511005 0 0.0084274964845314354 0.010781973776197131 0 0.0088707815653959587 0.010092067399932366 0 0.0078033146051703934 0.010302527388909218 0 0.0088707815653959587 0.010092067399932366 0 0.0084365521502439127 0.0095304932310529816 0 0.0078033146051703934 0.010302527388909218 0 0.0084274964845314354 0.010781973776197131 0 0.0093917584010571042 0.010367851146366257 0 0.0088707815653959587 0.010092067399932366 0 0.0088707815653959587 0.010092067399932366 0 0.0084365521502439127 0.0095304932310529816 0 0.0096452567713941773 0.0095436804864511005 0 0.0084365521502439127 0.0095304932310529816 0 0.0096452567713941773 0.0095436804864511005 0 0.0094610248966343572 0.0087293911636609732 0 0.0093917584010571042 0.010367851146366257 0 0.0096452567713941773 0.0095436804864511005 0 0.011020494534179059 0.0098291832687723013 0 0.0071378591024226674 0.009657338382962519 0 0.0077625326663239751 0.0087007817287162934 0 0.005403546996715412 0.008986153350495343 0 0.0064627559178702136 0.010542810906468645 0 0.0078033146051703934 0.010302527388909218 0 0.0071378591024226674 0.009657338382962519 0 0.0084365521502439127 0.0095304932310529816 0 0.0078033146051703934 0.010302527388909218 0 0.0071378591024226674 0.009657338382962519 0 0.0084365521502439127 0.0095304932310529816 0 0.0071378591024226674 0.009657338382962519 0 0.0077625326663239751 0.0087007817287162934 0 0.0068000084495051646 0.0077527712791550119 0 0.0077625326663239751 0.0087007817287162934 0 0.0094970838525675703 0.0071527290918767285 0 0.0068000084495051646 0.0077527712791550119 0 0.0077625326663239751 0.0087007817287162934 0 0.005403546996715412 0.008986153350495343 0 0.0077625326663239751 0.0087007817287162934 0 0.0094610248966343572 0.0087293911636609732 0 0.0094970838525675703 0.0071527290918767285 0 0.0094610248966343572 0.0087293911636609732 0 0.0094970838525675703 0.0071527290918767285 0 0.011389781590184724 0.0083128199487243933 0 0.0096452567713941773 0.0095436804864511005 0 0.0094610248966343572 0.0087293911636609732 0 0.010685847576392711 0.0091666858807620197 0 0.0084365521502439127 0.0095304932310529816 0 0.0077625326663239751 0.0087007817287162934 0 0.0094610248966343572 0.0087293911636609732 0 0.0068000084495051646 0.0077527712791550119 0 0.0055872790981456935 0.0067453844077023538 0 0.0076589331771143316 0.0055114765200566943 0 0.0068000084495051646 0.0077527712791550119 0 0.0094970838525675703 0.0071527290918767285 0 0.0076589331771143316 0.0055114765200566943 0 0.0055872790981456935 0.0067453844077023538 0 0.0035375924828119133 0.007369808394487345 0 0.005403546996715412 0.008986153350495343 0 0.0055872790981456935 0.0067453844077023538 0 0.0035375924828119133 0.007369808394487345 0 0.0054191229560774882 0.0043716520756333825 0 0.0035375924828119133 0.007369808394487345 0 0.0035372609726651225 0.0086199785568397466 0 0.005403546996715412 0.008986153350495343 0 0.0068000084495051646 0.0077527712791550119 0 0.0055872790981456935 0.0067453844077023538 0 0.005403546996715412 0.008986153350495343 0 0.017652574844475143 0.0064768186908186502 0 0.01775195465332649 0.0062512899875702809 0 0.017234984761886674 0.0062111693981951616 0 0.018161851547737154 0.0065041778796868163 0 0.018227588406361978 0.0062535937845950868 0 0.01775195465332649 0.0062512899875702809 0 0.017652574844475143 0.0064768186908186502 0 0.018161851547737154 0.0065041778796868163 0 0.01775195465332649 0.0062512899875702809 0 0.017652574844475143 0.0064768186908186502 0 0.018161851547737154 0.0065041778796868163 0 0.018174591128512062 0.0067998412183036113 0 0.018161851547737154 0.0065041778796868163 0 0.018657813706867657 0.0066238518922264681 0 0.018174591128512062 0.0067998412183036113 0 0.018161851547737154 0.0065041778796868163 0 0.018657813706867657 0.0066238518922264681 0 0.0186861565856382 0.0063928670858801962 0 0.018657813706867657 0.0066238518922264681 0 0.0186861565856382 0.0063928670858801962 0 0.019156493046890575 0.0064646461326466481 0 0.018161851547737154 0.0065041778796868163 0 0.0186861565856382 0.0063928670858801962 0 0.018227588406361978 0.0062535937845950868 0 0.0186861565856382 0.0063928670858801962 0 0.018227588406361978 0.0062535937845950868 0 0.018613547397317683 0.0060757788687127515 0 0.018227588406361978 0.0062535937845950868 0 0.018613547397317683 0.0060757788687127515 0 0.018082708723213648 0.0060272146767059494 0 0.0186861565856382 0.0063928670858801962 0 0.018613547397317683 0.0060757788687127515 0 0.019021957377569693 0.00620307225079868 0 0.018613547397317683 0.0060757788687127515 0 0.018832120103127906 0.0057634462726441661 0 0.018412908893338558 0.0058100078898675606 0 0.018613547397317683 0.0060757788687127515 0 0.019004479462409064 0.0059800281979308532 0 0.018832120103127906 0.0057634462726441661 0 0.018613547397317683 0.0060757788687127515 0 0.019004479462409064 0.0059800281979308532 0 0.019021957377569693 0.00620307225079868 0 0.018613547397317683 0.0060757788687127515 0 0.018082708723213648 0.0060272146767059494 0 0.018412908893338558 0.0058100078898675606 0 0.017615018397952986 0.0059464662472606487 0 0.01775195465332649 0.0062512899875702809 0 0.017234984761886674 0.0062111693981951616 0 0.018082708723213648 0.0060272146767059494 0 0.017615018397952986 0.0059464662472606487 0 0.017908848294094729 0.0056298930416838816 0 0.017615018397952986 0.0059464662472606487 0 0.017234984761886674 0.0062111693981951616 0 0.016854321500422962 0.0052707555023742284 0 0.018082708723213648 0.0060272146767059494 0 0.017615018397952986 0.0059464662472606487 0 0.01775195465332649 0.0062512899875702809 0 0.018227588406361978 0.0062535937845950868 0 0.018082708723213648 0.0060272146767059494 0 0.01775195465332649 0.0062512899875702809 0 0.013563562116075583 0.0079882574855389254 0 0.012214046735811028 0.0067940106213144865 0 0.013923452364354025 0.0058245703347369745 0 0.015381667660011217 0.006693752933264973 0 0.016009020271972523 0.0056781298454013961 0 0.013563562116075583 0.0079882574855389254 0 0.012214046735811028 0.0067940106213144865 0 0.011389781590184724 0.0083128199487243933 0 0.0094970838525675703 0.0071527290918767285 0 0.012214046735811028 0.0067940106213144865 0 0.011612164924680438 0.0053280244054666175 0 0.0094970838525675703 0.0071527290918767285 0 0.012214046735811028 0.0067940106213144865 0 0.011389781590184724 0.0083128199487243933 0 0.013563562116075583 0.0079882574855389254 0 0.011389781590184724 0.0083128199487243933 0 0.011375654984507244 0.010025044115032545 0 0.011389781590184724 0.0083128199487243933 0 0.010685847576392711 0.0091666858807620197 0 0.011375654984507244 0.010025044115032545 0 0.0094610248966343572 0.0087293911636609732 0 0.011389781590184724 0.0083128199487243933 0 0.010685847576392711 0.0091666858807620197 0 0.015381667660011217 0.006693752933264973 0 0.014459773908938718 0.0080930353872183114 0 0.017234984761886674 0.0062111693981951616 0 0.01715883609901785 0.0065667528612035966 0 0.01663377127499591 0.0065989025000886383 0 0.017652574844475143 0.0064768186908186502 0 0.017234984761886674 0.0062111693981951616 0 0.01715883609901785 0.0065667528612035966 0 0.017652574844475143 0.0064768186908186502 0 0.01715883609901785 0.0065667528612035966 0 0.017363392938301157 0.0068245812366259572 0 0.01715883609901785 0.0065667528612035966 0 0.016908149740252509 0.0068272394996697012 0 0.01663377127499591 0.0065989025000886383 0 0.01715883609901785 0.0065667528612035966 0 0.016908149740252509 0.0068272394996697012 0 0.017363392938301157 0.0068245812366259572 0 0.012449701833627039 0.0097351298548874546 0 0.011020494534179059 0.0098291832687723013 0 0.011375654984507244 0.010025044115032545 0 0.010685847576392711 0.0091666858807620197 0 0.011020494534179059 0.0098291832687723013 0 0.011375654984507244 0.010025044115032545 0 0.0096452567713941773 0.0095436804864511005 0 0.010685847576392711 0.0091666858807620197 0 0.011020494534179059 0.0098291832687723013 0 0.012449701833627039 0.0097351298548874546 0 0.011375654984507244 0.010025044115032545 0 0.012384759686553993 0.009479798646383512 0 0.010987270261094931 0.0099782812603824728 0 0.011109695880076266 0.0096763143275728838 0 0.01663377127499591 0.0065989025000886383 0 0.016460740696252262 0.0071294739355688289 0 0.015454567616122529 0.0073800735335953953 0 0.014459773908938718 0.0080930353872183114 0 0.014045048974047214 0.0087275385516331419 0 0.016908149740252509 0.0068272394996697012 0 0.01663377127499591 0.0065989025000886383 0 0.016460740696252262 0.0071294739355688289 0 0.017363392938301157 0.0068245812366259572 0 0.016998017516351511 0.0071123423123635888 0 0.017379990027337824 0.0071552090499693473 0 0.016908149740252509 0.0068272394996697012 0 0.017363392938301157 0.0068245812366259572 0 0.016998017516351511 0.0071123423123635888 0 0.016908149740252509 0.0068272394996697012 0 0.016460740696252262 0.0071294739355688289 0 0.016998017516351511 0.0071123423123635888 0 0.016460740696252262 0.0071294739355688289 0 0.016998017516351511 0.0071123423123635888 0 0.016666847242684069 0.0074461238796676146 0 0.016998017516351511 0.0071123423123635888 0 0.017262759210256873 0.0073990239094768517 0 0.016666847242684069 0.0074461238796676146 0 0.016998017516351511 0.0071123423123635888 0 0.017379990027337824 0.0071552090499693473 0 0.017262759210256873 0.0073990239094768517 0 0.017379990027337824 0.0071552090499693473 0 0.017754659473788643 0.0070706875580066938 0 0.017719890969927956 0.0073485466275228749 0 0.017379990027337824 0.0071552090499693473 0 0.017719890969927956 0.0073485466275228749 0 0.017262759210256873 0.0073990239094768517 0 0.017754659473788643 0.0070706875580066938 0 0.018202389883463555 0.0070572739388858659 0 0.018186045031845226 0.0072680250547040659 0 0.017754659473788643 0.0070706875580066938 0 0.018186045031845226 0.0072680250547040659 0 0.017719890969927956 0.0073485466275228749 0 0.017754659473788643 0.0070706875580066938 0 0.018174591128512062 0.0067998412183036113 0 0.018202389883463555 0.0070572739388858659 0 0.017363392938301157 0.0068245812366259572 0 0.017379990027337824 0.0071552090499693473 0 0.017754659473788643 0.0070706875580066938 0 0.017652574844475143 0.0064768186908186502 0 0.017363392938301157 0.0068245812366259572 0 0.018174591128512062 0.0067998412183036113 0 0.017363392938301157 0.0068245812366259572 0 0.017754659473788643 0.0070706875580066938 0 0.018174591128512062 0.0067998412183036113 0 0.018174591128512062 0.0067998412183036113 0 0.01865887423102789 0.0070362120903081186 0 0.018843296608050755 0.0068543377254729329 0 0.018657813706867657 0.0066238518922264681 0 0.018174591128512062 0.0067998412183036113 0 0.018843296608050755 0.0068543377254729329 0 0.018174591128512062 0.0067998412183036113 0 0.01865887423102789 0.0070362120903081186 0 0.018202389883463555 0.0070572739388858659 0 0.01865887423102789 0.0070362120903081186 0 0.018202389883463555 0.0070572739388858659 0 0.018186045031845226 0.0072680250547040659 0 0.01865887423102789 0.0070362120903081186 0 0.018186045031845226 0.0072680250547040659 0 0.018628015291641761 0.0073078230943808241 0 0.01865887423102789 0.0070362120903081186 0 0.018628015291641761 0.0073078230943808241 0 0.018959048068511151 0.0072104855370297323 0 0.018628015291641761 0.0073078230943808241 0 0.018969725299984006 0.0074678155980213963 0 0.018314397939921106 0.0075541093794818867 0 0.018628015291641761 0.0073078230943808241 0 0.018969725299984006 0.0074678155980213963 0 0.018959048068511151 0.0072104855370297323 0 0.018969725299984006 0.0074678155980213963 0 0.018314397939921106 0.0075541093794818867 0 0.018080496929106828 0.0080075759001620884 0 0.018186045031845226 0.0072680250547040659 0 0.018628015291641761 0.0073078230943808241 0 0.018314397939921106 0.0075541093794818867 0 0.018186045031845226 0.0072680250547040659 0 0.017719890969927956 0.0073485466275228749 0 0.017757686032111378 0.0076883226112344615 0 0.018186045031845226 0.0072680250547040659 0 0.018314397939921106 0.0075541093794818867 0 0.017757686032111378 0.0076883226112344615 0 0.017262759210256873 0.0073990239094768517 0 0.017757686032111378 0.0076883226112344615 0 0.016973385261403042 0.0078167370739991963 0 0.017719890969927956 0.0073485466275228749 0 0.017262759210256873 0.0073990239094768517 0 0.017757686032111378 0.0076883226112344615 0 0.017757686032111378 0.0076883226112344615 0 0.017358085854898741 0.0082661065107024149 0 0.016973385261403042 0.0078167370739991963 0 0.017757686032111378 0.0076883226112344615 0 0.018080496929106828 0.0080075759001620884 0 0.017358085854898741 0.0082661065107024149 0 0.018314397939921106 0.0075541093794818867 0 0.017757686032111378 0.0076883226112344615 0 0.018080496929106828 0.0080075759001620884 0 0.018080496929106828 0.0080075759001620884 0 0.017358085854898741 0.0082661065107024149 0 0.018149508288681216 0.0088087812361707755 0 0.017358085854898741 0.0082661065107024149 0 0.018149508288681216 0.0088087812361707755 0 0.016764548367240402 0.0090205296585543389 0 0.017455838061261397 0.007463630088446963 0 0.016101734936003368 0.0080268431708310443 0 0.018969725299984006 0.0074678155980213963 0 0.018080496929106828 0.0080075759001620884 0 0.018149508288681216 0.0088087812361707755 0 0.018950734285107122 0.0066708706052584742 0 0.019207441603532525 0.0068397956397308873 0 0.019308126335986456 0.0067059958034840616 0 0.018969725299984006 0.0074678155980213963 0 0.019034300409399203 0.0074586604357008155 0 0.019091809330396742 0.0074511329836485863 0 0.017455838061261397 0.007463630088446963 0 0.018452628428123851 0.007264055752190168 0 0.017836579419089588 0.0073334264478757813 0 0.017455838061261397 0.007463630088446963 0 0.015454567616122529 0.0073800735335953953 0 0.015730461745950691 0.007804037706371109 0 0.015204358748677576 0.008150833495497058 0 0.015730461745950691 0.007804037706371109 0 0.015679228433235645 0.0081076649643528585 0 0.015204358748677576 0.008150833495497058 0 0.015454567616122529 0.0073800735335953953 0 0.016076842271030449 0.0075135811509603398 0 0.015730461745950691 0.007804037706371109 0 0.016460740696252262 0.0071294739355688289 0 0.015454567616122529 0.0073800735335953953 0 0.016076842271030449 0.0075135811509603398 0 0.015730461745950691 0.007804037706371109 0 0.016221502173624922 0.0078998906504624961 0 0.015679228433235645 0.0081076649643528585 0 0.016076842271030449 0.0075135811509603398 0 0.015730461745950691 0.007804037706371109 0 0.016221502173624922 0.0078998906504624961 0 0.016221502173624922 0.0078998906504624961 0 0.016973385261403042 0.0078167370739991963 0 0.016562336346829559 0.0082994463457095498 0 0.016221502173624922 0.0078998906504624961 0 0.016666847242684069 0.0074461238796676146 0 0.016973385261403042 0.0078167370739991963 0 0.016460740696252262 0.0071294739355688289 0 0.016076842271030449 0.0075135811509603398 0 0.016666847242684069 0.0074461238796676146 0 0.016076842271030449 0.0075135811509603398 0 0.016221502173624922 0.0078998906504624961 0 0.016666847242684069 0.0074461238796676146 0 0.017262759210256873 0.0073990239094768517 0 0.016666847242684069 0.0074461238796676146 0 0.016973385261403042 0.0078167370739991963 0 0.017358085854898741 0.0082661065107024149 0 0.016973385261403042 0.0078167370739991963 0 0.016562336346829559 0.0082994463457095498 0 0.017358085854898741 0.0082661065107024149 0 0.016562336346829559 0.0082994463457095498 0 0.016764548367240402 0.0090205296585543389 0 0.016562336346829559 0.0082994463457095498 0 0.01570684096362859 0.0084583012774384295 0 0.016764548367240402 0.0090205296585543389 0 0.016221502173624922 0.0078998906504624961 0 0.016562336346829559 0.0082994463457095498 0 0.01570684096362859 0.0084583012774384295 0 0.01570684096362859 0.0084583012774384295 0 0.014913283211986724 0.0087987343520069851 0 0.016764548367240402 0.0090205296585543389 0 0.016221502173624922 0.0078998906504624961 0 0.015679228433235645 0.0081076649643528585 0 0.01570684096362859 0.0084583012774384295 0 0.015679228433235645 0.0081076649643528585 0 0.01570684096362859 0.0084583012774384295 0 0.015276356674201264 0.0084543560675580873 0 0.014867505889604019 0.0086207935105358322 0 0.015276356674201264 0.0084543560675580873 0 0.014913283211986724 0.0087987343520069851 0 0.01570684096362859 0.0084583012774384295 0 0.015276356674201264 0.0084543560675580873 0 0.014913283211986724 0.0087987343520069851 0 0.014867505889604019 0.0086207935105358322 0 0.015276356674201264 0.0084543560675580873 0 0.015204358748677576 0.008150833495497058 0 0.015679228433235645 0.0081076649643528585 0 0.015276356674201264 0.0084543560675580873 0 0.015204358748677576 0.008150833495497058 0 0.015730056952465401 0.0081863920541921029 0 0.016101734936003368 0.0080268431708310443 0 0.013895047687917226 0.008624570774846213 0 0.014226211268648654 0.0085169477976903361 0 0.014684996392967716 0.0090603247461924288 0 0.014913283211986724 0.0087987343520069851 0 0.014701485340749396 0.0085260557405436813 0 0.014913283211986724 0.0087987343520069851 0 0.014701485340749396 0.0085260557405436813 0 0.014359974529234574 0.0084011251835841294 0 0.014772584314183374 0.007682227507665387 0 0.014701485340749396 0.0085260557405436813 0 0.014650958879726228 0.0080085004882990609 0 0.014701485340749396 0.0085260557405436813 0 0.014650958879726228 0.0080085004882990609 0 0.014471792787700158 0.0081032753587871806 0 0.014471792787700158 0.0081032753587871806 0 0.014359974529234574 0.0084011251835841294 0 0.014212445899769869 0.0079460742231627756 0 0.014701485340749396 0.0085260557405436813 0 0.014471792787700158 0.0081032753587871806 0 0.014359974529234574 0.0084011251835841294 0 0.014471792787700158 0.0081032753587871806 0 0.014212445899769869 0.0079460742231627756 0 0.014572663171692365 0.0077337888791632198 0 0.014429378710358893 0.0073156177042325767 0 0.014212445899769869 0.0079460742231627756 0 0.014572663171692365 0.0077337888791632198 0 0.016243215658666398 0.0073505394132167782 0 0.016634949792148846 0.0075461103563609607 0 0.014772584314183374 0.007682227507665387 0 0.014650958879726228 0.0080085004882990609 0 0.014572663171692365 0.0077337888791632198 0 0.014650958879726228 0.0080085004882990609 0 0.014471792787700158 0.0081032753587871806 0 0.014572663171692365 0.0077337888791632198 0 0.014567275160940642 0.0074735719339493892 0 0.014657911119306328 0.0075021438446515928 0 0.014572663171692365 0.0077337888791632198 0 0.018950734285107122 0.0066708706052584742 0 0.019207441603532525 0.0068397956397308873 0 0.018998510070906683 0.0070249606689603084 0 0.019207441603532525 0.0068397956397308873 0 0.018998510070906683 0.0070249606689603084 0 0.019401617454566759 0.0070271444813449135 0 0.018950734285107122 0.0066708706052584742 0 0.018538341890841709 0.0070470401688662501 0 0.018998510070906683 0.0070249606689603084 0 0.017455838061261397 0.007463630088446963 0 0.016634949792148846 0.0075461103563609607 0 0.013952116984863445 0.0084604656337475583 0 0.014359974529234574 0.0084011251835841294 0 0.014212445899769869 0.0079460742231627756 0 0.018606964012387033 0.00737259825066678 0 0.018538341890841709 0.0070470401688662501 0 0.018827691343160188 0.0072373476525119133 0 0.018538341890841709 0.0070470401688662501 0 0.018827691343160188 0.0072373476525119133 0 0.018998510070906683 0.0070249606689603084 0 0.019020233507892063 0.0074298289571769691 0 0.018827691343160188 0.0072373476525119133 0 0.018998510070906683 0.0070249606689603084 0 0.019020233507892063 0.0074298289571769691 0 0.018998510070906683 0.0070249606689603084 0 0.019401617454566759 0.0070271444813449135 0 0.018395780524104111 0.0061586344896944834 0 0.018866275365839142 0.0062424439063863543 0 0.019207441603532525 0.0068397956397308873 0 0.019401617454566759 0.0070271444813449135 0 0.019417086483143633 0.0067962250847460291 0 0.019207441603532525 0.0068397956397308873 0 0.019417086483143633 0.0067962250847460291 0 0.019308126335986456 0.0067059958034840616 0 0.019497522290224504 0.0055490149514237242 0 0.019431488255120463 0.0065988973922942043 0 0.019113219733543588 0.0059396785741419244 0 0.019401617454566759 0.0070271444813449135 0 0.019417086483143633 0.0067962250847460291 0 0.019431488255120463 0.0065988973922942043 0 0.018866275365839142 0.0062424439063863543 0 0.018962066119262683 0.0063401815973809948 0 0.019113037713499974 0.0054441247685164925 0 0.019497522290224504 0.0055490149514237242 0 0.019113219733543588 0.0059396785741419244 0 0.018535897154464381 0.0054540665746983814 0 0.019113037713499974 0.0054441247685164925 0 0.019113219733543588 0.0059396785741419244 0 0.018535897154464381 0.0054540665746983814 0 0.019113219733543588 0.0059396785741419244 0 0.018722080326169718 0.0061706534873210176 0 0.022810993114894464 0.0056920427865418703 0 0.022444371741798128 0.0060631565261814353 0 0.019431488255120463 0.0065988973922942043 0 0.019113219733543588 0.0059396785741419244 0 0.018722080326169718 0.0061706534873210176 0 0.019431488255120463 0.0065988973922942043 0 0.019256538340024828 0.0069777284847578587 0 0.019572969236409624 0.0070375295073982552 0 0.019431488255120463 0.0065988973922942043 0 0.018722080326169718 0.0061706534873210176 0 0.019256538340024828 0.0069777284847578587 0 0.022444371741798128 0.0060631565261814353 0 0.021983735743399919 0.0060112033949599117 0 0.026378754000830937 0.0070477704498403309 0 0.024564905973267031 0.0065527823712758808 0 0.025981486790011797 0.0066545782085246884 0 0.024564905973267031 0.0065527823712758808 0 0.024305228245765611 0.0058129196946514108 0 0.025981486790011797 0.0066545782085246884 0 0.021983735743399919 0.0060112033949599117 0 0.021555268540855772 0.0055498243051344803 0 0.024564905973267031 0.0065527823712758808 0 0.024305228245765611 0.0058129196946514108 0 0.02266269298657414 0.0052372651258462818 0 0.019256538340024828 0.0069777284847578587 0 0.019781978530937151 0.007002745079699558 0 0.019572969236409624 0.0070375295073982552 0 0.019256538340024828 0.0069777284847578587 0 0.019781978530937151 0.007002745079699558 0 0.020116936932563792 0.0069070089184602012 0 0.019781978530937151 0.007002745079699558 0 0.019572969236409624 0.0070375295073982552 0 0.019687726044105767 0.0070543865101238435 0 0.019572969236409624 0.0070375295073982552 0 0.019533284188863201 0.0071086509004617488 0 0.019687726044105767 0.0070543865101238435 0 0.019533284188863201 0.0071086509004617488 0 0.019687726044105767 0.0070543865101238435 0 0.019376247906222124 0.0072275083036863665 0 0.019533284188863201 0.0071086509004617488 0 0.019376247906222124 0.0072275083036863665 0 0.019492076446393367 0.0069885743181825923 0 0.019687726044105767 0.0070543865101238435 0 0.019421790375462746 0.0071088083130226081 0 0.019376247906222124 0.0072275083036863665 0 0.019421790375462746 0.0071088083130226081 0 0.019162646660186654 0.0073075331327966371 0 0.019376247906222124 0.0072275083036863665 0 0.018969725299984006 0.0074678155980213963 0 0.019162646660186654 0.0073075331327966371 0 0.018959048068511151 0.0072104855370297323 0 0.019421790375462746 0.0071088083130226081 0 0.019162646660186654 0.0073075331327966371 0 0.018959048068511151 0.0072104855370297323 0 0.018969725299984006 0.0074678155980213963 0 0.019162646660186654 0.0073075331327966371 0 0.019199718676456534 0.0073360675406884089 0 0.019162646660186654 0.0073075331327966371 0 0.019376247906222124 0.0072275083036863665 0 0.019199718676456534 0.0073360675406884089 0 0.018452628428123851 0.007264055752190168 0 0.018712680349652563 0.0072098118522308536 0 0.019199718676456534 0.0073360675406884089 0 0.019091809330396742 0.0074511329836485863 0 0.019492076446393367 0.0069885743181825923 0 0.019417086483143633 0.0067962250847460291 0 0.019308126335986456 0.0067059958034840616 0 0.019492076446393367 0.0069885743181825923 0 0.019376247906222124 0.0072275083036863665 0 0.019199718676456534 0.0073360675406884089 0 0.019492076446393367 0.0069885743181825923 0 0.018969725299984006 0.0074678155980213963 0 0.019199718676456534 0.0073360675406884089 0 0.019091809330396742 0.0074511329836485863 0 0.019417086483143633 0.0067962250847460291 0 0.019431488255120463 0.0065988973922942043 0 0.019492076446393367 0.0069885743181825923 0 0.019431488255120463 0.0065988973922942043 0 0.019572969236409624 0.0070375295073982552 0 0.019492076446393367 0.0069885743181825923 0 0.019572969236409624 0.0070375295073982552 0 0.019533284188863201 0.0071086509004617488 0 0.019492076446393367 0.0069885743181825923 0 0.027669711359368132 0.0071406200460222505 0 0.027175591436355964 0.0066823896890930165 0 0.027332007737241589 0.0069810458592152484 0 0.028520494801772326 0.0062581596030427556 0 0.02834453112372191 0.0059760161137346734 0 0.029732904249934109 0.0057207716285214609 0 0.029216623332154947 0.0046735922724806082 0 0.029344191452582807 0.005013730028423812 0 0.027175591436355964 0.0066823896890930165 0 0.027332007737241589 0.0069810458592152484 0 0.027304715183618891 0.0068262407514002813 0 0.027669711359368132 0.0071406200460222505 0 0.027332007737241589 0.0069810458592152484 0 0.027435798683778306 0.0069169097917835551 0 0.027332007737241589 0.0069810458592152484 0 0.027304715183618891 0.0068262407514002813 0 0.026998566034724579 0.0068866083158317971 0 0.027304715183618891 0.0068262407514002813 0 0.026827614292872511 0.0069730433815255524 0 0.026998566034724579 0.0068866083158317971 0 0.027591789691794516 0.0064861135648986348 0 0.027304715183618891 0.0068262407514002813 0 0.026827614292872511 0.0069730433815255524 0 0.027591789691794516 0.0064861135648986348 0 0.026378754000830937 0.0070477704498403309 0 0.026827614292872511 0.0069730433815255524 0 0.026378754000830937 0.0070477704498403309 0 0.026827614292872511 0.0069730433815255524 0 0.025981486790011797 0.0066545782085246884 0 0.026827614292872511 0.0069730433815255524 0 0.025981486790011797 0.0066545782085246884 0 0.026998566034724579 0.0068866083158317971 0 0.025981486790011797 0.0066545782085246884 0 0.025933558856044241 0.0058186721869515397 0 0.026785026427033554 0.00622853556594582 0 0.024305228245765611 0.0058129196946514108 0 0.025981486790011797 0.0066545782085246884 0 0.025933558856044241 0.0058186721869515397 0 0.025583744596211377 0.006698128791313122 0 0.025164137832346129 0.0068946515446187935 0 0.025933558856044241 0.0058186721869515397 0 0.026785026427033554 0.00622853556594582 0 0.026751818330798854 0.0052347183357699762 0 0.026987132300429276 0.0066305410247043447 0 0.027509393216880985 0.0063879452092996192 0 0.026968174506596221 0.0062556903385898545 0 0.026987132300429276 0.0066305410247043447 0 0.026998566034724579 0.0068866083158317971 0 0.027435798683778306 0.0069169097917835551 0 0.025583744596211377 0.006698128791313122 0 0.025720155824197958 0.0067418431106710756 0 0.025981486790011797 0.0066545782085246884 0 0.026785026427033554 0.00622853556594582 0 0.026998566034724579 0.0068866083158317971 0 0.027332007737241589 0.0069810458592152484 0 0.026998566034724579 0.0068866083158317971 0 0.027435798683778306 0.0069169097917835551 0 0.027435798683778306 0.0069169097917835551 0 0.027509393216880985 0.0063879452092996192 0 0.02798478144383992 0.0069753721515591009 0 0.026987132300429276 0.0066305410247043447 0 0.027435798683778306 0.0069169097917835551 0 0.027509393216880985 0.0063879452092996192 0 0.026655751825076533 0.0074159810111772643 0 0.027497430925436377 0.0076530391721315264 0 0.026247956142970569 0.0091664898418073876 0 0.027739699573267201 0.0091239342016914485 0 0.027673621174586615 0.0086305983864315879 0 0.027509393216880985 0.0063879452092996192 0 0.02798478144383992 0.0069753721515591009 0 0.02850587469142539 0.0066748781932941502 0 0.027669711359368132 0.0071406200460222505 0 0.027435798683778306 0.0069169097917835551 0 0.02798478144383992 0.0069753721515591009 0 0.026519583439197324 0.0080946007054229028 0 0.027059868657888758 0.0083976721488948081 0 0.027433064969788697 0.0080157164232233374 0 0.026519583439197324 0.0080946007054229028 0 0.027059868657888758 0.0083976721488948081 0 0.025867798858156221 0.0084117755649644917 0 0.026247956142970569 0.0091664898418073876 0 0.027059868657888758 0.0083976721488948081 0 0.027673621174586615 0.0086305983864315879 0 0.026247956142970569 0.0091664898418073876 0 0.027059868657888758 0.0083976721488948081 0 0.025867798858156221 0.0084117755649644917 0 0.026247956142970569 0.0091664898418073876 0 0.025867798858156221 0.0084117755649644917 0 0.025252040563357097 0.0089693400729534498 0 0.026655751825076533 0.0074159810111772643 0 0.025164137832346129 0.0068946515446187935 0 0.025867798858156221 0.0084117755649644917 0 0.02512689455342982 0.0081597611658974396 0 0.025252040563357097 0.0089693400729534498 0 0.024037247903165776 0.006763832113105217 0 0.025164137832346129 0.0068946515446187935 0 0.021332911843335103 0.0055745768381600096 0 0.021330056531028759 0.0048691059601021708 0 0.021765043813081825 0.0049493550196891296 0 0.024305228245765611 0.0058129196946514108 0 0.025933558856044241 0.0058186721869515397 0 0.025342488434021569 0.0049192924126588424 0 0.025164137832346129 0.0068946515446187935 0 0.024053519758216697 0.0061956008620566057 0 0.025933558856044241 0.0058186721869515397 0 0.026751818330798854 0.0052347183357699762 0 0.025342488434021569 0.0049192924126588424 0 0.021332911843335103 0.0055745768381600096 0 0.021765043813081825 0.0049493550196891296 0 0.021857205692365253 0.0054606074529678274 0 0.021332911843335103 0.0055745768381600096 0 0.021857205692365253 0.0054606074529678274 0 0.02163158854556909 0.0057167308768462819 0 0.021332911843335103 0.0055745768381600096 0 0.02135908745156247 0.0059211161640461791 0 0.02163158854556909 0.0057167308768462819 0 0.02135908745156247 0.0059211161640461791 0 0.02163158854556909 0.0057167308768462819 0 0.021388144964812401 0.0059382010066734523 0 0.024037247903165776 0.006763832113105217 0 0.02338175577207707 0.0065823576643287444 0 0.02512689455342982 0.0081597611658974396 0 0.024647238074454764 0.0077114229173702396 0 0.025590171653650077 0.0077968075707782252 0 0.026519583439197324 0.0080946007054229028 0 0.025867798858156221 0.0084117755649644917 0 0.025590171653650077 0.0077968075707782252 0 0.025867798858156221 0.0084117755649644917 0 0.02512689455342982 0.0081597611658974396 0 0.025590171653650077 0.0077968075707782252 0 0.024647238074454764 0.0077114229173702396 0 0.025590171653650077 0.0077968075707782252 0 0.024652120822177253 0.0074248706505647584 0 0.025590171653650077 0.0077968075707782252 0 0.025813092342763685 0.0074887337743851515 0 0.026762357745282937 0.0076885988702808539 0 0.026519583439197324 0.0080946007054229028 0 0.025590171653650077 0.0077968075707782252 0 0.026762357745282937 0.0076885988702808539 0 0.02034317106973119 0.0064922909351995007 0 0.019770029349925566 0.0063414811470585922 0 0.021255893373663046 0.0057617087444010468 0 0.02034317106973119 0.0064922909351995007 0 0.019770029349925566 0.0063414811470585922 0 0.020022489412348739 0.0068430757481252897 0 0.01865887423102789 0.0070362120903081186 0 0.018843296608050755 0.0068543377254729329 0 0.01927231484920262 0.0069818592641701484 0 0.018843296608050755 0.0068543377254729329 0 0.01927231484920262 0.0069818592641701484 0 0.019281394390110156 0.0066754475922798841 0 0.019421790375462746 0.0071088083130226081 0 0.018959048068511151 0.0072104855370297323 0 0.019770029349925566 0.0063414811470585922 0 0.01865887423102789 0.0070362120903081186 0 0.018959048068511151 0.0072104855370297323 0 0.01927231484920262 0.0069818592641701484 0 0.019516768411335771 0.0070038910972029219 0 0.019806461827863515 0.0066950357929868995 0 0.019421790375462746 0.0071088083130226081 0 0.019770029349925566 0.0063414811470585922 0 0.019740367880968099 0.0068653653342307932 0 0.019687726044105767 0.0070543865101238435 0 0.019421790375462746 0.0071088083130226081 0 0.019740367880968099 0.0068653653342307932 0 0.019687726044105767 0.0070543865101238435 0 0.019740367880968099 0.0068653653342307932 0 0.020022489412348739 0.0068430757481252897 0 0.019770029349925566 0.0063414811470585922 0 0.019740367880968099 0.0068653653342307932 0 0.020022489412348739 0.0068430757481252897 0 0.019781978530937151 0.007002745079699558 0 0.019687726044105767 0.0070543865101238435 0 0.020022489412348739 0.0068430757481252897 0 0.019781978530937151 0.007002745079699558 0 0.020022489412348739 0.0068430757481252897 0 0.020116936932563792 0.0069070089184602012 0 0.02034317106973119 0.0064922909351995007 0 0.020022489412348739 0.0068430757481252897 0 0.020116936932563792 0.0069070089184602012 0 0.021765043813081825 0.0049493550196891296 0 0.02282128795467599 0.0050874662789175459 0 0.021857205692365253 0.0054606074529678274 0 0.024305228245765611 0.0058129196946514108 0 0.025342488434021569 0.0049192924126588424 0 0.02282128795467599 0.0050874662789175459 0 0.024053519758216697 0.0061956008620566057 0 0.023717629677498596 0.0059979746026948451 0 0.024305228245765611 0.0058129196946514108 0 0.02266269298657414 0.0052372651258462818 0 0.02282128795467599 0.0050874662789175459 0 0.021857205692365253 0.0054606074529678274 0 0.022065270201481427 0.0055298223338672136 0 0.02163158854556909 0.0057167308768462819 0 0.02282128795467599 0.0050874662789175459 0 0.021857205692365253 0.0054606074529678274 0 0.022065270201481427 0.0055298223338672136 0 0.02034317106973119 0.0064922909351995007 0 0.020116936932563792 0.0069070089184602012 0 0.021255893373663046 0.0057617087444010468 0 0.02266269298657414 0.0052372651258462818 0 0.022065270201481427 0.0055298223338672136 0 0.021255893373663046 0.0057617087444010468 0 0.02266269298657414 0.0052372651258462818 0 0.02282128795467599 0.0050874662789175459 0 0.022065270201481427 0.0055298223338672136 0 0.021555268540855772 0.0055498243051344803 0 0.021382933126789187 0.0052901748894979049 0 0.022065270201481427 0.0055298223338672136 0 0.021574110965682798 0.0056400064431231635 0 0.021255893373663046 0.0057617087444010468 0 0.021574110965682798 0.0056400064431231635 0 0.021327671146527491 0.0054814165891937444 0 0.021255893373663046 0.0057617087444010468 0 0.022065270201481427 0.0055298223338672136 0 0.021574110965682798 0.0056400064431231635 0 0.02163158854556909 0.0057167308768462819 0 0.021574110965682798 0.0056400064431231635 0 0.021127029732185231 0.0058735153978620187 0 0.021388144964812401 0.0059382010066734523 0 0.021574110965682798 0.0056400064431231635 0 0.02163158854556909 0.0057167308768462819 0 0.021388144964812401 0.0059382010066734523 0 0.021574110965682798 0.0056400064431231635 0 0.021327671146527491 0.0054814165891937444 0 0.021127029732185231 0.0058735153978620187 0 0.020108013645047062 0.006556680544112954 0 0.020385478924655104 0.0059416927711340292 0 0.021127029732185231 0.0058735153978620187 0 0.020386118540681029 0.0061083184880360566 0 0.020662177642974219 0.0058348388201783516 0 0.01998355128139509 0.0062807119278538298 0 0.020108013645047062 0.006556680544112954 0 0.020385478924655104 0.0059416927711340292 0 0.019782138839495495 0.0061541535610315735 0 0.01998355128139509 0.0062807119278538298 0 0.020385478924655104 0.0059416927711340292 0 0.019782138839495495 0.0061541535610315735 0 0.019747353682627027 0.0058571978655770334 0 0.020385478924655104 0.0059416927711340292 0 0.01998355128139509 0.0062807119278538298 0 0.020108013645047062 0.006556680544112954 0 0.019671479729524606 0.0064556168825323059 0 0.019782138839495495 0.0061541535610315735 0 0.01998355128139509 0.0062807119278538298 0 0.019671479729524606 0.0064556168825323059 0 0.019806461827863515 0.0066950357929868995 0 0.020386118540681029 0.0061083184880360566 0 0.020108013645047062 0.006556680544112954 0 0.019671479729524606 0.0064556168825323059 0 0.019281394390110156 0.0066754475922798841 0 0.01927231484920262 0.0069818592641701484 0 0.020108013645047062 0.006556680544112954 0 0.019281394390110156 0.0066754475922798841 0 0.019770029349925566 0.0063414811470585922 0 0.021327671146527491 0.0054814165891937444 0 0.021255893373663046 0.0057617087444010468 0 0.018657813706867657 0.0066238518922264681 0 0.019281394390110156 0.0066754475922798841 0 0.019156493046890575 0.0064646461326466481 0 0.018657813706867657 0.0066238518922264681 0 0.018843296608050755 0.0068543377254729329 0 0.019281394390110156 0.0066754475922798841 0 0.019671479729524606 0.0064556168825323059 0 0.019281394390110156 0.0066754475922798841 0 0.019156493046890575 0.0064646461326466481 0 0.019671479729524606 0.0064556168825323059 0 0.019156493046890575 0.0064646461326466481 0 0.019429428404421637 0.0062799687469565716 0 0.0186861565856382 0.0063928670858801962 0 0.019156493046890575 0.0064646461326466481 0 0.019021957377569693 0.00620307225079868 0 0.019156493046890575 0.0064646461326466481 0 0.019021957377569693 0.00620307225079868 0 0.019429428404421637 0.0062799687469565716 0 0.019021957377569693 0.00620307225079868 0 0.019429428404421637 0.0062799687469565716 0 0.019395767135785176 0.0060621910440867644 0 0.019782138839495495 0.0061541535610315735 0 0.019671479729524606 0.0064556168825323059 0 0.019429428404421637 0.0062799687469565716 0 0.019782138839495495 0.0061541535610315735 0 0.019395767135785176 0.0060621910440867644 0 0.019747353682627027 0.0058571978655770334 0 0.019782138839495495 0.0061541535610315735 0 0.019429428404421637 0.0062799687469565716 0 0.019395767135785176 0.0060621910440867644 0 0.019004479462409064 0.0059800281979308532 0 0.019021957377569693 0.00620307225079868 0 0.019395767135785176 0.0060621910440867644 0 0.019004479462409064 0.0059800281979308532 0 0.019395767135785176 0.0060621910440867644 0 0.019294323048075112 0.005805898188326707 0 0.019294323048075112 0.005805898188326707 0 0.01921054868017761 0.0055754410640716729 0 0.018832120103127906 0.0057634462726441661 0 0.019294323048075112 0.005805898188326707 0 0.019563738652724379 0.0056253673209891225 0 0.01921054868017761 0.0055754410640716729 0 0.019294323048075112 0.005805898188326707 0 0.019747353682627027 0.0058571978655770334 0 0.019563738652724379 0.0056253673209891225 0 0.019395767135785176 0.0060621910440867644 0 0.019294323048075112 0.005805898188326707 0 0.019747353682627027 0.0058571978655770334 0 0.019563738652724379 0.0056253673209891225 0 0.019477987689722673 0.0053004271783627308 0 0.02002242480333229 0.0055811059238947969 0 0.019747353682627027 0.0058571978655770334 0 0.019563738652724379 0.0056253673209891225 0 0.02002242480333229 0.0055811059238947969 0 0.019563738652724379 0.0056253673209891225 0 0.01921054868017761 0.0055754410640716729 0 0.019477987689722673 0.0053004271783627308 0 0.019477987689722673 0.0053004271783627308 0 0.020180846891182699 0.0051838444173288598 0 0.0194805402686835 0.004969850602242012 0 0.019477987689722673 0.0053004271783627308 0 0.02002242480333229 0.0055811059238947969 0 0.020180846891182699 0.0051838444173288598 0 0.02002242480333229 0.0055811059238947969 0 0.020644745717198258 0.0056198175730496625 0 0.020180846891182699 0.0051838444173288598 0 0.020644745717198258 0.0056198175730496625 0 0.020642576756187227 0.0055683117628845128 0 0.020180846891182699 0.0051838444173288598 0 0.02002242480333229 0.0055811059238947969 0 0.020385478924655104 0.0059416927711340292 0 0.020644745717198258 0.0056198175730496625 0 0.019747353682627027 0.0058571978655770334 0 0.02002242480333229 0.0055811059238947969 0 0.020385478924655104 0.0059416927711340292 0 0.020385478924655104 0.0059416927711340292 0 0.021127029732185231 0.0058735153978620187 0 0.020644745717198258 0.0056198175730496625 0 0.021127029732185231 0.0058735153978620187 0 0.021388144964812401 0.0059382010066734523 0 0.021188325772691138 0.0059825178724668892 0 0.021127029732185231 0.0058735153978620187 0 0.021188325772691138 0.0059825178724668892 0 0.020644745717198258 0.0056198175730496625 0 0.021188325772691138 0.0059825178724668892 0 0.020644745717198258 0.0056198175730496625 0 0.020642576756187227 0.0055683117628845128 0 0.020642576756187227 0.0055683117628845128 0 0.020772368063998636 0.0057784526190673155 0 0.020414812638459616 0.0053692927762349673 0 0.021188325772691138 0.0059825178724668892 0 0.020642576756187227 0.0055683117628845128 0 0.020772368063998636 0.0057784526190673155 0 0.021188325772691138 0.0059825178724668892 0 0.020772368063998636 0.0057784526190673155 0 0.020976591133140904 0.0060373967028461558 0 0.020772368063998636 0.0057784526190673155 0 0.020976591133140904 0.0060373967028461558 0 0.020529361294338903 0.0058076051565461393 0 0.020772368063998636 0.0057784526190673155 0 0.020414812638459616 0.0053692927762349673 0 0.020529361294338903 0.0058076051565461393 0 0.020414812638459616 0.0053692927762349673 0 0.020604926675452811 0.0056804907051136019 0 0.020529361294338903 0.0058076051565461393 0 0.020414812638459616 0.0053692927762349673 0 0.020509873423882639 0.005367018775381969 0 0.020604926675452811 0.0056804907051136019 0 0.020414812638459616 0.0053692927762349673 0 0.020509873423882639 0.005367018775381969 0 0.019980078784676732 0.0047539569562179184 0 0.020180846891182699 0.0051838444173288598 0 0.019980078784676732 0.0047539569562179184 0 0.0194805402686835 0.004969850602242012 0 0.020414812638459616 0.0053692927762349673 0 0.020180846891182699 0.0051838444173288598 0 0.019980078784676732 0.0047539569562179184 0 0.020642576756187227 0.0055683117628845128 0 0.020414812638459616 0.0053692927762349673 0 0.020180846891182699 0.0051838444173288598 0 0.025395340686417998 0.0072758968636795806 0 0.024652120822177253 0.0074248706505647584 0 0.024061987962760188 0.0070712499925008826 0 0.025395340686417998 0.0072758968636795806 0 0.025813092342763685 0.0074887337743851515 0 0.024652120822177253 0.0074248706505647584 0 0.025590171653650077 0.0077968075707782252 0 0.025813092342763685 0.0074887337743851515 0 0.024652120822177253 0.0074248706505647584 0 0.024652120822177253 0.0074248706505647584 0 0.023646479562325965 0.0073866046276503897 0 0.024061987962760188 0.0070712499925008826 0 0.022961064126408859 0.006321619850626522 0 0.02278383222371673 0.0061329430171966929 0 0.024647238074454764 0.0077114229173702396 0 0.024652120822177253 0.0074248706505647584 0 0.023646479562325965 0.0073866046276503897 0 0.02338175577207707 0.0065823576643287444 0 0.022961064126408859 0.006321619850626522 0 0.02135908745156247 0.0059211161640461791 0 0.021388144964812401 0.0059382010066734523 0 0.021482233937189087 0.0060971184437043713 0 0.021188325772691138 0.0059825178724668892 0 0.021482233937189087 0.0060971184437043713 0 0.021989725520403278 0.0064536105185126393 0 0.021388144964812401 0.0059382010066734523 0 0.021188325772691138 0.0059825178724668892 0 0.021482233937189087 0.0060971184437043713 0 0.021188325772691138 0.0059825178724668892 0 0.020976591133140904 0.0060373967028461558 0 0.021989725520403278 0.0064536105185126393 0 0.020976591133140904 0.0060373967028461558 0 0.021989725520403278 0.0064536105185126393 0 0.021592430453537703 0.0062177622849229897 0 0.021989725520403278 0.0064536105185126393 0 0.023320601581274934 0.0065603295809532874 0 0.021592430453537703 0.0062177622849229897 0 0.023646479562325965 0.0073866046276503897 0 0.021989725520403278 0.0064536105185126393 0 0.024061987962760188 0.0070712499925008826 0 0.021989725520403278 0.0064536105185126393 0 0.024061987962760188 0.0070712499925008826 0 0.023320601581274934 0.0065603295809532874 0 0.023320601581274934 0.0065603295809532874 0 0.022314275767149734 0.006275870342281325 0 0.021592430453537703 0.0062177622849229897 0 0.023320601581274934 0.0065603295809532874 0 0.023950226413277386 0.0064587899657420501 0 0.023004438968886379 0.0063061284715666324 0 0.023320601581274934 0.0065603295809532874 0 0.023950226413277386 0.0064587899657420501 0 0.024678080440751957 0.0069771631771701871 0 0.024061987962760188 0.0070712499925008826 0 0.023320601581274934 0.0065603295809532874 0 0.024678080440751957 0.0069771631771701871 0 0.025395340686417998 0.0072758968636795806 0 0.024061987962760188 0.0070712499925008826 0 0.024678080440751957 0.0069771631771701871 0 0.023189988979163509 0.0060299106950547424 0 0.02318536734352479 0.0061771485915642693 0 0.02298170293696437 0.0059044541785458361 0 0.020544968448571167 0.0077282849934426729 0 0.019967399306143708 0.0092100646193040894 0 0.023189988979163509 0.0060299106950547424 0 0.02318536734352479 0.0061771485915642693 0 0.023540197787041958 0.0062232494458384063 0 0.023950226413277386 0.0064587899657420501 0 0.02318536734352479 0.0061771485915642693 0 0.023540197787041958 0.0062232494458384063 0 0.023950226413277386 0.0064587899657420501 0 0.023004438968886379 0.0063061284715666324 0 0.02318536734352479 0.0061771485915642693 0 0.023320601581274934 0.0065603295809532874 0 0.023004438968886379 0.0063061284715666324 0 0.022314275767149734 0.006275870342281325 0 0.023004438968886379 0.0063061284715666324 0 0.02318536734352479 0.0061771485915642693 0 0.021954606187482056 0.0061984714511359642 0 0.023004438968886379 0.0063061284715666324 0 0.022314275767149734 0.006275870342281325 0 0.021954606187482056 0.0061984714511359642 0 0.02318536734352479 0.0061771485915642693 0 0.021954606187482056 0.0061984714511359642 0 0.021803805356430502 0.0059612711348707385 0 0.022314275767149734 0.006275870342281325 0 0.021954606187482056 0.0061984714511359642 0 0.021068980773794144 0.0062393135796171804 0 0.021954606187482056 0.0061984714511359642 0 0.021068980773794144 0.0062393135796171804 0 0.020542658227244756 0.0063783001449667859 0 0.022314275767149734 0.006275870342281325 0 0.021068980773794144 0.0062393135796171804 0 0.021592430453537703 0.0062177622849229897 0 0.020976591133140904 0.0060373967028461558 0 0.021592430453537703 0.0062177622849229897 0 0.020535989612668334 0.0061642820829599905 0 0.021068980773794144 0.0062393135796171804 0 0.021592430453537703 0.0062177622849229897 0 0.020535989612668334 0.0061642820829599905 0 0.021068980773794144 0.0062393135796171804 0 0.020535989612668334 0.0061642820829599905 0 0.019849514274698891 0.0064654770986511652 0 0.021068980773794144 0.0062393135796171804 0 0.020542658227244756 0.0063783001449667859 0 0.019849514274698891 0.0064654770986511652 0 0.018486944020854358 0.007001569739631665 0 0.020542658227244756 0.0063783001449667859 0 0.019849514274698891 0.0064654770986511652 0 0.018271467851070308 0.0093018347811587524 0 0.017846828445489002 0.010136002517398547 0 0.018486944020854358 0.007001569739631665 0 0.020542658227244756 0.0063783001449667859 0 0.020590493003211131 0.0055477201019103195 0 0.021954606187482056 0.0061984714511359642 0 0.020542658227244756 0.0063783001449667859 0 0.021803805356430502 0.0059612711348707385 0 0.019967399306143708 0.0092100646193040894 0 0.017846828445489002 0.010136002517398547 0 0.019205944723692869 0.0099958762501969351 0 0.018994328702544038 0.0094795704778254143 0 0.018795052938974821 0.0095359134843330633 0 0.019967399306143708 0.0092100646193040894 0 0.017496108111613114 0.011423891348541125 0 0.021284870806102939 0.011847880650624067 0 0.021146293932043952 0.01215977558113036 0 0.021393476335883801 0.012324492872695597 0 0.020542658227244756 0.0063783001449667859 0 0.021803805356430502 0.0059612711348707385 0 0.020590493003211131 0.0055477201019103195 0 0.021146293932043952 0.01215977558113036 0 0.020881834255330439 0.011984931522546738 0 0.020995116560713938 0.012493977661097028 0 0.021284870806102939 0.011847880650624067 0 0.021146293932043952 0.01215977558113036 0 0.020881834255330439 0.011984931522546738 0 0.021100618416256441 0.011548984445476985 0 0.021284870806102939 0.011847880650624067 0 0.020881834255330439 0.011984931522546738 0 0.021550415407677086 0.0088542249613606169 0 0.019967399306143708 0.0092100646193040894 0 0.020738650207360699 0.0061860977350323308 0 0.021648979017117934 0.0068564818087241157 0 0.021169494371018907 0.0059577501880714147 0 0.020509873423882639 0.005367018775381969 0 0.020604926675452811 0.0056804907051136019 0 0.021169494371018907 0.0059577501880714147 0 0.020738650207360699 0.0061860977350323308 0 0.020604926675452811 0.0056804907051136019 0 0.021169494371018907 0.0059577501880714147 0 0.020738650207360699 0.0061860977350323308 0 0.020604926675452811 0.0056804907051136019 0 0.020529361294338903 0.0058076051565461393 0 0.020976591133140904 0.0060373967028461558 0 0.020535989612668334 0.0061642820829599905 0 0.020529361294338903 0.0058076051565461393 0 0.020535989612668334 0.0061642820829599905 0 0.020529361294338903 0.0058076051565461393 0 0.020316123257474991 0.006199832374888207 0 0.020535989612668334 0.0061642820829599905 0 0.020316123257474991 0.006199832374888207 0 0.019849514274698891 0.0064654770986511652 0 0.020738650207360699 0.0061860977350323308 0 0.020316123257474991 0.006199832374888207 0 0.020210438205643094 0.0067118238403364875 0 0.020738650207360699 0.0061860977350323308 0 0.020529361294338903 0.0058076051565461393 0 0.020316123257474991 0.006199832374888207 0 0.020316123257474991 0.006199832374888207 0 0.020210438205643094 0.0067118238403364875 0 0.019849514274698891 0.0064654770986511652 0 0.020210438205643094 0.0067118238403364875 0 0.019849514274698891 0.0064654770986511652 0 0.019520286361352203 0.0071431159417643829 0 0.018486944020854358 0.007001569739631665 0 0.019849514274698891 0.0064654770986511652 0 0.019520286361352203 0.0071431159417643829 0 0.018486944020854358 0.007001569739631665 0 0.019520286361352203 0.0071431159417643829 0 0.019066929631568232 0.0086886290789445157 0 0.020210438205643094 0.0067118238403364875 0 0.020110117780465099 0.0081685227324183578 0 0.021106370556975208 0.007522302231439776 0 0.019520286361352203 0.0071431159417643829 0 0.020110117780465099 0.0081685227324183578 0 0.019066929631568232 0.0086886290789445157 0 0.020210438205643094 0.0067118238403364875 0 0.019520286361352203 0.0071431159417643829 0 0.020110117780465099 0.0081685227324183578 0 0.020110117780465099 0.0081685227324183578 0 0.020900469134049492 0.0086096202223408646 0 0.021106370556975208 0.007522302231439776 0 0.020900469134049492 0.0086096202223408646 0 0.021106370556975208 0.007522302231439776 0 0.021734044388747702 0.0085585772189677115 0 0.020738650207360699 0.0061860977350323308 0 0.020210438205643094 0.0067118238403364875 0 0.021106370556975208 0.007522302231439776 0 0.020738650207360699 0.0061860977350323308 0 0.021106370556975208 0.007522302231439776 0 0.021648979017117934 0.0068564818087241157 0 0.01829201615387217 0.0094183972716007681 0 0.019385031975235386 0.01098879906713519 0 0.021106370556975208 0.007522302231439776 0 0.021648979017117934 0.0068564818087241157 0 0.022027212449412189 0.0084960610779204766 0 0.021106370556975208 0.007522302231439776 0 0.021734044388747702 0.0085585772189677115 0 0.022027212449412189 0.0084960610779204766 0 0.014557513856381236 0.011217419229885133 0 0.014611986675871359 0.011302277981897289 0 0.014589014844811695 0.011362454246324956 0 0.014611986675871359 0.011302277981897289 0 0.014631405498594168 0.011378791278364593 0 0.014589014844811695 0.011362454246324956 0 0.014611986675871359 0.011302277981897289 0 0.014697979613183618 0.011420714651535095 0 0.014631405498594168 0.011378791278364593 0 0.014611986675871359 0.011302277981897289 0 0.014664091308589356 0.011283655725817255 0 0.014697979613183618 0.011420714651535095 0 0.014664091308589356 0.011283655725817255 0 0.01459050333451907 0.011168191242006161 0 0.014676075951868628 0.011190113059975651 0 0.014611986675871359 0.011302277981897289 0 0.014664091308589356 0.011283655725817255 0 0.01459050333451907 0.011168191242006161 0 0.014557513856381236 0.011217419229885133 0 0.014611986675871359 0.011302277981897289 0 0.01459050333451907 0.011168191242006161 0 0.01459050333451907 0.011168191242006161 0 0.014476772002610135 0.011043956311589921 0 0.014565415643844299 0.011048052995109602 0 0.014557513856381236 0.011217419229885133 0 0.01459050333451907 0.011168191242006161 0 0.014565415643844299 0.011048052995109602 0 0.01829201615387217 0.0094183972716007681 0 0.017279602435054178 0.0081643332821404145 0 0.014476772002610135 0.011043956311589921 0 0.014150735942991641 0.010843643749359083 0 0.014169630306576805 0.010493374737138744 0 0.012660025672749441 0.012358635040580733 0 0.012436012548415186 0.012988518321174218 0 0.01459050333451907 0.011168191242006161 0 0.014476772002610135 0.011043956311589921 0 0.014676075951868628 0.011190113059975651 0 0.014476772002610135 0.011043956311589921 0 0.014132480710946653 0.011153852678801052 0 0.014592587043688855 0.011234079946641171 0 0.017279602435054178 0.0081643332821404145 0 0.016190827237644655 0.005703174926700594 0 0.014476772002610135 0.011043956311589921 0 0.014565415643844299 0.011048052995109602 0 0.014592587043688855 0.011234079946641171 0 0.013178356167580688 0.0062484519311508972 0 0.0099865287725259804 0.0086375926072399089 0 0.011447528121728154 -0.002412634004593133 0 0.014655317241656486 -0.0025960396079660122 0 0.011517405564442709 -0.0047037451926709916 0 0.014132480710946653 0.011153852678801052 0 0.013816173497839852 0.010660723186572681 0 0.014150735942991641 0.010843643749359083 0 0.014476772002610135 0.011043956311589921 0 0.014132480710946653 0.011153852678801052 0 0.014150735942991641 0.010843643749359083 0 0.014132480710946653 0.011153852678801052 0 0.013816173497839852 0.010660723186572681 0 0.013333516570808574 0.010727925325923782 0 0.013816173497839852 0.010660723186572681 0 0.014150735942991641 0.010843643749359083 0 0.014169630306576805 0.010493374737138744 0 0.013816173497839852 0.010660723186572681 0 0.014169630306576805 0.010493374737138744 0 0.013615410364346001 0.010215527789227257 0 0.013816173497839852 0.010660723186572681 0 0.013333516570808574 0.010727925325923782 0 0.013615410364346001 0.010215527789227257 0 0.0099865287725259804 0.0086375926072399089 0 0.01060716762204127 0.0088422951349742193 0 0.012834714763720601 0.011357606270665989 0 0.013170597051646374 0.010221032635863046 0 0.01225916181957774 0.010950712255126994 0 0.0092595600303408722 0.01447542503854222 0 0.008135772694707057 0.011267440766524806 0 0.012834714763720601 0.011357606270665989 0 0.013170597051646374 0.010221032635863046 0 0.013615410364346001 0.010215527789227257 0 0.0015458352817734416 0.020734875322000124 0 0.0037678242916442568 0.020398098665548346 0 0.0047537878654802931 0.017601852770809185 0 0.013170597051646374 0.010221032635863046 0 0.013615410364346001 0.010215527789227257 0 0.013857246181385102 0.0097825237621287434 0 0.0015458352817734416 0.020734875322000124 0 -0.0015711594531822224 0.023738146600007105 0 0.0016132250833084077 0.023910521251908082 0 0.0092595600303408722 0.01447542503854222 0 0.01217312712106167 0.016238969402405032 0 0.0015458352817734416 0.020734875322000124 0 0.0030280554643758303 0.022620057868318773 0 0.0037678242916442568 0.020398098665548346 0 0.0015458352817734416 0.020734875322000124 0 0.0030280554643758303 0.022620057868318773 0 0.0016132250833084077 0.023910521251908082 0 0.014664091308589356 0.011283655725817255 0 0.014676075951868628 0.011190113059975651 0 0.014760785164206936 0.011363216071743069 0 0.014169630306576805 0.010493374737138744 0 0.013615410364346001 0.010215527789227257 0 0.013857246181385102 0.0097825237621287434 0 0.012436012548415186 0.012988518321174218 0 0.01217312712106167 0.016238969402405032 0 0.01217312712106167 0.016238969402405032 0 0.017112089665948498 0.014830549620393549 0 0.012611011132585502 0.017851234910834693 0 0.012272423896658995 0.017152201203058867 0 0.013402551612324799 0.017159327290535625 0 0.014664091308589356 0.011283655725817255 0 0.014760785164206936 0.011363216071743069 0 0.014697979613183618 0.011420714651535095 0 0.01217312712106167 0.016238969402405032 0 0.011887020566081229 0.019411001427886345 0 0.0029768738039075548 0.024307231265343822 0 0.0016132250833084077 0.023910521251908082 0 0.0026258489640892252 0.025774438859574339 0 0.0030280554643758303 0.022620057868318773 0 0.0029768738039075548 0.024307231265343822 0 0.0041483193018444307 0.023853758730979641 0 0.0030280554643758303 0.022620057868318773 0 0.0029768738039075548 0.024307231265343822 0 0.0016132250833084077 0.023910521251908082 0 -0.0015711594531822224 0.023738146600007105 0 0.0016132250833084077 0.023910521251908082 0 0.0010134700101380777 0.025529747874676743 0 0.0010134700101380777 0.025529747874676743 0 0.0019231702205016465 0.026593046395547819 0 0.00024380948520087302 0.027557849827890887 0 -0.0015711594531822224 0.023738146600007105 0 0.0010134700101380777 0.025529747874676743 0 0.00024380948520087302 0.027557849827890887 0 0.0019231702205016465 0.026593046395547819 0 0.0031709555670555185 0.026690116095341849 0 0.0023433376847494768 0.027633339637993339 0 0.0016132250833084077 0.023910521251908082 0 0.0010134700101380777 0.025529747874676743 0 0.0026258489640892252 0.025774438859574339 0 0.0010134700101380777 0.025529747874676743 0 0.0019231702205016465 0.026593046395547819 0 0.0026258489640892252 0.025774438859574339 0 0.0029768738039075548 0.024307231265343822 0 0.0026258489640892252 0.025774438859574339 0 0.0035068494353510029 0.025337154882554804 0 0.0026258489640892252 0.025774438859574339 0 0.0033579669844940427 0.026104236550458793 0 0.0035068494353510029 0.025337154882554804 0 0.0026258489640892252 0.025774438859574339 0 0.0033579669844940427 0.026104236550458793 0 0.0031709555670555185 0.026690116095341849 0 0.0019231702205016465 0.026593046395547819 0 0.0026258489640892252 0.025774438859574339 0 0.0031709555670555185 0.026690116095341849 0 0.00412780968268232 0.026597217791813114 0 0.0035068494353510029 0.025337154882554804 0 0.0041483193018444307 0.023853758730979641 0 0.00412780968268232 0.026597217791813114 0 0.0053510975955214698 0.026336958244472266 0 0.0049124593185772654 0.024615290836566602 0 0.00412780968268232 0.026597217791813114 0 0.0041483193018444307 0.023853758730979641 0 0.0060249589867671293 0.022032320967272947 0 0.0028603590875666877 0.022032108183986855 0 0.0030804089137122063 0.020451449241947094 0 0.0031709555670555185 0.026690116095341849 0 0.00412780968268232 0.026597217791813114 0 0.0039901297385348707 0.027612022896892789 0 0.0033579669844940427 0.026104236550458793 0 0.0031709555670555185 0.026690116095341849 0 0.00412780968268232 0.026597217791813114 0 0.0033579669844940427 0.026104236550458793 0 0.00412780968268232 0.026597217791813114 0 0.0035068494353510029 0.025337154882554804 0 0.0029768738039075548 0.024307231265343822 0 0.0035068494353510029 0.025337154882554804 0 0.0041483193018444307 0.023853758730979641 0 0.0053510975955214698 0.026336958244472266 0 0.0066346150508709081 0.025737440364260358 0 0.0049124593185772654 0.024615290836566602 0 0.00412780968268232 0.026597217791813114 0 0.0053510975955214698 0.026336958244472266 0 0.0049518608984449788 0.027284302745658722 0 0.0053510975955214698 0.026336958244472266 0 0.0061045047367631741 0.027462465324069797 0 0.0049518608984449788 0.027284302745658722 0 0.0066346150508709081 0.025737440364260358 0 0.0091387100193478666 0.024779098112199829 0 0.007625690382495132 0.027335839029733678 0 0.0066346150508709081 0.025737440364260358 0 0.007625690382495132 0.027335839029733678 0 0.0061045047367631741 0.027462465324069797 0 0.0053510975955214698 0.026336958244472266 0 0.0066346150508709081 0.025737440364260358 0 0.0061045047367631741 0.027462465324069797 0 0.0067605143638464586 0.023956123906961876 0 0.0091387100193478666 0.024779098112199829 0 0.0066816789938947086 0.021672883806664996 0 0.0066346150508709081 0.025737440364260358 0 0.0067605143638464586 0.023956123906961876 0 0.0091387100193478666 0.024779098112199829 0 0.0067605143638464586 0.023956123906961876 0 0.0049124593185772654 0.024615290836566602 0 0.0057277974910273843 0.022354536517262314 0 0.0066346150508709081 0.025737440364260358 0 0.0067605143638464586 0.023956123906961876 0 0.0049124593185772654 0.024615290836566602 0 0.0030804089137122063 0.020451449241947094 0 0.003296614315203227 0.016558157256660953 0 0.0037678242916442568 0.020398098665548346 0 0.0060249589867671293 0.022032320967272947 0 0.0076602618796197154 0.01766190194000359 0 0.0034509673859157187 0.016954045661919149 0 0.003296614315203227 0.016558157256660953 0 0.0030280554643758303 0.022620057868318773 0 0.0037678242916442568 0.020398098665548346 0 0.004313206693585721 0.022183507434994452 0 0.0037678242916442568 0.020398098665548346 0 0.004313206693585721 0.022183507434994452 0 0.0060249589867671293 0.022032320967272947 0 0.0030280554643758303 0.022620057868318773 0 0.0041483193018444307 0.023853758730979641 0 0.004313206693585721 0.022183507434994452 0 0.0041483193018444307 0.023853758730979641 0 0.004313206693585721 0.022183507434994452 0 0.0060249589867671293 0.022032320967272947 0 -0.0087990837085435321 0.018079506462743946 0 -0.0097500733118118209 0.018206643141597052 0 -0.0097173549655231641 0.017238529279954326 0 0.0091387100193478666 0.024779098112199829 0 0.0093933354674073846 0.02874003991763063 0 0.011594973430076223 0.027962333844751216 0 -0.0097500733118118209 0.018206643141597052 0 -0.0097173549655231641 0.017238529279954326 0 -0.010203719786315922 0.01777041964442656 0 -5.4838875087167747e-05 0.02228648351378771 0 -0.0020391373343148743 0.030569891596501135 0 0.0091387100193478666 0.024779098112199829 0 0.0093933354674073846 0.02874003991763063 0 0.007625690382495132 0.027335839029733678 0 -5.4838875087167747e-05 0.02228648351378771 0 0.0029175420625366945 0.016067540410972133 0 -0.0097500733118118209 0.018206643141597052 0 -0.0094603272636136701 0.019002832458749973 0 -0.010184791934374202 0.018981169597748631 0 -0.0087990837085435321 0.018079506462743946 0 -0.0097500733118118209 0.018206643141597052 0 -0.0094603272636136701 0.019002832458749973 0 -0.0094603272636136701 0.019002832458749973 0 -0.0099037292879314183 0.01974362341264907 0 -0.010184791934374202 0.018981169597748631 0 -0.0094603272636136701 0.019002832458749973 0 -0.0092704107289844819 0.019536334380760238 0 -0.0086696376423993655 0.01928433181460382 0 -0.0094603272636136701 0.019002832458749973 0 -0.0092704107289844819 0.019536334380760238 0 -0.0099037292879314183 0.01974362341264907 0 -0.0087990837085435321 0.018079506462743946 0 -0.0086696376423993655 0.01928433181460382 0 -0.007618050213695912 0.019190983426031059 0 -0.0087990837085435321 0.018079506462743946 0 -0.0094603272636136701 0.019002832458749973 0 -0.0086696376423993655 0.01928433181460382 0 -0.0086696376423993655 0.01928433181460382 0 -0.0090578000117124639 0.020142539897756585 0 -0.007618050213695912 0.019190983426031059 0 0.0029432852370555088 0.0068582796439551922 0 0.0023662891453417579 0.007183661920733388 0 0.0029320556326185663 0.0066284252983696999 0 0.0040701675151911454 0.011916548350590257 0 0.0045289528090425258 0.0099176974993697917 0 -0.0016593399570578764 0.015119005785100007 0 0.0029175420625366945 0.016067540410972133 0 -0.0092704107289844819 0.019536334380760238 0 -0.0086696376423993655 0.01928433181460382 0 -0.0090578000117124639 0.020142539897756585 0 -0.0090578000117124639 0.020142539897756585 0 -0.0099037292879314183 0.01974362341264907 0 -0.010786399845604425 0.021118048491642068 0 -0.0092704107289844819 0.019536334380760238 0 -0.0090578000117124639 0.020142539897756585 0 -0.0099037292879314183 0.01974362341264907 0 0.008135772694707057 0.011267440766524806 0 0.0038956880280425557 0.013050716526991532 0 0.0035968802838981413 0.0071602993819810997 0 0.0036325553126183721 0.0070545534174742391 0 0.0035802702317335728 0.0070381273696374239 0 0.0047537878654802931 0.017601852770809185 0 0.0075633568767278685 0.017575974925448691 0 0.0079670649523382563 0.014555812415029169 0 0.0035505057590037355 0.0071098947679630537 0 0.0035968802838981413 0.0071602993819810997 0 0.0035802702317335728 0.0070381273696374239 0 0.0037678242916442568 0.020398098665548346 0 0.0047537878654802931 0.017601852770809185 0 0.0075633568767278685 0.017575974925448691 0 0.0099865287725259804 0.0086375926072399089 0 0.008135772694707057 0.011267440766524806 0 0.0067605143638464586 0.023956123906961876 0 0.0057277974910273843 0.022354536517262314 0 0.0066816789938947086 0.021672883806664996 0 0.003296614315203227 0.016558157256660953 0 0.0029175420625366945 0.016067540410972133 0 0.0075633568767278685 0.017575974925448691 0 0.0084618829956336836 0.015165410739689952 0 0.0079670649523382563 0.014555812415029169 0 0.0024013140180684559 0.0075442565800256821 0 0.0022923975473288917 0.0074055983040211054 0 0.0023662891453417579 0.007183661920733388 0 0.003296614315203227 0.016558157256660953 0 0.0035210173059738903 0.013917624597353366 0 0.0051623075843259102 0.015566231691910692 0 0.0031618558653500215 0.016926232892526368 0 0.0041421388928885201 0.018123767041142071 0 0.0029175420625366945 0.016067540410972133 0 0.0035210173059738903 0.013917624597353366 0 0.0035210173059738903 0.013917624597353366 0 0.0038956880280425557 0.013050716526991532 0 0.0040701675151911454 0.011916548350590257 0 0.0042846165548723475 0.0084742731740941012 0 0.003599649674935292 0.0070203014517221081 0 0.0036066978413854494 0.0069879791868883391 0 0.0035960356590861689 0.0070064707436068513 0 0.0036066978413854494 0.0069879791868883391 0 0.0035641866633541264 0.0069180992741419605 0 0.0035960356590861689 0.0070064707436068513 0 0.0038956880280425557 0.013050716526991532 0 0.0038309087443955873 0.012931722241726814 0 0.0029432852370555088 0.0068582796439551922 0 0.0024013140180684559 0.0075442565800256821 0 0.0023662891453417579 0.007183661920733388 0 0.0036066978413854494 0.0069879791868883391 0 0.0035641866633541264 0.0069180992741419605 0 0.0035197458964272704 0.0068339692635904095 0 0.0029700035648703798 0.011007914407098029 0 0.003748109903505042 0.011959771641665548 0 0.0019555654816914682 0.013570638145950248 0 0.0035210173059738903 0.013917624597353366 0 0.0040701675151911454 0.011916548350590257 0 0.0038956880280425557 0.013050716526991532 0 0.0040701675151911454 0.011916548350590257 0 0.0099865287725259804 0.0086375926072399089 0 0.0083759370764376565 0.0048201853232435624 0 0.0035802702317335728 0.0070381273696374239 0 0.0035960356590861689 0.0070064707436068513 0 0.0035410760461797291 0.0068644839335482936 0 0.0035505057590037355 0.0071098947679630537 0 0.0035802702317335728 0.0070381273696374239 0 0.0035410760461797291 0.0068644839335482936 0 0.011447528121728154 -0.002412634004593133 0 0.011517405564442709 -0.0047037451926709916 0 0.009457122820190806 -0.0016628059648559183 0 0.0035641866633541264 0.0069180992741419605 0 0.0035960356590861689 0.0070064707436068513 0 0.0035410760461797291 0.0068644839335482936 0 0.0036325553126183721 0.0070545534174742391 0 0.0035802702317335728 0.0070381273696374239 0 0.0035960356590861689 0.0070064707436068513 0 0.010762613963896502 -0.00064340488972188957 0 0.009457122820190806 -0.0016628059648559183 0 0.0096401344756185392 0.00071852243540731077 0 0.011447528121728154 -0.002412634004593133 0 0.010762613963896502 -0.00064340488972188957 0 0.009457122820190806 -0.0016628059648559183 0 0.0035197458964272704 0.0068339692635904095 0 0.0034945671757308084 0.0067695580645451402 0 0.0033900335796350433 0.0066923552178391778 0 0.0035641866633541264 0.0069180992741419605 0 0.0035410760461797291 0.0068644839335482936 0 0.0035197458964272704 0.0068339692635904095 0 0.0035410760461797291 0.0068644839335482936 0 0.0035197458964272704 0.0068339692635904095 0 0.0033900335796350433 0.0066923552178391778 0 0.0036066978413854494 0.0069879791868883391 0 0.0035197458964272704 0.0068339692635904095 0 0.0034945671757308084 0.0067695580645451402 0 0.0083759370764376565 0.0048201853232435624 0 0.0064677506727416727 0.0049177565052179783 0 0.0073619135008126703 0.0014389706320959515 0 0.0096401344756185392 0.00071852243540731077 0 0.0087593848821600276 0.0022895499902693761 0 0.009457122820190806 -0.0016628059648559183 0 0.0073619135008126703 0.0014389706320959515 0 0.0096401344756185392 0.00071852243540731077 0 0.0096401344756185392 0.00071852243540731077 0 0.010273384125578619 0.0023389995079540356 0 0.0087593848821600276 0.0022895499902693761 0 0.0096401344756185392 0.00071852243540731077 0 0.010273384125578619 0.0023389995079540356 0 0.0116819853086415 0.0009466456029430995 0 0.010762613963896502 -0.00064340488972188957 0 0.0096401344756185392 0.00071852243540731077 0 0.0116819853086415 0.0009466456029430995 0 0.0029320556326185663 0.0066284252983696999 0 0.0028853286802902741 0.0065436726617136365 0 0.0026346691523851822 0.006323656481503296 0 -0.0016593399570578764 0.015119005785100007 0 -0.0037894361858864839 0.014438888138469825 0 0.0029432852370555088 0.0068582796439551922 0 0.0029320556326185663 0.0066284252983696999 0 0.0026346691523851822 0.006323656481503296 0 0.0028879666337387738 0.0068930972706526764 0 0.002911840769240445 0.0066320656280865311 0 0.0029320556326185663 0.0066284252983696999 0 0.002911840769240445 0.0066320656280865311 0 0.0029320556326185663 0.0066284252983696999 0 0.0029975691145171074 0.0066096597035556004 0 0.0042846165548723475 0.0084742731740941012 0 0.0042135726181021724 0.0078055588219721524 0 0.0034945671757308084 0.0067695580645451402 0 0.0033900335796350433 0.0066923552178391778 0 0.0031909235226746284 0.0066917005458621568 0 0.002911840769240445 0.0066320656280865311 0 0.0029975691145171074 0.0066096597035556004 0 0.0031909235226746284 0.0066917005458621568 0 0.0029975691145171074 0.0066096597035556004 0 0.0028853286802902741 0.0065436726617136365 0 0.0031909235226746284 0.0066917005458621568 0 0.0029320556326185663 0.0066284252983696999 0 0.0029975691145171074 0.0066096597035556004 0 0.0028853286802902741 0.0065436726617136365 0 0.0028853286802902741 0.0065436726617136365 0 0.00303256162304781 0.0067548347262986058 0 0.0027406234218542219 0.0066178750783601669 0 0.0028853286802902741 0.0065436726617136365 0 0.00303256162304781 0.0067548347262986058 0 0.0031909235226746284 0.0066917005458621568 0 0.00303256162304781 0.0067548347262986058 0 0.0029897888681546217 0.0069655218789951012 0 0.0027406234218542219 0.0066178750783601669 0 0.00303256162304781 0.0067548347262986058 0 0.0032304019705672333 0.0068811117935952126 0 0.0029897888681546217 0.0069655218789951012 0 0.0064677506727416727 0.0049177565052179783 0 0.0050379555202797232 0.0059598987924871401 0 0.00303256162304781 0.0067548347262986058 0 0.0031909235226746284 0.0066917005458621568 0 0.0032304019705672333 0.0068811117935952126 0 0.0033900335796350433 0.0066923552178391778 0 0.0031909235226746284 0.0066917005458621568 0 0.0032304019705672333 0.0068811117935952126 0 0.0055872790981456935 0.0067453844077023538 0 0.0054191229560774882 0.0043716520756333825 0 0.0076589331771143316 0.0055114765200566943 0 0.0043775343999891119 0.0067096727781994518 0 0.0050379555202797232 0.0059598987924871401 0 0.0035375924828119133 0.007369808394487345 0 0.0032304019705672333 0.0068811117935952126 0 0.0029897888681546217 0.0069655218789951012 0 0.0089201757309282457 0.0039213750354221795 0 0.01077567582789926 0.0039572973920114348 0 0.010273384125578619 0.0023389995079540356 0 0.0089201757309282457 0.0039213750354221795 0 0.010273384125578619 0.0023389995079540356 0 0.0087593848821600276 0.0022895499902693761 0 0.0073619135008126703 0.0014389706320959515 0 0.0054191229560774882 0.0043716520756333825 0 0.0076178452458713387 0.0035199874027164982 0 0.0073619135008126703 0.0014389706320959515 0 0.0087593848821600276 0.0022895499902693761 0 0.0076178452458713387 0.0035199874027164982 0 0.0089201757309282457 0.0039213750354221795 0 0.0087593848821600276 0.0022895499902693761 0 0.0076178452458713387 0.0035199874027164982 0 0.0089201757309282457 0.0039213750354221795 0 0.0076178452458713387 0.0035199874027164982 0 0.0076589331771143316 0.0055114765200566943 0 0.0054191229560774882 0.0043716520756333825 0 0.0076178452458713387 0.0035199874027164982 0 0.0076589331771143316 0.0055114765200566943 0 0.0094970838525675703 0.0071527290918767285 0 0.0076589331771143316 0.0055114765200566943 0 0.0096779664342387228 0.0051994516528491045 0 0.0094970838525675703 0.0071527290918767285 0 0.0096779664342387228 0.0051994516528491045 0 0.011612164924680438 0.0053280244054666175 0 0.0089201757309282457 0.0039213750354221795 0 0.0076589331771143316 0.0055114765200566943 0 0.0096779664342387228 0.0051994516528491045 0 0.0089201757309282457 0.0039213750354221795 0 0.01077567582789926 0.0039572973920114348 0 0.0096779664342387228 0.0051994516528491045 0 0.01077567582789926 0.0039572973920114348 0 0.0096779664342387228 0.0051994516528491045 0 0.011612164924680438 0.0053280244054666175 0 0.012214046735811028 0.0067940106213144865 0 0.011612164924680438 0.0053280244054666175 0 0.0129694528962674 0.0050093644680605379 0 0.011612164924680438 0.0053280244054666175 0 0.0129694528962674 0.0050093644680605379 0 0.012354345089976515 0.0039857649191486974 0 0.01077567582789926 0.0039572973920114348 0 0.011612164924680438 0.0053280244054666175 0 0.012354345089976515 0.0039857649191486974 0 0.01077567582789926 0.0039572973920114348 0 0.012354345089976515 0.0039857649191486974 0 0.011861638818292311 0.0026811611373562562 0 0.012354345089976515 0.0039857649191486974 0 0.012947158997329553 0.0030925787150957638 0 0.013964120799373156 0.0036987036192813161 0 0.0129694528962674 0.0050093644680605379 0 0.012354345089976515 0.0039857649191486974 0 0.013964120799373156 0.0036987036192813161 0 0.012354345089976515 0.0039857649191486974 0 0.012947158997329553 0.0030925787150957638 0 0.011861638818292311 0.0026811611373562562 0 0.012947158997329553 0.0030925787150957638 0 0.011861638818292311 0.0026811611373562562 0 0.013534087911334402 0.0021147232965248609 0 0.01077567582789926 0.0039572973920114348 0 0.010273384125578619 0.0023389995079540356 0 0.011861638818292311 0.0026811611373562562 0 0.014828841725706044 0.003006634934881151 0 0.016121890588800029 0.0033739879563777354 0 0.01544812344521865 0.0019701208659418518 0 0.014828841725706044 0.003006634934881151 0 0.013534087911334402 0.0021147232965248609 0 0.01544812344521865 0.0019701208659418518 0 0.012947158997329553 0.0030925787150957638 0 0.013964120799373156 0.0036987036192813161 0 0.013534087911334402 0.0021147232965248609 0 0.014828841725706044 0.003006634934881151 0 0.013964120799373156 0.0036987036192813161 0 0.013534087911334402 0.0021147232965248609 0 0.013964120799373156 0.0036987036192813161 0 0.015186229618149846 0.003949561797560037 0 0.014804488470810848 0.0047134632022190759 0 0.014828841725706044 0.003006634934881151 0 0.013964120799373156 0.0036987036192813161 0 0.015186229618149846 0.003949561797560037 0 0.015186229618149846 0.003949561797560037 0 0.016043069483665177 0.0044148275731435782 0 0.016121890588800029 0.0033739879563777354 0 0.014828841725706044 0.003006634934881151 0 0.015186229618149846 0.003949561797560037 0 0.016121890588800029 0.0033739879563777354 0 0.015186229618149846 0.003949561797560037 0 0.014804488470810848 0.0047134632022190759 0 0.016043069483665177 0.0044148275731435782 0 0.014804488470810848 0.0047134632022190759 0 0.016854321500422962 0.0052707555023742284 0 0.016043069483665177 0.0044148275731435782 0 0.014804488470810848 0.0047134632022190759 0 0.013923452364354025 0.0058245703347369745 0 0.016854321500422962 0.0052707555023742284 0 0.013563562116075583 0.0079882574855389254 0 0.013923452364354025 0.0058245703347369745 0 0.016854321500422962 0.0052707555023742284 0 0.0129694528962674 0.0050093644680605379 0 0.014804488470810848 0.0047134632022190759 0 0.013923452364354025 0.0058245703347369745 0 0.0129694528962674 0.0050093644680605379 0 0.013964120799373156 0.0036987036192813161 0 0.014804488470810848 0.0047134632022190759 0 0.012214046735811028 0.0067940106213144865 0 0.0129694528962674 0.0050093644680605379 0 0.013923452364354025 0.0058245703347369745 0 0.017615018397952986 0.0059464662472606487 0 0.017908848294094729 0.0056298930416838816 0 0.016854321500422962 0.0052707555023742284 0 0.017908848294094729 0.0056298930416838816 0 0.017658570729401069 0.0051800678213179659 0 0.016854321500422962 0.0052707555023742284 0 0.017908848294094729 0.0056298930416838816 0 0.018058789310673003 0.0053261179705854237 0 0.017658570729401069 0.0051800678213179659 0 0.018058789310673003 0.0053261179705854237 0 0.017658570729401069 0.0051800678213179659 0 0.018058008721816763 0.0049103050640951756 0 0.017658570729401069 0.0051800678213179659 0 0.016854321500422962 0.0052707555023742284 0 0.017249277463212653 0.0046914677943575992 0 0.016854321500422962 0.0052707555023742284 0 0.016043069483665177 0.0044148275731435782 0 0.017249277463212653 0.0046914677943575992 0 0.018832120103127906 0.0057634462726441661 0 0.018399345042022994 0.0055487141104061354 0 0.01884206438970084 0.0053996968258821776 0 0.019004479462409064 0.0059800281979308532 0 0.019294323048075112 0.005805898188326707 0 0.018832120103127906 0.0057634462726441661 0 0.018082708723213648 0.0060272146767059494 0 0.017908848294094729 0.0056298930416838816 0 0.018412908893338558 0.0058100078898675606 0 0.018832120103127906 0.0057634462726441661 0 0.018412908893338558 0.0058100078898675606 0 0.018399345042022994 0.0055487141104061354 0 0.017908848294094729 0.0056298930416838816 0 0.018412908893338558 0.0058100078898675606 0 0.018399345042022994 0.0055487141104061354 0 0.018419932897343592 0.005239607054071397 0 0.01884206438970084 0.0053996968258821776 0 0.018763828877540349 0.0050335468042821355 0 0.018058789310673003 0.0053261179705854237 0 0.018399345042022994 0.0055487141104061354 0 0.018419932897343592 0.005239607054071397 0 0.017908848294094729 0.0056298930416838816 0 0.018058789310673003 0.0053261179705854237 0 0.018399345042022994 0.0055487141104061354 0 0.018058789310673003 0.0053261179705854237 0 0.018419932897343592 0.005239607054071397 0 0.018058008721816763 0.0049103050640951756 0 0.018399345042022994 0.0055487141104061354 0 0.018419932897343592 0.005239607054071397 0 0.01884206438970084 0.0053996968258821776 0 0.01921054868017761 0.0055754410640716729 0 0.019477987689722673 0.0053004271783627308 0 0.01884206438970084 0.0053996968258821776 0 0.01921054868017761 0.0055754410640716729 0 0.018832120103127906 0.0057634462726441661 0 0.01884206438970084 0.0053996968258821776 0 0.018763828877540349 0.0050335468042821355 0 0.0194805402686835 0.004969850602242012 0 0.018340469111220132 0.0045988090363952797 0 0.019477987689722673 0.0053004271783627308 0 0.01884206438970084 0.0053996968258821776 0 0.018763828877540349 0.0050335468042821355 0 0.019477987689722673 0.0053004271783627308 0 0.018763828877540349 0.0050335468042821355 0 0.0194805402686835 0.004969850602242012 0 0.018419932897343592 0.005239607054071397 0 0.018763828877540349 0.0050335468042821355 0 0.018058008721816763 0.0049103050640951756 0 0.018763828877540349 0.0050335468042821355 0 0.018058008721816763 0.0049103050640951756 0 0.018340469111220132 0.0045988090363952797 0 0.016828529315820875 0.004571095254204233 0 0.016783080283291674 0.0045066492232734984 0 0.017249277463212653 0.0046914677943575992 0 0.018058008721816763 0.0049103050640951756 0 0.018340469111220132 0.0045988090363952797 0 0.017249277463212653 0.0046914677943575992 0 0.016121890588800029 0.0033739879563777354 0 0.017379551067367729 0.0018797758314727166 0 0.016043069483665177 0.0044148275731435782 0 0.017249277463212653 0.0046914677943575992 0 0.016121890588800029 0.0033739879563777354 0 0.017658570729401069 0.0051800678213179659 0 0.017249277463212653 0.0046914677943575992 0 0.018058008721816763 0.0049103050640951756 0 0.016121890588800029 0.0033739879563777354 0 0.017379551067367729 0.0018797758314727166 0 0.01544812344521865 0.0019701208659418518 0 0.016783080283291674 0.0045066492232734984 0 0.016190827237644655 0.005703174926700594 0 0.017379551067367729 0.0018797758314727166 0 0.015863672046620703 0.00022729462157027451 0 0.01544812344521865 0.0019701208659418518 0 0.017379551067367729 0.0018797758314727166 0 0.015863672046620703 0.00022729462157027451 0 0.017914122628050984 -0.00036612865341914986 0 0.019980078784676732 0.0047539569562179184 0 0.018340469111220132 0.0045988090363952797 0 0.018775473477193907 0.003642951525623217 0 0.019980078784676732 0.0047539569562179184 0 0.0194805402686835 0.004969850602242012 0 0.018340469111220132 0.0045988090363952797 0 0.017163628685455533 0.0059615249593790547 0 0.016190827237644655 0.005703174926700594 0 0.020509873423882639 0.005367018775381969 0 0.019980078784676732 0.0047539569562179184 0 0.02096304713338451 0.0051955056115128694 0 0.020509873423882639 0.005367018775381969 0 0.021169494371018907 0.0059577501880714147 0 0.02096304713338451 0.0051955056115128694 0 0.014655317241656486 -0.0025960396079660122 0 0.015863672046620703 0.00022729462157027451 0 0.017914122628050984 -0.00036612865341914986 0 0.013178356167580688 0.0062484519311508972 0 0.016190827237644655 0.005703174926700594 0 0.014655317241656486 -0.0025960396079660122 0 0.01226446777301393 -0.00093237717984541121 0 0.013924730740400452 0.00032030607293349558 0 0.014655317241656486 -0.0025960396079660122 0 0.015863672046620703 0.00022729462157027451 0 0.013924730740400452 0.00032030607293349558 0 0.011447528121728154 -0.002412634004593133 0 0.014655317241656486 -0.0025960396079660122 0 0.01226446777301393 -0.00093237717984541121 0 0.011447528121728154 -0.002412634004593133 0 0.010762613963896502 -0.00064340488972188957 0 0.01226446777301393 -0.00093237717984541121 0 0.010762613963896502 -0.00064340488972188957 0 0.01226446777301393 -0.00093237717984541121 0 0.0116819853086415 0.0009466456029430995 0 0.01226446777301393 -0.00093237717984541121 0 0.0116819853086415 0.0009466456029430995 0 0.013924730740400452 0.00032030607293349558 0 0.010273384125578619 0.0023389995079540356 0 0.011861638818292311 0.0026811611373562562 0 0.0116819853086415 0.0009466456029430995 0 0.011861638818292311 0.0026811611373562562 0 0.0116819853086415 0.0009466456029430995 0 0.013534087911334402 0.0021147232965248609 0 0.0116819853086415 0.0009466456029430995 0 0.013534087911334402 0.0021147232965248609 0 0.013924730740400452 0.00032030607293349558 0 0.013534087911334402 0.0021147232965248609 0 0.01544812344521865 0.0019701208659418518 0 0.013924730740400452 0.00032030607293349558 0 0.015863672046620703 0.00022729462157027451 0 0.01544812344521865 0.0019701208659418518 0 0.013924730740400452 0.00032030607293349558 0 0.034916364169053984 0.0072918675998623695 0 0.034879465712390478 0.007936339559745936 0 0.034586475626721749 0.0078778700756878556 0 0.034916364169053984 0.0072918675998623695 0 0.034586475626721749 0.0078778700756878556 0 0.034559475437729435 0.0073971329414061118 0 0.034916364169053984 0.0072918675998623695 0 0.034998635508989649 0.0075466202484385089 0 0.035000054952672985 0.0054842443713860028 0 0.034916364169053984 0.0072918675998623695 0 0.034998635508989649 0.0075466202484385089 0 0.034879465712390478 0.007936339559745936 0 0.034998635508989649 0.0075466202484385089 0 0.03500185916675376 0.0085636898157068347 0 0.034879465712390478 0.007936339559745936 0 0.03500185916675376 0.0085636898157068347 0 0.034879465712390478 0.007936339559745936 0 0.034617205061467211 0.0082793932782764361 0 0.034998635508989649 0.0075466202484385089 0 0.03500185916675376 0.0085636898157068347 0 0.034999608883842286 0.0096164336253656349 0 0.034879465712390478 0.007936339559745936 0 0.034586475626721749 0.0078778700756878556 0 0.034617205061467211 0.0082793932782764361 0 0.034586475626721749 0.0078778700756878556 0 0.034475440275039647 0.0082817209306652855 0 0.034617205061467211 0.0082793932782764361 0 0.034586475626721749 0.0078778700756878556 0 0.034354751463955474 0.0082041669438176149 0 0.034267579780376735 0.0076279750170342824 0 0.034586475626721749 0.0078778700756878556 0 0.034354751463955474 0.0082041669438176149 0 0.034475440275039647 0.0082817209306652855 0 0.034354751463955474 0.0082041669438176149 0 0.034267579780376735 0.0076279750170342824 0 0.034215755922039216 0.0083868489867185095 0 0.034267579780376735 0.0076279750170342824 0 0.034559475437729435 0.0073971329414061118 0 0.034292848921216798 0.007281604184865796 0 0.034586475626721749 0.0078778700756878556 0 0.034267579780376735 0.0076279750170342824 0 0.034559475437729435 0.0073971329414061118 0 0.034292848921216798 0.007281604184865796 0 0.034464911970511984 0.0072806527964238855 0 0.034742428401843786 0.0068386613142620246 0 0.034559475437729435 0.0073971329414061118 0 0.034292848921216798 0.007281604184865796 0 0.034742428401843786 0.0068386613142620246 0 0.034292848921216798 0.007281604184865796 0 0.03368725119885297 0.0074167937576115816 0 0.033973239929413673 0.0075023528402326416 0 0.034267579780376735 0.0076279750170342824 0 0.034292848921216798 0.007281604184865796 0 0.03368725119885297 0.0074167937576115816 0 0.034267579780376735 0.0076279750170342824 0 0.03368725119885297 0.0074167937576115816 0 0.032989262945635763 0.0070631905814117534 0 0.033973239929413673 0.0075023528402326416 0 0.033652090165863208 0.0078833616567695105 0 0.033350306562990761 0.0076456934698130022 0 0.03368725119885297 0.0074167937576115816 0 0.033973239929413673 0.0075023528402326416 0 0.033350306562990761 0.0076456934698130022 0 0.033973239929413673 0.0075023528402326416 0 0.034464911970511984 0.0072806527964238855 0 0.034167272404211808 0.0077247444911633639 0 0.034292848921216798 0.007281604184865796 0 0.033973239929413673 0.0075023528402326416 0 0.034464911970511984 0.0072806527964238855 0 0.034464911970511984 0.0072806527964238855 0 0.034742428401843786 0.0068386613142620246 0 0.034854148744894793 0.0072596725622065912 0 0.034464911970511984 0.0072806527964238855 0 0.034854148744894793 0.0072596725622065912 0 0.034167272404211808 0.0077247444911633639 0 0.034916364169053984 0.0072918675998623695 0 0.034559475437729435 0.0073971329414061118 0 0.034742428401843786 0.0068386613142620246 0 0.034916364169053984 0.0072918675998623695 0 0.034742428401843786 0.0068386613142620246 0 0.035000054952672985 0.0054842443713860028 0 0.034999977666207167 0.0054786909729600151 0 0.034999972359981306 0.0034416595407882108 0 0.036128204293341841 0.0042919431110609663 0 0.034742428401843786 0.0068386613142620246 0 0.035000054952672985 0.0054842443713860028 0 0.034854148744894793 0.0072596725622065912 0 0.034999655273008932 0.0054786228352419917 0 0.034943133517710265 0.0052370379854709357 0 0.034999972359981306 0.0034416595407882108 0 0.036128204293341841 0.0042919431110609663 0 0.036116372365624906 0.0026510145582144453 0 0.034854148744894793 0.0072596725622065912 0 0.034382487556288747 0.0081750061506740239 0 0.034167272404211808 0.0077247444911633639 0 0.034943133517710265 0.0052370379854709357 0 0.034950534557038483 0.0044518857298667105 0 0.036128204293341841 0.0042919431110609663 0 0.036116372365624906 0.0026510145582144453 0 0.037257757445529081 0.0031136223615383547 0 0.036116372365624906 0.0026510145582144453 0 0.037064321220325394 0.0020330595657838584 0 0.037257757445529081 0.0031136223615383547 0 0.034999972359981306 0.0034416595407882108 0 0.036116372365624906 0.0026510145582144453 0 0.034999766704327889 0.0014045108332793115 0 0.036116372365624906 0.0026510145582144453 0 0.034999766704327889 0.0014045108332793115 0 0.036189712839191354 0.0014141595740098771 0 0.036116372365624906 0.0026510145582144453 0 0.037064321220325394 0.0020330595657838584 0 0.036189712839191354 0.0014141595740098771 0 0.037064321220325394 0.0020330595657838584 0 0.036189712839191354 0.0014141595740098771 0 0.037301559672126484 0.0010059029111601102 0 0.036189712839191354 0.0014141595740098771 0 0.035898064088766529 -9.5555962509294179e-05 0 0.037301559672126484 0.0010059029111601102 0 0.035411487168354933 0.0015033278355642795 0 0.035420355453807 0.0018675369654690894 0 0.035883030423573645 -2.0523686620253567e-05 0 0.035898064088766529 -9.5555962509294179e-05 0 0.035868230480666341 5.8980884100133209e-06 0 0.03572656381711703 -0.00043204522474904098 0 0.035883030423573645 -2.0523686620253567e-05 0 0.035898064088766529 -9.5555962509294179e-05 0 0.034999766704327889 0.0014045108332793115 0 0.036189712839191354 0.0014141595740098771 0 0.035898064088766529 -9.5555962509294179e-05 0 0.034999628505045441 -0.00063341560570704389 0 0.03572656381711703 -0.00043204522474904098 0 0.034999766704327889 0.0014045108332793115 0 0.03572656381711703 -0.00043204522474904098 0 0.034999766704327889 0.0014045108332793115 0 0.035898064088766529 -9.5555962509294179e-05 0 0.035372826877164365 0.00036796443182759964 0 0.035881972468111166 0.0001717163464486349 0 0.035659974068349837 8.634595594351021e-05 0 0.035372826877164365 0.00036796443182759964 0 0.035659974068349837 8.634595594351021e-05 0 0.035399518141087834 2.0453502709598313e-05 0 0.035881972468111166 0.0001717163464486349 0 0.035659974068349837 8.634595594351021e-05 0 0.035868230480666341 5.8980884100133209e-06 0 0.035881972468111166 0.0001717163464486349 0 0.035883030423573645 -2.0523686620253567e-05 0 0.035868230480666341 5.8980884100133209e-06 0 0.035659974068349837 8.634595594351021e-05 0 0.035868230480666341 5.8980884100133209e-06 0 0.035608727218432668 -0.00016005596925966882 0 0.037064321220325394 0.0020330595657838584 0 0.037301559672126484 0.0010059029111601102 0 0.038432595741031056 0.001932181397193107 0 0.035420355453807 0.0018675369654690894 0 0.034942312118869577 0.0026943367646727269 0 0.035659974068349837 8.634595594351021e-05 0 0.035608727218432668 -0.00016005596925966882 0 0.035399518141087834 2.0453502709598313e-05 0 0.035485359695450538 -7.0427995795800305e-05 0 0.035399518141087834 2.0453502709598313e-05 0 0.035319124149676237 -0.00018654092018424899 0 0.034942312118869577 0.0026943367646727269 0 0.03529854002783684 0.0021638762319629952 0 0.033792484528527393 0.0087957448186960305 0 0.033768440745274519 0.0082155691322624846 0 0.033316692635174588 0.0085072135688015072 0 0.034942312118869577 0.0026943367646727269 0 0.034529095511260842 0.0038478972299022308 0 0.033768440745274519 0.0082155691322624846 0 0.033305256555975445 0.0081665381928120815 0 0.033316692635174588 0.0085072135688015072 0 0.037064321220325394 0.0020330595657838584 0 0.038432595741031056 0.001932181397193107 0 0.037257757445529081 0.0031136223615383547 0 0.033792484528527393 0.0087957448186960305 0 0.033768440745274519 0.0082155691322624846 0 0.034382487556288747 0.0081750061506740239 0 0.034942312118869577 0.0026943367646727269 0 0.034950534557038483 0.0044518857298667105 0 0.033768440745274519 0.0082155691322624846 0 0.034382487556288747 0.0081750061506740239 0 0.034167272404211808 0.0077247444911633639 0 0.033768440745274519 0.0082155691322624846 0 0.033652090165863208 0.0078833616567695105 0 0.033305256555975445 0.0081665381928120815 0 0.033768440745274519 0.0082155691322624846 0 0.034167272404211808 0.0077247444911633639 0 0.033652090165863208 0.0078833616567695105 0 0.033973239929413673 0.0075023528402326416 0 0.034167272404211808 0.0077247444911633639 0 0.033652090165863208 0.0078833616567695105 0 0.033652090165863208 0.0078833616567695105 0 0.033276816100718441 0.0079109049021257247 0 0.033350306562990761 0.0076456934698130022 0 0.033652090165863208 0.0078833616567695105 0 0.033276816100718441 0.0079109049021257247 0 0.033305256555975445 0.0081665381928120815 0 0.033276816100718441 0.0079109049021257247 0 0.032922914530228914 0.0080596691159296203 0 0.032656956211365266 0.0077190513343914123 0 0.032922914530228914 0.0080596691159296203 0 0.032808639076074037 0.0082356059324087422 0 0.033305256555975445 0.0081665381928120815 0 0.034016359517232343 0.0051895470302158898 0 0.034171718862314945 0.0049366948567291973 0 0.033276816100718441 0.0079109049021257247 0 0.032922914530228914 0.0080596691159296203 0 0.033305256555975445 0.0081665381928120815 0 0.031289090842584528 0.0074958678103295749 0 0.031831443750633022 0.0078148634126743739 0 0.031531954691937931 0.0073664038693181909 0 0.031831443750633022 0.0078148634126743739 0 0.03176744281217149 0.0076605253007749393 0 0.032028108057998064 0.0076961234315587549 0 0.032922914530228914 0.0080596691159296203 0 0.031831443750633022 0.0078148634126743739 0 0.032656956211365266 0.0077190513343914123 0 0.034171718862314945 0.0049366948567291973 0 0.034023516532270918 0.0051067974273880986 0 0.032922914530228914 0.0080596691159296203 0 0.032596064606606183 0.008484267336295986 0 0.031831443750633022 0.0078148634126743739 0 0.031831443750633022 0.0078148634126743739 0 0.031531954691937931 0.0073664038693181909 0 0.03176744281217149 0.0076605253007749393 0 0.031289090842584528 0.0074958678103295749 0 0.031142164449694396 0.006863553851942851 0 0.031531954691937931 0.0073664038693181909 0 0.035127667314119468 -0.00030163010439803812 0 0.035145421075336004 -0.00016425362869862054 0 0.034925371419429738 -0.00010492332895161838 0 0.034171718862314945 0.0049366948567291973 0 0.033543307904411415 0.0036556043514278181 0 0.032808639076074037 0.0082356059324087422 0 0.033305256555975445 0.0081665381928120815 0 0.033316692635174588 0.0085072135688015072 0 0.034171718862314945 0.0049366948567291973 0 0.034529095511260842 0.0038478972299022308 0 0.035127667314119468 -0.00030163010439803812 0 0.035145421075336004 -0.00016425362869862054 0 0.035319124149676237 -0.00018654092018424899 0 0.035145421075336004 -0.00016425362869862054 0 0.035319124149676237 -0.00018654092018424899 0 0.035194409276556558 -6.0203351882987158e-05 0 0.035399518141087834 2.0453502709598313e-05 0 0.035194409276556558 -6.0203351882987158e-05 0 0.035077829790597183 0.00013095308470319065 0 0.035399518141087834 2.0453502709598313e-05 0 0.035319124149676237 -0.00018654092018424899 0 0.035194409276556558 -6.0203351882987158e-05 0 0.034925371419429738 -0.00010492332895161838 0 0.035077829790597183 0.00013095308470319065 0 0.034666608594977978 0.00015763051115442382 0 0.035194409276556558 -6.0203351882987158e-05 0 0.034925371419429738 -0.00010492332895161838 0 0.035077829790597183 0.00013095308470319065 0 0.035145421075336004 -0.00016425362869862054 0 0.035194409276556558 -6.0203351882987158e-05 0 0.034925371419429738 -0.00010492332895161838 0 0.034906885332762129 0.00044808124992821768 0 0.035077829790597183 0.00013095308470319065 0 0.034666608594977978 0.00015763051115442382 0 0.035372826877164365 0.00036796443182759964 0 0.035399518141087834 2.0453502709598313e-05 0 0.035077829790597183 0.00013095308470319065 0 0.035372826877164365 0.00036796443182759964 0 0.034906885332762129 0.00044808124992821768 0 0.035077829790597183 0.00013095308470319065 0 0.030825564385326288 0.004681064225454592 0 0.030818008377942494 0.0059112509485924761 0 0.031362334587700665 0.005244967416553975 0 0.030818008377942494 0.0059112509485924761 0 0.03144994298125843 0.0065031711619341201 0 0.031362334587700665 0.005244967416553975 0 0.032616848478684582 0.001425909767836623 0 0.032981473663650153 0.0026869777727930007 0 0.034399811448128391 0.00049069613475305571 0 0.034906885332762129 0.00044808124992821768 0 0.034666608594977978 0.00015763051115442382 0 0.033543307904411415 0.0036556043514278181 0 0.032981473663650153 0.0026869777727930007 0 0.031142164449694396 0.006863553851942851 0 0.030818008377942494 0.0059112509485924761 0 0.03128387185473832 0.0067665626741513444 0 0.030818008377942494 0.0059112509485924761 0 0.03128387185473832 0.0067665626741513444 0 0.03144994298125843 0.0065031711619341201 0 0.03144994298125843 0.0065031711619341201 0 0.031590975995349664 0.0073640269756427134 0 0.031836375128688463 0.0074214358772959361 0 0.03128387185473832 0.0067665626741513444 0 0.03144994298125843 0.0065031711619341201 0 0.031590975995349664 0.0073640269756427134 0 0.031142164449694396 0.006863553851942851 0 0.03128387185473832 0.0067665626741513444 0 0.031531954691937931 0.0073664038693181909 0 0.03128387185473832 0.0067665626741513444 0 0.031590975995349664 0.0073640269756427134 0 0.031531954691937931 0.0073664038693181909 0 0.031590975995349664 0.0073640269756427134 0 0.03176744281217149 0.0076605253007749393 0 0.031878026076034786 0.0077565150410556149 0 0.031590975995349664 0.0073640269756427134 0 0.031531954691937931 0.0073664038693181909 0 0.03176744281217149 0.0076605253007749393 0 0.031590975995349664 0.0073640269756427134 0 0.031878026076034786 0.0077565150410556149 0 0.031836375128688463 0.0074214358772959361 0 0.031878026076034786 0.0077565150410556149 0 0.032168447418281031 0.0079297470468412783 0 0.031836375128688463 0.0074214358772959361 0 0.031878026076034786 0.0077565150410556149 0 0.032360477770325642 0.0081975193097823893 0 0.032168447418281031 0.0079297470468412783 0 0.033395565042562345 0.0086493100371289947 0 0.032933823163036682 0.008379477853749262 0 0.032360477770325642 0.0081975193097823893 0 0.031878026076034786 0.0077565150410556149 0 0.032014864498355673 0.0075736033598883456 0 0.032360477770325642 0.0081975193097823893 0 0.033012668077384157 0.007970586492330501 0 0.032871005086794879 0.0080185030207959689 0 0.031878026076034786 0.0077565150410556149 0 0.032014864498355673 0.0075736033598883456 0 0.032028108057998064 0.0076961234315587549 0 0.03176744281217149 0.0076605253007749393 0 0.031878026076034786 0.0077565150410556149 0 0.032028108057998064 0.0076961234315587549 0 0.031831443750633022 0.0078148634126743739 0 0.032028108057998064 0.0076961234315587549 0 0.032656956211365266 0.0077190513343914123 0 0.032028108057998064 0.0076961234315587549 0 0.032701473477809322 0.0075219928746448287 0 0.032656956211365266 0.0077190513343914123 0 0.03368725119885297 0.0074167937576115816 0 0.032701473477809322 0.0075219928746448287 0 0.033350306562990761 0.0076456934698130022 0 0.033276816100718441 0.0079109049021257247 0 0.033350306562990761 0.0076456934698130022 0 0.032656956211365266 0.0077190513343914123 0 0.032701473477809322 0.0075219928746448287 0 0.033350306562990761 0.0076456934698130022 0 0.032656956211365266 0.0077190513343914123 0 0.03368725119885297 0.0074167937576115816 0 0.032701473477809322 0.0075219928746448287 0 0.032989262945635763 0.0070631905814117534 0 0.032014864498355673 0.0075736033598883456 0 0.032028108057998064 0.0076961234315587549 0 0.032701473477809322 0.0075219928746448287 0 0.033012668077384157 0.007970586492330501 0 0.03332698812777575 0.0078635682812068699 0 0.032014864498355673 0.0075736033598883456 0 0.032701473477809322 0.0075219928746448287 0 0.032989262945635763 0.0070631905814117534 0 0.033395565042562345 0.0086493100371289947 0 0.034057152591280213 0.0083838066937488333 0 0.033604048037303789 0.0084265442208301677 0 0.034267579780376735 0.0076279750170342824 0 0.034057152591280213 0.0083838066937488333 0 0.034215755922039216 0.0083868489867185095 0 0.033534585131421747 0.007808592431123907 0 0.03332698812777575 0.0078635682812068699 0 0.034057152591280213 0.0083838066937488333 0 0.034215755922039216 0.0083868489867185095 0 0.033604048037303789 0.0084265442208301677 0 0.033604048037303789 0.0084265442208301677 0 0.033105633430956759 0.0084321706587231569 0 0.033448095021822589 0.0086360851544211355 0 0.033105633430956759 0.0084321706587231569 0 0.032933823163036682 0.008379477853749262 0 0.032602064880374211 0.0083085885110619432 0 0.033604048037303789 0.0084265442208301677 0 0.033105633430956759 0.0084321706587231569 0 0.032933823163036682 0.008379477853749262 0 0.032933823163036682 0.008379477853749262 0 0.032602064880374211 0.0083085885110619432 0 0.032360477770325642 0.0081975193097823893 0 0.033395565042562345 0.0086493100371289947 0 0.033604048037303789 0.0084265442208301677 0 0.032933823163036682 0.008379477853749262 0 0.032602064880374211 0.0083085885110619432 0 0.032231729240046685 0.0081205666935428855 0 0.032182482904069637 0.0081308635082417875 0 0.032602064880374211 0.0083085885110619432 0 0.032182482904069637 0.0081308635082417875 0 0.032360477770325642 0.0081975193097823893 0 0.033105633430956759 0.0084321706587231569 0 0.032602064880374211 0.0083085885110619432 0 0.032821537294376292 0.0084176846380843613 0 0.032602064880374211 0.0083085885110619432 0 0.032231729240046685 0.0081205666935428855 0 0.032821537294376292 0.0084176846380843613 0 0.032231729240046685 0.0081205666935428855 0 0.031252849488199994 0.0078114011811511001 0 0.031987320930826839 0.0079271157792036012 0 0.032231729240046685 0.0081205666935428855 0 0.031807549262674678 0.0080265095017037699 0 0.031252849488199994 0.0078114011811511001 0 0.031807549262674678 0.0080265095017037699 0 0.03146776890862147 0.0080573758355775866 0 0.031252849488199994 0.0078114011811511001 0 0.032231729240046685 0.0081205666935428855 0 0.031807549262674678 0.0080265095017037699 0 0.032182482904069637 0.0081308635082417875 0 0.03146776890862147 0.0080573758355775866 0 0.031990969813951727 0.0080164358240992703 0 0.032182482904069637 0.0081308635082417875 0 0.031807549262674678 0.0080265095017037699 0 0.03146776890862147 0.0080573758355775866 0 0.032182482904069637 0.0081308635082417875 0 0.03146776890862147 0.0080573758355775866 0 0.031585314600954324 0.007992985879423372 0 0.030630162099731392 0.0080998055651035072 0 0.03146776890862147 0.0080573758355775866 0 0.031585314600954324 0.007992985879423372 0 0.031990969813951727 0.0080164358240992703 0 0.031585314600954324 0.007992985879423372 0 0.031990969813951727 0.0080164358240992703 0 0.032134181887458008 0.0078334265689717145 0 0.031990969813951727 0.0080164358240992703 0 0.032168447418281031 0.0079297470468412783 0 0.032134181887458008 0.0078334265689717145 0 0.031990969813951727 0.0080164358240992703 0 0.032182482904069637 0.0081308635082417875 0 0.032168447418281031 0.0079297470468412783 0 0.032182482904069637 0.0081308635082417875 0 0.032360477770325642 0.0081975193097823893 0 0.032168447418281031 0.0079297470468412783 0 0.032168447418281031 0.0079297470468412783 0 0.032161395214608056 0.0075620364155977908 0 0.031836375128688463 0.0074214358772959361 0 0.032168447418281031 0.0079297470468412783 0 0.032161395214608056 0.0075620364155977908 0 0.032134181887458008 0.0078334265689717145 0 0.032161395214608056 0.0075620364155977908 0 0.032074640695248673 0.0064388921383960792 0 0.032453256308361683 0.0075167698584995956 0 0.032161395214608056 0.0075620364155977908 0 0.032453256308361683 0.0075167698584995956 0 0.032134181887458008 0.0078334265689717145 0 0.032161395214608056 0.0075620364155977908 0 0.031836375128688463 0.0074214358772959361 0 0.032074640695248673 0.0064388921383960792 0 0.03144994298125843 0.0065031711619341201 0 0.032074640695248673 0.0064388921383960792 0 0.031362334587700665 0.005244967416553975 0 0.03144994298125843 0.0065031711619341201 0 0.031836375128688463 0.0074214358772959361 0 0.032074640695248673 0.0064388921383960792 0 0.032074640695248673 0.0064388921383960792 0 0.032941526107931475 0.0064468160475795767 0 0.032453256308361683 0.0075167698584995956 0 0.032074640695248673 0.0064388921383960792 0 0.032733246469397334 0.0053845811032603875 0 0.032941526107931475 0.0064468160475795767 0 0.032074640695248673 0.0064388921383960792 0 0.032733246469397334 0.0053845811032603875 0 0.032264533765555006 0.0048832366295016583 0 0.03284334267073722 0.0033530689385041462 0 0.032733246469397334 0.0053845811032603875 0 0.032264533765555006 0.0048832366295016583 0 0.032074640695248673 0.0064388921383960792 0 0.032264533765555006 0.0048832366295016583 0 0.031362334587700665 0.005244967416553975 0 0.031880093563563305 0.0033364179497519359 0 0.032264533765555006 0.0048832366295016583 0 0.031362334587700665 0.005244967416553975 0 0.031186854540103934 0.0052424497912352142 0 0.030439628490244751 0.0060989220311932673 0 0.028899245064525809 0.0049457562000482956 0 0.028621083293881834 0.0050104556782533567 0 0.028883960479765883 0.005240823234308958 0 0.028810545557771728 0.0047198049852790486 0 0.028899245064525809 0.0049457562000482956 0 0.028621083293881834 0.0050104556782533567 0 0.031260236240353366 0.0052664931729687293 0 0.031186854540103934 0.0052424497912352142 0 0.03284334267073722 0.0033530689385041462 0 0.032733246469397334 0.0053845811032603875 0 0.03372777655183283 0.0049745332688718863 0 0.032733246469397334 0.0053845811032603875 0 0.03372777655183283 0.0049745332688718863 0 0.032941526107931475 0.0064468160475795767 0 0.03372777655183283 0.0049745332688718863 0 0.034073626559801971 0.0053606539261501608 0 0.032941526107931475 0.0064468160475795767 0 0.034073626559801971 0.0053606539261501608 0 0.03274608199274482 0.0075629333020521558 0 0.032941526107931475 0.0064468160475795767 0 0.031186854540103934 0.0052424497912352142 0 0.03137580719464976 0.0058141939149425996 0 0.03274608199274482 0.0075629333020521558 0 0.032941526107931475 0.0064468160475795767 0 0.032453256308361683 0.0075167698584995956 0 0.032762420219616506 0.0088494842904262381 0 0.03274608199274482 0.0075629333020521558 0 0.031200498368977217 0.0084936258543160149 0 0.03274608199274482 0.0075629333020521558 0 0.031057513047265218 0.0080791052866861501 0 0.031200498368977217 0.0084936258543160149 0 0.03274608199274482 0.0075629333020521558 0 0.031874840036859614 0.0078421731948689517 0 0.031057513047265218 0.0080791052866861501 0 0.03274608199274482 0.0075629333020521558 0 0.031874840036859614 0.0078421731948689517 0 0.032453256308361683 0.0075167698584995956 0 0.031874840036859614 0.0078421731948689517 0 0.032453256308361683 0.0075167698584995956 0 0.032134181887458008 0.0078334265689717145 0 0.031585314600954324 0.007992985879423372 0 0.031874840036859614 0.0078421731948689517 0 0.032134181887458008 0.0078334265689717145 0 0.031585314600954324 0.007992985879423372 0 0.031874840036859614 0.0078421731948689517 0 0.030856818191288975 0.0080348412378602931 0 0.030856818191288975 0.0080348412378602931 0 0.030073987041900535 0.0080926232123989181 0 0.031057513047265218 0.0080791052866861501 0 0.030856818191288975 0.0080348412378602931 0 0.030073987041900535 0.0080926232123989181 0 0.029653950911240033 0.0082148829589357205 0 0.030073987041900535 0.0080926232123989181 0 0.029236048230388806 0.0079568590752152109 0 0.029653950911240033 0.0082148829589357205 0 0.030073987041900535 0.0080926232123989181 0 0.029917535726852185 0.0084618331058556265 0 0.031057513047265218 0.0080791052866861501 0 0.030073987041900535 0.0080926232123989181 0 0.029917535726852185 0.0084618331058556265 0 0.029236048230388806 0.0079568590752152109 0 0.031874840036859614 0.0078421731948689517 0 0.030856818191288975 0.0080348412378602931 0 0.031057513047265218 0.0080791052866861501 0 0.029917535726852185 0.0084618331058556265 0 0.031057513047265218 0.0080791052866861501 0 0.031200498368977217 0.0084936258543160149 0 0.029993380132212175 0.0065474154735340896 0 0.030439628490244751 0.0060989220311932673 0 0.028774557886219469 0.0057611954098513319 0 0.028883960479765883 0.005240823234308958 0 0.029040371219722975 0.0050559136723678875 0 0.028774557886219469 0.0057611954098513319 0 0.029040371219722975 0.0050559136723678875 0 0.029069267962059463 0.0055296754713043666 0 0.029103067124183597 0.0045951395723398359 0 0.028899245064525809 0.0049457562000482956 0 0.029040371219722975 0.0050559136723678875 0 0.028899245064525809 0.0049457562000482956 0 0.028883960479765883 0.005240823234308958 0 0.029040371219722975 0.0050559136723678875 0 0.029344191452582807 0.005013730028423812 0 0.029248717264523823 0.0048576797182625434 0 0.029069267962059463 0.0055296754713043666 0 0.029040371219722975 0.0050559136723678875 0 0.029248717264523823 0.0048576797182625434 0 0.029069267962059463 0.0055296754713043666 0 0.029732904249934109 0.0057207716285214609 0 0.029344191452582807 0.005013730028423812 0 0.029069267962059463 0.0055296754713043666 0 0.029732904249934109 0.0057207716285214609 0 0.029069267962059463 0.0055296754713043666 0 0.02899536246773771 0.0071319617817812127 0 0.027669711359368132 0.0071406200460222505 0 0.02798478144383992 0.0069753721515591009 0 0.028857414271767069 0.0072144958242057675 0 0.028520494801772326 0.0062581596030427556 0 0.028582579336006757 0.0064649034205376179 0 0.029732904249934109 0.0057207716285214609 0 0.02899536246773771 0.0071319617817812127 0 0.028857414271767069 0.0072144958242057675 0 0.029993380132212175 0.0065474154735340896 0 0.029875721594377229 0.0067096733500680997 0 0.028774557886219469 0.0057611954098513319 0 0.029069267962059463 0.0055296754713043666 0 0.02899536246773771 0.0071319617817812127 0 0.029917535726852185 0.0084618331058556265 0 0.02899536246773771 0.0071319617817812127 0 0.029236048230388806 0.0079568590752152109 0 0.029236048230388806 0.0079568590752152109 0 0.028674755847880439 0.00841133723809411 0 0.029653950911240033 0.0082148829589357205 0 0.02899536246773771 0.0071319617817812127 0 0.029236048230388806 0.0079568590752152109 0 0.028857414271767069 0.0072144958242057675 0 0.029236048230388806 0.0079568590752152109 0 0.027739699573267201 0.0091239342016914485 0 0.028674755847880439 0.00841133723809411 0 0.029236048230388806 0.0079568590752152109 0 0.028857414271767069 0.0072144958242057675 0 0.02850587469142539 0.0066748781932941502 0 0.02798478144383992 0.0069753721515591009 0 0.028857414271767069 0.0072144958242057675 0 0.02850587469142539 0.0066748781932941502 0 0.027852379220106905 0.007731430882844028 0 0.027497430925436377 0.0076530391721315264 0 0.027059868657888758 0.0083976721488948081 0 0.027673621174586615 0.0086305983864315879 0 0.028511438841358625 0.0082431175317134436 0 0.027673621174586615 0.0086305983864315879 0 0.028511438841358625 0.0082431175317134436 0 0.028674755847880439 0.00841133723809411 0 0.027739699573267201 0.0091239342016914485 0 0.027673621174586615 0.0086305983864315879 0 0.028674755847880439 0.00841133723809411 0 0.027059868657888758 0.0083976721488948081 0 0.028511438841358625 0.0082431175317134436 0 0.027433064969788697 0.0080157164232233374 0 0.028511438841358625 0.0082431175317134436 0 0.028674755847880439 0.00841133723809411 0 0.029653950911240033 0.0082148829589357205 0 0.028511438841358625 0.0082431175317134436 0 0.029653950911240033 0.0082148829589357205 0 0.030275571911892524 0.0080888482120949901 0 0.029653950911240033 0.0082148829589357205 0 0.030630162099731392 0.0080998055651035072 0 0.030275571911892524 0.0080888482120949901 0 0.030856818191288975 0.0080348412378602931 0 0.029653950911240033 0.0082148829589357205 0 0.030630162099731392 0.0080998055651035072 0 0.031585314600954324 0.007992985879423372 0 0.030856818191288975 0.0080348412378602931 0 0.030630162099731392 0.0080998055651035072 0 0.03146776890862147 0.0080573758355775866 0 0.030275571911892524 0.0080888482120949901 0 0.031252849488199994 0.0078114011811511001 0 0.03146776890862147 0.0080573758355775866 0 0.030630162099731392 0.0080998055651035072 0 0.030275571911892524 0.0080888482120949901 0 0.028511438841358625 0.0082431175317134436 0 0.030275571911892524 0.0080888482120949901 0 0.028420784646408084 0.0076337143666351109 0 0.030275571911892524 0.0080888482120949901 0 0.031252849488199994 0.0078114011811511001 0 0.028420784646408084 0.0076337143666351109 0 0.031252849488199994 0.0078114011811511001 0 0.028420784646408084 0.0076337143666351109 0 0.030696031769116953 0.0073538547421267385 0 0.028460774168585775 0.0082022332943491351 0 0.028674291293710401 0.0080432512695181903 0 0.026762357745282937 0.0076885988702808539 0 0.028420784646408084 0.0076337143666351109 0 0.026652297667011039 0.0073288895144153826 0 0.025813092342763685 0.0074887337743851515 0 0.026762357745282937 0.0076885988702808539 0 0.026652297667011039 0.0073288895144153826 0 0.026519583439197324 0.0080946007054229028 0 0.026762357745282937 0.0076885988702808539 0 0.027433064969788697 0.0080157164232233374 0 0.026762357745282937 0.0076885988702808539 0 0.027433064969788697 0.0080157164232233374 0 0.028420784646408084 0.0076337143666351109 0 0.028511438841358625 0.0082431175317134436 0 0.027433064969788697 0.0080157164232233374 0 0.028420784646408084 0.0076337143666351109 0 0.026652297667011039 0.0073288895144153826 0 0.026402303161625763 0.0072205887044610294 0 0.025818694383687113 0.0071641671157456699 0 0.025395340686417998 0.0072758968636795806 0 0.026652297667011039 0.0073288895144153826 0 0.025818694383687113 0.0071641671157456699 0 0.025395340686417998 0.0072758968636795806 0 0.025813092342763685 0.0074887337743851515 0 0.026652297667011039 0.0073288895144153826 0 0.028420784646408084 0.0076337143666351109 0 0.026652297667011039 0.0073288895144153826 0 0.026831140757771064 0.0073311835679383932 0 0.031252849488199994 0.0078114011811511001 0 0.030696031769116953 0.0073538547421267385 0 0.031987320930826839 0.0079271157792036012 0 0.030696031769116953 0.0073538547421267385 0 0.031993771728291501 0.0079733579529383744 0 0.031987320930826839 0.0079271157792036012 0 0.028674291293710401 0.0080432512695181903 0 0.028961779292676133 0.0081139887120697599 0 0.026831140757771064 0.0073311835679383932 0 0.026402303161625763 0.0072205887044610294 0 0.026343207257450905 0.0071190578249503639 0 0.026652297667011039 0.0073288895144153826 0 0.026831140757771064 0.0073311835679383932 0 0.026402303161625763 0.0072205887044610294 0 0.026402303161625763 0.0072205887044610294 0 0.026254953423391861 0.0071981329598342541 0 0.026343207257450905 0.0071190578249503639 0 0.026402303161625763 0.0072205887044610294 0 0.026254953423391861 0.0071981329598342541 0 0.025971956940611985 0.0070687286963118942 0 0.026254953423391861 0.0071981329598342541 0 0.026343207257450905 0.0071190578249503639 0 0.026253030087630067 0.0073500660775567368 0 0.026343207257450905 0.0071190578249503639 0 0.026253030087630067 0.0073500660775567368 0 0.026187674523873435 0.0078378654192299054 0 0.026253030087630067 0.0073500660775567368 0 0.02614660351642601 0.0074527360147518878 0 0.0260323708878837 0.0071658572650497533 0 0.026253030087630067 0.0073500660775567368 0 0.02614660351642601 0.0074527360147518878 0 0.026187674523873435 0.0078378654192299054 0 0.026254953423391861 0.0071981329598342541 0 0.026102381850641284 0.0071293693767412432 0 0.025971956940611985 0.0070687286963118942 0 0.026254953423391861 0.0071981329598342541 0 0.026253030087630067 0.0073500660775567368 0 0.026102381850641284 0.0071293693767412432 0 0.026253030087630067 0.0073500660775567368 0 0.026102381850641284 0.0071293693767412432 0 0.0260323708878837 0.0071658572650497533 0 0.026102381850641284 0.0071293693767412432 0 0.025861057664895815 0.0068644641494441635 0 0.0260323708878837 0.0071658572650497533 0 0.025710365873275087 0.0068398916208319439 0 0.025971956940611985 0.0070687286963118942 0 0.025861057664895815 0.0068644641494441635 0 0.026102381850641284 0.0071293693767412432 0 0.025971956940611985 0.0070687286963118942 0 0.025861057664895815 0.0068644641494441635 0 0.025710365873275087 0.0068398916208319439 0 0.025971956940611985 0.0070687286963118942 0 0.025315923638677133 0.006916431633028213 0 0.025971956940611985 0.0070687286963118942 0 0.025818694383687113 0.0071641671157456699 0 0.025315923638677133 0.006916431633028213 0 0.026402303161625763 0.0072205887044610294 0 0.025971956940611985 0.0070687286963118942 0 0.025818694383687113 0.0071641671157456699 0 0.024678080440751957 0.0069771631771701871 0 0.025818694383687113 0.0071641671157456699 0 0.025315923638677133 0.006916431633028213 0 0.025395340686417998 0.0072758968636795806 0 0.024678080440751957 0.0069771631771701871 0 0.025818694383687113 0.0071641671157456699 0 0.023950226413277386 0.0064587899657420501 0 0.024678080440751957 0.0069771631771701871 0 0.025315923638677133 0.006916431633028213 0 0.023950226413277386 0.0064587899657420501 0 0.025315923638677133 0.006916431633028213 0 0.025622132809225723 0.0065087046545908855 0 0.025710365873275087 0.0068398916208319439 0 0.025315923638677133 0.006916431633028213 0 0.025622132809225723 0.0065087046545908855 0 0.023950226413277386 0.0064587899657420501 0 0.025622132809225723 0.0065087046545908855 0 0.024999959345236706 0.0056957310956161633 0 0.023198361336692491 0.007573504555743675 0 0.022710947714890031 0.0082108680903220429 0 0.025622132809225723 0.0065087046545908855 0 0.025819396271814114 0.0067620423582443112 0 0.025741208266096792 0.0067869623359903247 0 0.022875610116869241 0.0081607465962315294 0 0.022710947714890031 0.0082108680903220429 0 0.025622132809225723 0.0065087046545908855 0 0.025861057664895815 0.0068644641494441635 0 0.025741208266096792 0.0067869623359903247 0 0.025710365873275087 0.0068398916208319439 0 0.025622132809225723 0.0065087046545908855 0 0.025861057664895815 0.0068644641494441635 0 0.025861057664895815 0.0068644641494441635 0 0.025741208266096792 0.0067869623359903247 0 0.025843003366882673 0.0069340015642452507 0 0.025741208266096792 0.0067869623359903247 0 0.025806685634046297 0.0069515104243838546 0 0.025843003366882673 0.0069340015642452507 0 0.025806685634046297 0.0069515104243838546 0 0.025843003366882673 0.0069340015642452507 0 0.025892364330157611 0.006985818882311051 0 0.021100618416256441 0.011548984445476985 0 0.020891561834329806 0.011233471950749164 0 0.020626004656504073 0.011598342263949644 0 0.022710947714890031 0.0082108680903220429 0 0.023236431127105262 0.0094329845549295539 0 0.025819396271814114 0.0067620423582443112 0 0.025741208266096792 0.0067869623359903247 0 0.025806685634046297 0.0069515104243838546 0 0.021550415407677086 0.0088542249613606169 0 0.022710947714890031 0.0082108680903220429 0 0.021100618416256441 0.011548984445476985 0 0.020626004656504073 0.011598342263949644 0 0.020881834255330439 0.011984931522546738 0 0.020626004656504073 0.011598342263949644 0 0.020881834255330439 0.011984931522546738 0 0.020378475569895926 0.011962899043844196 0 0.025806685634046297 0.0069515104243838546 0 0.025893581784942565 0.0070308410715572024 0 0.025892364330157611 0.006985818882311051 0 0.023236431127105262 0.0094329845549295539 0 0.023675734523725896 0.01083307632971995 0 0.020881834255330439 0.011984931522546738 0 0.020378475569895926 0.011962899043844196 0 0.020649132198139318 0.012297750471265519 0 0.020378475569895926 0.011962899043844196 0 0.020386934518803367 0.012490896704263125 0 0.020649132198139318 0.012297750471265519 0 0.020881834255330439 0.011984931522546738 0 0.020649132198139318 0.012297750471265519 0 0.020995116560713938 0.012493977661097028 0 0.024758438498230662 0.011224744399486541 0 0.02367510329913431 0.01357075401923025 0 0.026076301778314742 0.015749759945148479 0 0.027109880896617429 0.013989090427686462 0 0.025443109250701888 0.014712749720754405 0 0.026076301778314742 0.015749759945148479 0 0.027109880896617429 0.013989090427686462 0 0.027359507948296467 0.016007357570161713 0 0.025893581784942565 0.0070308410715572024 0 0.025906608705787305 0.0070142818706291059 0 0.025855664830587727 0.0071758281084606853 0 0.023675734523725896 0.01083307632971995 0 0.02367510329913431 0.01357075401923025 0 0.020378475569895926 0.011962899043844196 0 0.020386934518803367 0.012490896704263125 0 0.020132189839648484 0.012327437319049834 0 0.025893581784942565 0.0070308410715572024 0 0.025906608705787305 0.0070142818706291059 0 0.025892364330157611 0.006985818882311051 0 0.024758438498230662 0.011224744399486541 0 0.025252307582047169 0.009816138963180612 0 0.027109880896617429 0.013989090427686462 0 0.027168774926025829 0.0115694638069522 0 0.025684481353046115 0.01308610943344269 0 0.026120481313334824 0.0070559058867906291 0 0.025892364330157611 0.006985818882311051 0 0.025968830855500422 0.0070954325358256803 0 0.025906608705787305 0.0070142818706291059 0 0.026120481313334824 0.0070559058867906291 0 0.025892364330157611 0.006985818882311051 0 0.025843003366882673 0.0069340015642452507 0 0.025892364330157611 0.006985818882311051 0 0.025968830855500422 0.0070954325358256803 0 0.025843003366882673 0.0069340015642452507 0 0.025968830855500422 0.0070954325358256803 0 0.0260323708878837 0.0071658572650497533 0 0.025968830855500422 0.0070954325358256803 0 0.0260323708878837 0.0071658572650497533 0 0.026071165755384158 0.0073408583225404098 0 0.025861057664895815 0.0068644641494441635 0 0.025843003366882673 0.0069340015642452507 0 0.0260323708878837 0.0071658572650497533 0 0.025252307582047169 0.009816138963180612 0 0.025336387217765804 0.009154961444376877 0 0.026120481313334824 0.0070559058867906291 0 0.026071165755384158 0.0073408583225404098 0 0.026187674523873435 0.0078378654192299054 0 0.026120481313334824 0.0070559058867906291 0 0.025968830855500422 0.0070954325358256803 0 0.026071165755384158 0.0073408583225404098 0 0.02614660351642601 0.0074527360147518878 0 0.0260323708878837 0.0071658572650497533 0 0.026071165755384158 0.0073408583225404098 0 0.02614660351642601 0.0074527360147518878 0 0.026071165755384158 0.0073408583225404098 0 0.026187674523873435 0.0078378654192299054 0 0.025754311356748272 0.010447464884073512 0 0.026187674523873435 0.0078378654192299054 0 0.025504261817271019 0.0078479246847355227 0 0.027168774926025829 0.0115694638069522 0 0.025754311356748272 0.010447464884073512 0 0.026187674523873435 0.0078378654192299054 0 0.025754311356748272 0.010447464884073512 0 0.02377467186786765 0.012557428155696411 0 0.025504261817271019 0.0078479246847355227 0 0.028739237906563957 0.010320170845466223 0 0.028977406180023112 0.0088737071518827874 0 0.032709982915401989 0.0090125107179510403 0 0.032778457645826015 0.0093019382953615816 0 0.032659367827282036 0.0087348213317189442 0 0.027168774926025829 0.0115694638069522 0 0.025754311356748272 0.010447464884073512 0 0.025684481353046115 0.01308610943344269 0 0.025754311356748272 0.010447464884073512 0 0.02377467186786765 0.012557428155696411 0 0.025684481353046115 0.01308610943344269 0 0.025684481353046115 0.01308610943344269 0 0.02478417508620627 0.014031709991960861 0 0.025443109250701888 0.014712749720754405 0 0.027109880896617429 0.013989090427686462 0 0.025684481353046115 0.01308610943344269 0 0.025443109250701888 0.014712749720754405 0 0.02377467186786765 0.012557428155696411 0 0.025684481353046115 0.01308610943344269 0 0.02478417508620627 0.014031709991960861 0 0.02377467186786765 0.012557428155696411 0 0.024624464442471589 0.01420042545252592 0 0.02478417508620627 0.014031709991960861 0 0.02377467186786765 0.012557428155696411 0 0.024624464442471589 0.01420042545252592 0 0.025581745516069856 0.014901406992508684 0 0.024624464442471589 0.01420042545252592 0 0.02478417508620627 0.014031709991960861 0 0.024208751609231433 0.014881736242555663 0 0.024624464442471589 0.01420042545252592 0 0.024208751609231433 0.014881736242555663 0 0.025581745516069856 0.014901406992508684 0 0.026076301778314742 0.015749759945148479 0 0.025443109250701888 0.014712749720754405 0 0.024960476330952937 0.016399251477168416 0 0.024208751609231433 0.014881736242555663 0 0.025443109250701888 0.014712749720754405 0 0.024960476330952937 0.016399251477168416 0 0.02478417508620627 0.014031709991960861 0 0.024208751609231433 0.014881736242555663 0 0.025443109250701888 0.014712749720754405 0 0.032184257915583492 0.010885936809283462 0 0.032156396946726173 0.011165520112984637 0 0.031006148449737914 0.010428114437140144 0 0.032015902649489496 0.0096059550321469164 0 0.02937344847189095 0.010556854927277886 0 0.030071667379485023 0.010994392491692699 0 0.031006148449737914 0.010428114437140144 0 0.02937344847189095 0.010556854927277886 0 0.030071667379485023 0.010994392491692699 0 0.02937344847189095 0.010556854927277886 0 0.029411470411956683 0.011327373363119642 0 0.031006148449737914 0.010428114437140144 0 0.03225889139146336 0.0098731149482816499 0 0.028889134304537267 0.011952525282636529 0 0.024208751609231433 0.014881736242555663 0 0.025581745516069856 0.014901406992508684 0 0.027684042297549706 0.012118238919077779 0 0.031006148449737914 0.010428114437140144 0 0.03225889139146336 0.0098731149482816499 0 0.032015902649489496 0.0096059550321469164 0 0.032778457645826015 0.0093019382953615816 0 0.03225889139146336 0.0098731149482816499 0 0.032496188242864307 0.0094459945622458671 0 0.03225889139146336 0.0098731149482816499 0 0.032015902649489496 0.0096059550321469164 0 0.032496188242864307 0.0094459945622458671 0 0.028739237906563957 0.010320170845466223 0 0.028818236869714572 0.011188851487828527 0 0.032015902649489496 0.0096059550321469164 0 0.032784584035245326 0.0095208657208645433 0 0.033206510231251499 0.0089324576172544815 0 0.032015902649489496 0.0096059550321469164 0 0.032784584035245326 0.0095208657208645433 0 0.032496188242864307 0.0094459945622458671 0 0.032784584035245326 0.0095208657208645433 0 0.033001849047573473 0.0095881065547531192 0 0.033426787112468041 0.0096859692441845623 0 0.032784584035245326 0.0095208657208645433 0 0.033001849047573473 0.0095881065547531192 0 0.032496188242864307 0.0094459945622458671 0 0.033001849047573473 0.0095881065547531192 0 0.032496188242864307 0.0094459945622458671 0 0.032741025216660259 0.0092993852886024877 0 0.032778457645826015 0.0093019382953615816 0 0.032496188242864307 0.0094459945622458671 0 0.032741025216660259 0.0092993852886024877 0 0.032709982915401989 0.0090125107179510403 0 0.032741025216660259 0.0092993852886024877 0 0.0328978216181035 0.0090859128764364597 0 0.032709982915401989 0.0090125107179510403 0 0.032778457645826015 0.0093019382953615816 0 0.032741025216660259 0.0092993852886024877 0 0.033001849047573473 0.0095881065547531192 0 0.032741025216660259 0.0092993852886024877 0 0.033183319601132841 0.0094554898315314297 0 0.033001849047573473 0.0095881065547531192 0 0.033183319601132841 0.0094554898315314297 0 0.033639437700138067 0.0098756079976021031 0 0.032741025216660259 0.0092993852886024877 0 0.033183319601132841 0.0094554898315314297 0 0.0328978216181035 0.0090859128764364597 0 0.033183319601132841 0.0094554898315314297 0 0.033203205951815362 0.0090922214028673291 0 0.0328978216181035 0.0090859128764364597 0 0.033203205951815362 0.0090922214028673291 0 0.032789567755447065 0.008766503631354795 0 0.0328978216181035 0.0090859128764364597 0 0.033203205951815362 0.0090922214028673291 0 0.032789567755447065 0.008766503631354795 0 0.032792171694801003 0.0085515660034271145 0 0.033203205951815362 0.0090922214028673291 0 0.032792171694801003 0.0085515660034271145 0 0.033281881934278237 0.0087945466366806148 0 0.032789567755447065 0.008766503631354795 0 0.03249937966829481 0.0083964187091644105 0 0.032792171694801003 0.0085515660034271145 0 0.032789567755447065 0.008766503631354795 0 0.0328978216181035 0.0090859128764364597 0 0.032631587260539635 0.0087406136641140896 0 0.032709982915401989 0.0090125107179510403 0 0.0328978216181035 0.0090859128764364597 0 0.032631587260539635 0.0087406136641140896 0 0.032631587260539635 0.0087406136641140896 0 0.032659367827282036 0.0087348213317189442 0 0.032378697378609968 0.0083466240017394302 0 0.032709982915401989 0.0090125107179510403 0 0.032631587260539635 0.0087406136641140896 0 0.032659367827282036 0.0087348213317189442 0 0.028961779292676133 0.0081139887120697599 0 0.028977406180023112 0.0088737071518827874 0 0.026343207257450905 0.0071190578249503639 0 0.026187674523873435 0.0078378654192299054 0 0.025504261817271019 0.0078479246847355227 0 0.031993771728291501 0.0079733579529383744 0 0.032659367827282036 0.0087348213317189442 0 0.032378697378609968 0.0083466240017394302 0 0.032631587260539635 0.0087406136641140896 0 0.032378697378609968 0.0083466240017394302 0 0.03249937966829481 0.0083964187091644105 0 0.032789567755447065 0.008766503631354795 0 0.032631587260539635 0.0087406136641140896 0 0.03249937966829481 0.0083964187091644105 0 0.032378697378609968 0.0083466240017394302 0 0.03249937966829481 0.0083964187091644105 0 0.031987320930826839 0.0079271157792036012 0 0.03249937966829481 0.0083964187091644105 0 0.031987320930826839 0.0079271157792036012 0 0.03245476049490402 0.0082515348877197359 0 0.031993771728291501 0.0079733579529383744 0 0.032378697378609968 0.0083466240017394302 0 0.031987320930826839 0.0079271157792036012 0 0.032231729240046685 0.0081205666935428855 0 0.031987320930826839 0.0079271157792036012 0 0.03245476049490402 0.0082515348877197359 0 0.032231729240046685 0.0081205666935428855 0 0.03245476049490402 0.0082515348877197359 0 0.032821537294376292 0.0084176846380843613 0 0.032821537294376292 0.0084176846380843613 0 0.032792171694801003 0.0085515660034271145 0 0.033281881934278237 0.0087945466366806148 0 0.03245476049490402 0.0082515348877197359 0 0.032821537294376292 0.0084176846380843613 0 0.032792171694801003 0.0085515660034271145 0 0.03249937966829481 0.0083964187091644105 0 0.03245476049490402 0.0082515348877197359 0 0.032792171694801003 0.0085515660034271145 0 0.033863624301399178 0.0090045697771250748 0 0.033448095021822589 0.0086360851544211355 0 0.033918769202342998 0.0087243553188063455 0 0.033863624301399178 0.0090045697771250748 0 0.033281881934278237 0.0087945466366806148 0 0.033448095021822589 0.0086360851544211355 0 0.032821537294376292 0.0084176846380843613 0 0.033281881934278237 0.0087945466366806148 0 0.033448095021822589 0.0086360851544211355 0 0.033105633430956759 0.0084321706587231569 0 0.032821537294376292 0.0084176846380843613 0 0.033448095021822589 0.0086360851544211355 0 0.033604048037303789 0.0084265442208301677 0 0.033448095021822589 0.0086360851544211355 0 0.033918769202342998 0.0087243553188063455 0 0.034215755922039216 0.0083868489867185095 0 0.033918769202342998 0.0087243553188063455 0 0.034252847329825142 0.0087878193525127261 0 0.034215755922039216 0.0083868489867185095 0 0.033604048037303789 0.0084265442208301677 0 0.033918769202342998 0.0087243553188063455 0 0.034215755922039216 0.0083868489867185095 0 0.034252847329825142 0.0087878193525127261 0 0.034328503184017291 0.0085599082733952836 0 0.034252847329825142 0.0087878193525127261 0 0.034463436696311259 0.009470723489410535 0 0.034375335632222344 0.0089328025204424011 0 0.034252847329825142 0.0087878193525127261 0 0.034182046056718471 0.0091146756782777873 0 0.034463436696311259 0.009470723489410535 0 0.034252847329825142 0.0087878193525127261 0 0.034375335632222344 0.0089328025204424011 0 0.034328503184017291 0.0085599082733952836 0 0.033918769202342998 0.0087243553188063455 0 0.034252847329825142 0.0087878193525127261 0 0.034182046056718471 0.0091146756782777873 0 0.033863624301399178 0.0090045697771250748 0 0.033918769202342998 0.0087243553188063455 0 0.034182046056718471 0.0091146756782777873 0 0.034182046056718471 0.0091146756782777873 0 0.03427031602475937 0.009571606881064891 0 0.034463436696311259 0.009470723489410535 0 0.033863624301399178 0.0090045697771250748 0 0.034182046056718471 0.0091146756782777873 0 0.03427031602475937 0.009571606881064891 0 0.034463436696311259 0.009470723489410535 0 0.034682173731575595 0.010249963240657226 0 0.034483529643067973 0.0095107561263503507 0 0.034463436696311259 0.009470723489410535 0 0.034622602537681624 0.010199232955589147 0 0.034682173731575595 0.010249963240657226 0 0.03427031602475937 0.009571606881064891 0 0.034463436696311259 0.009470723489410535 0 0.034622602537681624 0.010199232955589147 0 0.03427031602475937 0.009571606881064891 0 0.034622602537681624 0.010199232955589147 0 0.034181725466799463 0.009857407384265663 0 0.03427031602475937 0.009571606881064891 0 0.034181725466799463 0.009857407384265663 0 0.033775438045969851 0.0093245221740540837 0 0.034181725466799463 0.009857407384265663 0 0.033775438045969851 0.0093245221740540837 0 0.033711846084106309 0.009642336033015125 0 0.033863624301399178 0.0090045697771250748 0 0.03427031602475937 0.009571606881064891 0 0.033775438045969851 0.0093245221740540837 0 0.033863624301399178 0.0090045697771250748 0 0.033281881934278237 0.0087945466366806148 0 0.033775438045969851 0.0093245221740540837 0 0.033203205951815362 0.0090922214028673291 0 0.033281881934278237 0.0087945466366806148 0 0.033775438045969851 0.0093245221740540837 0 0.033203205951815362 0.0090922214028673291 0 0.033775438045969851 0.0093245221740540837 0 0.033711846084106309 0.009642336033015125 0 0.033183319601132841 0.0094554898315314297 0 0.033203205951815362 0.0090922214028673291 0 0.033711846084106309 0.009642336033015125 0 0.033711846084106309 0.009642336033015125 0 0.033639437700138067 0.0098756079976021031 0 0.034113264423402609 0.0100628801211015 0 0.033183319601132841 0.0094554898315314297 0 0.033711846084106309 0.009642336033015125 0 0.033639437700138067 0.0098756079976021031 0 0.034113264423402609 0.0100628801211015 0 0.034339163946079769 0.010268718573635286 0 0.034595106653465907 0.01049097817689364 0 0.034181725466799463 0.009857407384265663 0 0.034113264423402609 0.0100628801211015 0 0.034595106653465907 0.01049097817689364 0 0.034181725466799463 0.009857407384265663 0 0.033711846084106309 0.009642336033015125 0 0.034113264423402609 0.0100628801211015 0 0.033639437700138067 0.0098756079976021031 0 0.034113264423402609 0.0100628801211015 0 0.034339163946079769 0.010268718573635286 0 0.033001849047573473 0.0095881065547531192 0 0.033639437700138067 0.0098756079976021031 0 0.033426787112468041 0.0096859692441845623 0 0.033639437700138067 0.0098756079976021031 0 0.034339163946079769 0.010268718573635286 0 0.033426787112468041 0.0096859692441845623 0 0.032784584035245326 0.0095208657208645433 0 0.033426787112468041 0.0096859692441845623 0 0.033206510231251499 0.0089324576172544815 0 0.033426787112468041 0.0096859692441845623 0 0.034022509737079543 0.0093898130054847172 0 0.033206510231251499 0.0089324576172544815 0 0.034339163946079769 0.010268718573635286 0 0.033426787112468041 0.0096859692441845623 0 0.034022509737079543 0.0093898130054847172 0 0.034339163946079769 0.010268718573635286 0 0.034022509737079543 0.0093898130054847172 0 0.034779433463058201 0.0093643255617143449 0 0.034787645580406257 0.011475962815382587 0 0.034750073833556203 0.011803434771919894 0 0.034022509737079543 0.0093898130054847172 0 0.034293069026039534 0.0087749212933683467 0 0.034779433463058201 0.0093643255617143449 0 0.032602397611449445 0.011990651249736636 0 0.032156396946726173 0.011165520112984637 0 0.034022509737079543 0.0093898130054847172 0 0.034293069026039534 0.0087749212933683467 0 0.033206510231251499 0.0089324576172544815 0 0.02936027933837812 0.011194950201550013 0 0.02937344847189095 0.010556854927277886 0 0.029373244320204481 0.011283017215536966 0 0.02937344847189095 0.010556854927277886 0 0.029411470411956683 0.011327373363119642 0 0.029373244320204481 0.011283017215536966 0 0.03395114785018475 0.013657163046279706 0 0.034851782989076478 0.013860423726793259 0 0.037448702091576844 0.015902544966085397 0 0.038977986103879314 0.015445646921460851 0 0.035776175174278661 0.013049795662345111 0 0.035059651555450967 0.011510434180905511 0 0.035137893750310428 0.012029335429109108 0 0.035776175174278661 0.013049795662345111 0 0.034488997921208055 0.013646626523865441 0 0.03395114785018475 0.013657163046279706 0 0.032602397611449445 0.011990651249736636 0 0.03395114785018475 0.013657163046279706 0 0.035059651555450967 0.011510434180905511 0 0.034880713480729506 0.011599742303937167 0 0.035137893750310428 0.012029335429109108 0 0.03395114785018475 0.013657163046279706 0 0.034750073833556203 0.011803434771919894 0 0.034293069026039534 0.0087749212933683467 0 0.035258184764080013 0.0087206134571332517 0 0.034779433463058201 0.0093643255617143449 0 0.034339163946079769 0.010268718573635286 0 0.034880713480729506 0.011599742303937167 0 0.034888478503785868 0.011238815431581747 0 0.034880713480729506 0.011599742303937167 0 0.035137893750310428 0.012029335429109108 0 0.034888478503785868 0.011238815431581747 0 0.035137893750310428 0.012029335429109108 0 0.035218238459257811 0.011984704987980481 0 0.035776175174278661 0.013049795662345111 0 0.035137893750310428 0.012029335429109108 0 0.035218238459257811 0.011984704987980481 0 0.034888478503785868 0.011238815431581747 0 0.035218238459257811 0.011984704987980481 0 0.034950626234298385 0.011104400113439425 0 0.035154412882897168 0.012089280159939465 0 0.035218238459257811 0.011984704987980481 0 0.034888478503785868 0.011238815431581747 0 0.034950626234298385 0.011104400113439425 0 0.034888478503785868 0.011238815431581747 0 0.034595106653465907 0.01049097817689364 0 0.034950626234298385 0.011104400113439425 0 0.034339163946079769 0.010268718573635286 0 0.034888478503785868 0.011238815431581747 0 0.034595106653465907 0.01049097817689364 0 0.034622602537681624 0.010199232955589147 0 0.034595106653465907 0.01049097817689364 0 0.034950626234298385 0.011104400113439425 0 0.034622602537681624 0.010199232955589147 0 0.034181725466799463 0.009857407384265663 0 0.034595106653465907 0.01049097817689364 0 0.034622602537681624 0.010199232955589147 0 0.034950626234298385 0.011104400113439425 0 0.034682173731575595 0.010249963240657226 0 0.034950626234298385 0.011104400113439425 0 0.034728830294714894 0.011319778316700946 0 0.035154412882897168 0.012089280159939465 0 0.034950626234298385 0.011104400113439425 0 0.034728830294714894 0.011319778316700946 0 0.034682173731575595 0.010249963240657226 0 0.034728830294714894 0.011319778316700946 0 0.034842614864640513 0.012867308930904773 0 0.033753262057075954 0.01154518846454642 0 0.034728830294714894 0.011319778316700946 0 0.033753262057075954 0.01154518846454642 0 0.034261912635479196 0.010735875952299984 0 0.034842614864640513 0.012867308930904773 0 0.035154412882897168 0.012089280159939465 0 0.035776175174278661 0.013049795662345111 0 0.034728830294714894 0.011319778316700946 0 0.034842614864640513 0.012867308930904773 0 0.035154412882897168 0.012089280159939465 0 0.035218238459257811 0.011984704987980481 0 0.035154412882897168 0.012089280159939465 0 0.035776175174278661 0.013049795662345111 0 0.035776175174278661 0.013049795662345111 0 0.034924729469692738 0.01423288460533916 0 0.035285170777812958 0.015179082002688454 0 0.034842614864640513 0.012867308930904773 0 0.034924729469692738 0.01423288460533916 0 0.034432354869304502 0.014179890000130183 0 0.034842614864640513 0.012867308930904773 0 0.035776175174278661 0.013049795662345111 0 0.034924729469692738 0.01423288460533916 0 0.035285170777812958 0.015179082002688454 0 0.034720988109641679 0.015478106251891019 0 0.034966726078238114 0.016490625801929604 0 0.034924729469692738 0.01423288460533916 0 0.035285170777812958 0.015179082002688454 0 0.034720988109641679 0.015478106251891019 0 0.035285170777812958 0.015179082002688454 0 0.034966726078238114 0.016490625801929604 0 0.035352652409263247 0.016587468488726238 0 0.035285170777812958 0.015179082002688454 0 0.035866480063400381 0.016260150382125711 0 0.035352652409263247 0.016587468488726238 0 0.035776175174278661 0.013049795662345111 0 0.035285170777812958 0.015179082002688454 0 0.03609810922198925 0.015420356166940066 0 0.037448702091576844 0.015902544966085397 0 0.035776175174278661 0.013049795662345111 0 0.03609810922198925 0.015420356166940066 0 0.035285170777812958 0.015179082002688454 0 0.03609810922198925 0.015420356166940066 0 0.035866480063400381 0.016260150382125711 0 0.034881449084059567 0.016883067344358009 0 0.034720988109641679 0.015478106251891019 0 0.034996025205379859 0.016344877085119929 0 0.034881449084059567 0.016883067344358009 0 0.034996025205379859 0.016344877085119929 0 0.035000249045544947 0.017627328061175587 0 0.034881449084059567 0.016883067344358009 0 0.034720988109641679 0.015478106251891019 0 0.034966726078238114 0.016490625801929604 0 0.034720988109641679 0.015478106251891019 0 0.034432354869304502 0.014179890000130183 0 0.034996025205379859 0.016344877085119929 0 0.034924729469692738 0.01423288460533916 0 0.034720988109641679 0.015478106251891019 0 0.034432354869304502 0.014179890000130183 0 0.035000015709466939 0.01634699442664457 0 0.035741653475286177 0.014876950782105561 0 0.03499995903132358 0.015191966236677172 0 0.034999659398720046 0.01634390621235559 0 0.035210067212669005 0.014264121519856527 0 0.034432354869304502 0.014179890000130183 0 0.034996025205379859 0.016344877085119929 0 0.033813916935448197 0.0137003267865122 0 0.035741653475286177 0.014876950782105561 0 0.03499995903132358 0.015191966236677172 0 0.035000007409157631 0.014037164076139698 0 0.034842614864640513 0.012867308930904773 0 0.034432354869304502 0.014179890000130183 0 0.033753262057075954 0.01154518846454642 0 0.034432354869304502 0.014179890000130183 0 0.033813916935448197 0.0137003267865122 0 0.033753262057075954 0.01154518846454642 0 0.035210067212669005 0.014264121519856527 0 0.035292894815724264 0.012697930120710238 0 0.035741653475286177 0.014876950782105561 0 0.035000007409157631 0.014037164076139698 0 0.035609254514604248 0.013545246198099005 0 0.035741653475286177 0.014876950782105561 0 0.036398535169658137 0.013481982113400407 0 0.035609254514604248 0.013545246198099005 0 0.03499956498795833 0.014044567467280555 0 0.035513840357849547 0.012862048502335808 0 0.035000007409157631 0.014037164076139698 0 0.035609254514604248 0.013545246198099005 0 0.035107033768663962 0.012974604482393222 0 0.036398535169658137 0.013481982113400407 0 0.035609254514604248 0.013545246198099005 0 0.035906526247389284 0.012790931860738158 0 0.035107033768663962 0.012974604482393222 0 0.035906526247389284 0.012790931860738158 0 0.03519674589776129 0.011950598741446982 0 0.035513840357849547 0.012862048502335808 0 0.035009374379911161 0.011578575732904727 0 0.034903130587350457 0.01287458026519581 0 0.034999901218457231 0.011686000832888954 0 0.035182615958261138 0.011712186220441323 0 0.035609254514604248 0.013545246198099005 0 0.035107033768663962 0.012974604482393222 0 0.035906526247389284 0.012790931860738158 0 0.035906526247389284 0.012790931860738158 0 0.03519674589776129 0.011950598741446982 0 0.036122614138039445 0.012080208795882967 0 0.034293994441172926 0.0089314349573148526 0 0.034391372287553276 0.0088316220896620373 0 0.034406823730642355 0.0086468780401030287 0 0.035009374379911161 0.011578575732904727 0 0.03502349157296214 0.010133162307279732 0 0.035000234071256707 0.011686268997221192 0 0.03519234900756827 0.011712004584043272 0 0.035348552658620545 0.010234914550165073 0 0.035000214778730089 0.011684113116558582 0 0.035009374379911161 0.011578575732904727 0 0.035009374379911161 0.011578575732904727 0 0.035129448938108231 0.011505122922376534 0 0.034293994441172926 0.0089314349573148526 0 0.034391372287553276 0.0088316220896620373 0 0.034383402078700338 0.0089398573138223369 0 0.034328754887506738 0.0089855835514848388 0 0.034277237440254321 0.0089816778707827588 0 0.034371692394197975 0.0088226728720259048 0 0.034391372287553276 0.0088316220896620373 0 0.034328754887506738 0.0089855835514848388 0 0.034371692394197975 0.0088226728720259048 0 0.034391372287553276 0.0088316220896620373 0 0.034328754887506738 0.0089855835514848388 0 0.034383402078700338 0.0089398573138223369 0 0.035129448938108231 0.011505122922376534 0 0.035234948826030774 0.01162457041922399 0 0.034328754887506738 0.0089855835514848388 0 0.034383402078700338 0.0089398573138223369 0 0.034254540655251887 0.0090036081654453065 0 0.035906526247389284 0.012790931860738158 0 0.036122614138039445 0.012080208795882967 0 0.037038949851212373 0.012199594473278428 0 0.036398535169658137 0.013481982113400407 0 0.035906526247389284 0.012790931860738158 0 0.037038949851212373 0.012199594473278428 0 0.035292894815724264 0.012697930120710238 0 0.035234948826030774 0.01162457041922399 0 0.034728830294714894 0.011319778316700946 0 0.034261912635479196 0.010735875952299984 0 0.034441348016184627 0.0099279593622283897 0 0.033753262057075954 0.01154518846454642 0 0.034261912635479196 0.010735875952299984 0 0.033967403808963424 0.010111984660737478 0 0.034261912635479196 0.010735875952299984 0 0.034441348016184627 0.0099279593622283897 0 0.033967403808963424 0.010111984660737478 0 0.034986882908417963 0.011453123232037583 0 0.035234948826030774 0.01162457041922399 0 0.034728830294714894 0.011319778316700946 0 0.034682173731575595 0.010249963240657226 0 0.034441348016184627 0.0099279593622283897 0 0.034682173731575595 0.010249963240657226 0 0.034441348016184627 0.0099279593622283897 0 0.034483529643067973 0.0095107561263503507 0 0.034441348016184627 0.0099279593622283897 0 0.034483529643067973 0.0095107561263503507 0 0.034368823027889545 0.0091685096609627342 0 0.034483529643067973 0.0095107561263503507 0 0.034368823027889545 0.0091685096609627342 0 0.034375335632222344 0.0089328025204424011 0 0.034463436696311259 0.009470723489410535 0 0.034483529643067973 0.0095107561263503507 0 0.034375335632222344 0.0089328025204424011 0 0.034328754887506738 0.0089855835514848388 0 0.03417038220952702 0.0091923546740561267 0 0.034254540655251887 0.0090036081654453065 0 0.035257003290966878 0.011496073907405934 0 0.035234948826030774 0.01162457041922399 0 0.034441348016184627 0.0099279593622283897 0 0.03417038220952702 0.0091923546740561267 0 0.034005936282753321 0.0095059761015449697 0 0.034441348016184627 0.0099279593622283897 0 0.034368823027889545 0.0091685096609627342 0 0.03417038220952702 0.0091923546740561267 0 0.034368823027889545 0.0091685096609627342 0 0.03417038220952702 0.0091923546740561267 0 0.034284137639933383 0.0090498602530596113 0 0.034328754887506738 0.0089855835514848388 0 0.03417038220952702 0.0091923546740561267 0 0.034277237440254321 0.0089816778707827588 0 0.03417038220952702 0.0091923546740561267 0 0.034284137639933383 0.0090498602530596113 0 0.034277237440254321 0.0089816778707827588 0 0.034326199545529033 0.0088104022817901157 0 0.034375335632222344 0.0089328025204424011 0 0.034371604069090636 0.0085223300024329322 0 0.034284137639933383 0.0090498602530596113 0 0.034277237440254321 0.0089816778707827588 0 0.034326199545529033 0.0088104022817901157 0 0.034277237440254321 0.0089816778707827588 0 0.034326199545529033 0.0088104022817901157 0 0.034371692394197975 0.0088226728720259048 0 0.034368823027889545 0.0091685096609627342 0 0.034284137639933383 0.0090498602530596113 0 0.034326199545529033 0.0088104022817901157 0 0.034326199545529033 0.0088104022817901157 0 0.034371604069090636 0.0085223300024329322 0 0.034452265763513922 0.0085016092788960124 0 0.034368823027889545 0.0091685096609627342 0 0.034326199545529033 0.0088104022817901157 0 0.034375335632222344 0.0089328025204424011 0 0.034375335632222344 0.0089328025204424011 0 0.034328503184017291 0.0085599082733952836 0 0.034371604069090636 0.0085223300024329322 0 0.034354751463955474 0.0082041669438176149 0 0.034215755922039216 0.0083868489867185095 0 0.034328503184017291 0.0085599082733952836 0 0.034354751463955474 0.0082041669438176149 0 0.034328503184017291 0.0085599082733952836 0 0.034371604069090636 0.0085223300024329322 0 0.034371604069090636 0.0085223300024329322 0 0.034475440275039647 0.0082817209306652855 0 0.034452265763513922 0.0085016092788960124 0 0.034354751463955474 0.0082041669438176149 0 0.034371604069090636 0.0085223300024329322 0 0.034475440275039647 0.0082817209306652855 0 0.034475440275039647 0.0082817209306652855 0 0.034617205061467211 0.0082793932782764361 0 0.034452265763513922 0.0085016092788960124 0 0.034617205061467211 0.0082793932782764361 0 0.034452265763513922 0.0085016092788960124 0 0.034574253582479578 0.0085160777592705635 0 0.034452265763513922 0.0085016092788960124 0 0.034574253582479578 0.0085160777592705635 0 0.034440009073659787 0.0086370334925636519 0 0.03500185916675376 0.0085636898157068347 0 0.034574253582479578 0.0085160777592705635 0 0.034406823730642355 0.0086468780401030287 0 0.035034973081701365 0.0096672066402788605 0 0.03502349157296214 0.010133162307279732 0 0.03500185916675376 0.0085636898157068347 0 0.034617205061467211 0.0082793932782764361 0 0.034574253582479578 0.0085160777592705635 0 0.03500185916675376 0.0085636898157068347 0 0.034999608883842286 0.0096164336253656349 0 0.035348552658620545 0.010234914550165073 0 0.034574253582479578 0.0085160777592705635 0 0.034406823730642355 0.0086468780401030287 0 0.034447917005418681 0.0086882882210353764 0 0.035000234071256707 0.011686268997221192 0 0.034999608883842286 0.0096164336253656349 0 0.035348552658620545 0.010234914550165073 0 0.034391372287553276 0.0088316220896620373 0 0.034406823730642355 0.0086468780401030287 0 0.034447917005418681 0.0086882882210353764 0 0.034391372287553276 0.0088316220896620373 0 0.034371692394197975 0.0088226728720259048 0 0.034447917005418681 0.0086882882210353764 0 0.034326199545529033 0.0088104022817901157 0 0.034371692394197975 0.0088226728720259048 0 0.034440009073659787 0.0086370334925636519 0 0.034326199545529033 0.0088104022817901157 0 0.034452265763513922 0.0085016092788960124 0 0.034440009073659787 0.0086370334925636519 0 0.034574253582479578 0.0085160777592705635 0 0.034440009073659787 0.0086370334925636519 0 0.034447917005418681 0.0086882882210353764 0 0.034371692394197975 0.0088226728720259048 0 0.034440009073659787 0.0086370334925636519 0 0.034447917005418681 0.0086882882210353764 0 0.036038299694394683 0.025471423282381937 0 0.037017456264462852 0.024576040052096539 0 0.035972095417964166 0.023800711602951247 0 0.036038299694394683 0.025471423282381937 0 0.034999627252080952 0.025096055103647 0 0.035972095417964166 0.023800711602951247 0 0.034999627252080952 0.025096055103647 0 0.035940882846418984 0.026751946241188131 0 0.034999869450163798 0.027158304906194381 0 0.036038299694394683 0.025471423282381937 0 0.034999627252080952 0.025096055103647 0 0.035940882846418984 0.026751946241188131 0 0.036038299694394683 0.025471423282381937 0 0.03656318865065282 0.026832108881579546 0 0.035940882846418984 0.026751946241188131 0 0.03656318865065282 0.026832108881579546 0 0.036034917064723199 0.027696420623206756 0 0.035959646610065475 0.027248145201161048 0 0.036038299694394683 0.025471423282381937 0 0.03656318865065282 0.026832108881579546 0 0.037017456264462852 0.024576040052096539 0 0.03656318865065282 0.026832108881579546 0 0.036034917064723199 0.027696420623206756 0 0.036526168400450573 0.027610062222900324 0 0.036514927835275345 0.026048517128368295 0 0.036438349682245109 0.025707883296967399 0 0.036526168400450573 0.027610062222900324 0 0.036230549174478266 0.027891013347504906 0 0.036399795484869414 0.027976499321238104 0 0.036034917064723199 0.027696420623206756 0 0.036526168400450573 0.027610062222900324 0 0.036230549174478266 0.027891013347504906 0 0.036438349682245109 0.025707883296967399 0 0.036132595595447951 0.024786547128044904 0 0.036034917064723199 0.027696420623206756 0 0.036230549174478266 0.027891013347504906 0 0.035965540812613397 0.028024680233764747 0 0.036034917064723199 0.027696420623206756 0 0.035965540812613397 0.028024680233764747 0 0.035704507404247368 0.027929550718232402 0 0.035370260740024376 0.022695435444359324 0 0.033649121614911445 0.022075175726526002 0 0.036230549174478266 0.027891013347504906 0 0.035965540812613397 0.028024680233764747 0 0.036131983557525477 0.028126781188663415 0 0.035965540812613397 0.028024680233764747 0 0.036131983557525477 0.028126781188663415 0 0.035744047879734141 0.028005955856616169 0 0.036230549174478266 0.027891013347504906 0 0.036399795484869414 0.027976499321238104 0 0.036131983557525477 0.028126781188663415 0 0.036861266416472534 0.022685190836095749 0 0.035972095417964166 0.023800711602951247 0 0.035771022483585574 0.022007486859131852 0 0.037017456264462852 0.024576040052096539 0 0.036861266416472534 0.022685190836095749 0 0.035972095417964166 0.023800711602951247 0 0.034999627252080952 0.025096055103647 0 0.035972095417964166 0.023800711602951247 0 0.034999875077129664 0.023032973111534738 0 0.034999875077129664 0.023032973111534738 0 0.035771022483585574 0.022007486859131852 0 0.034999848911804764 0.020969974655153711 0 0.035972095417964166 0.023800711602951247 0 0.034999875077129664 0.023032973111534738 0 0.035771022483585574 0.022007486859131852 0 0.035771022483585574 0.022007486859131852 0 0.035728488278539181 0.021113506465119492 0 0.034999848911804764 0.020969974655153711 0 0.035771022483585574 0.022007486859131852 0 0.035728488278539181 0.021113506465119492 0 0.036563819729774537 0.020955250955218871 0 0.035728488278539181 0.021113506465119492 0 0.034999848911804764 0.020969974655153711 0 0.035289754625085455 0.020235608430918563 0 0.036132595595447951 0.024786547128044904 0 0.035299921506887127 0.022399233170756545 0 0.036861266416472534 0.022685190836095749 0 0.035771022483585574 0.022007486859131852 0 0.036563819729774537 0.020955250955218871 0 0.036662922728544073 0.020752071027114207 0 0.036397050094039665 0.019557548962230928 0 0.035289754625085455 0.020235608430918563 0 0.03637302883174192 0.018566046568345342 0 0.036124467812467684 0.018994545256560059 0 0.035825269721019896 0.018534808853552808 0 0.03637302883174192 0.018566046568345342 0 0.036124467812467684 0.018994545256560059 0 0.036397050094039665 0.019557548962230928 0 0.035299921506887127 0.022399233170756545 0 0.035277372041749716 0.021628921163233953 0 0.036124467812467684 0.018994545256560059 0 0.036397050094039665 0.019557548962230928 0 0.036431440592705408 0.019438092608395959 0 0.036397050094039665 0.019557548962230928 0 0.035289754625085455 0.020235608430918563 0 0.035000153401286691 0.018907232408313691 0 0.034999848911804764 0.020969974655153711 0 0.035289754625085455 0.020235608430918563 0 0.035000153401286691 0.018907232408313691 0 0.035728488278539181 0.021113506465119492 0 0.036563819729774537 0.020955250955218871 0 0.035289754625085455 0.020235608430918563 0 0.035299921506887127 0.022399233170756545 0 0.035207886381575952 0.022019777315234253 0 0.036397050094039665 0.019557548962230928 0 0.035000153401286691 0.018907232408313691 0 0.036431440592705408 0.019438092608395959 0 0.034998812351884317 0.018904509530413251 0 0.034955202730711891 0.0180717788430299 0 0.034971007064087817 0.01793565668429041 0 0.034998812351884317 0.018904509530413251 0 0.034892308399490979 0.018009382272352225 0 0.034955202730711891 0.0180717788430299 0 0.035000374170017556 0.018907203326293313 0 0.03539729501329375 0.01891278873203078 0 0.034892308399490979 0.018009382272352225 0 0.034938880707854267 0.017953421155585216 0 0.034955202730711891 0.0180717788430299 0 0.034892308399490979 0.018009382272352225 0 0.034938880707854267 0.017953421155585216 0 0.035166722620290011 0.01808318790352291 0 0.034994875511452209 0.01775155711289304 0 0.034938880707854267 0.017953421155585216 0 0.035166722620290011 0.01808318790352291 0 0.034994875511452209 0.01775155711289304 0 0.034955202730711891 0.0180717788430299 0 0.034942324707746414 0.017435219391868966 0 0.034994875511452209 0.01775155711289304 0 0.034938880707854267 0.017953421155585216 0 0.034955202730711891 0.0180717788430299 0 0.034881449084059567 0.016883067344358009 0 0.034942324707746414 0.017435219391868966 0 0.034966726078238114 0.016490625801929604 0 0.034994875511452209 0.01775155711289304 0 0.034942324707746414 0.017435219391868966 0 0.035124329572420551 0.017254238285387365 0 0.034942324707746414 0.017435219391868966 0 0.034966726078238114 0.016490625801929604 0 0.035124329572420551 0.017254238285387365 0 0.034998812351884317 0.018904509530413251 0 0.035000249045544947 0.017627328061175587 0 0.034971007064087817 0.01793565668429041 0 0.034881449084059567 0.016883067344358009 0 0.034942324707746414 0.017435219391868966 0 0.034971007064087817 0.01793565668429041 0 0.034881449084059567 0.016883067344358009 0 0.035000249045544947 0.017627328061175587 0 0.034971007064087817 0.01793565668429041 0 0.034955202730711891 0.0180717788430299 0 0.034942324707746414 0.017435219391868966 0 0.034971007064087817 0.01793565668429041 0 0.035681232443406624 0.017438899191426171 0 0.036578418708656149 0.016518153560322674 0 0.037156933253158608 0.017262825969286296 0 0.037448702091576844 0.015902544966085397 0 0.03609810922198925 0.015420356166940066 0 0.036578418708656149 0.016518153560322674 0 0.03609810922198925 0.015420356166940066 0 0.036578418708656149 0.016518153560322674 0 0.035866480063400381 0.016260150382125711 0 0.035681232443406624 0.017438899191426171 0 0.036578418708656149 0.016518153560322674 0 0.035866480063400381 0.016260150382125711 0 0.035681232443406624 0.017438899191426171 0 0.035866480063400381 0.016260150382125711 0 0.035352652409263247 0.016587468488726238 0 0.034966726078238114 0.016490625801929604 0 0.035352652409263247 0.016587468488726238 0 0.035124329572420551 0.017254238285387365 0 0.035681232443406624 0.017438899191426171 0 0.035352652409263247 0.016587468488726238 0 0.035124329572420551 0.017254238285387365 0 0.035681232443406624 0.017438899191426171 0 0.035258928198750976 0.017892122423877669 0 0.035484968977861818 0.018290844722951654 0 0.035681232443406624 0.017438899191426171 0 0.035124329572420551 0.017254238285387365 0 0.035258928198750976 0.017892122423877669 0 0.034994875511452209 0.01775155711289304 0 0.035258928198750976 0.017892122423877669 0 0.035166722620290011 0.01808318790352291 0 0.034994875511452209 0.01775155711289304 0 0.035124329572420551 0.017254238285387365 0 0.035258928198750976 0.017892122423877669 0 0.035258928198750976 0.017892122423877669 0 0.035166722620290011 0.01808318790352291 0 0.035484968977861818 0.018290844722951654 0 0.035166722620290011 0.01808318790352291 0 0.035484968977861818 0.018290844722951654 0 0.035593012652824017 0.018734307148646077 0 0.034180797229248147 0.01660497496408106 0 0.034105549764866468 0.016016389769593666 0 0.035681232443406624 0.017438899191426171 0 0.035750372774057598 0.018707943365762581 0 0.037156933253158608 0.017262825969286296 0 0.035681232443406624 0.017438899191426171 0 0.035484968977861818 0.018290844722951654 0 0.035750372774057598 0.018707943365762581 0 0.035750372774057598 0.018707943365762581 0 0.035401872066997277 0.018544714194730139 0 0.034718632878747414 0.01889498181280222 0 0.035484968977861818 0.018290844722951654 0 0.035750372774057598 0.018707943365762581 0 0.035593012652824017 0.018734307148646077 0 0.035750372774057598 0.018707943365762581 0 0.035401872066997277 0.018544714194730139 0 0.035593012652824017 0.018734307148646077 0 0.035401872066997277 0.018544714194730139 0 0.035593012652824017 0.018734307148646077 0 0.035539739010334234 0.018427848485099329 0 0.034892308399490979 0.018009382272352225 0 0.035166722620290011 0.01808318790352291 0 0.035593012652824017 0.018734307148646077 0 0.036124467812467684 0.018994545256560059 0 0.036431440592705408 0.019438092608395959 0 0.035593012652824017 0.018734307148646077 0 0.03539729501329375 0.01891278873203078 0 0.035585160079412682 0.018937177765106141 0 0.035593012652824017 0.018734307148646077 0 0.035825269721019896 0.018534808853552808 0 0.035539739010334234 0.018427848485099329 0 0.036124467812467684 0.018994545256560059 0 0.035593012652824017 0.018734307148646077 0 0.035825269721019896 0.018534808853552808 0 0.03637302883174192 0.018566046568345342 0 0.035825269721019896 0.018534808853552808 0 0.035599387349940816 0.017967455534264869 0 0.035299921506887127 0.022399233170756545 0 0.035370260740024376 0.022695435444359324 0 0.036399795484869414 0.027976499321238104 0 0.036406942318276674 0.028126792772862227 0 0.036131983557525477 0.028126781188663415 0 0.035825269721019896 0.018534808853552808 0 0.035539739010334234 0.018427848485099329 0 0.035599387349940816 0.017967455534264869 0 0.03527977340097372 0.018249396171136793 0 0.035599387349940816 0.017967455534264869 0 0.034930264181323008 0.017893625688770651 0 0.035401872066997277 0.018544714194730139 0 0.03527977340097372 0.018249396171136793 0 0.034797970422763745 0.018352570940373698 0 0.035401872066997277 0.018544714194730139 0 0.03527977340097372 0.018249396171136793 0 0.035539739010334234 0.018427848485099329 0 0.03527977340097372 0.018249396171136793 0 0.035539739010334234 0.018427848485099329 0 0.035599387349940816 0.017967455534264869 0 0.034930264181323008 0.017893625688770651 0 0.034797970422763745 0.018352570940373698 0 0.034199611859462915 0.017944221046634599 0 0.034797970422763745 0.018352570940373698 0 0.034199611859462915 0.017944221046634599 0 0.034058442598446939 0.018577068526242631 0 0.03527977340097372 0.018249396171136793 0 0.034930264181323008 0.017893625688770651 0 0.034797970422763745 0.018352570940373698 0 0.034199611859462915 0.017944221046634599 0 0.033324377238348683 0.018534925771813902 0 0.032676020352473495 0.016776192687013615 0 0.034199611859462915 0.017944221046634599 0 0.033324377238348683 0.018534925771813902 0 0.034058442598446939 0.018577068526242631 0 0.033324377238348683 0.018534925771813902 0 0.0335125976583854 0.018765298729587224 0 0.034058442598446939 0.018577068526242631 0 0.0335125976583854 0.018765298729587224 0 0.034058442598446939 0.018577068526242631 0 0.033918686701157261 0.018983845240345111 0 0.034058442598446939 0.018577068526242631 0 0.033918686701157261 0.018983845240345111 0 0.034718632878747414 0.01889498181280222 0 0.0335125976583854 0.018765298729587224 0 0.033918686701157261 0.018983845240345111 0 0.03337931790259864 0.019102893969535302 0 0.034797970422763745 0.018352570940373698 0 0.034058442598446939 0.018577068526242631 0 0.034718632878747414 0.01889498181280222 0 0.035401872066997277 0.018544714194730139 0 0.034797970422763745 0.018352570940373698 0 0.034718632878747414 0.01889498181280222 0 0.034718632878747414 0.01889498181280222 0 0.034057180171014043 0.019472207149811432 0 0.034930729425067295 0.019787611018962717 0 0.035750372774057598 0.018707943365762581 0 0.034718632878747414 0.01889498181280222 0 0.034930729425067295 0.019787611018962717 0 0.034057180171014043 0.019472207149811432 0 0.033317058840999773 0.01972928728642738 0 0.03337931790259864 0.019102893969535302 0 0.033918686701157261 0.018983845240345111 0 0.034718632878747414 0.01889498181280222 0 0.034057180171014043 0.019472207149811432 0 0.033918686701157261 0.018983845240345111 0 0.034057180171014043 0.019472207149811432 0 0.03337931790259864 0.019102893969535302 0 0.034291331159361359 0.020503746602468363 0 0.034222680800921459 0.020138496104029128 0 0.033317058840999773 0.01972928728642738 0 0.034057180171014043 0.019472207149811432 0 0.034222680800921459 0.020138496104029128 0 0.033317058840999773 0.01972928728642738 0 0.03395114785018475 0.013657163046279706 0 0.031391575212750773 0.01545384612516397 0 0.02936027933837812 0.011194950201550013 0 0.029345089675302825 0.011271643128707447 0 0.02945554276401911 0.011385548583000582 0 0.037448702091576844 0.015902544966085397 0 0.038438203440022252 0.015598015453705733 0 0.037156933253158608 0.017262825969286296 0 0.034291331159361359 0.020503746602468363 0 0.034222680800921459 0.020138496104029128 0 0.034930729425067295 0.019787611018962717 0 0.03395114785018475 0.013657163046279706 0 0.034105549764866468 0.016016389769593666 0 0.034057180171014043 0.019472207149811432 0 0.034222680800921459 0.020138496104029128 0 0.034930729425067295 0.019787611018962717 0 0.037448702091576844 0.015902544966085397 0 0.036578418708656149 0.016518153560322674 0 0.037156933253158608 0.017262825969286296 0 0.029517886200145893 0.011478112664593875 0 0.029373244320204481 0.011283017215536966 0 0.02945554276401911 0.011385548583000582 0 0.029517886200145893 0.011478112664593875 0 0.029411470411956683 0.011327373363119642 0 0.029397596403938017 0.011530306550470139 0 0.029517886200145893 0.011478112664593875 0 0.029411470411956683 0.011327373363119642 0 0.029373244320204481 0.011283017215536966 0 0.02936027933837812 0.011194950201550013 0 0.029373244320204481 0.011283017215536966 0 0.02945554276401911 0.011385548583000582 0 0.033317058840999773 0.01972928728642738 0 0.03337931790259864 0.019102893969535302 0 0.032542057467953515 0.019081918109646129 0 0.029517886200145893 0.011478112664593875 0 0.029892752571453868 0.010900424027479597 0 0.028889134304537267 0.011952525282636529 0 0.031391575212750773 0.01545384612516397 0 0.029003534112236409 0.0171663632042061 0 0.029517886200145893 0.011478112664593875 0 0.02945554276401911 0.011385548583000582 0 0.029892752571453868 0.010900424027479597 0 0.028967335926500994 0.022714980959168626 0 0.031204187595026304 0.020830982186902297 0 0.028874033285284338 0.019821105089889178 0 0.029003534112236409 0.0171663632042061 0 0.030131308474986598 0.01764752680760474 0 0.03337931790259864 0.019102893969535302 0 0.032542057467953515 0.019081918109646129 0 0.033093737919065495 0.018709829488823205 0 0.0335125976583854 0.018765298729587224 0 0.03337931790259864 0.019102893969535302 0 0.033093737919065495 0.018709829488823205 0 0.033324377238348683 0.018534925771813902 0 0.0335125976583854 0.018765298729587224 0 0.033093737919065495 0.018709829488823205 0 0.033324377238348683 0.018534925771813902 0 0.031025768144992836 0.018477830292217768 0 0.032676020352473495 0.016776192687013615 0 0.030683603439457231 0.017613629707128001 0 0.030131308474986598 0.01764752680760474 0 0.033324377238348683 0.018534925771813902 0 0.031204187595026304 0.020830982186902297 0 0.031025768144992836 0.018477830292217768 0 0.031025768144992836 0.018477830292217768 0 0.028874033285284338 0.019821105089889178 0 0.028862909763913775 0.017000757049740637 0 0.031204187595026304 0.020830982186902297 0 0.031025768144992836 0.018477830292217768 0 0.028874033285284338 0.019821105089889178 0 0.026920819239511277 0.018312195962348028 0 0.027732775852908269 0.017366718104910209 0 0.029044391806240289 0.018269264575212111 0 0.026920819239511277 0.018312195962348028 0 0.027732775852908269 0.017366718104910209 0 0.025897878372302958 0.016933870740674914 0 0.027732775852908269 0.017366718104910209 0 0.027380625825729966 0.016275390731463155 0 0.025897878372302958 0.016933870740674914 0 0.027732775852908269 0.017366718104910209 0 0.027380625825729966 0.016275390731463155 0 0.029295385656170299 0.017053771165056519 0 0.030855995150942162 0.022400717008388919 0 0.032223688425636901 0.022306890462609381 0 0.034257721146845291 0.027999288714188306 0 0.034908459335444661 0.028137190701839624 0 0.034982259085343831 0.027829075707127528 0 0.028637933174802871 0.019242380314117288 0 0.031021228939952888 0.020052357937468932 0 0.027732775852908269 0.017366718104910209 0 0.029295385656170299 0.017053771165056519 0 0.029044391806240289 0.018269264575212111 0 0.031025768144992836 0.018477830292217768 0 0.028862909763913775 0.017000757049740637 0 0.032676020352473495 0.016776192687013615 0 0.031021228939952888 0.020052357937468932 0 0.033649121614911445 0.022075175726526002 0 0.034199611859462915 0.017944221046634599 0 0.032676020352473495 0.016776192687013615 0 0.034597701173403002 0.017043315187279019 0 0.029295385656170299 0.017053771165056519 0 0.029044391806240289 0.018269264575212111 0 0.031405845683733336 0.018063662432401231 0 0.032223688425636901 0.022306890462609381 0 0.033649121614911445 0.022075175726526002 0 0.034158544898914865 0.022615047991449588 0 0.033649121614911445 0.022075175726526002 0 0.035599387349940816 0.017967455534264869 0 0.034930264181323008 0.017893625688770651 0 0.034597701173403002 0.017043315187279019 0 0.035965540812613397 0.028024680233764747 0 0.035535787714152473 0.028228721621630228 0 0.035704507404247368 0.027929550718232402 0 0.034930264181323008 0.017893625688770651 0 0.034199611859462915 0.017944221046634599 0 0.034597701173403002 0.017043315187279019 0 0.036034917064723199 0.027696420623206756 0 0.035704507404247368 0.027929550718232402 0 0.035539243845101029 0.027737755520930246 0 0.035535787714152473 0.028228721621630228 0 0.035704507404247368 0.027929550718232402 0 0.035356895509558138 0.027979239648044073 0 0.035704507404247368 0.027929550718232402 0 0.035356895509558138 0.027979239648044073 0 0.035539243845101029 0.027737755520930246 0 0.034908459335444661 0.028137190701839624 0 0.035535787714152473 0.028228721621630228 0 0.035356895509558138 0.027979239648044073 0 0.034908459335444661 0.028137190701839624 0 0.035356895509558138 0.027979239648044073 0 0.034982259085343831 0.027829075707127528 0 0.035356895509558138 0.027979239648044073 0 0.034982259085343831 0.027829075707127528 0 0.035539243845101029 0.027737755520930246 0 0.034982259085343831 0.027829075707127528 0 0.035539243845101029 0.027737755520930246 0 0.035161190935011202 0.027459696719587659 0 0.034982259085343831 0.027829075707127528 0 0.035161190935011202 0.027459696719587659 0 0.034680889423313065 0.027648255825679629 0 0.036034917064723199 0.027696420623206756 0 0.035539243845101029 0.027737755520930246 0 0.035959646610065475 0.027248145201161048 0 0.035539243845101029 0.027737755520930246 0 0.035959646610065475 0.027248145201161048 0 0.035161190935011202 0.027459696719587659 0 0.035959646610065475 0.027248145201161048 0 0.035161190935011202 0.027459696719587659 0 0.034961786681495167 0.026950345389205814 0 0.035161190935011202 0.027459696719587659 0 0.034479972150996539 0.027310476286424044 0 0.034961786681495167 0.026950345389205814 0 0.034479972150996539 0.027310476286424044 0 0.034163767472488414 0.027643395557448335 0 0.034680889423313065 0.027648255825679629 0 0.035161190935011202 0.027459696719587659 0 0.034479972150996539 0.027310476286424044 0 0.034680889423313065 0.027648255825679629 0 0.034479972150996539 0.027310476286424044 0 0.034163767472488414 0.027643395557448335 0 0.033835918343563226 0.027423605080097061 0 0.034257721146845291 0.027999288714188306 0 0.034163767472488414 0.027643395557448335 0 0.034680889423313065 0.027648255825679629 0 0.034257721146845291 0.027999288714188306 0 0.034163767472488414 0.027643395557448335 0 0.033685763700090618 0.02785890139047725 0 0.034257721146845291 0.027999288714188306 0 0.034982259085343831 0.027829075707127528 0 0.034680889423313065 0.027648255825679629 0 0.029694120760812542 0.022707752690218967 0 0.029176862845791865 0.023775206345710117 0 0.024955215143952252 0.015829866998135357 0 0.025770485778393151 0.015659997019499366 0 0.024401296296827336 0.014993557000802125 0 0.024955215143952252 0.015829866998135357 0 0.024481109218611512 0.015752175640955671 0 0.024401296296827336 0.014993557000802125 0 0.024955215143952252 0.015829866998135357 0 0.024481109218611512 0.015752175640955671 0 0.024495446300641734 0.016369963956459632 0 0.024955215143952252 0.015829866998135357 0 0.025770485778393151 0.015659997019499366 0 0.025897878372302958 0.016933870740674914 0 0.030855995150942162 0.022400717008388919 0 0.029694120760812542 0.022707752690218967 0 0.034163767472488414 0.027643395557448335 0 0.033685763700090618 0.02785890139047725 0 0.033835918343563226 0.027423605080097061 0 0.033685763700090618 0.02785890139047725 0 0.033835918343563226 0.027423605080097061 0 0.033512172871159825 0.027700821192521433 0 0.033835918343563226 0.027423605080097061 0 0.033481827934723464 0.027526047047587422 0 0.033512172871159825 0.027700821192521433 0 0.033685763700090618 0.02785890139047725 0 0.033512172871159825 0.027700821192521433 0 0.033169799084681817 0.027787734214206949 0 0.033481827934723464 0.027526047047587422 0 0.033512172871159825 0.027700821192521433 0 0.033279016293142262 0.027636904650553091 0 0.033512172871159825 0.027700821192521433 0 0.033279016293142262 0.027636904650553091 0 0.033169799084681817 0.027787734214206949 0 0.033279016293142262 0.027636904650553091 0 0.033169799084681817 0.027787734214206949 0 0.033176415063091123 0.027708701108385494 0 0.033481827934723464 0.027526047047587422 0 0.033279016293142262 0.027636904650553091 0 0.033284067339448636 0.027503569805800661 0 0.033284067339448636 0.027503569805800661 0 0.033178058158509487 0.027560226439865301 0 0.033143615558613976 0.027481446387170934 0 0.033279016293142262 0.027636904650553091 0 0.033284067339448636 0.027503569805800661 0 0.033178058158509487 0.027560226439865301 0 0.023874277708524145 0.015034220472968146 0 0.024401296296827336 0.014993557000802125 0 0.023200887510156129 0.014735330474961165 0 0.033178058158509487 0.027560226439865301 0 0.03313459483213764 0.027636024607120568 0 0.033043099494491461 0.02754522094445613 0 0.033178058158509487 0.027560226439865301 0 0.033043099494491461 0.02754522094445613 0 0.033143615558613976 0.027481446387170934 0 0.029176862845791865 0.023775206345710117 0 0.026289366607252989 0.023820563355860802 0 0.032980025826147376 0.027679506162512114 0 0.033169799084681817 0.027787734214206949 0 0.032410182103772521 0.027570001629217526 0 0.032980025826147376 0.027679506162512114 0 0.032876178836675471 0.027635154084345134 0 0.032410182103772521 0.027570001629217526 0 0.029176862845791865 0.023775206345710117 0 0.03144344250311782 0.02534104956614543 0 0.024401296296827336 0.014993557000802125 0 0.022447785833100441 0.014166531992533421 0 0.023200887510156129 0.014735330474961165 0 0.033279016293142262 0.027636904650553091 0 0.03313459483213764 0.027636024607120568 0 0.033176415063091123 0.027708701108385494 0 0.033279016293142262 0.027636904650553091 0 0.033178058158509487 0.027560226439865301 0 0.03313459483213764 0.027636024607120568 0 0.03313459483213764 0.027636024607120568 0 0.033176415063091123 0.027708701108385494 0 0.03309122292763423 0.027686728038972937 0 0.03313459483213764 0.027636024607120568 0 0.033012685971744282 0.027623404531143616 0 0.03309122292763423 0.027686728038972937 0 0.03313459483213764 0.027636024607120568 0 0.033012685971744282 0.027623404531143616 0 0.033043099494491461 0.02754522094445613 0 0.032980025826147376 0.027679506162512114 0 0.033012685971744282 0.027623404531143616 0 0.03309122292763423 0.027686728038972937 0 0.033012685971744282 0.027623404531143616 0 0.033043099494491461 0.02754522094445613 0 0.032916213656240458 0.027580523051887587 0 0.032916213656240458 0.027580523051887587 0 0.032755254621759114 0.027581427111722585 0 0.032886961083976762 0.027519422693526415 0 0.033043099494491461 0.02754522094445613 0 0.032916213656240458 0.027580523051887587 0 0.032886961083976762 0.027519422693526415 0 0.032916213656240458 0.027580523051887587 0 0.032755254621759114 0.027581427111722585 0 0.032876178836675471 0.027635154084345134 0 0.032755254621759114 0.027581427111722585 0 0.032723518338326887 0.027510524922167007 0 0.032886961083976762 0.027519422693526415 0 0.033012685971744282 0.027623404531143616 0 0.032916213656240458 0.027580523051887587 0 0.032876178836675471 0.027635154084345134 0 0.032980025826147376 0.027679506162512114 0 0.033012685971744282 0.027623404531143616 0 0.032876178836675471 0.027635154084345134 0 0.023568203261429603 0.014997382188607631 0 0.023874277708524145 0.015034220472968146 0 0.023200887510156129 0.014735330474961165 0 0.02340636550781142 0.014963159864342622 0 0.023568203261429603 0.014997382188607631 0 0.023200887510156129 0.014735330474961165 0 0.02340636550781142 0.014963159864342622 0 0.023205822002033569 0.015068171613486869 0 0.023509613400936942 0.015216534395382134 0 0.023568203261429603 0.014997382188607631 0 0.023798010862059269 0.015193463084931288 0 0.023509613400936942 0.015216534395382134 0 0.02340636550781142 0.014963159864342622 0 0.023568203261429603 0.014997382188607631 0 0.023509613400936942 0.015216534395382134 0 0.023568203261429603 0.014997382188607631 0 0.023874277708524145 0.015034220472968146 0 0.023798010862059269 0.015193463084931288 0 0.023874277708524145 0.015034220472968146 0 0.024058419079676322 0.015143650258795494 0 0.023798010862059269 0.015193463084931288 0 0.023874277708524145 0.015034220472968146 0 0.024058419079676322 0.015143650258795494 0 0.024401296296827336 0.014993557000802125 0 0.024058419079676322 0.015143650258795494 0 0.024401296296827336 0.014993557000802125 0 0.024131974193377807 0.015276684734316126 0 0.033169799084681817 0.027787734214206949 0 0.033176415063091123 0.027708701108385494 0 0.03309122292763423 0.027686728038972937 0 0.032980025826147376 0.027679506162512114 0 0.033169799084681817 0.027787734214206949 0 0.03309122292763423 0.027686728038972937 0 0.030747623934734812 0.026437959253657304 0 0.032410182103772521 0.027570001629217526 0 0.032528982158714116 0.027410278883659545 0 0.022447785833100441 0.014166531992533421 0 0.022288542581733004 0.014502807394688778 0 0.021917906263839746 0.014458918239754388 0 0.032451002194775994 0.027487468776639788 0 0.032528982158714116 0.027410278883659545 0 0.032397681837142187 0.027438073798553307 0 0.032451002194775994 0.027487468776639788 0 0.032410182103772521 0.027570001629217526 0 0.032528982158714116 0.027410278883659545 0 0.022447785833100441 0.014166531992533421 0 0.022714290630076531 0.014496932437661397 0 0.022520043617730481 0.014527146114978254 0 0.022447785833100441 0.014166531992533421 0 0.022520043617730481 0.014527146114978254 0 0.022288542581733004 0.014502807394688778 0 0.032755254621759114 0.027581427111722585 0 0.032876178836675471 0.027635154084345134 0 0.032410182103772521 0.027570001629217526 0 0.032755254621759114 0.027581427111722585 0 0.032410182103772521 0.027570001629217526 0 0.03261786679109515 0.027528444458682667 0 0.032755254621759114 0.027581427111722585 0 0.032723518338326887 0.027510524922167007 0 0.03261786679109515 0.027528444458682667 0 0.022447785833100441 0.014166531992533421 0 0.023200887510156129 0.014735330474961165 0 0.022714290630076531 0.014496932437661397 0 0.023200887510156129 0.014735330474961165 0 0.023205822002033569 0.015068171613486869 0 0.022940090715488099 0.014936246394099953 0 0.02340636550781142 0.014963159864342622 0 0.023200887510156129 0.014735330474961165 0 0.023205822002033569 0.015068171613486869 0 0.022940090715488099 0.014936246394099953 0 0.022741065635024652 0.014744671419245797 0 0.022615645124950689 0.015050517201187424 0 0.023200887510156129 0.014735330474961165 0 0.022940090715488099 0.014936246394099953 0 0.022741065635024652 0.014744671419245797 0 0.023200887510156129 0.014735330474961165 0 0.022741065635024652 0.014744671419245797 0 0.022714290630076531 0.014496932437661397 0 0.022741065635024652 0.014744671419245797 0 0.022714290630076531 0.014496932437661397 0 0.022520043617730481 0.014527146114978254 0 0.022520043617730481 0.014527146114978254 0 0.022428579785364826 0.014726460915903669 0 0.022288542581733004 0.014502807394688778 0 0.022741065635024652 0.014744671419245797 0 0.022520043617730481 0.014527146114978254 0 0.022428579785364826 0.014726460915903669 0 0.022741065635024652 0.014744671419245797 0 0.022428579785364826 0.014726460915903669 0 0.022615645124950689 0.015050517201187424 0 0.022428579785364826 0.014726460915903669 0 0.022615645124950689 0.015050517201187424 0 0.022121751068612149 0.015088865001004651 0 0.022428579785364826 0.014726460915903669 0 0.022096061714189652 0.014716432845983448 0 0.022121751068612149 0.015088865001004651 0 0.022096061714189652 0.014716432845983448 0 0.022288542581733004 0.014502807394688778 0 0.021917906263839746 0.014458918239754388 0 0.022428579785364826 0.014726460915903669 0 0.022096061714189652 0.014716432845983448 0 0.022288542581733004 0.014502807394688778 0 0.022121751068612149 0.015088865001004651 0 0.022478122105838615 0.015408030187765261 0 0.022021448840269523 0.015730149983566154 0 0.022478122105838615 0.015408030187765261 0 0.022675695107029929 0.015842138849136839 0 0.022021448840269523 0.015730149983566154 0 0.022615645124950689 0.015050517201187424 0 0.022121751068612149 0.015088865001004651 0 0.022478122105838615 0.015408030187765261 0 0.022615645124950689 0.015050517201187424 0 0.022478122105838615 0.015408030187765261 0 0.0228869567851121 0.015301005688947371 0 0.022478122105838615 0.015408030187765261 0 0.0228869567851121 0.015301005688947371 0 0.022675695107029929 0.015842138849136839 0 0.0228869567851121 0.015301005688947371 0 0.023170452761574083 0.015796426435927859 0 0.022675695107029929 0.015842138849136839 0 0.023205822002033569 0.015068171613486869 0 0.022940090715488099 0.014936246394099953 0 0.0228869567851121 0.015301005688947371 0 0.022940090715488099 0.014936246394099953 0 0.022615645124950689 0.015050517201187424 0 0.0228869567851121 0.015301005688947371 0 0.023205822002033569 0.015068171613486869 0 0.0228869567851121 0.015301005688947371 0 0.023254116410694387 0.015359280528369388 0 0.023205822002033569 0.015068171613486869 0 0.023254116410694387 0.015359280528369388 0 0.023509613400936942 0.015216534395382134 0 0.023254116410694387 0.015359280528369388 0 0.023170452761574083 0.015796426435927859 0 0.02354752869412859 0.015551405337909305 0 0.0228869567851121 0.015301005688947371 0 0.023254116410694387 0.015359280528369388 0 0.023170452761574083 0.015796426435927859 0 0.023170452761574083 0.015796426435927859 0 0.023417575064584438 0.016218080494729149 0 0.023019532928235727 0.016396793648333168 0 0.023170452761574083 0.015796426435927859 0 0.022675695107029929 0.015842138849136839 0 0.023019532928235727 0.016396793648333168 0 0.022675695107029929 0.015842138849136839 0 0.022426180766924354 0.016240768594766079 0 0.022021448840269523 0.015730149983566154 0 0.022675695107029929 0.015842138849136839 0 0.022426180766924354 0.016240768594766079 0 0.023019532928235727 0.016396793648333168 0 0.024481109218611512 0.015752175640955671 0 0.024401296296827336 0.014993557000802125 0 0.024230300522478265 0.0154625009303635 0 0.023916685631032414 0.015637193383458328 0 0.024230300522478265 0.0154625009303635 0 0.02398381039496528 0.015373166533347615 0 0.024171122542365631 0.015713562157635638 0 0.023916685631032414 0.015637193383458328 0 0.024230300522478265 0.0154625009303635 0 0.024481109218611512 0.015752175640955671 0 0.024171122542365631 0.015713562157635638 0 0.024230300522478265 0.0154625009303635 0 0.024401296296827336 0.014993557000802125 0 0.024230300522478265 0.0154625009303635 0 0.024131974193377807 0.015276684734316126 0 0.024230300522478265 0.0154625009303635 0 0.024131974193377807 0.015276684734316126 0 0.02398381039496528 0.015373166533347615 0 0.024058419079676322 0.015143650258795494 0 0.024131974193377807 0.015276684734316126 0 0.02398381039496528 0.015373166533347615 0 0.024058419079676322 0.015143650258795494 0 0.02398381039496528 0.015373166533347615 0 0.023798010862059269 0.015193463084931288 0 0.023798010862059269 0.015193463084931288 0 0.023760506302482012 0.015381906389735453 0 0.023509613400936942 0.015216534395382134 0 0.02398381039496528 0.015373166533347615 0 0.023798010862059269 0.015193463084931288 0 0.023760506302482012 0.015381906389735453 0 0.023254116410694387 0.015359280528369388 0 0.023509613400936942 0.015216534395382134 0 0.02354752869412859 0.015551405337909305 0 0.023760506302482012 0.015381906389735453 0 0.023509613400936942 0.015216534395382134 0 0.02354752869412859 0.015551405337909305 0 0.023916685631032414 0.015637193383458328 0 0.023760506302482012 0.015381906389735453 0 0.02354752869412859 0.015551405337909305 0 0.023916685631032414 0.015637193383458328 0 0.02354752869412859 0.015551405337909305 0 0.023658234475869951 0.015910562899606365 0 0.023916685631032414 0.015637193383458328 0 0.02398381039496528 0.015373166533347615 0 0.023760506302482012 0.015381906389735453 0 0.023916685631032414 0.015637193383458328 0 0.023658234475869951 0.015910562899606365 0 0.0241012440736358 0.016011395880721334 0 0.023170452761574083 0.015796426435927859 0 0.023658234475869951 0.015910562899606365 0 0.023417575064584438 0.016218080494729149 0 0.023170452761574083 0.015796426435927859 0 0.02354752869412859 0.015551405337909305 0 0.023658234475869951 0.015910562899606365 0 0.023658234475869951 0.015910562899606365 0 0.023417575064584438 0.016218080494729149 0 0.0237816314922689 0.016244135960555215 0 0.023658234475869951 0.015910562899606365 0 0.0237816314922689 0.016244135960555215 0 0.0241012440736358 0.016011395880721334 0 0.0237816314922689 0.016244135960555215 0 0.0241012440736358 0.016011395880721334 0 0.024029229962098296 0.016539202068446814 0 0.024481109218611512 0.015752175640955671 0 0.0241012440736358 0.016011395880721334 0 0.024495446300641734 0.016369963956459632 0 0.024171122542365631 0.015713562157635638 0 0.023916685631032414 0.015637193383458328 0 0.0241012440736358 0.016011395880721334 0 0.024481109218611512 0.015752175640955671 0 0.024171122542365631 0.015713562157635638 0 0.0241012440736358 0.016011395880721334 0 0.024029229962098296 0.016539202068446814 0 0.02436001759177716 0.0170374591715147 0 0.024495446300641734 0.016369963956459632 0 0.0241012440736358 0.016011395880721334 0 0.024029229962098296 0.016539202068446814 0 0.024495446300641734 0.016369963956459632 0 0.0237816314922689 0.016244135960555215 0 0.024029229962098296 0.016539202068446814 0 0.023543587749414695 0.016638934440428195 0 0.023417575064584438 0.016218080494729149 0 0.0237816314922689 0.016244135960555215 0 0.023543587749414695 0.016638934440428195 0 0.024029229962098296 0.016539202068446814 0 0.023543587749414695 0.016638934440428195 0 0.02378437727661898 0.017102518097783938 0 0.023543587749414695 0.016638934440428195 0 0.02378437727661898 0.017102518097783938 0 0.023228687770042934 0.01700801534933782 0 0.02378437727661898 0.017102518097783938 0 0.023228687770042934 0.01700801534933782 0 0.023477026200230261 0.017663614027326816 0 0.024029229962098296 0.016539202068446814 0 0.02378437727661898 0.017102518097783938 0 0.02436001759177716 0.0170374591715147 0 0.02378437727661898 0.017102518097783938 0 0.02436001759177716 0.0170374591715147 0 0.024070384824898466 0.017528468093863839 0 0.022426180766924354 0.016240768594766079 0 0.022631184406617391 0.01680393304121993 0 0.021736488942624137 0.016481233391212869 0 0.022426180766924354 0.016240768594766079 0 0.022631184406617391 0.01680393304121993 0 0.023019532928235727 0.016396793648333168 0 0.023543587749414695 0.016638934440428195 0 0.023019532928235727 0.016396793648333168 0 0.023228687770042934 0.01700801534933782 0 0.022631184406617391 0.01680393304121993 0 0.023019532928235727 0.016396793648333168 0 0.023228687770042934 0.01700801534933782 0 0.023417575064584438 0.016218080494729149 0 0.023543587749414695 0.016638934440428195 0 0.023019532928235727 0.016396793648333168 0 0.022631184406617391 0.01680393304121993 0 0.023228687770042934 0.01700801534933782 0 0.022852153805261507 0.01737564922363655 0 0.023228687770042934 0.01700801534933782 0 0.022852153805261507 0.01737564922363655 0 0.023477026200230261 0.017663614027326816 0 0.022631184406617391 0.01680393304121993 0 0.022852153805261507 0.01737564922363655 0 0.022094955408330917 0.017549914365682824 0 0.022877013652624574 0.017931305084076161 0 0.02246949852993143 0.018433627941790331 0 0.022094955408330917 0.017549914365682824 0 0.022852153805261507 0.01737564922363655 0 0.022877013652624574 0.017931305084076161 0 0.022094955408330917 0.017549914365682824 0 0.022877013652624574 0.017931305084076161 0 0.023418639152167405 0.018303808296825444 0 0.023477026200230261 0.017663614027326816 0 0.022852153805261507 0.01737564922363655 0 0.022877013652624574 0.017931305084076161 0 0.023477026200230261 0.017663614027326816 0 0.022877013652624574 0.017931305084076161 0 0.023418639152167405 0.018303808296825444 0 0.02246949852993143 0.018433627941790331 0 0.024070384824898466 0.017528468093863839 0 0.023477026200230261 0.017663614027326816 0 0.023939157498661767 0.01809054343781211 0 0.024070384824898466 0.017528468093863839 0 0.023939157498661767 0.01809054343781211 0 0.024610408941697817 0.017649547365693779 0 0.02378437727661898 0.017102518097783938 0 0.024070384824898466 0.017528468093863839 0 0.023477026200230261 0.017663614027326816 0 0.023418639152167405 0.018303808296825444 0 0.023939157498661767 0.01809054343781211 0 0.023935515394425514 0.018737830353990067 0 0.023418639152167405 0.018303808296825444 0 0.023477026200230261 0.017663614027326816 0 0.023939157498661767 0.01809054343781211 0 0.023939157498661767 0.01809054343781211 0 0.024288648292743961 0.018311674421548525 0 0.024610408941697817 0.017649547365693779 0 0.024288648292743961 0.018311674421548525 0 0.02502237822806665 0.018101320474277618 0 0.024610408941697817 0.017649547365693779 0 0.024610408941697817 0.017649547365693779 0 0.024940111112038411 0.016922421099119022 0 0.025433095920998957 0.017567281712890025 0 0.02502237822806665 0.018101320474277618 0 0.024610408941697817 0.017649547365693779 0 0.025433095920998957 0.017567281712890025 0 0.02436001759177716 0.0170374591715147 0 0.024070384824898466 0.017528468093863839 0 0.024610408941697817 0.017649547365693779 0 0.024955215143952252 0.015829866998135357 0 0.024940111112038411 0.016922421099119022 0 0.025897878372302958 0.016933870740674914 0 0.02436001759177716 0.0170374591715147 0 0.024610408941697817 0.017649547365693779 0 0.024940111112038411 0.016922421099119022 0 0.024955215143952252 0.015829866998135357 0 0.024940111112038411 0.016922421099119022 0 0.024495446300641734 0.016369963956459632 0 0.02436001759177716 0.0170374591715147 0 0.024940111112038411 0.016922421099119022 0 0.024495446300641734 0.016369963956459632 0 0.027380625825729966 0.016275390731463155 0 0.025770485778393151 0.015659997019499366 0 0.025897878372302958 0.016933870740674914 0 0.024940111112038411 0.016922421099119022 0 0.025897878372302958 0.016933870740674914 0 0.025433095920998957 0.017567281712890025 0 0.026920819239511277 0.018312195962348028 0 0.025897878372302958 0.016933870740674914 0 0.025433095920998957 0.017567281712890025 0 0.026920819239511277 0.018312195962348028 0 0.02502237822806665 0.018101320474277618 0 0.025433095920998957 0.017567281712890025 0 0.028637933174802871 0.019242380314117288 0 0.02736765621325243 0.019085711040719343 0 0.028862909763913775 0.017000757049740637 0 0.02502237822806665 0.018101320474277618 0 0.026644711356617556 0.018928928891758817 0 0.028874033285284338 0.019821105089889178 0 0.028862909763913775 0.017000757049740637 0 0.026644711356617556 0.018928928891758817 0 0.026644711356617556 0.018928928891758817 0 0.02421770273001481 0.019080891719809766 0 0.026615953230824076 0.020927095348195094 0 0.028874033285284338 0.019821105089889178 0 0.026644711356617556 0.018928928891758817 0 0.026615953230824076 0.020927095348195094 0 0.024288648292743961 0.018311674421548525 0 0.02421770273001481 0.019080891719809766 0 0.023935515394425514 0.018737830353990067 0 0.024288648292743961 0.018311674421548525 0 0.02502237822806665 0.018101320474277618 0 0.02421770273001481 0.019080891719809766 0 0.02502237822806665 0.018101320474277618 0 0.026644711356617556 0.018928928891758817 0 0.02421770273001481 0.019080891719809766 0 0.026551183551238439 0.017487087337780025 0 0.02720234991780298 0.017489266094923149 0 0.02421770273001481 0.019080891719809766 0 0.023929688410204972 0.018977827533280658 0 0.023597839122253036 0.018791865662227226 0 0.02421770273001481 0.019080891719809766 0 0.023929688410204972 0.018977827533280658 0 0.023935515394425514 0.018737830353990067 0 0.023929688410204972 0.018977827533280658 0 0.023597839122253036 0.018791865662227226 0 0.02381132729755198 0.018879314039924305 0 0.02421770273001481 0.019080891719809766 0 0.023597839122253036 0.018791865662227226 0 0.022896529674082809 0.018844400866319524 0 0.023597839122253036 0.018791865662227226 0 0.022896529674082809 0.018844400866319524 0 0.023077774233074728 0.018296056259877548 0 0.023597839122253036 0.018791865662227226 0 0.023077774233074728 0.018296056259877548 0 0.023672926097500834 0.018537600535027163 0 0.023597839122253036 0.018791865662227226 0 0.023672926097500834 0.018537600535027163 0 0.02381132729755198 0.018879314039924305 0 0.022257519886123282 0.018351090915717332 0 0.022896529674082809 0.018844400866319524 0 0.023077774233074728 0.018296056259877548 0 0.028967335926500994 0.022714980959168626 0 0.028874033285284338 0.019821105089889178 0 0.026615953230824076 0.020927095348195094 0 0.029003534112236409 0.0171663632042061 0 0.02720234991780298 0.017489266094923149 0 0.022257519886123282 0.018351090915717332 0 0.023077774233074728 0.018296056259877548 0 0.02274525011089417 0.017399553776622306 0 0.029003534112236409 0.0171663632042061 0 0.026675992953532294 0.016177627082958664 0 0.029892752571453868 0.010900424027479597 0 0.027684042297549706 0.012118238919077779 0 0.028889134304537267 0.011952525282636529 0 0.023077774233074728 0.018296056259877548 0 0.023328239985100883 0.017892069835853983 0 0.02274525011089417 0.017399553776622306 0 0.023077774233074728 0.018296056259877548 0 0.023328239985100883 0.017892069835853983 0 0.023672926097500834 0.018537600535027163 0 0.025923667487871269 0.015935224567787832 0 0.026675992953532294 0.016177627082958664 0 0.023328239985100883 0.017892069835853983 0 0.02274525011089417 0.017399553776622306 0 0.023879276846790736 0.017205610439638377 0 0.025581745516069856 0.014901406992508684 0 0.027684042297549706 0.012118238919077779 0 0.028889134304537267 0.011952525282636529 0 0.028818236869714572 0.011188851487828527 0 0.0289287892753936 0.011298155917648172 0 0.030071667379485023 0.010994392491692699 0 0.031006148449737914 0.010428114437140144 0 0.028889134304537267 0.011952525282636529 0 0.030071667379485023 0.010994392491692699 0 0.029397596403938017 0.011530306550470139 0 0.028889134304537267 0.011952525282636529 0 0.030071667379485023 0.010994392491692699 0 0.029411470411956683 0.011327373363119642 0 0.029397596403938017 0.011530306550470139 0 0.029517886200145893 0.011478112664593875 0 0.029397596403938017 0.011530306550470139 0 0.028889134304537267 0.011952525282636529 0 0.026076301778314742 0.015749759945148479 0 0.024960476330952937 0.016399251477168416 0 0.025445955742846457 0.017716100327285642 0 0.024960476330952937 0.016399251477168416 0 0.023879276846790736 0.017205610439638377 0 0.02459267757213986 0.017626499475695376 0 0.024960476330952937 0.016399251477168416 0 0.02459267757213986 0.017626499475695376 0 0.025445955742846457 0.017716100327285642 0 0.024208751609231433 0.014881736242555663 0 0.024960476330952937 0.016399251477168416 0 0.023879276846790736 0.017205610439638377 0 0.024208751609231433 0.014881736242555663 0 0.02274525011089417 0.017399553776622306 0 0.023879276846790736 0.017205610439638377 0 0.023879276846790736 0.017205610439638377 0 0.023738255872428313 0.018037300792896036 0 0.024021525915186186 0.018331831570724478 0 0.023879276846790736 0.017205610439638377 0 0.024021525915186186 0.018331831570724478 0 0.02459267757213986 0.017626499475695376 0 0.023328239985100883 0.017892069835853983 0 0.023879276846790736 0.017205610439638377 0 0.023738255872428313 0.018037300792896036 0 0.023328239985100883 0.017892069835853983 0 0.023738255872428313 0.018037300792896036 0 0.023672926097500834 0.018537600535027163 0 0.023738255872428313 0.018037300792896036 0 0.023672926097500834 0.018537600535027163 0 0.024021525915186186 0.018331831570724478 0 0.023672926097500834 0.018537600535027163 0 0.024021525915186186 0.018331831570724478 0 0.023871273278554931 0.01894274277215853 0 0.024021525915186186 0.018331831570724478 0 0.02459267757213986 0.017626499475695376 0 0.024049810710820078 0.019473075801110205 0 0.024021525915186186 0.018331831570724478 0 0.024049810710820078 0.019473075801110205 0 0.023871273278554931 0.01894274277215853 0 0.02459267757213986 0.017626499475695376 0 0.024049810710820078 0.019473075801110205 0 0.025445955742846457 0.017716100327285642 0 0.024049810710820078 0.019473075801110205 0 0.023732523681169973 0.019122060471095329 0 0.022659763878221016 0.019116369892502757 0 0.024049810710820078 0.019473075801110205 0 0.023732523681169973 0.019122060471095329 0 0.023871273278554931 0.01894274277215853 0 0.023672926097500834 0.018537600535027163 0 0.023871273278554931 0.01894274277215853 0 0.02381132729755198 0.018879314039924305 0 0.023732523681169973 0.019122060471095329 0 0.023871273278554931 0.01894274277215853 0 0.023825711361621163 0.018987547153376076 0 0.023929688410204972 0.018977827533280658 0 0.023825711361621163 0.018987547153376076 0 0.02381132729755198 0.018879314039924305 0 0.023871273278554931 0.01894274277215853 0 0.023825711361621163 0.018987547153376076 0 0.02381132729755198 0.018879314039924305 0 0.023929688410204972 0.018977827533280658 0 0.023825711361621163 0.018987547153376076 0 0.023935515394425514 0.018737830353990067 0 0.023825711361621163 0.018987547153376076 0 0.023935515394425514 0.018737830353990067 0 0.023458207031597886 0.01877967389125796 0 0.023732523681169973 0.019122060471095329 0 0.023825711361621163 0.018987547153376076 0 0.023458207031597886 0.01877967389125796 0 0.023418639152167405 0.018303808296825444 0 0.023935515394425514 0.018737830353990067 0 0.023458207031597886 0.01877967389125796 0 0.023939157498661767 0.01809054343781211 0 0.024288648292743961 0.018311674421548525 0 0.023935515394425514 0.018737830353990067 0 0.023458207031597886 0.01877967389125796 0 0.022659763878221016 0.019116369892502757 0 0.02246949852993143 0.018433627941790331 0 0.023732523681169973 0.019122060471095329 0 0.023458207031597886 0.01877967389125796 0 0.022659763878221016 0.019116369892502757 0 0.023418639152167405 0.018303808296825444 0 0.023458207031597886 0.01877967389125796 0 0.02246949852993143 0.018433627941790331 0 0.02163893854950243 0.018800334144883198 0 0.022659763878221016 0.019116369892502757 0 0.02246949852993143 0.018433627941790331 0 0.02163893854950243 0.018800334144883198 0 0.020532555750632779 0.019313952809564269 0 0.022659763878221016 0.019116369892502757 0 0.02163893854950243 0.018800334144883198 0 0.020532555750632779 0.019313952809564269 0 0.020864461230230676 0.018350253985019844 0 0.020532555750632779 0.019313952809564269 0 0.022659763878221016 0.019116369892502757 0 0.021428839533098851 0.02072682481266425 0 0.017861903691989804 0.022882810955700876 0 0.018036603382846059 0.025033768421862314 0 0.016281476870096529 0.024199191576192564 0 0.020161434749187059 0.019569009812579807 0 0.020996452716531864 0.017782134116612214 0 0.024049810710820078 0.019473075801110205 0 0.022659763878221016 0.019116369892502757 0 0.021428839533098851 0.02072682481266425 0 0.024049810710820078 0.019473075801110205 0 0.025445955742846457 0.017716100327285642 0 0.028167192507330102 0.018545055810251693 0 0.022825965765670315 0.017908118617730402 0 0.020996452716531864 0.017782134116612214 0 0.020996452716531864 0.017782134116612214 0 0.02367510329913431 0.01357075401923025 0 0.020240880007829736 0.012814401717571275 0 0.020386934518803367 0.012490896704263125 0 0.020132189839648484 0.012327437319049834 0 0.025445955742846457 0.017716100327285642 0 0.028167192507330102 0.018545055810251693 0 0.027288382553927387 0.015326378527004164 0 0.023873880584871839 0.014427285262636771 0 0.02367510329913431 0.01357075401923025 0 0.026076301778314742 0.015749759945148479 0 0.025445955742846457 0.017716100327285642 0 0.027359507948296467 0.016007357570161713 0 0.020649132198139318 0.012297750471265519 0 0.020632865953279587 0.012648683924135738 0 0.020995116560713938 0.012493977661097028 0 0.018424523112958793 0.017132444926612284 0 0.017078686225398255 0.015476029860015523 0 0.020386934518803367 0.012490896704263125 0 0.020649132198139318 0.012297750471265519 0 0.020632865953279587 0.012648683924135738 0 0.018036603382846059 0.025033768421862314 0 0.015984729621592652 0.025486547259152999 0 0.016281476870096529 0.024199191576192564 0 0.020240880007829736 0.012814401717571275 0 0.020386934518803367 0.012490896704263125 0 0.020632865953279587 0.012648683924135738 0 0.020996452716531864 0.017782134116612214 0 0.018424523112958793 0.017132444926612284 0 0.015984729621592652 0.025486547259152999 0 0.014556421347831573 0.024233822512452666 0 0.014096556532906519 0.025764059948058471 0 0.015984729621592652 0.025486547259152999 0 0.014556421347831573 0.024233822512452666 0 0.016281476870096529 0.024199191576192564 0 0.014556421347831573 0.024233822512452666 0 0.016281476870096529 0.024199191576192564 0 0.015016598534143997 0.022985385052031779 0 0.014556421347831573 0.024233822512452666 0 0.015016598534143997 0.022985385052031779 0 0.013550216772447506 0.022528777910468277 0 0.017861903691989804 0.022882810955700876 0 0.016281476870096529 0.024199191576192564 0 0.015016598534143997 0.022985385052031779 0 0.017861903691989804 0.022882810955700876 0 0.015016598534143997 0.022985385052031779 0 0.014002958400201184 0.021093195305179283 0 0.015016598534143997 0.022985385052031779 0 0.014002958400201184 0.021093195305179283 0 0.013550216772447506 0.022528777910468277 0 0.014002958400201184 0.021093195305179283 0 0.013053214535743063 0.022372000294980286 0 0.01339709290354823 0.021904397690438768 0 0.014002958400201184 0.021093195305179283 0 0.012508613154038515 0.02269898416351173 0 0.011071448495507565 0.023100772465762302 0 0.016077346844654804 0.021999401210677321 0 0.016714431161577639 0.021871846129808862 0 0.014002958400201184 0.021093195305179283 0 0.012508613154038515 0.02269898416351173 0 0.013053214535743063 0.022372000294980286 0 0.012508613154038515 0.02269898416351173 0 0.011071448495507565 0.023100772465762302 0 0.01175998841080894 0.023690070578036057 0 0.012508613154038515 0.02269898416351173 0 0.012425419461548801 0.023453729524329614 0 0.013053214535743063 0.022372000294980286 0 0.012508613154038515 0.02269898416351173 0 0.012425419461548801 0.023453729524329614 0 0.01175998841080894 0.023690070578036057 0 0.014002958400201184 0.021093195305179283 0 0.016662666519621085 0.016550326727098448 0 0.018255883977788719 0.0186687831064071 0 0.016662666519621085 0.016550326727098448 0 0.018255883977788719 0.0186687831064071 0 0.01899814453914829 0.016586470378293045 0 0.020161434749187059 0.019569009812579807 0 0.019585468056492281 0.018838830037101139 0 0.017861903691989804 0.022882810955700876 0 0.014002958400201184 0.021093195305179283 0 0.018255883977788719 0.0186687831064071 0 0.018255883977788719 0.0186687831064071 0 0.020864461230230676 0.018350253985019844 0 0.019906856326764148 0.017520293887812673 0 0.020532555750632779 0.019313952809564269 0 0.018255883977788719 0.0186687831064071 0 0.020864461230230676 0.018350253985019844 0 0.020864461230230676 0.018350253985019844 0 0.02246949852993143 0.018433627941790331 0 0.022094955408330917 0.017549914365682824 0 0.02163893854950243 0.018800334144883198 0 0.020864461230230676 0.018350253985019844 0 0.02246949852993143 0.018433627941790331 0 0.022094955408330917 0.017549914365682824 0 0.020905135010571729 0.017176401881269076 0 0.021736488942624137 0.016481233391212869 0 0.020864461230230676 0.018350253985019844 0 0.022094955408330917 0.017549914365682824 0 0.020905135010571729 0.017176401881269076 0 0.020905135010571729 0.017176401881269076 0 0.020993061901812719 0.016398179542450458 0 0.021736488942624137 0.016481233391212869 0 0.022631184406617391 0.01680393304121993 0 0.022094955408330917 0.017549914365682824 0 0.021736488942624137 0.016481233391212869 0 0.018255883977788719 0.0186687831064071 0 0.019906856326764148 0.017520293887812673 0 0.01899814453914829 0.016586470378293045 0 0.020864461230230676 0.018350253985019844 0 0.020905135010571729 0.017176401881269076 0 0.019906856326764148 0.017520293887812673 0 0.020905135010571729 0.017176401881269076 0 0.019906856326764148 0.017520293887812673 0 0.020284720120858517 0.016239133431354552 0 0.020905135010571729 0.017176401881269076 0 0.020993061901812719 0.016398179542450458 0 0.020284720120858517 0.016239133431354552 0 0.019906856326764148 0.017520293887812673 0 0.01899814453914829 0.016586470378293045 0 0.020284720120858517 0.016239133431354552 0 0.01899814453914829 0.016586470378293045 0 0.019648387201869597 0.015643523092043334 0 0.020284720120858517 0.016239133431354552 0 0.01899814453914829 0.016586470378293045 0 0.019648387201869597 0.015643523092043334 0 0.018777748852414702 0.015323011610138652 0 0.020284720120858517 0.016239133431354552 0 0.020365682341205449 0.015406706306986415 0 0.021144604306775342 0.015783570631981665 0 0.019648387201869597 0.015643523092043334 0 0.020284720120858517 0.016239133431354552 0 0.020365682341205449 0.015406706306986415 0 0.019648387201869597 0.015643523092043334 0 0.020365682341205449 0.015406706306986415 0 0.019765702101895596 0.015029585819106265 0 0.020365682341205449 0.015406706306986415 0 0.020958786717617247 0.015047590109599185 0 0.020369739847355631 0.01478731194190425 0 0.020365682341205449 0.015406706306986415 0 0.019765702101895596 0.015029585819106265 0 0.020369739847355631 0.01478731194190425 0 0.019648387201869597 0.015643523092043334 0 0.019765702101895596 0.015029585819106265 0 0.018777748852414702 0.015323011610138652 0 0.019765702101895596 0.015029585819106265 0 0.019332290484500022 0.014693561534439972 0 0.018777748852414702 0.015323011610138652 0 0.022426180766924354 0.016240768594766079 0 0.021736488942624137 0.016481233391212869 0 0.022021448840269523 0.015730149983566154 0 0.021736488942624137 0.016481233391212869 0 0.022021448840269523 0.015730149983566154 0 0.021144604306775342 0.015783570631981665 0 0.020993061901812719 0.016398179542450458 0 0.020284720120858517 0.016239133431354552 0 0.021144604306775342 0.015783570631981665 0 0.020993061901812719 0.016398179542450458 0 0.021736488942624137 0.016481233391212869 0 0.021144604306775342 0.015783570631981665 0 0.021144604306775342 0.015783570631981665 0 0.020958786717617247 0.015047590109599185 0 0.021548586267640904 0.015180051281753506 0 0.020365682341205449 0.015406706306986415 0 0.021144604306775342 0.015783570631981665 0 0.020958786717617247 0.015047590109599185 0 0.022021448840269523 0.015730149983566154 0 0.021144604306775342 0.015783570631981665 0 0.021548586267640904 0.015180051281753506 0 0.022121751068612149 0.015088865001004651 0 0.022021448840269523 0.015730149983566154 0 0.021548586267640904 0.015180051281753506 0 0.026289366607252989 0.023820563355860802 0 0.023003463117335768 0.02590132275408304 0 0.022447785833100441 0.014166531992533421 0 0.020918280981871439 0.014005299769495841 0 0.02146230473642351 0.014252302401064586 0 0.032528982158714116 0.027410278883659545 0 0.031972905813855944 0.02749228891534522 0 0.032397681837142187 0.027438073798553307 0 0.022447785833100441 0.014166531992533421 0 0.020918280981871439 0.014005299769495841 0 0.020046003678120042 0.013416563921531779 0 0.021917906263839746 0.014458918239754388 0 0.021749834836759376 0.014777952985998618 0 0.021514524580625027 0.014503673768600348 0 0.022096061714189652 0.014716432845983448 0 0.021917906263839746 0.014458918239754388 0 0.021749834836759376 0.014777952985998618 0 0.022096061714189652 0.014716432845983448 0 0.022121751068612149 0.015088865001004651 0 0.021749834836759376 0.014777952985998618 0 0.022121751068612149 0.015088865001004651 0 0.021548586267640904 0.015180051281753506 0 0.021749834836759376 0.014777952985998618 0 0.021548586267640904 0.015180051281753506 0 0.021749834836759376 0.014777952985998618 0 0.021289615306632766 0.014712408899519521 0 0.021917906263839746 0.014458918239754388 0 0.021514524580625027 0.014503673768600348 0 0.02146230473642351 0.014252302401064586 0 0.021749834836759376 0.014777952985998618 0 0.021514524580625027 0.014503673768600348 0 0.021289615306632766 0.014712408899519521 0 0.021514524580625027 0.014503673768600348 0 0.021236229779649521 0.014431807471994218 0 0.02146230473642351 0.014252302401064586 0 0.021236229779649521 0.014431807471994218 0 0.021289615306632766 0.014712408899519521 0 0.020880209095836374 0.014447856445663541 0 0.021236229779649521 0.014431807471994218 0 0.020880209095836374 0.014447856445663541 0 0.021032032036658502 0.014243468488859731 0 0.021514524580625027 0.014503673768600348 0 0.021236229779649521 0.014431807471994218 0 0.021289615306632766 0.014712408899519521 0 0.020958786717617247 0.015047590109599185 0 0.021548586267640904 0.015180051281753506 0 0.021289615306632766 0.014712408899519521 0 0.020958786717617247 0.015047590109599185 0 0.021289615306632766 0.014712408899519521 0 0.020880209095836374 0.014447856445663541 0 0.020958786717617247 0.015047590109599185 0 0.020880209095836374 0.014447856445663541 0 0.020369739847355631 0.01478731194190425 0 0.020734418235181549 0.014188177931438639 0 0.020918280981871439 0.014005299769495841 0 0.020506537572595785 0.014060996538945424 0 0.020880209095836374 0.014447856445663541 0 0.020734418235181549 0.014188177931438639 0 0.020349260154354204 0.014278432402387841 0 0.020880209095836374 0.014447856445663541 0 0.020734418235181549 0.014188177931438639 0 0.021032032036658502 0.014243468488859731 0 0.020734418235181549 0.014188177931438639 0 0.020918280981871439 0.014005299769495841 0 0.021032032036658502 0.014243468488859731 0 0.020918280981871439 0.014005299769495841 0 0.021032032036658502 0.014243468488859731 0 0.02146230473642351 0.014252302401064586 0 0.021236229779649521 0.014431807471994218 0 0.021032032036658502 0.014243468488859731 0 0.02146230473642351 0.014252302401064586 0 0.022447785833100441 0.014166531992533421 0 0.021917906263839746 0.014458918239754388 0 0.02146230473642351 0.014252302401064586 0 0.019433530964620839 0.01419643579247242 0 0.018731865480732215 0.01476530758050147 0 0.019434941644574065 0.013304594170718383 0 0.019332290484500022 0.014693561534439972 0 0.019433530964620839 0.01419643579247242 0 0.018731865480732215 0.01476530758050147 0 0.019894935096680732 0.014509913975373684 0 0.019951203911329853 0.01412541171692063 0 0.019433530964620839 0.01419643579247242 0 0.019332290484500022 0.014693561534439972 0 0.019894935096680732 0.014509913975373684 0 0.019433530964620839 0.01419643579247242 0 0.019765702101895596 0.015029585819106265 0 0.019332290484500022 0.014693561534439972 0 0.019894935096680732 0.014509913975373684 0 0.019765702101895596 0.015029585819106265 0 0.020369739847355631 0.01478731194190425 0 0.019894935096680732 0.014509913975373684 0 0.020880209095836374 0.014447856445663541 0 0.020369739847355631 0.01478731194190425 0 0.020349260154354204 0.014278432402387841 0 0.020369739847355631 0.01478731194190425 0 0.019894935096680732 0.014509913975373684 0 0.020349260154354204 0.014278432402387841 0 0.019894935096680732 0.014509913975373684 0 0.019951203911329853 0.01412541171692063 0 0.020349260154354204 0.014278432402387841 0 0.019951203911329853 0.01412541171692063 0 0.020227395686881519 0.014041031433689092 0 0.020349260154354204 0.014278432402387841 0 0.020918280981871439 0.014005299769495841 0 0.020289183356469582 0.013812421793466754 0 0.020046003678120042 0.013416563921531779 0 0.019951203911329853 0.01412541171692063 0 0.020227395686881519 0.014041031433689092 0 0.020021177700702494 0.013864902966502529 0 0.020734418235181549 0.014188177931438639 0 0.020349260154354204 0.014278432402387841 0 0.020506537572595785 0.014060996538945424 0 0.020227395686881519 0.014041031433689092 0 0.020349260154354204 0.014278432402387841 0 0.020506537572595785 0.014060996538945424 0 0.020918280981871439 0.014005299769495841 0 0.020506537572595785 0.014060996538945424 0 0.020289183356469582 0.013812421793466754 0 0.020227395686881519 0.014041031433689092 0 0.020506537572595785 0.014060996538945424 0 0.020289183356469582 0.013812421793466754 0 0.019951203911329853 0.01412541171692063 0 0.020021177700702494 0.013864902966502529 0 0.019775180591011458 0.013785451517337026 0 0.020289183356469582 0.013812421793466754 0 0.020021177700702494 0.013864902966502529 0 0.020046003678120042 0.013416563921531779 0 0.020021177700702494 0.013864902966502529 0 0.019775180591011458 0.013785451517337026 0 0.020046003678120042 0.013416563921531779 0 0.020227395686881519 0.014041031433689092 0 0.020289183356469582 0.013812421793466754 0 0.020021177700702494 0.013864902966502529 0 0.019775180591011458 0.013785451517337026 0 0.019433530964620839 0.01419643579247242 0 0.019434941644574065 0.013304594170718383 0 0.019951203911329853 0.01412541171692063 0 0.019775180591011458 0.013785451517337026 0 0.019433530964620839 0.01419643579247242 0 0.018534778411432827 0.022653889011088977 0 0.021042456762353071 0.025718656906842299 0 0.010027310707133339 0.025230617696100913 0 0.011321751283737722 0.026446904667697804 0 0.011110546424678134 0.024467982226292689 0 0.018534778411432827 0.022653889011088977 0 0.018292470321613963 0.026455670877628526 0 0.010027310707133339 0.025230617696100913 0 0.011321751283737722 0.026446904667697804 0 0.011333037545938004 0.028295003888305768 0 0.011110546424678134 0.024467982226292689 0 0.010523382090564299 0.027098742994568631 0 0.011332223043648825 0.026163803587856038 0 0.011321751283737722 0.026446904667697804 0 0.011110546424678134 0.024467982226292689 0 0.01282173453354896 0.027861981489841179 0 0.011110546424678134 0.024467982226292689 0 0.011332223043648825 0.026163803587856038 0 0.011744821943820986 0.025233256734383442 0 0.011357586107251355 0.026561553169685007 0 0.011771420562673071 0.028071892419278002 0 0.011110546424678134 0.024467982226292689 0 0.011884079068010365 0.024264411320293739 0 0.011744821943820986 0.025233256734383442 0 0.012425419461548801 0.023453729524329614 0 0.011884079068010365 0.024264411320293739 0 0.01175998841080894 0.023690070578036057 0 0.011071448495507565 0.023100772465762302 0 0.011110546424678134 0.024467982226292689 0 0.01175998841080894 0.023690070578036057 0 0.011110546424678134 0.024467982226292689 0 0.011884079068010365 0.024264411320293739 0 0.01175998841080894 0.023690070578036057 0 0.016714431161577639 0.021871846129808862 0 0.018534778411432827 0.022653889011088977 0 0.011071448495507565 0.023100772465762302 0 0.010027310707133339 0.025230617696100913 0 0.011110546424678134 0.024467982226292689 0 0.016662666519621085 0.016550326727098448 0 0.01840812878423255 0.014238020892067355 0 0.018777748852414702 0.015323011610138652 0 0.016662666519621085 0.016550326727098448 0 0.01899814453914829 0.016586470378293045 0 0.018777748852414702 0.015323011610138652 0 0.019332290484500022 0.014693561534439972 0 0.018731865480732215 0.01476530758050147 0 0.018777748852414702 0.015323011610138652 0 0.018534778411432827 0.022653889011088977 0 0.018288652297427425 0.021732059975125888 0 0.02155182555824461 0.028757794959711092 0 0.02160720563018009 0.028571087331272605 0 0.021704257048280339 0.028880260872471707 0 0.02155182555824461 0.028757794959711092 0 0.021608029391893751 0.028893325348569986 0 0.021704257048280339 0.028880260872471707 0 0.02155182555824461 0.028757794959711092 0 0.02160720563018009 0.028571087331272605 0 0.021527411746534195 0.028642047044802041 0 0.02155182555824461 0.028757794959711092 0 0.021527411746534195 0.028642047044802041 0 0.021471469301528892 0.028687367693868114 0 0.02155182555824461 0.028757794959711092 0 0.021468940166236294 0.028796327729567753 0 0.021507668404434452 0.028887486645863159 0 0.02155182555824461 0.028757794959711092 0 0.021608029391893751 0.028893325348569986 0 0.021507668404434452 0.028887486645863159 0 0.02155182555824461 0.028757794959711092 0 0.021471469301528892 0.028687367693868114 0 0.021468940166236294 0.028796327729567753 0 0.012856380904630288 0.028655810484517964 0 0.01282173453354896 0.027861981489841179 0 0.014012860513240133 0.031146786414492957 0 0.018292470321613963 0.026455670877628526 0 0.018616439114634967 0.030247901923697525 0 0.012856380904630288 0.028655810484517964 0 0.012715462704144694 0.030985132072445607 0 0.014012860513240133 0.031146786414492957 0 0.012856380904630288 0.028655810484517964 0 0.011633695480456693 0.028272921985540336 0 0.012715462704144694 0.030985132072445607 0 0.011771420562673071 0.028071892419278002 0 0.012490665888316444 0.030676406675314905 0 0.012856380904630288 0.028655810484517964 0 0.01282173453354896 0.027861981489841179 0 0.011333037545938004 0.028295003888305768 0 0.017314400855817161 0.026367529551250549 0 0.018292470321613963 0.026455670877628526 0 0.010523382090564299 0.027098742994568631 0 0.011332223043648825 0.026163803587856038 0 0.011375411574320766 0.027170732925160635 0 0.011321751283737722 0.026446904667697804 0 0.01282173453354896 0.027861981489841179 0 0.011333037545938004 0.028295003888305768 0 0.018609025776548053 0.024935763255983519 0 0.019110302985200986 0.026268373262348738 0 0.018200585031037178 0.025990285769835152 0 0.02160720563018009 0.028571087331272605 0 0.021527411746534195 0.028642047044802041 0 0.021441124933190274 0.028519839511418423 0 0.018292470321613963 0.026455670877628526 0 0.021042456762353071 0.025718656906842299 0 0.021527411746534195 0.028642047044802041 0 0.021441124933190274 0.028519839511418423 0 0.021471469301528892 0.028687367693868114 0 0.021763182967303476 0.027834829555452831 0 0.021486979601016972 0.027762620581364139 0 0.021385947987783881 0.028751368751530414 0 0.023003463117335768 0.02590132275408304 0 0.024832776361952302 0.027907866524571799 0 0.021042456762353071 0.025718656906842299 0 0.023003463117335768 0.02590132275408304 0 0.019775180591011458 0.013785451517337026 0 0.019434941644574065 0.013304594170718383 0 0.020046003678120042 0.013416563921531779 0 0.031972905813855944 0.02749228891534522 0 0.032397681837142187 0.027438073798553307 0 0.032252449631898585 0.027342472110205823 0 0.031972905813855944 0.02749228891534522 0 0.032252449631898585 0.027342472110205823 0 0.032189570093039591 0.027076210329175125 0 0.032397681837142187 0.027438073798553307 0 0.032252449631898585 0.027342472110205823 0 0.032425211925558729 0.02732296952327903 0 0.032252449631898585 0.027342472110205823 0 0.032189570093039591 0.027076210329175125 0 0.032425211925558729 0.02732296952327903 0 0.032189570093039591 0.027076210329175125 0 0.032656722103405117 0.027191692017859755 0 0.032425211925558729 0.02732296952327903 0 0.021042456762353071 0.025718656906842299 0 0.020778819293290219 0.027185767615728666 0 0.021441124933190274 0.028519839511418423 0 0.021471469301528892 0.028687367693868114 0 0.021385947987783881 0.028751368751530414 0 0.021486979601016972 0.027762620581364139 0 0.021163125752187147 0.0287609689611176 0 0.021385947987783881 0.028751368751530414 0 0.021163125752187147 0.0287609689611176 0 0.021385947987783881 0.028751368751530414 0 0.021364345043946343 0.028921812589709394 0 0.021385947987783881 0.028751368751530414 0 0.021468940166236294 0.028796327729567753 0 0.021364345043946343 0.028921812589709394 0 0.021471469301528892 0.028687367693868114 0 0.021385947987783881 0.028751368751530414 0 0.021468940166236294 0.028796327729567753 0 0.021468940166236294 0.028796327729567753 0 0.021364345043946343 0.028921812589709394 0 0.021507668404434452 0.028887486645863159 0 0.021364345043946343 0.028921812589709394 0 0.021087440881287341 0.029242856174004499 0 0.021471630034582346 0.02907487239135563 0 0.021364345043946343 0.028921812589709394 0 0.021471630034582346 0.02907487239135563 0 0.021507668404434452 0.028887486645863159 0 0.021163125752187147 0.0287609689611176 0 0.021364345043946343 0.028921812589709394 0 0.021087440881287341 0.029242856174004499 0 0.032189570093039591 0.027076210329175125 0 0.032393185556313368 0.026645454410519999 0 0.032671196982548757 0.026906470889646251 0 0.024832776361952302 0.027907866524571799 0 0.024426040525501302 0.032299359643074142 0 0.024426040525501302 0.032299359643074142 0 0.020784358725412636 0.032880594766286825 0 0.021789651019655083 0.039506278379454703 0 0.019881446594069346 0.039829262915098286 0 0.020154095041537274 0.038683411365463848 0 0.019881446594069346 0.039829262915098286 0 0.019027147526835084 0.03931951364179908 0 0.020154095041537274 0.038683411365463848 0 0.019881446594069346 0.039829262915098286 0 0.019027147526835084 0.03931951364179908 0 0.01796141785967845 0.040132035602950394 0 0.019027147526835084 0.03931951364179908 0 0.018624466259693329 0.03890915448352416 0 0.01902711242917492 0.038512685104017071 0 0.021471630034582346 0.02907487239135563 0 0.021608029391893751 0.028893325348569986 0 0.021731470450486252 0.028984393035474117 0 0.020784358725412636 0.032880594766286825 0 0.019005268310551288 0.031872412475620303 0 0.021471630034582346 0.02907487239135563 0 0.021608029391893751 0.028893325348569986 0 0.021507668404434452 0.028887486645863159 0 0.012715462704144694 0.030985132072445607 0 0.013186908482864678 0.031913123724501453 0 0.014012860513240133 0.031146786414492957 0 0.018616439114634967 0.030247901923697525 0 0.019005268310551288 0.031872412475620303 0 0.021608029391893751 0.028893325348569986 0 0.021704257048280339 0.028880260872471707 0 0.021731470450486252 0.028984393035474117 0 0.01813637655369359 0.039447437163135715 0 0.017576717498214461 0.037842639527068365 0 0.01752803300355342 0.039215517361532448 0 0.01796141785967845 0.040132035602950394 0 0.01813637655369359 0.039447437163135715 0 0.01752803300355342 0.039215517361532448 0 0.019027147526835084 0.03931951364179908 0 0.01796141785967845 0.040132035602950394 0 0.01813637655369359 0.039447437163135715 0 0.019005268310551288 0.031872412475620303 0 0.018041022763250116 0.033981551997363205 0 0.01813637655369359 0.039447437163135715 0 0.018624466259693329 0.03890915448352416 0 0.018376041207262384 0.038458533350765892 0 0.019027147526835084 0.03931951364179908 0 0.01813637655369359 0.039447437163135715 0 0.018624466259693329 0.03890915448352416 0 0.017777492992580302 0.038513885847933964 0 0.017570434729016898 0.037783658752946807 0 0.01813637655369359 0.039447437163135715 0 0.018376041207262384 0.038458533350765892 0 0.017801330644324258 0.038047032084135457 0 0.018624466259693329 0.03890915448352416 0 0.018376041207262384 0.038458533350765892 0 0.01902711242917492 0.038512685104017071 0 0.018376041207262384 0.038458533350765892 0 0.01902711242917492 0.038512685104017071 0 0.018597480550347812 0.037836509911012679 0 0.018376041207262384 0.038458533350765892 0 0.017801330644324258 0.038047032084135457 0 0.018597480550347812 0.037836509911012679 0 0.01902711242917492 0.038512685104017071 0 0.019374769168211483 0.037857452524047958 0 0.020154095041537274 0.038683411365463848 0 0.019027147526835084 0.03931951364179908 0 0.01902711242917492 0.038512685104017071 0 0.020154095041537274 0.038683411365463848 0 0.01902711242917492 0.038512685104017071 0 0.019374769168211483 0.037857452524047958 0 0.018597480550347812 0.037836509911012679 0 0.019374769168211483 0.037857452524047958 0 0.019057210282606686 0.03712949966241446 0 0.020193628800583036 0.037423784665186588 0 0.019374769168211483 0.037857452524047958 0 0.019057210282606686 0.03712949966241446 0 0.018597480550347812 0.037836509911012679 0 0.017801330644324258 0.038047032084135457 0 0.0182028323923271 0.037140162784354537 0 0.017303812735328824 0.036568931765815119 0 0.017801330644324258 0.038047032084135457 0 0.018597480550347812 0.037836509911012679 0 0.0182028323923271 0.037140162784354537 0 0.019057210282606686 0.03712949966241446 0 0.018597480550347812 0.037836509911012679 0 0.0182028323923271 0.037140162784354537 0 0.019057210282606686 0.03712949966241446 0 0.0182028323923271 0.037140162784354537 0 0.018264787298054579 0.036080790052947946 0 0.0182028323923271 0.037140162784354537 0 0.018264787298054579 0.036080790052947946 0 0.017303812735328824 0.036568931765815119 0 0.019057210282606686 0.03712949966241446 0 0.018264787298054579 0.036080790052947946 0 0.019714175779205912 0.036203393288148276 0 0.019057210282606686 0.03712949966241446 0 0.019714175779205912 0.036203393288148276 0 0.020193628800583036 0.037423784665186588 0 0.018670012673811087 0.034999933704128974 0 0.020594794130803361 0.034999948214211575 0 0.019714175779205912 0.036203393288148276 0 0.018264787298054579 0.036080790052947946 0 0.018670012673811087 0.034999933704128974 0 0.019714175779205912 0.036203393288148276 0 0.018264787298054579 0.036080790052947946 0 0.018670012673811087 0.034999933704128974 0 0.01674532381948458 0.03499997462952379 0 0.020594794130803361 0.034999948214211575 0 0.021501369508430384 0.036576118412386317 0 0.022519713389003847 0.034999882055805613 0 0.020594794130803361 0.034999948214211575 0 0.019714175779205912 0.036203393288148276 0 0.021501369508430384 0.036576118412386317 0 0.019714175779205912 0.036203393288148276 0 0.021501369508430384 0.036576118412386317 0 0.020193628800583036 0.037423784665186588 0 0.021501369508430384 0.036576118412386317 0 0.021240212947122084 0.038035869174200661 0 0.022562875734325073 0.037934059328836214 0 0.021501369508430384 0.036576118412386317 0 0.020193628800583036 0.037423784665186588 0 0.021240212947122084 0.038035869174200661 0 0.020193628800583036 0.037423784665186588 0 0.020154095041537274 0.038683411365463848 0 0.021240212947122084 0.038035869174200661 0 0.019374769168211483 0.037857452524047958 0 0.020193628800583036 0.037423784665186588 0 0.020154095041537274 0.038683411365463848 0 0.021789651019655083 0.039506278379454703 0 0.020154095041537274 0.038683411365463848 0 0.021240212947122084 0.038035869174200661 0 0.022620871979693345 0.039021922472336983 0 0.02312532243384063 0.037745808031362349 0 0.024022096852126612 0.038890481438429374 0 0.021789651019655083 0.039506278379454703 0 0.021240212947122084 0.038035869174200661 0 0.022562875734325073 0.037934059328836214 0 0.024426040525501302 0.032299359643074142 0 0.022941458349707844 0.036691511760055508 0 0.02312532243384063 0.037745808031362349 0 0.024424794425917627 0.037473774561075666 0 0.024022096852126612 0.038890481438429374 0 0.022941458349707844 0.036691511760055508 0 0.02306819852317829 0.036633072015491999 0 0.02312532243384063 0.037745808031362349 0 0.023498951199803143 0.036251109575999634 0 0.024424794425917627 0.037473774561075666 0 0.021501369508430384 0.036576118412386317 0 0.022562875734325073 0.037934059328836214 0 0.023498951199803143 0.036251109575999634 0 0.023498951199803143 0.036251109575999634 0 0.022519713389003847 0.034999882055805613 0 0.024444642229150691 0.034999931171244267 0 0.021501369508430384 0.036576118412386317 0 0.023498951199803143 0.036251109575999634 0 0.022519713389003847 0.034999882055805613 0 0.024444642229150691 0.034999931171244267 0 0.024703035144655102 0.036107790474237053 0 0.02636938749256431 0.034999909375781388 0 0.023498951199803143 0.036251109575999634 0 0.024444642229150691 0.034999931171244267 0 0.024703035144655102 0.036107790474237053 0 0.024703035144655102 0.036107790474237053 0 0.02568469627411905 0.036887630727539443 0 0.024424794425917627 0.037473774561075666 0 0.023498951199803143 0.036251109575999634 0 0.024703035144655102 0.036107790474237053 0 0.024424794425917627 0.037473774561075666 0 0.024703035144655102 0.036107790474237053 0 0.02568469627411905 0.036887630727539443 0 0.02636938749256431 0.034999909375781388 0 0.02568469627411905 0.036887630727539443 0 0.025684334185775811 0.038764654741457918 0 0.026815608988301272 0.037574980458583117 0 0.02568469627411905 0.036887630727539443 0 0.024424794425917627 0.037473774561075666 0 0.025684334185775811 0.038764654741457918 0 0.024424794425917627 0.037473774561075666 0 0.025684334185775811 0.038764654741457918 0 0.024022096852126612 0.038890481438429374 0 0.033984433907636905 0.026531484181742351 0 0.033704541514886985 0.02704025826387416 0 0.034709692390023111 0.02710765613948243 0 0.034274661913696956 0.02708910133019023 0 0.034649318366368025 0.027226799356946642 0 0.033704541514886985 0.02704025826387416 0 0.03364822354535587 0.027082820598752545 0 0.034154522206819291 0.026875348192567934 0 0.033704541514886985 0.02704025826387416 0 0.033108472365146142 0.027020251914202095 0 0.03364822354535587 0.027082820598752545 0 0.033704541514886985 0.02704025826387416 0 0.033067219745110038 0.02656104952960207 0 0.033108472365146142 0.027020251914202095 0 0.033984433907636905 0.026531484181742351 0 0.033704541514886985 0.02704025826387416 0 0.033067219745110038 0.02656104952960207 0 0.029717219874801439 0.032206935475135999 0 0.028032093126577111 0.032260589510146494 0 0.024426040525501302 0.032299359643074142 0 0.028032093126577111 0.032260589510146494 0 0.032393185556313368 0.026645454410519999 0 0.033067219745110038 0.02656104952960207 0 0.032671196982548757 0.026906470889646251 0 0.033067219745110038 0.02656104952960207 0 0.032671196982548757 0.026906470889646251 0 0.033108472365146142 0.027020251914202095 0 0.033108472365146142 0.027020251914202095 0 0.032998666343049952 0.027213174422726492 0 0.033335541922359171 0.027219885687308831 0 0.033108472365146142 0.027020251914202095 0 0.032998666343049952 0.027213174422726492 0 0.032656722103405117 0.027191692017859755 0 0.032998666343049952 0.027213174422726492 0 0.032656722103405117 0.027191692017859755 0 0.032796328161096025 0.027368122950798813 0 0.032998666343049952 0.027213174422726492 0 0.033072299826660226 0.027319170616583198 0 0.033335541922359171 0.027219885687308831 0 0.032671196982548757 0.026906470889646251 0 0.033108472365146142 0.027020251914202095 0 0.032656722103405117 0.027191692017859755 0 0.032189570093039591 0.027076210329175125 0 0.032671196982548757 0.026906470889646251 0 0.032656722103405117 0.027191692017859755 0 0.032656722103405117 0.027191692017859755 0 0.032425211925558729 0.02732296952327903 0 0.032577288172605356 0.027356403220977217 0 0.032425211925558729 0.02732296952327903 0 0.032577288172605356 0.027356403220977217 0 0.032466510256553088 0.027438616581633664 0 0.032656722103405117 0.027191692017859755 0 0.032577288172605356 0.027356403220977217 0 0.032796328161096025 0.027368122950798813 0 0.032577288172605356 0.027356403220977217 0 0.032580305855223465 0.02745823806564119 0 0.032796328161096025 0.027368122950798813 0 0.032723518338326887 0.027510524922167007 0 0.032580305855223465 0.02745823806564119 0 0.032796328161096025 0.027368122950798813 0 0.032723518338326887 0.027510524922167007 0 0.03261786679109515 0.027528444458682667 0 0.032580305855223465 0.02745823806564119 0 0.032410182103772521 0.027570001629217526 0 0.03261786679109515 0.027528444458682667 0 0.032580305855223465 0.02745823806564119 0 0.032397681837142187 0.027438073798553307 0 0.032425211925558729 0.02732296952327903 0 0.032466510256553088 0.027438616581633664 0 0.032577288172605356 0.027356403220977217 0 0.032580305855223465 0.02745823806564119 0 0.032466510256553088 0.027438616581633664 0 0.032410182103772521 0.027570001629217526 0 0.032580305855223465 0.02745823806564119 0 0.032466510256553088 0.027438616581633664 0 0.032451002194775994 0.027487468776639788 0 0.032410182103772521 0.027570001629217526 0 0.032466510256553088 0.027438616581633664 0 0.032451002194775994 0.027487468776639788 0 0.032397681837142187 0.027438073798553307 0 0.032466510256553088 0.027438616581633664 0 0.033072299826660226 0.027319170616583198 0 0.03299131896310311 0.027434247091791094 0 0.033231180016031689 0.027367597422255915 0 0.032998666343049952 0.027213174422726492 0 0.033072299826660226 0.027319170616583198 0 0.032796328161096025 0.027368122950798813 0 0.033072299826660226 0.027319170616583198 0 0.032796328161096025 0.027368122950798813 0 0.03299131896310311 0.027434247091791094 0 0.032723518338326887 0.027510524922167007 0 0.032796328161096025 0.027368122950798813 0 0.032847845944501609 0.027454792645909304 0 0.032796328161096025 0.027368122950798813 0 0.032847845944501609 0.027454792645909304 0 0.03299131896310311 0.027434247091791094 0 0.032723518338326887 0.027510524922167007 0 0.032847845944501609 0.027454792645909304 0 0.032886961083976762 0.027519422693526415 0 0.032847845944501609 0.027454792645909304 0 0.032886961083976762 0.027519422693526415 0 0.03299131896310311 0.027434247091791094 0 0.033043099494491461 0.02754522094445613 0 0.03299131896310311 0.027434247091791094 0 0.033143615558613976 0.027481446387170934 0 0.03299131896310311 0.027434247091791094 0 0.033143615558613976 0.027481446387170934 0 0.033231180016031689 0.027367597422255915 0 0.033043099494491461 0.02754522094445613 0 0.032886961083976762 0.027519422693526415 0 0.03299131896310311 0.027434247091791094 0 0.033489992139165176 0.027366956815908863 0 0.033750912710739753 0.027169850010650403 0 0.033335541922359171 0.027219885687308831 0 0.033284067339448636 0.027503569805800661 0 0.033143615558613976 0.027481446387170934 0 0.033231180016031689 0.027367597422255915 0 0.033284067339448636 0.027503569805800661 0 0.033231180016031689 0.027367597422255915 0 0.033489992139165176 0.027366956815908863 0 0.033231180016031689 0.027367597422255915 0 0.033489992139165176 0.027366956815908863 0 0.033335541922359171 0.027219885687308831 0 0.033072299826660226 0.027319170616583198 0 0.033231180016031689 0.027367597422255915 0 0.033335541922359171 0.027219885687308831 0 0.033481827934723464 0.027526047047587422 0 0.033284067339448636 0.027503569805800661 0 0.033489992139165176 0.027366956815908863 0 0.033835918343563226 0.027423605080097061 0 0.033489992139165176 0.027366956815908863 0 0.033750912710739753 0.027169850010650403 0 0.033835918343563226 0.027423605080097061 0 0.033750912710739753 0.027169850010650403 0 0.034154522206819291 0.026875348192567934 0 0.033835918343563226 0.027423605080097061 0 0.033481827934723464 0.027526047047587422 0 0.033489992139165176 0.027366956815908863 0 0.033750912710739753 0.027169850010650403 0 0.03364822354535587 0.027082820598752545 0 0.034154522206819291 0.026875348192567934 0 0.033750912710739753 0.027169850010650403 0 0.03364822354535587 0.027082820598752545 0 0.033335541922359171 0.027219885687308831 0 0.033108472365146142 0.027020251914202095 0 0.03364822354535587 0.027082820598752545 0 0.033335541922359171 0.027219885687308831 0 0.034649318366368025 0.027226799356946642 0 0.03520940380852438 0.027369696425694492 0 0.034923580713408592 0.027797207617705186 0 0.035782467253111322 0.027794328877789817 0 0.035477342795488698 0.027467393635454057 0 0.034479972150996539 0.027310476286424044 0 0.033835918343563226 0.027423605080097061 0 0.034154522206819291 0.026875348192567934 0 0.034479972150996539 0.027310476286424044 0 0.034154522206819291 0.026875348192567934 0 0.034961786681495167 0.026950345389205814 0 0.035494438716305143 0.027423540646831369 0 0.03520940380852438 0.027369696425694492 0 0.035959646610065475 0.027248145201161048 0 0.035782467253111322 0.027794328877789817 0 0.035996865995827868 0.02754515015799722 0 0.035996865995827868 0.02754515015799722 0 0.035893226004442197 0.027605593667731545 0 0.03609783978056659 0.027579818749356225 0 0.035893226004442197 0.027605593667731545 0 0.0359785027358865 0.027625254813805972 0 0.03609783978056659 0.027579818749356225 0 0.035782467253111322 0.027794328877789817 0 0.035996865995827868 0.02754515015799722 0 0.035893226004442197 0.027605593667731545 0 0.035782467253111322 0.027794328877789817 0 0.035893226004442197 0.027605593667731545 0 0.035477342795488698 0.027467393635454057 0 0.035893226004442197 0.027605593667731545 0 0.035818679060530857 0.027502278328300427 0 0.035477342795488698 0.027467393635454057 0 0.035893226004442197 0.027605593667731545 0 0.0359785027358865 0.027625254813805972 0 0.035818679060530857 0.027502278328300427 0 0.0359785027358865 0.027625254813805972 0 0.035818679060530857 0.027502278328300427 0 0.035965861937786364 0.027684123387262644 0 0.035818679060530857 0.027502278328300427 0 0.035862255811418046 0.02757381675421125 0 0.035965861937786364 0.027684123387262644 0 0.035818679060530857 0.027502278328300427 0 0.035862255811418046 0.02757381675421125 0 0.035734461075335393 0.027367904873635194 0 0.035818679060530857 0.027502278328300427 0 0.035566383030823649 0.027311220651664716 0 0.035477342795488698 0.027467393635454057 0 0.035818679060530857 0.027502278328300427 0 0.035566383030823649 0.027311220651664716 0 0.035734461075335393 0.027367904873635194 0 0.035566383030823649 0.027311220651664716 0 0.035734461075335393 0.027367904873635194 0 0.035459158131062422 0.027076988863522545 0 0.035267494444365173 0.027146768256700645 0 0.034709692390023111 0.02710765613948243 0 0.035052272202509706 0.026764690870885555 0 0.035267494444365173 0.027146768256700645 0 0.035477342795488698 0.027467393635454057 0 0.034709692390023111 0.02710765613948243 0 0.035566383030823649 0.027311220651664716 0 0.035267494444365173 0.027146768256700645 0 0.035459158131062422 0.027076988863522545 0 0.035566383030823649 0.027311220651664716 0 0.035267494444365173 0.027146768256700645 0 0.035477342795488698 0.027467393635454057 0 0.033704541514886985 0.02704025826387416 0 0.034923580713408592 0.027797207617705186 0 0.034709692390023111 0.02710765613948243 0 0.034923580713408592 0.027797207617705186 0 0.035477342795488698 0.027467393635454057 0 0.034709692390023111 0.02710765613948243 0 0.033984433907636905 0.026531484181742351 0 0.034709692390023111 0.02710765613948243 0 0.035052272202509706 0.026764690870885555 0 0.029717219874801439 0.032206935475135999 0 0.031240339472268452 0.031863176431415299 0 0.025684334185775811 0.038764654741457918 0 0.027522127389367046 0.038536886338194194 0 0.026815608988301272 0.037574980458583117 0 0.027522127389367046 0.038536886338194194 0 0.028266954385433942 0.037569586643967541 0 0.029364294050382992 0.038212902937211392 0 0.031240339472268452 0.031863176431415299 0 0.033467311499323367 0.030860289279377087 0 0.035267494444365173 0.027146768256700645 0 0.035052272202509706 0.026764690870885555 0 0.035459158131062422 0.027076988863522545 0 0.027522127389367046 0.038536886338194194 0 0.028266954385433942 0.037569586643967541 0 0.026815608988301272 0.037574980458583117 0 0.028266954385433942 0.037569586643967541 0 0.026815608988301272 0.037574980458583117 0 0.027347163708932025 0.036420504891264666 0 0.02568469627411905 0.036887630727539443 0 0.026815608988301272 0.037574980458583117 0 0.027347163708932025 0.036420504891264666 0 0.02568469627411905 0.036887630727539443 0 0.027347163708932025 0.036420504891264666 0 0.02636938749256431 0.034999909375781388 0 0.027347163708932025 0.036420504891264666 0 0.028294302678928313 0.034999902048469679 0 0.029028086370084253 0.036657328373474372 0 0.028266954385433942 0.037569586643967541 0 0.027347163708932025 0.036420504891264666 0 0.029028086370084253 0.036657328373474372 0 0.027347163708932025 0.036420504891264666 0 0.028294302678928313 0.034999902048469679 0 0.02636938749256431 0.034999909375781388 0 0.029774075828897607 0.03589964386966682 0 0.03021882230170541 0.03499988574997126 0 0.030804361828882621 0.035906278426662004 0 0.030223128201974623 0.034998411427293465 0 0.031879005728664762 0.034598135334970012 0 0.028294302678928313 0.034999902048469679 0 0.029774075828897607 0.03589964386966682 0 0.029028086370084253 0.036657328373474372 0 0.028294302678928313 0.034999902048469679 0 0.029774075828897607 0.03589964386966682 0 0.03021882230170541 0.03499988574997126 0 0.029774075828897607 0.03589964386966682 0 0.030307572110301759 0.036558407200761221 0 0.030804361828882621 0.035906278426662004 0 0.029028086370084253 0.036657328373474372 0 0.030307572110301759 0.036558407200761221 0 0.030431749357628865 0.037522187210754725 0 0.029774075828897607 0.03589964386966682 0 0.029028086370084253 0.036657328373474372 0 0.030307572110301759 0.036558407200761221 0 0.033295893013469281 0.032275034519480134 0 0.033467311499323367 0.030860289279377087 0 0.029028086370084253 0.036657328373474372 0 0.030431749357628865 0.037522187210754725 0 0.029364294050382992 0.038212902937211392 0 0.035792565977269229 0.027546978690982604 0 0.035510416990158861 0.027690497013004835 0 0.035805206060536901 0.027606336457931362 0 0.028266954385433942 0.037569586643967541 0 0.029028086370084253 0.036657328373474372 0 0.029364294050382992 0.038212902937211392 0 0.035052272202509706 0.026764690870885555 0 0.035813044668838057 0.027029054549997496 0 0.035459158131062422 0.027076988863522545 0 0.035734461075335393 0.027367904873635194 0 0.035729417784805463 0.027344747654455021 0 0.035459158131062422 0.027076988863522545 0 0.033467311499323367 0.030860289279377087 0 0.034359719655415656 0.030040109918361951 0 0.035729417784805463 0.027344747654455021 0 0.035805206060536901 0.027606336457931362 0 0.035795550784330478 0.02748399852304911 0 0.033467311499323367 0.030860289279377087 0 0.034341618483240098 0.03039566703304902 0 0.035805206060536901 0.027606336457931362 0 0.035795550784330478 0.02748399852304911 0 0.035838906793387533 0.027592965892241125 0 0.035734461075335393 0.027367904873635194 0 0.035729417784805463 0.027344747654455021 0 0.035795550784330478 0.02748399852304911 0 0.035862255811418046 0.02757381675421125 0 0.035734461075335393 0.027367904873635194 0 0.035795550784330478 0.02748399852304911 0 0.035862255811418046 0.02757381675421125 0 0.035795550784330478 0.02748399852304911 0 0.035838906793387533 0.027592965892241125 0 0.035862255811418046 0.02757381675421125 0 0.035838906793387533 0.027592965892241125 0 0.035898129785523931 0.027674666690004401 0 0.035862255811418046 0.02757381675421125 0 0.035898129785523931 0.027674666690004401 0 0.035961706476639536 0.027777983066499878 0 0.035898129785523931 0.027674666690004401 0 0.035975712110754801 0.027783604664013001 0 0.035961706476639536 0.027777983066499878 0 0.035898129785523931 0.027674666690004401 0 0.035939334511363143 0.027650446401414654 0 0.035861920256838133 0.027617366522966522 0 0.035898129785523931 0.027674666690004401 0 0.035939334511363143 0.027650446401414654 0 0.035975712110754801 0.027783604664013001 0 0.035838906793387533 0.027592965892241125 0 0.035898129785523931 0.027674666690004401 0 0.035861920256838133 0.027617366522966522 0 0.035805206060536901 0.027606336457931362 0 0.035838906793387533 0.027592965892241125 0 0.035861920256838133 0.027617366522966522 0 0.035939334511363143 0.027650446401414654 0 0.036140149233169022 0.027772959885221726 0 0.035975712110754801 0.027783604664013001 0 0.036140149233169022 0.027772959885221726 0 0.035975712110754801 0.027783604664013001 0 0.036040761503038352 0.028056928881585386 0 0.033997057721894881 0.033408562123672818 0 0.034709785092270615 0.032928676824559203 0 0.035939334511363143 0.027650446401414654 0 0.036140149233169022 0.027772959885221726 0 0.035917216967576431 0.027497175569459027 0 0.038033023053337757 0.032815850080193693 0 0.037757752635823087 0.032995439812987068 0 0.036695671761076819 0.032332346094089755 0 0.037029579425043341 0.031066463816644175 0 0.038033023053337757 0.032815850080193693 0 0.036695671761076819 0.032332346094089755 0 0.034702658085201579 0.03075908383111782 0 0.033509080148551258 0.033390453110917533 0 0.033295893013469281 0.032275034519480134 0 0.033509080148551258 0.033390453110917533 0 0.035792565977269229 0.027546978690982604 0 0.035878828760481742 0.027573194781884091 0 0.035917216967576431 0.027497175569459027 0 0.030307572110301759 0.036558407200761221 0 0.030431749357628865 0.037522187210754725 0 0.031464186058927902 0.036824596974102751 0 0.035939334511363143 0.027650446401414654 0 0.035878828760481742 0.027573194781884091 0 0.035917216967576431 0.027497175569459027 0 0.035792565977269229 0.027546978690982604 0 0.035861920256838133 0.027617366522966522 0 0.035878828760481742 0.027573194781884091 0 0.035792565977269229 0.027546978690982604 0 0.035805206060536901 0.027606336457931362 0 0.035861920256838133 0.027617366522966522 0 0.035939334511363143 0.027650446401414654 0 0.035861920256838133 0.027617366522966522 0 0.035878828760481742 0.027573194781884091 0 0.030307572110301759 0.036558407200761221 0 0.031464186058927902 0.036824596974102751 0 0.030804361828882621 0.035906278426662004 0 0.03159498028310273 0.036181891279501818 0 0.031757084830269913 0.036650163032763527 0 0.030960109637028794 0.035987842364253272 0 0.033509080148551258 0.033390453110917533 0 0.031879005728664762 0.034598135334970012 0 0.031673958686450711 0.036931265735377507 0 0.031757084830269913 0.036650163032763527 0 0.030960109637028794 0.035987842364253272 0 0.034104616665523481 0.033100479720109779 0 0.034363236374317097 0.032929759165732944 0 0.034485093052360707 0.033319382219652388 0 0.033509080148551258 0.033390453110917533 0 0.033997057721894881 0.033408562123672818 0 0.031673958686450711 0.036931265735377507 0 0.031757084830269913 0.036650163032763527 0 0.03193888416956079 0.036748691896090535 0 0.031757084830269913 0.036650163032763527 0 0.031941010024690672 0.036756628459007484 0 0.031964659436017027 0.036331610105011965 0 0.033985775219288271 0.033421144332225455 0 0.033997057721894881 0.033408562123672818 0 0.033997057721894881 0.033408562123672818 0 0.033694946190464793 0.034006223183185517 0 0.031941010024690672 0.036756628459007484 0 0.03268977394003815 0.03626469757885506 0 0.031964659436017027 0.036331610105011965 0 0.03159498028310273 0.036181891279501818 0 0.031964659436017027 0.036331610105011965 0 0.031837921680650458 0.035801364576943967 0 0.03268977394003815 0.03626469757885506 0 0.031964659436017027 0.036331610105011965 0 0.031837921680650458 0.035801364576943967 0 0.03159498028310273 0.036181891279501818 0 0.031757084830269913 0.036650163032763527 0 0.031964659436017027 0.036331610105011965 0 0.03268977394003815 0.03626469757885506 0 0.031837921680650458 0.035801364576943967 0 0.0323279117824921 0.034999923906769745 0 0.033694946190464793 0.034006223183185517 0 0.032331518410631623 0.034998769291835603 0 0.030219276789950025 0.034999980996039341 0 0.031837921680650458 0.035801364576943967 0 0.0323279117824921 0.034999923906769745 0 0.030219276789950025 0.034999980996039341 0 0.031837921680650458 0.035801364576943967 0 0.030960109637028794 0.035987842364253272 0 0.03159498028310273 0.036181891279501818 0 0.031837921680650458 0.035801364576943967 0 0.030960109637028794 0.035987842364253272 0 0.032329092719103142 0.03499952085753006 0 0.034999725439730921 0.034999825419434007 0 0.034688720201698553 0.03498420584644478 0 0.034999725439730921 0.034999825419434007 0 0.035565237104861119 0.033350871807756907 0 0.034999411837173075 0.031284149123022638 0 0.034999725439730921 0.034999825419434007 0 0.034688720201698553 0.03498420584644478 0 0.035565237104861119 0.033350871807756907 0 0.034688720201698553 0.03498420584644478 0 0.035939188166948244 0.034376451935132439 0 0.035565237104861119 0.033350871807756907 0 0.034133683095853649 0.034212782955041453 0 0.034040622401806865 0.034159384642601071 0 0.032788310939584821 0.036329294061775375 0 0.032329092719103142 0.03499952085753006 0 0.033715913785692261 0.035712090338615859 0 0.032329092719103142 0.03499952085753006 0 0.034688720201698553 0.03498420584644478 0 0.033715913785692261 0.035712090338615859 0 0.033694946190464793 0.034006223183185517 0 0.034040622401806865 0.034159384642601071 0 0.033694946190464793 0.034006223183185517 0 0.034709785092270615 0.032928676824559203 0 0.035939188166948244 0.034376451935132439 0 0.036243000266175766 0.0334892009152735 0 0.035565237104861119 0.033350871807756907 0 0.036898995252800715 0.033750756701635562 0 0.036243000266175766 0.0334892009152735 0 0.036564084258045679 0.032508638871728085 0 0.036898995252800715 0.033750756701635562 0 0.035939188166948244 0.034376451935132439 0 0.036243000266175766 0.0334892009152735 0 0.036243000266175766 0.0334892009152735 0 0.035565237104861119 0.033350871807756907 0 0.036564084258045679 0.032508638871728085 0 0.035565237104861119 0.033350871807756907 0 0.035721749442542042 0.031928292043367668 0 0.034999411837173075 0.031284149123022638 0 0.035565237104861119 0.033350871807756907 0 0.035721749442542042 0.031928292043367668 0 0.036564084258045679 0.032508638871728085 0 0.035058636727951058 0.03214928286164024 0 0.034709785092270615 0.032928676824559203 0 0.034709785092270615 0.032928676824559203 0 0.034988387678069804 0.03189007016824217 0 0.037029579425043341 0.031066463816644175 0 0.036695671761076819 0.032332346094089755 0 0.036220704973627019 0.030334192376399432 0 0.035844818296876239 0.031726916990468645 0 0.036824246096052032 0.032323958490001706 0 0.036220704973627019 0.030334192376399432 0 0.035844818296876239 0.031726916990468645 0 0.034999843593755534 0.031283337767093987 0 0.036220704973627019 0.030334192376399432 0 0.035058636727951058 0.03214928286164024 0 0.03499958754662575 0.031285641852216425 0 0.035950738786059692 0.028952668789533866 0 0.034999851524854853 0.029219463760732169 0 0.036220704973627019 0.030334192376399432 0 0.034999843593755534 0.031283337767093987 0 0.034999851524854853 0.029219463760732169 0 0.036220704973627019 0.030334192376399432 0 0.035950738786059692 0.028952668789533866 0 0.034999851524854853 0.029219463760732169 0 0.035780159167023977 0.027924755108757471 0 0.035950738786059692 0.028952668789533866 0 0.03606108138163544 0.028194885070544694 0 0.035780159167023977 0.027924755108757471 0 0.035950738786059692 0.028952668789533866 0 0.03606108138163544 0.028194885070544694 0 0.036096011390190419 0.028182878746929256 0 0.036140149233169022 0.027772959885221726 0 0.035950738786059692 0.028952668789533866 0 0.036040761503038352 0.028056928881585386 0 0.037029579425043341 0.031066463816644175 0 0.035950738786059692 0.028952668789533866 0 0.036220704973627019 0.030334192376399432 0 0.034702658085201579 0.03075908383111782 0 0.034894666382915017 0.029936405168921577 0 0.035950738786059692 0.028952668789533866 0 0.036040761503038352 0.028056928881585386 0 0.036096011390190419 0.028182878746929256 0 0.035975712110754801 0.027783604664013001 0 0.036040761503038352 0.028056928881585386 0 0.035961706476639536 0.027777983066499878 0 0.036040761503038352 0.028056928881585386 0 0.035961706476639536 0.027777983066499878 0 0.036065035219656892 0.027904538273588422 0 0.036040761503038352 0.028056928881585386 0 0.036096011390190419 0.028182878746929256 0 0.036065035219656892 0.027904538273588422 0 0.035862255811418046 0.02757381675421125 0 0.035961706476639536 0.027777983066499878 0 0.035965861937786364 0.027684123387262644 0 0.035961706476639536 0.027777983066499878 0 0.035965861937786364 0.027684123387262644 0 0.036065035219656892 0.027904538273588422 0 0.0359785027358865 0.027625254813805972 0 0.035965861937786364 0.027684123387262644 0 0.03606859543601966 0.027722912184647917 0 0.035965861937786364 0.027684123387262644 0 0.03606859543601966 0.027722912184647917 0 0.036065035219656892 0.027904538273588422 0 0.03606859543601966 0.027722912184647917 0 0.036065035219656892 0.027904538273588422 0 0.036186780133046138 0.027799592903365606 0 0.0359785027358865 0.027625254813805972 0 0.03606859543601966 0.027722912184647917 0 0.03609783978056659 0.027579818749356225 0 0.03606108138163544 0.028194885070544694 0 0.036096011390190419 0.028182878746929256 0 0.036186780133046138 0.027799592903365606 0 0.036096011390190419 0.028182878746929256 0 0.036065035219656892 0.027904538273588422 0 0.036186780133046138 0.027799592903365606 0 0.03606108138163544 0.028194885070544694 0 0.036186780133046138 0.027799592903365606 0 0.036196098328196549 0.02755319502691405 0 0.036186780133046138 0.027799592903365606 0 0.036253092103898835 0.027361440687239013 0 0.036196098328196549 0.02755319502691405 0 0.036186780133046138 0.027799592903365606 0 0.03609783978056659 0.027579818749356225 0 0.036253092103898835 0.027361440687239013 0 0.035996865995827868 0.02754515015799722 0 0.03609783978056659 0.027579818749356225 0 0.036253092103898835 0.027361440687239013 0 0.03606859543601966 0.027722912184647917 0 0.036186780133046138 0.027799592903365606 0 0.03609783978056659 0.027579818749356225 0 0.03656318865065282 0.026832108881579546 0 0.035959646610065475 0.027248145201161048 0 0.036253092103898835 0.027361440687239013 0 0.035959646610065475 0.027248145201161048 0 0.035996865995827868 0.02754515015799722 0 0.036253092103898835 0.027361440687239013 0 0.03656318865065282 0.026832108881579546 0 0.036253092103898835 0.027361440687239013 0 0.036196098328196549 0.02755319502691405 0 0.03656318865065282 0.026832108881579546 0 0.035940882846418984 0.026751946241188131 0 0.036196098328196549 0.02755319502691405 0 0.035940882846418984 0.026751946241188131 0 0.034999869450163798 0.027158304906194381 0 0.035780159167023977 0.027924755108757471 0 0.034999851524854853 0.029219463760732169 0 0.034999869450163798 0.027158304906194381 0 0.035780159167023977 0.027924755108757471 0 0.03606108138163544 0.028194885070544694 0 0.035780159167023977 0.027924755108757471 0 0.036196098328196549 0.02755319502691405 0 0.035940882846418984 0.026751946241188131 0 0.035780159167023977 0.027924755108757471 0 0.036196098328196549 0.02755319502691405 0 0.0050998012996194874 0.03713063772505179 0 0.0048272384621283375 0.037727862793209353 0 0.0063519184226443733 0.037105616005216106 0 0.010158608704911445 0.029995943590069091 0 0.014097856662593116 0.029267697779332896 0 0.0050998012996194874 0.03713063772505179 0 0.0063519184226443733 0.037105616005216106 0 0.0056641652454099255 0.036700963176482276 0 0.0050998012996194874 0.03713063772505179 0 0.0045256810449148793 0.03680261418223759 0 0.0050647399889721294 0.036672331177008743 0 0.0050998012996194874 0.03713063772505179 0 0.0045256810449148793 0.03680261418223759 0 0.0043883865690953613 0.036972405955553074 0 0.0050998012996194874 0.03713063772505179 0 0.0043883865690953613 0.036972405955553074 0 0.0040787075733465621 0.036819610934190325 0 0.0041688176602971026 0.036204298765375273 0 0.0043883865690953613 0.036972405955553074 0 0.0040787075733465621 0.036819610934190325 0 0.026501759585012295 0.018529850624595008 0 0.025284868520146074 0.018124797174556666 0 0.025095299555031501 0.021464830890913025 0 0.026501759585012295 0.018529850624595008 0 0.025284868520146074 0.018124797174556666 0 0.025423452246429841 0.016586015566774966 0 0.0094088540858259465 0.032117381322305953 0 0.010158608704911445 0.029995943590069091 0 0.025284868520146074 0.018124797174556666 0 0.024153145939098866 0.018542757884291314 0 0.025095299555031501 0.021464830890913025 0 0.025284868520146074 0.018124797174556666 0 0.024153145939098866 0.018542757884291314 0 0.02427621168699709 0.016912033228428471 0 0.024153145939098866 0.018542757884291314 0 0.022763324577583052 0.017288040885843143 0 0.02427621168699709 0.016912033228428471 0 0.022902506135552302 0.019263186237221414 0 0.022763324577583052 0.017288040885843143 0 0.020814228411155565 0.018188868950144377 0 0.024153145939098866 0.018542757884291314 0 0.022902506135552302 0.019263186237221414 0 0.022763324577583052 0.017288040885843143 0 0.022510955392993862 0.021031917424146142 0 0.025095299555031501 0.021464830890913025 0 0.021834367569052392 0.023135689185504071 0 0.022902506135552302 0.019263186237221414 0 0.022510955392993862 0.021031917424146142 0 0.025095299555031501 0.021464830890913025 0 0.022902506135552302 0.019263186237221414 0 0.022510955392993862 0.021031917424146142 0 0.020733801965447187 0.020442062630178091 0 0.022510955392993862 0.021031917424146142 0 0.021834367569052392 0.023135689185504071 0 0.020733801965447187 0.020442062630178091 0 0.024153145939098866 0.018542757884291314 0 0.022902506135552302 0.019263186237221414 0 0.025095299555031501 0.021464830890913025 0 0.0063519184226443733 0.037105616005216106 0 0.0065666301784511709 0.03666704625815112 0 0.0081651632826139006 0.036959801519534985 0 0.014097856662593116 0.029267697779332896 0 0.014566911642712045 0.031063874546385518 0 0.0063519184226443733 0.037105616005216106 0 0.0065666301784511709 0.03666704625815112 0 0.0056641652454099255 0.036700963176482276 0 0.025095299555031501 0.021464830890913025 0 0.021834367569052392 0.023135689185504071 0 0.022837873167315302 0.025851299501301737 0 0.0081651632826139006 0.036959801519534985 0 0.0066263117859749346 0.036089449056150837 0 0.0087821792203758298 0.037035824529972762 0 0.0065666301784511709 0.03666704625815112 0 0.0081651632826139006 0.036959801519534985 0 0.0066263117859749346 0.036089449056150837 0 0.0065666301784511709 0.03666704625815112 0 0.0066263117859749346 0.036089449056150837 0 0.0058953782733614053 0.036402487948758326 0 0.0074235867017076011 0.037738865729007337 0 0.0055261663465912391 0.037275310183735297 0 0.0060454482263632191 0.037176755810365412 0 0.0066263117859749346 0.036089449056150837 0 0.0058953782733614053 0.036402487948758326 0 0.0048681367940930434 0.036127566822709956 0 0.0074235867017076011 0.037738865729007337 0 0.0051635328702894553 0.037425346091828966 0 0.0055261663465912391 0.037275310183735297 0 0.0066314045627228636 0.036764226766715612 0 0.0055510407301849933 0.036812484820107849 0 0.0065666301784511709 0.03666704625815112 0 0.0058953782733614053 0.036402487948758326 0 0.0056641652454099255 0.036700963176482276 0 0.0058953782733614053 0.036402487948758326 0 0.0054200682528712562 0.036474171270777171 0 0.0048681367940930434 0.036127566822709956 0 0.0050998012996194874 0.03713063772505179 0 0.0056641652454099255 0.036700963176482276 0 0.0050647399889721294 0.036672331177008743 0 0.0058953782733614053 0.036402487948758326 0 0.0054200682528712562 0.036474171270777171 0 0.0056641652454099255 0.036700963176482276 0 0.0054200682528712562 0.036474171270777171 0 0.0056641652454099255 0.036700963176482276 0 0.0050647399889721294 0.036672331177008743 0 0.0045256810449148793 0.03680261418223759 0 0.0050647399889721294 0.036672331177008743 0 0.0048681367940930434 0.036127566822709956 0 0.0049655231314853126 0.03710147879334149 0 0.0051635328702894553 0.037425346091828966 0 0.0037329081170930931 0.036277468266632175 0 0.0054200682528712562 0.036474171270777171 0 0.0050647399889721294 0.036672331177008743 0 0.0048681367940930434 0.036127566822709956 0 0.0049655231314853126 0.03710147879334149 0 0.0051635328702894553 0.037425346091828966 0 0.0055261663465912391 0.037275310183735297 0 0.0055261663465912391 0.037275310183735297 0 0.0051162529456097996 0.03713556962008404 0 0.0060454482263632191 0.037176755810365412 0 0.0049655231314853126 0.03710147879334149 0 0.0055261663465912391 0.037275310183735297 0 0.0050409007661932209 0.03716986284097025 0 0.0055261663465912391 0.037275310183735297 0 0.0050409007661932209 0.03716986284097025 0 0.0051162529456097996 0.03713556962008404 0 0.0049655231314853126 0.03710147879334149 0 0.0050409007661932209 0.03716986284097025 0 0.0046860910098933187 0.037172594387538956 0 0.0050409007661932209 0.03716986284097025 0 0.0046860910098933187 0.037172594387538956 0 0.0051162529456097996 0.03713556962008404 0 0.0049655231314853126 0.03710147879334149 0 0.0046860910098933187 0.037172594387538956 0 0.0041606853886764416 0.037281173723434223 0 0.0049655231314853126 0.03710147879334149 0 0.0031911402876551569 0.034806178359051081 0 0.0037329081170930931 0.036277468266632175 0 0.0038137047987142052 0.036367235846714023 0 0.0030887924183877645 0.036111085539744424 0 0.0031911402876551569 0.034806178359051081 0 0.0025103991434730563 0.035728114299356954 0 0.0016881933296631773 0.035053869269978513 0 0.0031911402876551569 0.034806178359051081 0 0.0025103991434730563 0.035728114299356954 0 0.0037329081170930931 0.036277468266632175 0 0.0025103991434730563 0.035728114299356954 0 0.0037329081170930931 0.036277468266632175 0 0.0021164711688075382 0.036943604780122298 0 0.0055510407301849933 0.036812484820107849 0 0.0049714718496767655 0.036824113959699707 0 0.0045256810449148793 0.03680261418223759 0 0.0048681367940930434 0.036127566822709956 0 0.0037329081170930931 0.036277468266632175 0 0.0016881933296631773 0.035053869269978513 0 0.00045270510502570175 0.035169177887759584 0 0.00077297733161678286 0.033623593525466532 0 0.00045270510502570175 0.035169177887759584 0 0.00077297733161678286 0.033623593525466532 0 -0.00052244469305070564 0.034506124470075977 0 0.00045270510502570175 0.035169177887759584 0 -0.00052244469305070564 0.034506124470075977 0 -0.00066804085702457366 0.035386024229320481 0 0.0031911402876551569 0.034806178359051081 0 0.0016881933296631773 0.035053869269978513 0 0.00077297733161678286 0.033623593525466532 0 0.0030887924183877645 0.036111085539744424 0 0.0013737457046550355 0.035709482136318846 0 0.0025103991434730563 0.035728114299356954 0 0.0014094489150060859 0.035855215120110341 0 0.0021164711688075382 0.036943604780122298 0 0.0025103991434730563 0.035728114299356954 0 0.0016881933296631773 0.035053869269978513 0 0.0014094489150060859 0.035855215120110341 0 0.0016881933296631773 0.035053869269978513 0 0.0014094489150060859 0.035855215120110341 0 0.00045270510502570175 0.035169177887759584 0 0.00045270510502570175 0.035169177887759584 0 -8.333206136268469e-05 0.036665838689050968 0 -0.00066804085702457366 0.035386024229320481 0 0.0014094489150060859 0.035855215120110341 0 0.00045270510502570175 0.035169177887759584 0 -8.333206136268469e-05 0.036665838689050968 0 -8.333206136268469e-05 0.036665838689050968 0 0.0021164711688075382 0.036943604780122298 0 -0.00034178890056907227 0.038848984498867416 0 0.0014094489150060859 0.035855215120110341 0 -8.333206136268469e-05 0.036665838689050968 0 0.0021164711688075382 0.036943604780122298 0 0.0021164711688075382 0.036943604780122298 0 0.0044672342136682199 0.037268244175369239 0 0.0025057203152982826 0.039216219920626426 0 0.0045256810449148793 0.03680261418223759 0 0.0043883865690953613 0.036972405955553074 0 0.0044672342136682199 0.037268244175369239 0 0.0045256810449148793 0.03680261418223759 0 0.0037329081170930931 0.036277468266632175 0 0.0044672342136682199 0.037268244175369239 0 0.0037329081170930931 0.036277468266632175 0 0.0021164711688075382 0.036943604780122298 0 0.0044672342136682199 0.037268244175369239 0 0.0041688176602971026 0.036204298765375273 0 0.0043883865690953613 0.036972405955553074 0 0.0044672342136682199 0.037268244175369239 0 0.0041688176602971026 0.036204298765375273 0 0.0044672342136682199 0.037268244175369239 0 0.0039316518330215454 0.034458185442951553 0 0.0044672342136682199 0.037268244175369239 0 0.0039316518330215454 0.034458185442951553 0 0.0071463483388548524 0.034524762435660682 0 0.0035130386794721817 0.035932641530969638 0 0.0032104155936793586 0.035388513060953114 0 0.0071463483388548524 0.034524762435660682 0 0.0061727428477386425 0.032162112523204479 0 0.0094858653096643059 0.031246234574756723 0 0.0039316518330215454 0.034458185442951553 0 0.0071463483388548524 0.034524762435660682 0 0.0061727428477386425 0.032162112523204479 0 0.0039316518330215454 0.034458185442951553 0 0.0061727428477386425 0.032162112523204479 0 0.0039999482042112205 0.032209116399571434 0 0.0021164711688075382 0.036943604780122298 0 0.0025057203152982826 0.039216219920626426 0 -0.00034178890056907227 0.038848984498867416 0 0.0032104155936793586 0.035388513060953114 0 0.0018255176200513497 0.033737998704057026 0 0.0025057203152982826 0.039216219920626426 0 -0.00034178890056907227 0.038848984498867416 0 0.00087679423046382486 0.040879050440462673 0 -0.00034178890056907227 0.038848984498867416 0 0.00087679423046382486 0.040879050440462673 0 -0.0010892369088680333 0.040858848331617313 0 0.0018255176200513497 0.033737998704057026 0 -0.0020391373343148743 0.030569891596501135 0 0.00087679423046382486 0.040879050440462673 0 -0.0012660994299191664 0.042281474631995532 0 -0.0010892369088680333 0.040858848331617313 0 0.0094858653096643059 0.031246234574756723 0 0.0093933354674073846 0.02874003991763063 0 0.006944491364092034 0.0293803205825564 0 0.0093933354674073846 0.02874003991763063 0 0.006944491364092034 0.0293803205825564 0 0.007625690382495132 0.027335839029733678 0 0.0094858653096643059 0.031246234574756723 0 0.0093933354674073846 0.02874003991763063 0 0.011594973430076223 0.027962333844751216 0 0.00087679423046382486 0.040879050440462673 0 -0.00081988331728464591 0.042790156680335575 0 -0.0012660994299191664 0.042281474631995532 0 -0.0020391373343148743 0.030569891596501135 0 -0.0016309604542890062 0.03132729938995657 0 0.0039999482042112205 0.032209116399571434 0 0.0047841227675419311 0.030183467580717434 0 0.0025790464775399423 0.029400613700153098 0 0.0061727428477386425 0.032162112523204479 0 0.0039999482042112205 0.032209116399571434 0 0.0047841227675419311 0.030183467580717434 0 0.0061727428477386425 0.032162112523204479 0 0.0094858653096643059 0.031246234574756723 0 0.006944491364092034 0.0293803205825564 0 0.0061727428477386425 0.032162112523204479 0 0.0047841227675419311 0.030183467580717434 0 0.006944491364092034 0.0293803205825564 0 0.006944491364092034 0.0293803205825564 0 0.0061045047367631741 0.027462465324069797 0 0.0050734651776547929 0.028454598259722363 0 0.006944491364092034 0.0293803205825564 0 0.007625690382495132 0.027335839029733678 0 0.0061045047367631741 0.027462465324069797 0 0.0061045047367631741 0.027462465324069797 0 0.0049518608984449788 0.027284302745658722 0 0.0050734651776547929 0.028454598259722363 0 0.0047841227675419311 0.030183467580717434 0 0.006944491364092034 0.0293803205825564 0 0.0050734651776547929 0.028454598259722363 0 0.0047841227675419311 0.030183467580717434 0 0.0050734651776547929 0.028454598259722363 0 0.0038565280142533326 0.028651782806108483 0 0.0047841227675419311 0.030183467580717434 0 0.0038565280142533326 0.028651782806108483 0 0.0025790464775399423 0.029400613700153098 0 0.0050734651776547929 0.028454598259722363 0 0.0038565280142533326 0.028651782806108483 0 0.0039901297385348707 0.027612022896892789 0 0.0049518608984449788 0.027284302745658722 0 0.0050734651776547929 0.028454598259722363 0 0.0039901297385348707 0.027612022896892789 0 0.00412780968268232 0.026597217791813114 0 0.0049518608984449788 0.027284302745658722 0 0.0039901297385348707 0.027612022896892789 0 0.0031709555670555185 0.026690116095341849 0 0.0039901297385348707 0.027612022896892789 0 0.0023433376847494768 0.027633339637993339 0 0.0090501493242639442 0.021101793966181843 0 0.0095311121938268049 0.020973540514522541 0 0.0038565280142533326 0.028651782806108483 0 0.0039901297385348707 0.027612022896892789 0 0.0029431337074197622 0.027560765610813515 0 0.0095311121938268049 0.020973540514522541 0 0.011887020566081229 0.019411001427886345 0 0.0019231702205016465 0.026593046395547819 0 0.0023433376847494768 0.027633339637993339 0 0.00024380948520087302 0.027557849827890887 0 0.01169694566225093 0.018874794702932827 0 0.010349847814630365 0.018820061434971135 0 0.011300504142281851 0.020872124955282272 0 0.026102661878864772 0.012236924651968323 0 0.026631122801018918 0.013287621861752896 0 0.025413925094571729 0.01316008099621189 0 0.011887020566081229 0.019411001427886345 0 0.010361196406689316 0.022075087782252287 0 0.0038565280142533326 0.028651782806108483 0 0.0029431337074197622 0.027560765610813515 0 0.0025790464775399423 0.029400613700153098 0 0.0095311121938268049 0.020973540514522541 0 0.010361196406689316 0.022075087782252287 0 0.026102661878864772 0.012236924651968323 0 0.025413925094571729 0.01316008099621189 0 0.024257579505279427 0.012086367289258841 0 0.011887020566081229 0.019411001427886345 0 0.017112089665948498 0.014830549620393549 0 0.025413925094571729 0.01316008099621189 0 0.025003964941952627 0.014090744849719705 0 0.024302971028929067 0.013257928472423129 0 0.025413925094571729 0.01316008099621189 0 0.025835439289807197 0.014224377892631481 0 0.025003964941952627 0.014090744849719705 0 0.026631122801018918 0.013287621861752896 0 0.025413925094571729 0.01316008099621189 0 0.025835439289807197 0.014224377892631481 0 0.025835439289807197 0.014224377892631481 0 0.025003964941952627 0.014090744849719705 0 0.02544935803882693 0.015141676206292316 0 0.0039999482042112205 0.032209116399571434 0 0.0029576212956242869 0.029678527854218234 0 0.0023714663460290123 0.033546559007374091 0 0.026631122801018918 0.013287621861752896 0 0.025835439289807197 0.014224377892631481 0 0.026508151762886629 0.015655459432128493 0 0.010070836041063989 0.024925760480643173 0 0.010361196406689316 0.022075087782252287 0 0.010361196406689316 0.022075087782252287 0 0.011536288088643201 0.024741652413104269 0 0.0039316518330215454 0.034458185442951553 0 0.0039999482042112205 0.032209116399571434 0 0.0023714663460290123 0.033546559007374091 0 0.025835439289807197 0.014224377892631481 0 0.026508151762886629 0.015655459432128493 0 0.02544935803882693 0.015141676206292316 0 0.025003964941952627 0.014090744849719705 0 0.02544935803882693 0.015141676206292316 0 0.024442838695608371 0.015288652429179421 0 0.02544935803882693 0.015141676206292316 0 0.025423452246429841 0.016586015566774966 0 0.024442838695608371 0.015288652429179421 0 0.026508151762886629 0.015655459432128493 0 0.02544935803882693 0.015141676206292316 0 0.025423452246429841 0.016586015566774966 0 0.026501759585012295 0.018529850624595008 0 0.026508151762886629 0.015655459432128493 0 0.025423452246429841 0.016586015566774966 0 0.010158608704911445 0.029995943590069091 0 0.011536288088643201 0.024741652413104269 0 0.0021140833152979537 0.036506353234946928 0 0.0039316518330215454 0.034458185442951553 0 0.0023714663460290123 0.033546559007374091 0 0.010158608704911445 0.029995943590069091 0 0.0063448650679512218 0.033785449989407912 0 0.0041688176602971026 0.036204298765375273 0 0.0040787075733465621 0.036819610934190325 0 0.0039316518330215454 0.034458185442951553 0 0.023436615800495324 0.015954337107989162 0 0.022763324577583052 0.017288040885843143 0 0.02234726188853764 0.015366759094369173 0 0.022763324577583052 0.017288040885843143 0 0.02234726188853764 0.015366759094369173 0 0.02130259430806411 0.016175795624508205 0 0.023436615800495324 0.015954337107989162 0 0.022763324577583052 0.017288040885843143 0 0.02427621168699709 0.016912033228428471 0 0.025423452246429841 0.016586015566774966 0 0.02427621168699709 0.016912033228428471 0 0.024442838695608371 0.015288652429179421 0 0.023436615800495324 0.015954337107989162 0 0.02427621168699709 0.016912033228428471 0 0.024442838695608371 0.015288652429179421 0 0.025284868520146074 0.018124797174556666 0 0.025423452246429841 0.016586015566774966 0 0.02427621168699709 0.016912033228428471 0 0.023436615800495324 0.015954337107989162 0 0.024442838695608371 0.015288652429179421 0 0.023199716377156326 0.014893762598254184 0 0.024442838695608371 0.015288652429179421 0 0.023199716377156326 0.014893762598254184 0 0.023615539633318014 0.013989342465550924 0 0.023436615800495324 0.015954337107989162 0 0.023199716377156326 0.014893762598254184 0 0.02234726188853764 0.015366759094369173 0 0.023199716377156326 0.014893762598254184 0 0.02234726188853764 0.015366759094369173 0 0.02241328215119387 0.014205656120576225 0 0.02241328215119387 0.014205656120576225 0 0.022589506046949551 0.013440688841986018 0 0.023615539633318014 0.013989342465550924 0 0.023199716377156326 0.014893762598254184 0 0.02241328215119387 0.014205656120576225 0 0.023615539633318014 0.013989342465550924 0 0.022589506046949551 0.013440688841986018 0 0.023615539633318014 0.013989342465550924 0 0.023220639191080899 0.012961258135249037 0 0.025003964941952627 0.014090744849719705 0 0.023615539633318014 0.013989342465550924 0 0.024302971028929067 0.013257928472423129 0 0.025003964941952627 0.014090744849719705 0 0.024442838695608371 0.015288652429179421 0 0.023615539633318014 0.013989342465550924 0 0.023615539633318014 0.013989342465550924 0 0.024302971028929067 0.013257928472423129 0 0.023220639191080899 0.012961258135249037 0 0.017112089665948498 0.014830549620393549 0 0.018409692891039685 0.012791041175620436 0 0.023848156396461651 0.012303441925788042 0 0.023220639191080899 0.012961258135249037 0 0.022857496072811675 0.012204322373644749 0 0.025413925094571729 0.01316008099621189 0 0.024302971028929067 0.013257928472423129 0 0.024257579505279427 0.012086367289258841 0 0.024302971028929067 0.013257928472423129 0 0.024257579505279427 0.012086367289258841 0 0.023220639191080899 0.012961258135249037 0 0.017112089665948498 0.014830549620393549 0 0.018844632593144325 0.013639194756982512 0 0.018409692891039685 0.012791041175620436 0 0.019385031975235386 0.01098879906713519 0 0.022355900979572157 0.012797645716480364 0 0.022857496072811675 0.012204322373644749 0 0.021692052496970288 0.012126996806248848 0 0.022589506046949551 0.013440688841986018 0 0.022355900979572157 0.012797645716480364 0 0.023220639191080899 0.012961258135249037 0 0.022355900979572157 0.012797645716480364 0 0.023220639191080899 0.012961258135249037 0 0.022857496072811675 0.012204322373644749 0 0.022589506046949551 0.013440688841986018 0 0.022355900979572157 0.012797645716480364 0 0.02137060782809657 0.013199539174174862 0 0.022355900979572157 0.012797645716480364 0 0.021692052496970288 0.012126996806248848 0 0.02137060782809657 0.013199539174174862 0 0.019385031975235386 0.01098879906713519 0 0.019933156917996506 0.011558213351678063 0 0.022789812767970454 0.0086322493911161445 0 0.022322685121134948 0.010999789852105974 0 0.02160541370147584 0.00948455168711731 0 0.021734044388747702 0.0085585772189677115 0 0.022789812767970454 0.0086322493911161445 0 0.02160541370147584 0.00948455168711731 0 0.019568647741898197 0.010945627882748233 0 0.019385031975235386 0.01098879906713519 0 0.019933156917996506 0.011558213351678063 0 0.020016751683455541 0.012008134950544647 0 0.02137060782809657 0.013199539174174862 0 0.021673004748121127 0.014450659604641237 0 0.021194116692056408 0.013887108396391559 0 0.02241328215119387 0.014205656120576225 0 0.022589506046949551 0.013440688841986018 0 0.02137060782809657 0.013199539174174862 0 0.02241328215119387 0.014205656120576225 0 0.02137060782809657 0.013199539174174862 0 0.021673004748121127 0.014450659604641237 0 0.022322685121134948 0.010999789852105974 0 0.020254802551717639 0.012209196579634964 0 0.02065903500279145 0.0099842456427942389 0 0.022322685121134948 0.010999789852105974 0 0.020254802551717639 0.012209196579634964 0 0.021194116692056408 0.013887108396391559 0 0.022322685121134948 0.010999789852105974 0 0.02065903500279145 0.0099842456427942389 0 0.02160541370147584 0.00948455168711731 0 0.020900469134049492 0.0086096202223408646 0 0.021734044388747702 0.0085585772189677115 0 0.02160541370147584 0.00948455168711731 0 0.020110117780465099 0.0081685227324183578 0 0.020900469134049492 0.0086096202223408646 0 0.02065903500279145 0.0099842456427942389 0 0.020900469134049492 0.0086096202223408646 0 0.02065903500279145 0.0099842456427942389 0 0.02160541370147584 0.00948455168711731 0 0.020110117780465099 0.0081685227324183578 0 0.019066929631568232 0.0086886290789445157 0 0.019255515385448733 0.010799824100071751 0 0.020110117780465099 0.0081685227324183578 0 0.02065903500279145 0.0099842456427942389 0 0.019255515385448733 0.010799824100071751 0 0.018486944020854358 0.007001569739631665 0 0.019066929631568232 0.0086886290789445157 0 0.017705508573520535 0.010750099655938232 0 0.019066929631568232 0.0086886290789445157 0 0.017705508573520535 0.010750099655938232 0 0.019255515385448733 0.010799824100071751 0 0.0178084024581073 0.012413551206527226 0 0.019255515385448733 0.010799824100071751 0 0.018660594923380389 0.013444912587336539 0 0.017705508573520535 0.010750099655938232 0 0.0178084024581073 0.012413551206527226 0 0.019255515385448733 0.010799824100071751 0 0.020254802551717639 0.012209196579634964 0 0.02065903500279145 0.0099842456427942389 0 0.019255515385448733 0.010799824100071751 0 0.020254802551717639 0.012209196579634964 0 0.019255515385448733 0.010799824100071751 0 0.018660594923380389 0.013444912587336539 0 0.020254802551717639 0.012209196579634964 0 0.018660594923380389 0.013444912587336539 0 0.019623164220865859 0.014560598917816926 0 0.018660594923380389 0.013444912587336539 0 0.018636231029634576 0.014729784573885464 0 0.019623164220865859 0.014560598917816926 0 0.018636231029634576 0.014729784573885464 0 0.019623164220865859 0.014560598917816926 0 0.018780650707919767 0.015632864589083681 0 0.018660594923380389 0.013444912587336539 0 0.016856491973507314 0.013912277109112836 0 0.017688703228767783 0.015293714221592503 0 0.0178084024581073 0.012413551206527226 0 0.018660594923380389 0.013444912587336539 0 0.016856491973507314 0.013912277109112836 0 0.018660594923380389 0.013444912587336539 0 0.018636231029634576 0.014729784573885464 0 0.017688703228767783 0.015293714221592503 0 0.016856491973507314 0.013912277109112836 0 0.017688703228767783 0.015293714221592503 0 0.015998407467008643 0.015635969263734777 0 0.017688703228767783 0.015293714221592503 0 0.016802622060042946 0.016906792071815519 0 0.015998407467008643 0.015635969263734777 0 0.017688703228767783 0.015293714221592503 0 0.017988418409700179 0.016991719995101351 0 0.018780650707919767 0.015632864589083681 0 0.017688703228767783 0.015293714221592503 0 0.017988418409700179 0.016991719995101351 0 0.016802622060042946 0.016906792071815519 0 0.018780650707919767 0.015632864589083681 0 0.019481434859581481 0.016111733460557463 0 0.017208975410214603 0.019591217797283005 0 0.019623164220865859 0.014560598917816926 0 0.018780650707919767 0.015632864589083681 0 0.019481434859581481 0.016111733460557463 0 0.018636231029634576 0.014729784573885464 0 0.017688703228767783 0.015293714221592503 0 0.018780650707919767 0.015632864589083681 0 0.019623164220865859 0.014560598917816926 0 0.019481434859581481 0.016111733460557463 0 0.020585603336163143 0.01529835676939586 0 0.019481434859581481 0.016111733460557463 0 0.020143312420233459 0.016720537981718971 0 0.020585603336163143 0.01529835676939586 0 0.019481434859581481 0.016111733460557463 0 0.020143312420233459 0.016720537981718971 0 0.019053812656553537 0.018187282526918348 0 0.020143312420233459 0.016720537981718971 0 0.02130259430806411 0.016175795624508205 0 0.020814228411155565 0.018188868950144377 0 0.022763324577583052 0.017288040885843143 0 0.02130259430806411 0.016175795624508205 0 0.020814228411155565 0.018188868950144377 0 0.020143312420233459 0.016720537981718971 0 0.02130259430806411 0.016175795624508205 0 0.020585603336163143 0.01529835676939586 0 0.02234726188853764 0.015366759094369173 0 0.02130259430806411 0.016175795624508205 0 0.021673004748121127 0.014450659604641237 0 0.02130259430806411 0.016175795624508205 0 0.021673004748121127 0.014450659604641237 0 0.020585603336163143 0.01529835676939586 0 0.02234726188853764 0.015366759094369173 0 0.02241328215119387 0.014205656120576225 0 0.021673004748121127 0.014450659604641237 0 0.021673004748121127 0.014450659604641237 0 0.021194116692056408 0.013887108396391559 0 0.020585603336163143 0.01529835676939586 0 0.020254802551717639 0.012209196579634964 0 0.019623164220865859 0.014560598917816926 0 0.021194116692056408 0.013887108396391559 0 0.019623164220865859 0.014560598917816926 0 0.021194116692056408 0.013887108396391559 0 0.020585603336163143 0.01529835676939586 0 0.014556421347831573 0.024233822512452666 0 0.014096556532906519 0.025764059948058471 0 0.013105650927284371 0.023722192323799702 0 0.011776783600292329 0.013909924913739621 0 0.012433639275832336 0.014224234864777802 0 0.012324623496496006 0.015089031756456737 0 0.017078686225398255 0.015476029860015523 0 0.015180675424579206 0.018087737085464628 0 0.021146293932043952 0.01215977558113036 0 0.020995116560713938 0.012493977661097028 0 0.021393476335883801 0.012324492872695597 0 0.011776783600292329 0.013909924913739621 0 0.012930937021510922 0.013537296276617424 0 0.012433639275832336 0.014224234864777802 0 0.017078686225398255 0.015476029860015523 0 0.017496108111613114 0.011423891348541125 0 0.017496108111613114 0.011423891348541125 0 0.017846828445489002 0.010136002517398547 0 0.017496108111613114 0.011423891348541125 0 0.015798040754686851 0.013043768244842619 0 0.012930937021510922 0.013537296276617424 0 0.012433639275832336 0.014224234864777802 0 0.013363477696884486 0.014744165540191478 0 0.012433639275832336 0.014224234864777802 0 0.013363477696884486 0.014744165540191478 0 0.012324623496496006 0.015089031756456737 0 0.012153456654657526 0.0093910040525751453 0 0.013191616006747021 0.012800089032640164 0 0.015001468624000661 0.010954523827086778 0 0.013191616006747021 0.012800089032640164 0 0.015001468624000661 0.010954523827086778 0 0.015879766985761268 0.012485313900754344 0 0.018486944020854358 0.007001569739631665 0 0.015001468624000661 0.010954523827086778 0 0.012877249739040334 0.0081815629880648243 0 0.012153456654657526 0.0093910040525751453 0 0.015001468624000661 0.010954523827086778 0 0.01344949798117397 0.009019156844369618 0 0.0170817350483571 0.0097039783343991944 0 0.017846828445489002 0.010136002517398547 0 0.018486944020854358 0.007001569739631665 0 0.017705508573520535 0.010750099655938232 0 0.015001468624000661 0.010954523827086778 0 0.017705508573520535 0.010750099655938232 0 0.015001468624000661 0.010954523827086778 0 0.015879766985761268 0.012485313900754344 0 0.0178084024581073 0.012413551206527226 0 0.016856491973507314 0.013912277109112836 0 0.015879766985761268 0.012485313900754344 0 0.017705508573520535 0.010750099655938232 0 0.0178084024581073 0.012413551206527226 0 0.015879766985761268 0.012485313900754344 0 0.016856491973507314 0.013912277109112836 0 0.015879766985761268 0.012485313900754344 0 0.015169289186170444 0.014216500078517972 0 0.016856491973507314 0.013912277109112836 0 0.015169289186170444 0.014216500078517972 0 0.015998407467008643 0.015635969263734777 0 0.016802622060042946 0.016906792071815519 0 0.015998407467008643 0.015635969263734777 0 0.015280748514263002 0.017296722072413083 0 0.015998407467008643 0.015635969263734777 0 0.015280748514263002 0.017296722072413083 0 0.014032184416580381 0.016301778549559373 0 0.015169289186170444 0.014216500078517972 0 0.015998407467008643 0.015635969263734777 0 0.014032184416580381 0.016301778549559373 0 0.015798040754686851 0.013043768244842619 0 0.015578444062665463 0.014258785106618939 0 0.013363477696884486 0.014744165540191478 0 0.014032184416580381 0.016301778549559373 0 0.012848505822141528 0.016594124112117858 0 0.013191616006747021 0.012800089032640164 0 0.015879766985761268 0.012485313900754344 0 0.015169289186170444 0.014216500078517972 0 0.013191616006747021 0.012800089032640164 0 0.015169289186170444 0.014216500078517972 0 0.014032184416580381 0.016301778549559373 0 0.014473574379889475 0.019494816303968453 0 0.015180675424579206 0.018087737085464628 0 0.013363477696884486 0.014744165540191478 0 0.012848505822141528 0.016594124112117858 0 0.012324623496496006 0.015089031756456737 0 0.013111986086823514 0.022244608772886514 0 0.013550216772447506 0.022528777910468277 0 0.013105650927284371 0.023722192323799702 0 0.013111986086823514 0.022244608772886514 0 0.013550216772447506 0.022528777910468277 0 0.013286046790850466 0.022174457537807987 0 0.014556421347831573 0.024233822512452666 0 0.013550216772447506 0.022528777910468277 0 0.013105650927284371 0.023722192323799702 0 0.012425419461548801 0.023453729524329614 0 0.012952841796402327 0.023366097504234237 0 0.013053214535743063 0.022372000294980286 0 0.012952841796402327 0.023366097504234237 0 0.013236003126699447 0.022496754798476227 0 0.013053214535743063 0.022372000294980286 0 0.013236003126699447 0.022496754798476227 0 0.013053214535743063 0.022372000294980286 0 0.01339709290354823 0.021904397690438768 0 0.014002958400201184 0.021093195305179283 0 0.013550216772447506 0.022528777910468277 0 0.01339709290354823 0.021904397690438768 0 0.013550216772447506 0.022528777910468277 0 0.01339709290354823 0.021904397690438768 0 0.013286046790850466 0.022174457537807987 0 0.013236003126699447 0.022496754798476227 0 0.01339709290354823 0.021904397690438768 0 0.013286046790850466 0.022174457537807987 0 0.013236003126699447 0.022496754798476227 0 0.013286046790850466 0.022174457537807987 0 0.013451747759052331 0.022423585708169134 0 0.013111986086823514 0.022244608772886514 0 0.013286046790850466 0.022174457537807987 0 0.013451747759052331 0.022423585708169134 0 0.013236003126699447 0.022496754798476227 0 0.013451747759052331 0.022423585708169134 0 0.013502517788199416 0.023182187125346618 0 0.012952841796402327 0.023366097504234237 0 0.013236003126699447 0.022496754798476227 0 0.013502517788199416 0.023182187125346618 0 0.013451747759052331 0.022423585708169134 0 0.013502517788199416 0.023182187125346618 0 0.014268527955836949 0.022575438227793652 0 0.013502517788199416 0.023182187125346618 0 0.014268527955836949 0.022575438227793652 0 0.014066350359103834 0.024127492233404157 0 0.014268527955836949 0.022575438227793652 0 0.015509516190612319 0.023822843723491839 0 0.014066350359103834 0.024127492233404157 0 0.013111986086823514 0.022244608772886514 0 0.013451747759052331 0.022423585708169134 0 0.014268527955836949 0.022575438227793652 0 0.015280748514263002 0.017296722072413083 0 0.014032184416580381 0.016301778549559373 0 0.01373507077039334 0.019632643323529951 0 0.014032184416580381 0.016301778549559373 0 0.012848505822141528 0.016594124112117858 0 0.01373507077039334 0.019632643323529951 0 0.014473574379889475 0.019494816303968453 0 0.014785041498393213 0.021113240333641106 0 0.01373507077039334 0.019632643323529951 0 0.016135320505497517 0.01840262940761233 0 0.016326635503807935 0.020621813239889521 0 0.015280748514263002 0.017296722072413083 0 0.01373507077039334 0.019632643323529951 0 0.016135320505497517 0.01840262940761233 0 0.016802622060042946 0.016906792071815519 0 0.015280748514263002 0.017296722072413083 0 0.016135320505497517 0.01840262940761233 0 0.01373507077039334 0.019632643323529951 0 0.016326635503807935 0.020621813239889521 0 0.015509516190612319 0.023822843723491839 0 0.014785041498393213 0.021113240333641106 0 0.015267076927033611 0.022230199831650154 0 0.016326635503807935 0.020621813239889521 0 0.015509516190612319 0.023822843723491839 0 0.017492580750994653 0.024620288673424386 0 0.015509516190612319 0.023822843723491839 0 0.014655311352389511 0.024923400520221514 0 0.014066350359103834 0.024127492233404157 0 0.015509516190612319 0.023822843723491839 0 0.015414888869705413 0.025566840320147621 0 0.014655311352389511 0.024923400520221514 0 0.015509516190612319 0.023822843723491839 0 0.015414888869705413 0.025566840320147621 0 0.017492580750994653 0.024620288673424386 0 0.015414888869705413 0.025566840320147621 0 0.017492580750994653 0.024620288673424386 0 0.015588586875361583 0.028051271239971438 0 0.015414888869705413 0.025566840320147621 0 0.014133546431768576 0.026113484916320227 0 0.015588586875361583 0.028051271239971438 0 0.015414888869705413 0.025566840320147621 0 0.014133546431768576 0.026113484916320227 0 0.014655311352389511 0.024923400520221514 0 0.014133546431768576 0.026113484916320227 0 0.013611824130625649 0.025198276348532639 0 0.014655311352389511 0.024923400520221514 0 0.014133546431768576 0.026113484916320227 0 0.013611824130625649 0.025198276348532639 0 0.012860291910883519 0.026410285162647654 0 0.013611824130625649 0.025198276348532639 0 0.014655311352389511 0.024923400520221514 0 0.014066350359103834 0.024127492233404157 0 0.012952841796402327 0.023366097504234237 0 0.013502517788199416 0.023182187125346618 0 0.013073788554294797 0.024560094031538075 0 0.013611824130625649 0.025198276348532639 0 0.014066350359103834 0.024127492233404157 0 0.013073788554294797 0.024560094031538075 0 0.013502517788199416 0.023182187125346618 0 0.014066350359103834 0.024127492233404157 0 0.013073788554294797 0.024560094031538075 0 0.013611824130625649 0.025198276348532639 0 0.013073788554294797 0.024560094031538075 0 0.012860291910883519 0.026410285162647654 0 0.013073788554294797 0.024560094031538075 0 0.012860291910883519 0.026410285162647654 0 0.012293282072992295 0.02561553153461732 0 0.012860291910883519 0.026410285162647654 0 0.012293282072992295 0.02561553153461732 0 0.011888091525992284 0.026644385796668873 0 0.012293282072992295 0.02561553153461732 0 0.011332223043648825 0.026163803587856038 0 0.011888091525992284 0.026644385796668873 0 0.012293282072992295 0.02561553153461732 0 0.011332223043648825 0.026163803587856038 0 0.011744821943820986 0.025233256734383442 0 0.012293282072992295 0.02561553153461732 0 0.011744821943820986 0.025233256734383442 0 0.012413605448635233 0.024404141377924217 0 0.011884079068010365 0.024264411320293739 0 0.011744821943820986 0.025233256734383442 0 0.012413605448635233 0.024404141377924217 0 0.013073788554294797 0.024560094031538075 0 0.012293282072992295 0.02561553153461732 0 0.012413605448635233 0.024404141377924217 0 0.012952841796402327 0.023366097504234237 0 0.013073788554294797 0.024560094031538075 0 0.012413605448635233 0.024404141377924217 0 0.012425419461548801 0.023453729524329614 0 0.012952841796402327 0.023366097504234237 0 0.012413605448635233 0.024404141377924217 0 0.012425419461548801 0.023453729524329614 0 0.011884079068010365 0.024264411320293739 0 0.012413605448635233 0.024404141377924217 0 0.018761640213786145 0.020284076706770997 0 0.019053812656553537 0.018187282526918348 0 0.016245444945636241 0.020153912587151279 0 0.018761640213786145 0.020284076706770997 0 0.016245444945636241 0.020153912587151279 0 0.017197907077846235 0.022892384715172222 0 0.018761640213786145 0.020284076706770997 0 0.017197907077846235 0.022892384715172222 0 0.019591979574159292 0.02249618446752364 0 0.018761640213786145 0.020284076706770997 0 0.020733801965447187 0.020442062630178091 0 0.019591979574159292 0.02249618446752364 0 0.021834367569052392 0.023135689185504071 0 0.020733801965447187 0.020442062630178091 0 0.019591979574159292 0.02249618446752364 0 0.018761640213786145 0.020284076706770997 0 0.020733801965447187 0.020442062630178091 0 0.020814228411155565 0.018188868950144377 0 0.022902506135552302 0.019263186237221414 0 0.020733801965447187 0.020442062630178091 0 0.020814228411155565 0.018188868950144377 0 0.020143312420233459 0.016720537981718971 0 0.020814228411155565 0.018188868950144377 0 0.019053812656553537 0.018187282526918348 0 0.019481434859581481 0.016111733460557463 0 0.019053812656553537 0.018187282526918348 0 0.016245444945636241 0.020153912587151279 0 0.018761640213786145 0.020284076706770997 0 0.020814228411155565 0.018188868950144377 0 0.019053812656553537 0.018187282526918348 0 0.017926155358879203 0.019047643972458256 0 0.017353294232059228 0.021421740434990153 0 0.019481434859581481 0.016111733460557463 0 0.017208975410214603 0.019591217797283005 0 0.019412162619947559 0.020437221800300113 0 0.018307523626214871 0.018143427628425895 0 0.017785984518365695 0.020210230061837649 0 0.017988418409700179 0.016991719995101351 0 0.018780650707919767 0.015632864589083681 0 0.018793682794920431 0.019657384921056714 0 0.017988418409700179 0.016991719995101351 0 0.017368499221310712 0.018379997289414789 0 0.018793682794920431 0.019657384921056714 0 0.016326635503807935 0.020621813239889521 0 0.017368499221310712 0.018379997289414789 0 0.018793682794920431 0.019657384921056714 0 0.017988418409700179 0.016991719995101351 0 0.016802622060042946 0.016906792071815519 0 0.017368499221310712 0.018379997289414789 0 0.016802622060042946 0.016906792071815519 0 0.016135320505497517 0.01840262940761233 0 0.017368499221310712 0.018379997289414789 0 0.016135320505497517 0.01840262940761233 0 0.016326635503807935 0.020621813239889521 0 0.017368499221310712 0.018379997289414789 0 0.017208975410214603 0.019591217797283005 0 0.017806742804827587 0.022311498281610082 0 0.016025298819486618 0.024229832205035832 0 0.016326635503807935 0.020621813239889521 0 0.018793682794920431 0.019657384921056714 0 0.017492580750994653 0.024620288673424386 0 0.017785984518365695 0.020210230061837649 0 0.016853073672032627 0.023744765019270222 0 0.017208975410214603 0.019591217797283005 0 0.019412162619947559 0.020437221800300113 0 0.017806742804827587 0.022311498281610082 0 0.019412162619947559 0.020437221800300113 0 0.017806742804827587 0.022311498281610082 0 0.01887940723699184 0.025146560337586391 0 0.017806742804827587 0.022311498281610082 0 0.016025298819486618 0.024229832205035832 0 0.01887940723699184 0.025146560337586391 0 0.017353294232059228 0.021421740434990153 0 0.01625275826782208 0.025973460470256528 0 0.016025298819486618 0.024229832205035832 0 0.017024516342694487 0.02661501802496917 0 0.015588586875361583 0.028051271239971438 0 0.016853073672032627 0.023744765019270222 0 0.01630413535188616 0.025729441635213405 0 0.016025298819486618 0.024229832205035832 0 0.017024516342694487 0.02661501802496917 0 0.01887940723699184 0.025146560337586391 0 0.013622006624751723 0.026013169693265049 0 0.018772707268070982 0.026591771229248343 0 0.01537979154396572 0.029547316311367956 0 0.013622006624751723 0.026013169693265049 0 0.017197907077846235 0.022892384715172222 0 0.018772707268070982 0.026591771229248343 0 0.017197907077846235 0.022892384715172222 0 0.019591979574159292 0.02249618446752364 0 0.018772707268070982 0.026591771229248343 0 0.016245444945636241 0.020153912587151279 0 0.013622006624751723 0.026013169693265049 0 0.017197907077846235 0.022892384715172222 0 0.021834367569052392 0.023135689185504071 0 0.019591979574159292 0.02249618446752364 0 0.018772707268070982 0.026591771229248343 0 0.021834367569052392 0.023135689185504071 0 0.022837873167315302 0.025851299501301737 0 0.018772707268070982 0.026591771229248343 0 0.022837873167315302 0.025851299501301737 0 0.018772707268070982 0.026591771229248343 0 0.018628651814004187 0.031520960706745295 0 0.014566911642712045 0.031063874546385518 0 0.013822965608719824 0.033250265537222115 0 0.0081651632826139006 0.036959801519534985 0 0.0097654988911248762 0.037417297994181753 0 0.0087821792203758298 0.037035824529972762 0 0.0097654988911248762 0.037417297994181753 0 0.0092188312797479837 0.036964875633967532 0 0.0087821792203758298 0.037035824529972762 0 0.0097654988911248762 0.037417297994181753 0 0.0092188312797479837 0.036964875633967532 0 0.010204662114251573 0.036675153872158563 0 0.0092188312797479837 0.036964875633967532 0 0.010204662114251573 0.036675153872158563 0 0.0093028724144800304 0.036681585233544187 0 0.013822965608719824 0.033250265537222115 0 0.013153775808996213 0.034383824908892691 0 0.0097654988911248762 0.037417297994181753 0 0.010204662114251573 0.036675153872158563 0 0.012213545136670369 0.036307315021976413 0 0.018628651814004187 0.031520960706745295 0 0.011353068533814141 0.033712718501911612 0 0.012213545136670369 0.036307315021976413 0 0.018772707268070982 0.026591771229248343 0 0.018628651814004187 0.031520960706745295 0 0.01537979154396572 0.029547316311367956 0 0.018628651814004187 0.031520960706745295 0 0.01537979154396572 0.029547316311367956 0 0.011353068533814141 0.033712718501911612 0 0.01625275826782208 0.025973460470256528 0 0.015178500986541976 0.030540902934047334 0 0.013622006624751723 0.026013169693265049 0 0.01537979154396572 0.029547316311367956 0 0.011353068533814141 0.033712718501911612 0 0.017024516342694487 0.02661501802496917 0 0.01887940723699184 0.025146560337586391 0 0.017976987220006367 0.028945483797708359 0 0.017024516342694487 0.02661501802496917 0 0.017976987220006367 0.028945483797708359 0 0.015588586875361583 0.028051271239971438 0 0.015894979115672305 0.030594361759380958 0 0.017976987220006367 0.028945483797708359 0 0.015588586875361583 0.028051271239971438 0 0.011353068533814141 0.033712718501911612 0 0.011806219463886346 0.037227310346977148 0 0.012213545136670369 0.036307315021976413 0 0.015894979115672305 0.030594361759380958 0 0.017976987220006367 0.028945483797708359 0 0.016667888839862387 0.032427826814232126 0 0.011806219463886346 0.037227310346977148 0 0.012213545136670369 0.036307315021976413 0 0.011260618025841803 0.036474825353993587 0 0.015178500986541976 0.030540902934047334 0 0.014503670017170263 0.033327579135109538 0 0.015894979115672305 0.030594361759380958 0 0.016667888839862387 0.032427826814232126 0 0.014975944827695367 0.033165399738490579 0 0.015894979115672305 0.030594361759380958 0 0.014975944827695367 0.033165399738490579 0 0.01450400021738414 0.032217563560303891 0 0.016667888839862387 0.032427826814232126 0 0.014975944827695367 0.033165399738490579 0 0.013287954564631667 0.035487238461135072 0 0.014975944827695367 0.033165399738490579 0 0.01450400021738414 0.032217563560303891 0 0.014118418959098994 0.034073560253682737 0 0.014503670017170263 0.033327579135109538 0 0.01422997254304346 0.034088165879559235 0 0.011806219463886346 0.037227310346977148 0 0.011733036625086513 0.036403232880707785 0 0.01091566215469341 0.036532652279780531 0 0.011806219463886346 0.037227310346977148 0 0.011733036625086513 0.036403232880707785 0 0.013287954564631667 0.035487238461135072 0 0.011733036625086513 0.036403232880707785 0 0.01091566215469341 0.036532652279780531 0 0.010527615588470074 0.036250555093419679 0 0.01091566215469341 0.036532652279780531 0 0.0095144650749455426 0.036404837491956353 0 0.010102005394763603 0.03651312079052739 0 0.01091566215469341 0.036532652279780531 0 0.0095144650749455426 0.036404837491956353 0 0.010527615588470074 0.036250555093419679 0 0.0095144650749455426 0.036404837491956353 0 0.010102005394763603 0.03651312079052739 0 0.0092419785570985267 0.036524886677886829 0 0.010102005394763603 0.03651312079052739 0 0.0092419785570985267 0.036524886677886829 0 0.0093028724144800304 0.036681585233544187 0 0.010204662114251573 0.036675153872158563 0 0.010102005394763603 0.03651312079052739 0 0.0093028724144800304 0.036681585233544187 0 0.010204662114251573 0.036675153872158563 0 0.010102005394763603 0.03651312079052739 0 0.011260618025841803 0.036474825353993587 0 0.011806219463886346 0.037227310346977148 0 0.01091566215469341 0.036532652279780531 0 0.011260618025841803 0.036474825353993587 0 0.010204662114251573 0.036675153872158563 0 0.012213545136670369 0.036307315021976413 0 0.011260618025841803 0.036474825353993587 0 0.01091566215469341 0.036532652279780531 0 0.010102005394763603 0.03651312079052739 0 0.011260618025841803 0.036474825353993587 0 0.011345615494912534 0.028430340341687781 0 0.012150876039185566 0.029834317883445434 0 0.010638377661262015 0.030362618572146789 0 0.010523382090564299 0.027098742994568631 0 0.011345615494912534 0.028430340341687781 0 0.010638377661262015 0.030362618572146789 0 0.010523382090564299 0.027098742994568631 0 0.011345615494912534 0.028430340341687781 0 0.011375411574320766 0.027170732925160635 0 0.011332223043648825 0.026163803587856038 0 0.011375411574320766 0.027170732925160635 0 0.011888091525992284 0.026644385796668873 0 0.012860291910883519 0.026410285162647654 0 0.011888091525992284 0.026644385796668873 0 0.01179269692955952 0.027622250180358066 0 0.011375411574320766 0.027170732925160635 0 0.011888091525992284 0.026644385796668873 0 0.01179269692955952 0.027622250180358066 0 0.011345615494912534 0.028430340341687781 0 0.011375411574320766 0.027170732925160635 0 0.01179269692955952 0.027622250180358066 0 0.011345615494912534 0.028430340341687781 0 0.01179269692955952 0.027622250180358066 0 0.012494178215966526 0.028148420038824753 0 0.012860291910883519 0.026410285162647654 0 0.01179269692955952 0.027622250180358066 0 0.012494178215966526 0.028148420038824753 0 0.012860291910883519 0.026410285162647654 0 0.012494178215966526 0.028148420038824753 0 0.013678257560286212 0.027745649090710513 0 0.012494178215966526 0.028148420038824753 0 0.013049300276320945 0.029196365652840259 0 0.013678257560286212 0.027745649090710513 0 0.012494178215966526 0.028148420038824753 0 0.013049300276320945 0.029196365652840259 0 0.012150876039185566 0.029834317883445434 0 0.011345615494912534 0.028430340341687781 0 0.012494178215966526 0.028148420038824753 0 0.012150876039185566 0.029834317883445434 0 0.013049300276320945 0.029196365652840259 0 0.012150876039185566 0.029834317883445434 0 0.013136929630059168 0.030829010761511517 0 0.014008102433765733 0.029242565380994998 0 0.014669380221586977 0.030409858187849258 0 0.013136929630059168 0.030829010761511517 0 0.013049300276320945 0.029196365652840259 0 0.014008102433765733 0.029242565380994998 0 0.013136929630059168 0.030829010761511517 0 0.013049300276320945 0.029196365652840259 0 0.014008102433765733 0.029242565380994998 0 0.013678257560286212 0.027745649090710513 0 0.014133546431768576 0.026113484916320227 0 0.012860291910883519 0.026410285162647654 0 0.013678257560286212 0.027745649090710513 0 0.014133546431768576 0.026113484916320227 0 0.013678257560286212 0.027745649090710513 0 0.015588586875361583 0.028051271239971438 0 0.014008102433765733 0.029242565380994998 0 0.013678257560286212 0.027745649090710513 0 0.015588586875361583 0.028051271239971438 0 0.014008102433765733 0.029242565380994998 0 0.015588586875361583 0.028051271239971438 0 0.014669380221586977 0.030409858187849258 0 0.015894979115672305 0.030594361759380958 0 0.015588586875361583 0.028051271239971438 0 0.014669380221586977 0.030409858187849258 0 0.014669380221586977 0.030409858187849258 0 0.01450400021738414 0.032217563560303891 0 0.013593276075651275 0.032463523533276646 0 0.015894979115672305 0.030594361759380958 0 0.014669380221586977 0.030409858187849258 0 0.01450400021738414 0.032217563560303891 0 0.01450400021738414 0.032217563560303891 0 0.013593276075651275 0.032463523533276646 0 0.014118418959098994 0.034073560253682737 0 0.013593276075651275 0.032463523533276646 0 0.013466209953893879 0.034031006204579994 0 0.014118418959098994 0.034073560253682737 0 0.013593276075651275 0.032463523533276646 0 0.012741124908541296 0.032860091471334625 0 0.013466209953893879 0.034031006204579994 0 0.013593276075651275 0.032463523533276646 0 0.013136929630059168 0.030829010761511517 0 0.012741124908541296 0.032860091471334625 0 0.014669380221586977 0.030409858187849258 0 0.013593276075651275 0.032463523533276646 0 0.013136929630059168 0.030829010761511517 0 0.013136929630059168 0.030829010761511517 0 0.012060545045727334 0.031466184680547744 0 0.012741124908541296 0.032860091471334625 0 0.012150876039185566 0.029834317883445434 0 0.013136929630059168 0.030829010761511517 0 0.012060545045727334 0.031466184680547744 0 0.012741124908541296 0.032860091471334625 0 0.011494261139538763 0.03337129602854904 0 0.01286608561154021 0.034167817150117116 0 0.012060545045727334 0.031466184680547744 0 0.012741124908541296 0.032860091471334625 0 0.011494261139538763 0.03337129602854904 0 0.014690468283971598 0.033662679203625957 0 0.013724507313862074 0.033223819540141891 0 0.014012860513240133 0.031146786414492957 0 0.013220508647690685 0.033004486956321556 0 0.012490665888316444 0.030676406675314905 0 0.012060545045727334 0.031466184680547744 0 0.011494261139538763 0.03337129602854904 0 0.010638377661262015 0.030362618572146789 0 0.013186908482864678 0.031913123724501453 0 0.013724507313862074 0.033223819540141891 0 0.014012860513240133 0.031146786414492957 0 0.012150876039185566 0.029834317883445434 0 0.012060545045727334 0.031466184680547744 0 0.010638377661262015 0.030362618572146789 0 0.017576717498214461 0.037842639527068365 0 0.016835743299253088 0.037708982418931822 0 0.017106263392083758 0.036450447894387214 0 0.017570434729016898 0.037783658752946807 0 0.017176260337464836 0.036444977814706937 0 0.016870971288253388 0.035265464431822505 0 0.016084439157122175 0.035344679365943675 0 0.017576717498214461 0.037842639527068365 0 0.01752803300355342 0.039215517361532448 0 0.016835743299253088 0.037708982418931822 0 0.014690468283971598 0.033662679203625957 0 0.013724507313862074 0.033223819540141891 0 0.014460205825992323 0.034759520891964456 0 0.018041022763250116 0.033981551997363205 0 0.016870971288253388 0.035265464431822505 0 0.013220508647690685 0.033004486956321556 0 0.013810194535246146 0.034443105765020278 0 0.011494261139538763 0.03337129602854904 0 0.01286608561154021 0.034167817150117116 0 0.012906988580769959 0.035256662785120775 0 0.014690468283971598 0.033662679203625957 0 0.014460205825992323 0.034759520891964456 0 0.014997212778919489 0.035198513207347376 0 0.01286608561154021 0.034167817150117116 0 0.012906988580769959 0.035256662785120775 0 0.01351526316091415 0.03494239565331899 0 0.014460205825992323 0.034759520891964456 0 0.014997212778919489 0.035198513207347376 0 0.014912741497740859 0.035430594357254624 0 0.012906988580769959 0.035256662785120775 0 0.01351526316091415 0.03494239565331899 0 0.013820035757593031 0.035394072118133349 0 0.01351526316091415 0.03494239565331899 0 0.013679335320544165 0.035324407579357238 0 0.013820035757593031 0.035394072118133349 0 0.01286608561154021 0.034167817150117116 0 0.01351526316091415 0.03494239565331899 0 0.013466209953893879 0.034031006204579994 0 0.012741124908541296 0.032860091471334625 0 0.01286608561154021 0.034167817150117116 0 0.013466209953893879 0.034031006204579994 0 0.01351526316091415 0.03494239565331899 0 0.013466209953893879 0.034031006204579994 0 0.013780824555687497 0.034844190034333603 0 0.013466209953893879 0.034031006204579994 0 0.014118418959098994 0.034073560253682737 0 0.013780824555687497 0.034844190034333603 0 0.01351526316091415 0.03494239565331899 0 0.013780824555687497 0.034844190034333603 0 0.013679335320544165 0.035324407579357238 0 0.013780824555687497 0.034844190034333603 0 0.013679335320544165 0.035324407579357238 0 0.013287954564631667 0.035487238461135072 0 0.013679335320544165 0.035324407579357238 0 0.013801410106511763 0.03536396039938728 0 0.012816778012478929 0.035395024607297404 0 0.013679335320544165 0.035324407579357238 0 0.013801410106511763 0.03536396039938728 0 0.013820035757593031 0.035394072118133349 0 0.013801410106511763 0.03536396039938728 0 0.013609786116702244 0.034999593132205929 0 0.012816778012478929 0.035395024607297404 0 0.013801410106511763 0.03536396039938728 0 0.013609786116702244 0.034999593132205929 0 0.01480632615911668 0.035356889486474252 0 0.013609786116702244 0.034999593132205929 0 0.01480632615911668 0.035356889486474252 0 0.015502904454512828 0.034999852623935908 0 0.013801410106511763 0.03536396039938728 0 0.01480632615911668 0.035356889486474252 0 0.013820035757593031 0.035394072118133349 0 0.012906988580769959 0.035256662785120775 0 0.01480632615911668 0.035356889486474252 0 0.013820035757593031 0.035394072118133349 0 0.013810194535246146 0.034443105765020278 0 0.014058992790506045 0.034830815606905006 0 0.014997212778919489 0.035198513207347376 0 0.01480632615911668 0.035356889486474252 0 0.014912741497740859 0.035430594357254624 0 0.01621950044877998 0.036402452286814727 0 0.015506174140566703 0.034999954308505887 0 0.016744785686310323 0.034999959259389854 0 0.01480632615911668 0.035356889486474252 0 0.014912741497740859 0.035430594357254624 0 0.015502904454512828 0.034999852623935908 0 0.016084439157122175 0.035344679365943675 0 0.015506641913521397 0.035000141391485197 0 0.016745589579236459 0.035001413592773929 0 0.017176260337464836 0.036444977814706937 0 0.018264787298054579 0.036080790052947946 0 0.01674532381948458 0.03499997462952379 0 0.017303812735328824 0.036568931765815119 0 0.01621950044877998 0.036402452286814727 0 0.016744785686310323 0.034999959259389854 0 0.017106263392083758 0.036450447894387214 0 0.016835743299253088 0.037708982418931822 0 0.01621950044877998 0.036402452286814727 0 0.017106263392083758 0.036450447894387214 0 0.010399090367753038 0.035776011905862201 0 0.013287954564631667 0.035487238461135072 0 0.011179454845338384 0.035385635678935351 0 0.010399090367753038 0.035776011905862201 0 0.0090354779767347071 0.035640604374073542 0 0.0091600614647464711 0.03622469950517903 0 0.010399090367753038 0.035776011905862201 0 0.010527615588470074 0.036250555093419679 0 0.0091600614647464711 0.03622469950517903 0 0.0095144650749455426 0.036404837491956353 0 0.010527615588470074 0.036250555093419679 0 0.0091600614647464711 0.03622469950517903 0 0.010399090367753038 0.035776011905862201 0 0.010527615588470074 0.036250555093419679 0 0.013287954564631667 0.035487238461135072 0 0.011733036625086513 0.036403232880707785 0 0.010527615588470074 0.036250555093419679 0 0.013287954564631667 0.035487238461135072 0 0.014975944827695367 0.033165399738490579 0 0.014118418959098994 0.034073560253682737 0 0.013287954564631667 0.035487238461135072 0 0.014118418959098994 0.034073560253682737 0 0.013780824555687497 0.034844190034333603 0 0.013287954564631667 0.035487238461135072 0 0.013679335320544165 0.035324407579357238 0 0.013287954564631667 0.035487238461135072 0 0.012816778012478929 0.035395024607297404 0 0.013287954564631667 0.035487238461135072 0 0.012816778012478929 0.035395024607297404 0 0.011179454845338384 0.035385635678935351 0 0.013609786116702244 0.034999593132205929 0 0.012816778012478929 0.035395024607297404 0 0.011713733249853669 0.034999255082467984 0 0.012816778012478929 0.035395024607297404 0 0.011713733249853669 0.034999255082467984 0 0.011179454845338384 0.035385635678935351 0 0.011713733249853669 0.034999255082467984 0 0.011179454845338384 0.035385635678935351 0 0.0098175241476430777 0.034999286957490668 0 0.010399090367753038 0.035776011905862201 0 0.011179454845338384 0.035385635678935351 0 0.0090354779767347071 0.035640604374073542 0 0.0098175241476430777 0.034999286957490668 0 0.0079210787073258782 0.034999477833205811 0 0.0090354779767347071 0.035640604374073542 0 0.011179454845338384 0.035385635678935351 0 0.0098175241476430777 0.034999286957490668 0 0.0090354779767347071 0.035640604374073542 0 0.0079210787073258782 0.034999477833205811 0 0.0071212147603172326 0.035617589115439711 0 0.0090354779767347071 0.035640604374073542 0 0.0079210787073258782 0.034999477833205811 0 0.0071212147603172326 0.035617589115439711 0 0.0060247465878778706 0.03499953747645896 0 0.0071212147603172326 0.035617589115439711 0 0.0061396717873052611 0.036289838117220315 0 0.0080194378928346178 0.036320587538928494 0 0.0071212147603172326 0.035617589115439711 0 0.0090354779767347071 0.035640604374073542 0 0.0080194378928346178 0.036320587538928494 0 0.0060247465878778706 0.03499953747645896 0 0.0051839846733778864 0.03573660114868709 0 0.0041284410924698227 0.034999677644583983 0 0.0071212147603172326 0.035617589115439711 0 0.0060247465878778706 0.03499953747645896 0 0.0051839846733778864 0.03573660114868709 0 0.0071212147603172326 0.035617589115439711 0 0.0051839846733778864 0.03573660114868709 0 0.0061396717873052611 0.036289838117220315 0 0.0051839846733778864 0.03573660114868709 0 0.0047876808706972598 0.036641394625006152 0 0.0061396717873052611 0.036289838117220315 0 0.0041154483427467249 0.036392395468837491 0 0.0046177154423403966 0.036830254666482695 0 0.0047876808706972598 0.036641394625006152 0 0.0061396717873052611 0.036289838117220315 0 0.0056363339283246154 0.037289315240305716 0 0.0061396717873052611 0.036289838117220315 0 0.0056363339283246154 0.037289315240305716 0 0.0080194378928346178 0.036320587538928494 0 0.0056363339283246154 0.037289315240305716 0 0.0080194378928346178 0.036320587538928494 0 0.0063272118816481149 0.037925943049551297 0 0.0056363339283246154 0.037289315240305716 0 0.0063272118816481149 0.037925943049551297 0 0.0049750920772747495 0.038075724998114027 0 0.0056363339283246154 0.037289315240305716 0 0.0049750920772747495 0.038075724998114027 0 0.0040553211442526911 0.037105431904575055 0 0.0041046299365428227 0.035894765181709851 0 0.0056363339283246154 0.037289315240305716 0 0.0040553211442526911 0.037105431904575055 0 0.0090354779767347071 0.035640604374073542 0 0.0080194378928346178 0.036320587538928494 0 0.0091600614647464711 0.03622469950517903 0 0.007253869134146231 0.036317745033810134 0 0.0066854527146739812 0.036691513751015918 0 0.0080194378928346178 0.036320587538928494 0 0.0086787910858090542 0.036374888403253168 0 0.0084385264323460652 0.036377250726877065 0 0.0080194378928346178 0.036320587538928494 0 0.0084385264323460652 0.036377250726877065 0 0.0083075233488954705 0.036350210262200137 0 0.0095144650749455426 0.036404837491956353 0 0.0091600614647464711 0.03622469950517903 0 0.0086787910858090542 0.036374888403253168 0 0.0080194378928346178 0.036320587538928494 0 0.0091600614647464711 0.03622469950517903 0 0.0086787910858090542 0.036374888403253168 0 0.0095144650749455426 0.036404837491956353 0 0.0086787910858090542 0.036374888403253168 0 0.0087657461915487799 0.036465897269718169 0 0.0095144650749455426 0.036404837491956353 0 0.0087657461915487799 0.036465897269718169 0 0.0092419785570985267 0.036524886677886829 0 0.0087657461915487799 0.036465897269718169 0 0.0092419785570985267 0.036524886677886829 0 0.0086786470974259348 0.036596703965295296 0 0.0092419785570985267 0.036524886677886829 0 0.0086786470974259348 0.036596703965295296 0 0.0093028724144800304 0.036681585233544187 0 0.0086786470974259348 0.036596703965295296 0 0.0083715063628720093 0.036537656610806754 0 0.0081330547354049494 0.036676712007258402 0 0.0083715063628720093 0.036537656610806754 0 0.0081573860614348129 0.036612023806704072 0 0.0081330547354049494 0.036676712007258402 0 0.0087657461915487799 0.036465897269718169 0 0.0086786470974259348 0.036596703965295296 0 0.0083715063628720093 0.036537656610806754 0 0.0083715063628720093 0.036537656610806754 0 0.0084385264323460652 0.036377250726877065 0 0.0082335486918853184 0.036495448679930265 0 0.0087657461915487799 0.036465897269718169 0 0.0083715063628720093 0.036537656610806754 0 0.0084385264323460652 0.036377250726877065 0 0.0086787910858090542 0.036374888403253168 0 0.0087657461915487799 0.036465897269718169 0 0.0084385264323460652 0.036377250726877065 0 0.0083075233488954705 0.036350210262200137 0 0.0082335486918853184 0.036495448679930265 0 0.0079496200878221342 0.036598033518804265 0 0.0066854527146739812 0.036691513751015918 0 0.005456515392761368 0.036916220078679014 0 0.0084385264323460652 0.036377250726877065 0 0.0083075233488954705 0.036350210262200137 0 0.0082335486918853184 0.036495448679930265 0 0.0049750920772747495 0.038075724998114027 0 0.0049352608475632821 0.039562262573117311 0 0.0037460158263105405 0.038367802676484306 0 0.0063272118816481149 0.037925943049551297 0 0.0049750920772747495 0.038075724998114027 0 0.0049352608475632821 0.039562262573117311 0 0.0082335486918853184 0.036495448679930265 0 0.0079496200878221342 0.036598033518804265 0 0.0081573860614348129 0.036612023806704072 0 0.0079496200878221342 0.036598033518804265 0 0.0081573860614348129 0.036612023806704072 0 0.008042224032012265 0.036701985973164167 0 0.0083715063628720093 0.036537656610806754 0 0.0082335486918853184 0.036495448679930265 0 0.0081573860614348129 0.036612023806704072 0 0.0081573860614348129 0.036612023806704072 0 0.008042224032012265 0.036701985973164167 0 0.0081330547354049494 0.036676712007258402 0 0.008042224032012265 0.036701985973164167 0 0.0076025711828040556 0.036752914606915106 0 0.0081330547354049494 0.036676712007258402 0 0.0061836368037916783 0.037008989910969819 0 0.0065005626732992953 0.037129425281170719 0 0.0050421711821921475 0.034780038252111865 0 0.0051247075207294535 0.036159525652721528 0 0.00399432212186828 0.036437826139634769 0 0.005456515392761368 0.036916220078679014 0 0.0052425493826458499 0.036869211837547933 0 0.005456515392761368 0.036916220078679014 0 0.0061836368037916783 0.037008989910969819 0 0.0050421711821921475 0.034780038252111865 0 0.0061486280742852513 0.035781393905068661 0 0.0051247075207294535 0.036159525652721528 0 0.0061486280742852513 0.035781393905068661 0 0.0051247075207294535 0.036159525652721528 0 0.0055252731640802813 0.036776129261552284 0 0.0051247075207294535 0.036159525652721528 0 0.0044960009858517154 0.037064284072331942 0 0.00399432212186828 0.036437826139634769 0 0.0051247075207294535 0.036159525652721528 0 0.0055252731640802813 0.036776129261552284 0 0.0044960009858517154 0.037064284072331942 0 0.0055252731640802813 0.036776129261552284 0 0.0051162529456097996 0.03713556962008404 0 0.0060454482263632191 0.037176755810365412 0 0.0046860910098933187 0.037172594387538956 0 0.0051162529456097996 0.03713556962008404 0 0.0044960009858517154 0.037064284072331942 0 0.0055252731640802813 0.036776129261552284 0 0.0051162529456097996 0.03713556962008404 0 0.0044960009858517154 0.037064284072331942 0 0.0061486280742852513 0.035781393905068661 0 0.006565622894152588 0.03689815951847699 0 0.0076025711828040556 0.036752914606915106 0 0.0061486280742852513 0.035781393905068661 0 0.0055252731640802813 0.036776129261552284 0 0.006565622894152588 0.03689815951847699 0 0.0074235867017076011 0.037738865729007337 0 0.006565622894152588 0.03689815951847699 0 0.0076025711828040556 0.036752914606915106 0 0.0055252731640802813 0.036776129261552284 0 0.006565622894152588 0.03689815951847699 0 0.0060454482263632191 0.037176755810365412 0 0.0074235867017076011 0.037738865729007337 0 0.006565622894152588 0.03689815951847699 0 0.0060454482263632191 0.037176755810365412 0 0.0066314045627228636 0.036764226766715612 0 0.0072602930540414745 0.036716983362955362 0 0.0074235867017076011 0.037738865729007337 0 0.0076025711828040556 0.036752914606915106 0 0.0083390107497026186 0.036864093390378827 0 0.0074235867017076011 0.037738865729007337 0 0.0083390107497026186 0.036864093390378827 0 0.0087821792203758298 0.037035824529972762 0 0.0092188312797479837 0.036964875633967532 0 0.0083390107497026186 0.036864093390378827 0 0.0087821792203758298 0.037035824529972762 0 0.0092188312797479837 0.036964875633967532 0 0.0083390107497026186 0.036864093390378827 0 0.0086877458077538102 0.036772007531623678 0 0.0092188312797479837 0.036964875633967532 0 0.0093028724144800304 0.036681585233544187 0 0.0086877458077538102 0.036772007531623678 0 0.0086786470974259348 0.036596703965295296 0 0.0093028724144800304 0.036681585233544187 0 0.0086877458077538102 0.036772007531623678 0 0.0086786470974259348 0.036596703965295296 0 0.0086877458077538102 0.036772007531623678 0 0.0081330547354049494 0.036676712007258402 0 0.0076025711828040556 0.036752914606915106 0 0.0083390107497026186 0.036864093390378827 0 0.0081330547354049494 0.036676712007258402 0 0.0083390107497026186 0.036864093390378827 0 0.0086877458077538102 0.036772007531623678 0 0.0081330547354049494 0.036676712007258402 0 0.002614945012930209 0.037235627605258163 0 0.0025682679172865622 0.036915580401701162 0 0.0022145932255719526 0.037206591841514147 0 0.002614945012930209 0.037235627605258163 0 0.0025682679172865622 0.036915580401701162 0 0.0028780055551594374 0.036954805748459801 0 0.0025682679172865622 0.036915580401701162 0 0.0028780055551594374 0.036954805748459801 0 0.0029588317060564619 0.036745598141967067 0 0.0025682679172865622 0.036915580401701162 0 0.0022145932255719526 0.037206591841514147 0 0.0022131277516582205 0.036895781724508102 0 0.001904391083468894 0.037113798993116301 0 0.0022145932255719526 0.037206591841514147 0 0.0022131277516582205 0.036895781724508102 0 0.001904391083468894 0.037113798993116301 0 0.0018868287114947038 0.036840381968205833 0 0.0015975873091471633 0.037028762471558896 0 0.001904391083468894 0.037113798993116301 0 0.0018868287114947038 0.036840381968205833 0 0.0022131277516582205 0.036895781724508102 0 0.001904391083468894 0.037113798993116301 0 0.001874555799469455 0.037427011138298723 0 0.0016140074193778922 0.037314463781792269 0 0.001904391083468894 0.037113798993116301 0 0.0022145932255719526 0.037206591841514147 0 0.001874555799469455 0.037427011138298723 0 0.0013737457046550355 0.035709482136318846 0 -2.2443480060257349e-05 0.035794241647108586 0 0.0021624405458593077 0.037737030278530294 0 0.001874555799469455 0.037427011138298723 0 0.0014876498578846305 0.037707016448997807 0 0.0022145932255719526 0.037206591841514147 0 0.0021624405458593077 0.037737030278530294 0 0.001874555799469455 0.037427011138298723 0 0.002614945012930209 0.037235627605258163 0 0.0021624405458593077 0.037737030278530294 0 0.0029796389538534248 0.037567619662292669 0 0.0013737457046550355 0.035709482136318846 0 0.0030014746134574737 0.036282669361809752 0 0.0041606853886764416 0.037281173723434223 0 0.0032706613991263481 0.037090761788317883 0 0.0040411714081010569 0.037043430547896952 0 0.002614945012930209 0.037235627605258163 0 0.0022145932255719526 0.037206591841514147 0 0.0021624405458593077 0.037737030278530294 0 0.0041606853886764416 0.037281173723434223 0 0.0040411714081010569 0.037043430547896952 0 0.0044960009858517154 0.037064284072331942 0 0.002614945012930209 0.037235627605258163 0 0.0029796389538534248 0.037567619662292669 0 0.0030062603387220211 0.037126939059981129 0 0.0029796389538534248 0.037567619662292669 0 0.0034232985955411541 0.037084184451247976 0 0.0030062603387220211 0.037126939059981129 0 0.0034232985955411541 0.037084184451247976 0 0.0044960009858517154 0.037064284072331942 0 0.0037608327278989841 0.036840410360104166 0 0.0046860910098933187 0.037172594387538956 0 0.0041606853886764416 0.037281173723434223 0 0.0044960009858517154 0.037064284072331942 0 0.0029796389538534248 0.037567619662292669 0 0.0034232985955411541 0.037084184451247976 0 0.0044960009858517154 0.037064284072331942 0 0.0030014746134574737 0.036282669361809752 0 0.0035737888563842461 0.036424810119092162 0 0.0044960009858517154 0.037064284072331942 0 0.00399432212186828 0.036437826139634769 0 0.0037608327278989841 0.036840410360104166 0 0.0036917230010084824 0.036509174726056089 0 0.00399432212186828 0.036437826139634769 0 0.0034725045146564762 0.036553189927913607 0 0.00399432212186828 0.036437826139634769 0 0.0037608327278989841 0.036840410360104166 0 0.0033357538766057874 0.036810105979929814 0 0.00399432212186828 0.036437826139634769 0 0.0033357538766057874 0.036810105979929814 0 0.0034725045146564762 0.036553189927913607 0 0.0030062603387220211 0.037126939059981129 0 0.0028780055551594374 0.036954805748459801 0 0.0033357538766057874 0.036810105979929814 0 0.002614945012930209 0.037235627605258163 0 0.0030062603387220211 0.037126939059981129 0 0.0028780055551594374 0.036954805748459801 0 0.0034232985955411541 0.037084184451247976 0 0.0030062603387220211 0.037126939059981129 0 0.0033357538766057874 0.036810105979929814 0 0.0034232985955411541 0.037084184451247976 0 0.0037608327278989841 0.036840410360104166 0 0.0033357538766057874 0.036810105979929814 0 0.0033357538766057874 0.036810105979929814 0 0.0029588317060564619 0.036745598141967067 0 0.0034725045146564762 0.036553189927913607 0 0.0028780055551594374 0.036954805748459801 0 0.0033357538766057874 0.036810105979929814 0 0.0029588317060564619 0.036745598141967067 0 0.0029588317060564619 0.036745598141967067 0 0.0030565134897462464 0.036571124142218178 0 0.0025306477057545022 0.036688443955062357 0 0.0030565134897462464 0.036571124142218178 0 0.0027364557640657118 0.036561512894558439 0 0.0025306477057545022 0.036688443955062357 0 0.0029588317060564619 0.036745598141967067 0 0.0030565134897462464 0.036571124142218178 0 0.0034725045146564762 0.036553189927913607 0 0.0036917230010084824 0.036509174726056089 0 0.0034725045146564762 0.036553189927913607 0 0.0032804591625137354 0.036460009360114815 0 0.0030565134897462464 0.036571124142218178 0 0.0034725045146564762 0.036553189927913607 0 0.0032804591625137354 0.036460009360114815 0 0.005456515392761368 0.036916220078679014 0 0.0045275476518179458 0.036875890359195002 0 0.0049750920772747495 0.038075724998114027 0 0.0037460158263105405 0.038367802676484306 0 0.0040553211442526911 0.037105431904575055 0 0.0030565134897462464 0.036571124142218178 0 0.0032804591625137354 0.036460009360114815 0 0.0027364557640657118 0.036561512894558439 0 0.0032804591625137354 0.036460009360114815 0 0.0027364557640657118 0.036561512894558439 0 0.002741510843740704 0.036732011625428142 0 0.0045275476518179458 0.036875890359195002 0 0.0041337462271992349 0.036753559998979383 0 0.0027364557640657118 0.036561512894558439 0 0.0024126286695419518 0.036514309692724893 0 0.002741510843740704 0.036732011625428142 0 0.0027364557640657118 0.036561512894558439 0 0.0025306477057545022 0.036688443955062357 0 0.0021798843295833224 0.036560119106177201 0 0.0024126286695419518 0.036514309692724893 0 0.0021798843295833224 0.036560119106177201 0 0.0020815125685458981 0.036326036101988764 0 0.0027364557640657118 0.036561512894558439 0 0.0024126286695419518 0.036514309692724893 0 0.0021798843295833224 0.036560119106177201 0 0.0025306477057545022 0.036688443955062357 0 0.0021244832660334031 0.03670779602565348 0 0.0021798843295833224 0.036560119106177201 0 0.0025306477057545022 0.036688443955062357 0 0.0022131277516582205 0.036895781724508102 0 0.0021244832660334031 0.03670779602565348 0 0.0025682679172865622 0.036915580401701162 0 0.0025306477057545022 0.036688443955062357 0 0.0022131277516582205 0.036895781724508102 0 0.0025682679172865622 0.036915580401701162 0 0.0029588317060564619 0.036745598141967067 0 0.0025306477057545022 0.036688443955062357 0 0.0018868287114947038 0.036840381968205833 0 0.0022131277516582205 0.036895781724508102 0 0.0021244832660334031 0.03670779602565348 0 0.0021244832660334031 0.03670779602565348 0 0.0018063026850508777 0.036582734297286479 0 0.0021798843295833224 0.036560119106177201 0 0.0018868287114947038 0.036840381968205833 0 0.0021244832660334031 0.03670779602565348 0 0.0018063026850508777 0.036582734297286479 0 0.0018063026850508777 0.036582734297286479 0 0.0021798843295833224 0.036560119106177201 0 0.0016637843088002577 0.036328194121731994 0 0.0021798843295833224 0.036560119106177201 0 0.0020815125685458981 0.036326036101988764 0 0.0016637843088002577 0.036328194121731994 0 0.0017300516633107503 0.036171762286690938 0 0.0020815125685458981 0.036326036101988764 0 0.0016637843088002577 0.036328194121731994 0 0.0017300516633107503 0.036171762286690938 0 0.0020815125685458981 0.036326036101988764 0 0.0020048341629490666 0.036121307358707326 0 0.0024126286695419518 0.036514309692724893 0 0.0023408792489534908 0.036344747541375594 0 0.0020815125685458981 0.036326036101988764 0 0.0024126286695419518 0.036514309692724893 0 0.0023408792489534908 0.036344747541375594 0 0.002741510843740704 0.036732011625428142 0 0.0023408792489534908 0.036344747541375594 0 0.0020815125685458981 0.036326036101988764 0 0.0020048341629490666 0.036121307358707326 0 0.0023408792489534908 0.036344747541375594 0 0.0020048341629490666 0.036121307358707326 0 0.0022159817895599189 0.035950519237858504 0 0.0020048341629490666 0.036121307358707326 0 0.0022159817895599189 0.035950519237858504 0 0.0017935025435900647 0.035830708598785503 0 0.0020048341629490666 0.036121307358707326 0 0.001690636926005074 0.0359983837792388 0 0.0017935025435900647 0.035830708598785503 0 0.001690636926005074 0.0359983837792388 0 0.0015509434191165864 0.03580208348375713 0 0.0015123168165405688 0.036091406859268656 0 0.001690636926005074 0.0359983837792388 0 0.0015509434191165864 0.03580208348375713 0 0.0017935025435900647 0.035830708598785503 0 0.0017300516633107503 0.036171762286690938 0 0.001690636926005074 0.0359983837792388 0 0.0015123168165405688 0.036091406859268656 0 0.0017300516633107503 0.036171762286690938 0 0.0020048341629490666 0.036121307358707326 0 0.001690636926005074 0.0359983837792388 0 0.0037460158263105405 0.038367802676484306 0 0.0040553211442526911 0.037105431904575055 0 0.002741510843740704 0.036732011625428142 0 0.0040553211442526911 0.037105431904575055 0 0.002741510843740704 0.036732011625428142 0 0.0029011184424282107 0.036079167274126092 0 0.0023408792489534908 0.036344747541375594 0 0.002741510843740704 0.036732011625428142 0 0.0029011184424282107 0.036079167274126092 0 0.0023408792489534908 0.036344747541375594 0 0.0022159817895599189 0.035950519237858504 0 0.0029011184424282107 0.036079167274126092 0 0.0022159817895599189 0.035950519237858504 0 0.0029011184424282107 0.036079167274126092 0 0.0024642654865164567 0.035612692422856446 0 0.0041046299365428227 0.035894765181709851 0 0.0040553211442526911 0.037105431904575055 0 0.0029011184424282107 0.036079167274126092 0 0.0051839846733778864 0.03573660114868709 0 0.0047876808706972598 0.036641394625006152 0 0.0035503923118515657 0.035952130450835694 0 0.0041046299365428227 0.035894765181709851 0 0.0029011184424282107 0.036079167274126092 0 0.0029674827861968902 0.03534419886204495 0 0.0041154483427467249 0.036392395468837491 0 0.0032022811085664635 0.035693010399848166 0 0.0029011184424282107 0.036079167274126092 0 0.0029674827861968902 0.03534419886204495 0 0.0024642654865164567 0.035612692422856446 0 0.0032022811085664635 0.035693010399848166 0 0.0022330183187890718 0.035000512846171741 0 0.0035503923118515657 0.035952130450835694 0 0.002232053715764144 0.035000001285314927 0 0.0041284410924698227 0.034999677644583983 0 0.0029674827861968902 0.03534419886204495 0 0.0024642654865164567 0.035612692422856446 0 0.0022305977798829329 0.03499949278229228 0 0.0051839846733778864 0.03573660114868709 0 0.0035503923118515657 0.035952130450835694 0 0.0041284410924698227 0.034999677644583983 0 0.0013787470309746667 0.035642810648841332 0 0.0015509434191165864 0.03580208348375713 0 0.0015123168165405688 0.036091406859268656 0 0.0015484438421088573 0.035621193539715552 0 0.001369235577774556 0.035653361374623271 0 0.0015509434191165864 0.03580208348375713 0 0.001369235577774556 0.035653361374623271 0 0.001236827687468184 0.035646753661079202 0 0.0013200959257419977 0.035400335141714721 0 0.0015484438421088573 0.035621193539715552 0 0.001369235577774556 0.035653361374623271 0 0.0013200959257419977 0.035400335141714721 0 0.001369235577774556 0.035653361374623271 0 0.0013787470309746667 0.035642810648841332 0 0.0015509434191165864 0.03580208348375713 0 2.8521555792646488e-05 0.035636265905102577 0 -8.1974318601856972e-06 0.035630700810028657 0 0.0015484438421088573 0.035621193539715552 0 0.0015509434191165864 0.03580208348375713 0 0.0017935025435900647 0.035830708598785503 0 0.0022159817895599189 0.035950519237858504 0 0.0017935025435900647 0.035830708598785503 0 0.0019158538472268999 0.035585580105139132 0 0.0022159817895599189 0.035950519237858504 0 0.0024642654865164567 0.035612692422856446 0 0.0019158538472268999 0.035585580105139132 0 0.0015484438421088573 0.035621193539715552 0 0.0017935025435900647 0.035830708598785503 0 0.0019158538472268999 0.035585580105139132 0 0.0015484438421088573 0.035621193539715552 0 0.0019158538472268999 0.035585580105139132 0 0.0013200959257419977 0.035400335141714721 0 0.0022305977798829329 0.03499949278229228 0 0.00067411347823675841 0.034999888739910175 0 0.0013200959257419977 0.035400335141714721 0 0.0024642654865164567 0.035612692422856446 0 0.0022305977798829329 0.03499949278229228 0 0.0019158538472268999 0.035585580105139132 0 0.0022305977798829329 0.03499949278229228 0 0.0019158538472268999 0.035585580105139132 0 0.0013200959257419977 0.035400335141714721 0 0.001236827687468184 0.035646753661079202 0 0.00067411347823675841 0.034999888739910175 0 0.0013200959257419977 0.035400335141714721 0 -8.1974318601856972e-06 0.035630700810028657 0 0.00067055258545856784 0.035000482320718743 0 0.00016492947134875535 0.036259640760959735 0 0.00067170082196624421 0.034999987904124084 0 -0.0010876876873346965 0.034999987726103368 0 0.00016492947134875535 0.036259640760959735 0 -0.0010876876873346965 0.034999987726103368 0 -0.0017298030588701724 0.035882075794457569 0 -8.1974318601856972e-06 0.035630700810028657 0 -0.001916753913703399 0.035570297849595929 0 -0.0010296688883571121 0.036068022812337723 0 -0.0021712645638261078 0.036647532025394024 0 -0.0015290826597667798 0.037271018997866348 0 -0.0010296688883571121 0.036068022812337723 0 -0.0021712645638261078 0.036647532025394024 0 -0.002282915908888945 0.035799272583475983 0 -0.0021712645638261078 0.036647532025394024 0 -0.002282915908888945 0.035799272583475983 0 -0.0030453980614260643 0.036512839849857925 0 -0.0010876876873346965 0.034999987726103368 0 -0.0017298030588701724 0.035882075794457569 0 -0.002847114914837732 0.035000002485428151 0 -0.002282915908888945 0.035799272583475983 0 -0.0037391997069019895 0.03544280433077527 0 -0.0036368771829809977 0.036149250468563453 0 -0.001916753913703399 0.035570297849595929 0 -0.0035289543338691562 0.035374527165211292 0 -0.0017298030588701724 0.035882075794457569 0 -0.002847114914837732 0.035000002485428151 0 -0.0036338028278623605 0.035506691366922923 0 -0.002847114914837732 0.035000002485428151 0 -0.0036338028278623605 0.035506691366922923 0 -0.0046065562875007519 0.034999960733446127 0 -0.0037391997069019895 0.03544280433077527 0 -0.0043936607959079218 0.035981013201237901 0 -0.0036368771829809977 0.036149250468563453 0 -0.0036368771829809977 0.036149250468563453 0 -0.0042651994033823986 0.036780484371668039 0 -0.0030453980614260643 0.036512839849857925 0 -0.0036503174025264858 0.036231382907694988 0 -0.0035608852161584797 0.03627782004645351 0 -0.0043936607959079218 0.035981013201237901 0 -0.0036368771829809977 0.036149250468563453 0 -0.0042651994033823986 0.036780484371668039 0 -0.002282915908888945 0.035799272583475983 0 -0.0036368771829809977 0.036149250468563453 0 -0.0030453980614260643 0.036512839849857925 0 -0.0021712645638261078 0.036647532025394024 0 -0.0030453980614260643 0.036512839849857925 0 -0.0029762029673003746 0.037529926078645352 0 -0.0039197521736721542 0.036624142348559922 0 -0.0030453980614260643 0.036512839849857925 0 -0.0029762029673003746 0.037529926078645352 0 -0.0036503174025264858 0.036231382907694988 0 -0.0018915317071558566 0.036602835418383273 0 -0.00095693611766450707 0.03415229253384254 0 -0.00066087556759389648 0.035567779504885579 0 8.4545806487160865e-05 0.035098945945762794 0 -0.00066087556759389648 0.035567779504885579 0 8.4545806487160865e-05 0.035098945945762794 0 -2.7198866627394226e-05 0.036270772448761979 0 -0.0021712645638261078 0.036647532025394024 0 -0.0029762029673003746 0.037529926078645352 0 -0.0015290826597667798 0.037271018997866348 0 -0.0018915317071558566 0.036602835418383273 0 -0.00089916206463185446 0.036801719025949725 0 -0.0029762029673003746 0.037529926078645352 0 -0.0015290826597667798 0.037271018997866348 0 -0.001994877556144701 0.038437588044900543 0 -0.00037662839353155663 0.036422411928133031 0 -0.00089916206463185446 0.036801719025949725 0 0.0017300516633107503 0.036171762286690938 0 0.0016637843088002577 0.036328194121731994 0 0.0015123168165405688 0.036091406859268656 0 0.0016637843088002577 0.036328194121731994 0 0.0015123168165405688 0.036091406859268656 0 0.0013268925446658301 0.036421701713029837 0 -8.1974318601856972e-06 0.035630700810028657 0 -0.00037662839353155663 0.036422411928133031 0 -0.0085708851915711152 0.03678489071354523 0 -0.008125496597117551 0.036767563846473013 0 -0.0085290807518570606 0.036218789014864514 0 -0.008125496597117551 0.036767563846473013 0 -0.0085290807518570606 0.036218789014864514 0 -0.0075269757140422177 0.036353712450766205 0 -0.0085290807518570606 0.036218789014864514 0 -0.0080071327338760191 0.035685579998633282 0 -0.0075269757140422177 0.036353712450766205 0 -0.0078554136778099058 0.034999926200182024 0 -0.0080071327338760191 0.035685579998633282 0 -0.0093448379579592449 0.03499997062193199 0 -0.0085290807518570606 0.036218789014864514 0 -0.0080071327338760191 0.035685579998633282 0 -0.0093448379579592449 0.03499997062193199 0 -0.0078554136778099058 0.034999926200182024 0 -0.0080071327338760191 0.035685579998633282 0 -0.0068771843723510646 0.035740205740431831 0 -0.0080071327338760191 0.035685579998633282 0 -0.0068771843723510646 0.035740205740431831 0 -0.0075269757140422177 0.036353712450766205 0 -0.0078554136778099058 0.034999926200182024 0 -0.0068771843723510646 0.035740205740431831 0 -0.0063663097143816265 0.034999941669568144 0 -0.0064960536015565258 0.036470851899556712 0 -0.0061625485326981038 0.03710776997494817 0 -0.007330325047441362 0.037248905560878648 0 -0.0068771843723510646 0.035740205740431831 0 -0.0075269757140422177 0.036353712450766205 0 -0.0064960536015565258 0.036470851899556712 0 -0.008125496597117551 0.036767563846473013 0 -0.0075269757140422177 0.036353712450766205 0 -0.007330325047441362 0.037248905560878648 0 -0.0075269757140422177 0.036353712450766205 0 -0.0064960536015565258 0.036470851899556712 0 -0.007330325047441362 0.037248905560878648 0 -0.0068771843723510646 0.035740205740431831 0 -0.0064960536015565258 0.036470851899556712 0 -0.0054701380517656988 0.035926735402153798 0 -0.0064960536015565258 0.036470851899556712 0 -0.0054701380517656988 0.035926735402153798 0 -0.0061650438725075413 0.037080701844826147 0 -0.0054427651207947531 0.035934839851362393 0 -0.0054127854431330769 0.035868640690069203 0 -0.0063658355029409704 0.034999968681932642 0 -0.0055321313859336028 0.035112249839765408 0 -0.0046065562875007519 0.034999960733446127 0 -0.0068771843723510646 0.035740205740431831 0 -0.0063663097143816265 0.034999941669568144 0 -0.0054701380517656988 0.035926735402153798 0 -0.0063641862573842077 0.035000408910679792 0 -0.0050891696120225656 0.03564263675499315 0 -0.0063658355029409704 0.034999968681932642 0 -0.0055321313859336028 0.035112249839765408 0 -0.0052758993464513508 0.035926335408226054 0 -0.0035289543338691562 0.035374527165211292 0 -0.0044494743720344624 0.035223900682130611 0 -0.0043936607959079218 0.035981013201237901 0 -0.0055321313859336028 0.035112249839765408 0 -0.0052758993464513508 0.035926335408226054 0 -0.0037391997069019895 0.03544280433077527 0 -0.0043936607959079218 0.035981013201237901 0 -0.0055321313859336028 0.035112249839765408 0 -0.0036338028278623605 0.035506691366922923 0 -0.0055321313859336028 0.035112249839765408 0 -0.0046065562875007519 0.034999960733446127 0 -0.0036503174025264858 0.036231382907694988 0 -0.0050891696120225656 0.03564263675499315 0 -0.0045046649097160987 0.036852810417732751 0 -0.0054701380517656988 0.035926735402153798 0 -0.0061650438725075413 0.037080701844826147 0 -0.0043936607959079218 0.035981013201237901 0 -0.0042651994033823986 0.036780484371668039 0 -0.0052758993464513508 0.035926335408226054 0 -0.0036503174025264858 0.036231382907694988 0 -0.0054127854431330769 0.035868640690069203 0 -0.00095693611766450707 0.03415229253384254 0 -0.0015670171426402553 0.035446122544703237 0 -0.0022087375702781408 0.034325139157826368 0 -0.00095693611766450707 0.03415229253384254 0 -0.00066087556759389648 0.035567779504885579 0 -0.0015670171426402553 0.035446122544703237 0 -0.0075711820056541057 0.037498175185482485 0 -0.0079665714841127937 0.036924039869099035 0 -0.0081605790907684442 0.037333080801347097 0 -0.0075711820056541057 0.037498175185482485 0 -0.0081605790907684442 0.037333080801347097 0 -0.0083052086441966818 0.037907826738996911 0 -0.0046904905138209904 0.036500051998681185 0 -0.0054127854431330769 0.035868640690069203 0 -0.0079665714841127937 0.036924039869099035 0 -0.0083835133131215933 0.037055643754946535 0 -0.0081605790907684442 0.037333080801347097 0 -0.0054127854431330769 0.035868640690069203 0 -0.0069151043734786196 0.036315671904255942 0 -0.0083835133131215933 0.037055643754946535 0 -0.0081605790907684442 0.037333080801347097 0 -0.0086154622614133952 0.037402171172176299 0 -0.0081605790907684442 0.037333080801347097 0 -0.0086154622614133952 0.037402171172176299 0 -0.0083052086441966818 0.037907826738996911 0 -0.0086154622614133952 0.037402171172176299 0 -0.0093657106447463754 0.03651717473754796 0 -0.0093489136064666568 0.036979596824161007 0 -0.0086154622614133952 0.037402171172176299 0 -0.0090973918170668897 0.037908754815342706 0 -0.0093283660652926786 0.037357485472499848 0 -0.0086154622614133952 0.037402171172176299 0 -0.0093489136064666568 0.036979596824161007 0 -0.0093283660652926786 0.037357485472499848 0 -0.0086154622614133952 0.037402171172176299 0 -0.0085783736491429358 0.03723118996459511 0 -0.0086799185224103338 0.037242131866502201 0 -0.0069151043734786196 0.036315671904255942 0 -0.0073997774331938599 0.036456122852587924 0 -0.0083835133131215933 0.037055643754946535 0 -0.0086154622614133952 0.037402171172176299 0 -0.0085783736491429358 0.03723118996459511 0 -0.0090180836126576569 0.037033127410357344 0 -0.0093107241397407357 0.036697001844031053 0 -0.008125496597117551 0.036767563846473013 0 -0.007330325047441362 0.037248905560878648 0 -0.0085783736491429358 0.03723118996459511 0 -0.0085708851915711152 0.03678489071354523 0 -0.0085783736491429358 0.03723118996459511 0 -0.0086799185224103338 0.037242131866502201 0 -0.0085708851915711152 0.03678489071354523 0 -0.008125496597117551 0.036767563846473013 0 -0.0085783736491429358 0.03723118996459511 0 -0.0086154622614133952 0.037402171172176299 0 -0.0090973918170668897 0.037908754815342706 0 -0.0083052086441966818 0.037907826738996911 0 -0.0090556814922233813 0.038534196287659306 0 -0.0090973918170668897 0.037908754815342706 0 -0.0083052086441966818 0.037907826738996911 0 -0.010018516100937376 0.03526089634007306 0 -0.0085791398735560187 0.035355398715384477 0 -0.0090556814922233813 0.038534196287659306 0 -0.0083052086441966818 0.037907826738996911 0 -0.0082108323811608194 0.03862252889558402 0 -0.0083052086441966818 0.037907826738996911 0 -0.0077336443210247472 0.038184151922101839 0 -0.0082108323811608194 0.03862252889558402 0 -0.0077336443210247472 0.038184151922101839 0 -0.0074645817145534274 0.038730813608835679 0 -0.0082108323811608194 0.03862252889558402 0 -0.0075711820056541057 0.037498175185482485 0 -0.0083052086441966818 0.037907826738996911 0 -0.0077336443210247472 0.038184151922101839 0 -0.0046904905138209904 0.036500051998681185 0 -0.0041164126871903539 0.037021334516523098 0 -0.00066087556759389648 0.035567779504885579 0 -0.0015670171426402553 0.035446122544703237 0 -0.00090509765455808319 0.036542602979252721 0 -0.0075711820056541057 0.037498175185482485 0 -0.0077336443210247472 0.038184151922101839 0 -0.0071422089632256283 0.038187639521624649 0 -0.0077336443210247472 0.038184151922101839 0 -0.0074645817145534274 0.038730813608835679 0 -0.0071422089632256283 0.038187639521624649 0 -0.0069557395123878369 0.031750345180067557 0 -0.0054904118618443786 0.032831700138956046 0 -0.0064711626348440063 0.034060373199715589 0 -0.0069557395123878369 0.031750345180067557 0 -0.0085277643401704441 0.033647801192613493 0 -0.0064711626348440063 0.034060373199715589 0 -0.0069557395123878369 0.031750345180067557 0 -0.0085277643401704441 0.033647801192613493 0 -0.0092633104816853482 0.031480215046534178 0 -0.0068589184055386429 0.035640709797097485 0 -0.0085791398735560187 0.035355398715384477 0 -0.0092633104816853482 0.031480215046534178 0 -0.01033227288932319 0.032842393698037313 0 -0.011162857117628806 0.032412471191090336 0 -0.0085277643401704441 0.033647801192613493 0 -0.0092633104816853482 0.031480215046534178 0 -0.01033227288932319 0.032842393698037313 0 -0.0085277643401704441 0.033647801192613493 0 -0.01033227288932319 0.032842393698037313 0 -0.010097385673928221 0.033725759906159974 0 -0.01033227288932319 0.032842393698037313 0 -0.010097385673928221 0.033725759906159974 0 -0.011685741170252844 0.033401997974429019 0 -0.01033227288932319 0.032842393698037313 0 -0.011685741170252844 0.033401997974429019 0 -0.011994878583678908 0.03321933962307539 0 -0.01033227288932319 0.032842393698037313 0 -0.011162857117628806 0.032412471191090336 0 -0.011994878583678908 0.03321933962307539 0 -0.011291970331253676 0.031573328379088113 0 -0.011162857117628806 0.032412471191090336 0 -0.012297512764346295 0.032407664554976588 0 -0.011291970331253676 0.031573328379088113 0 -0.0092633104816853482 0.031480215046534178 0 -0.011162857117628806 0.032412471191090336 0 0.00099731756155231784 0.036511270143373617 0 0.00066886714622446523 0.036730855983172161 0 0.0011243117047990382 0.036764866765458593 0 0.00099731756155231784 0.036511270143373617 0 0.0011243117047990382 0.036764866765458593 0 0.0012673702788104394 0.036586714617575351 0 0.00099731756155231784 0.036511270143373617 0 0.0012673702788104394 0.036586714617575351 0 0.0013538583097784018 0.036439690687322272 0 0.00099731756155231784 0.036511270143373617 0 0.00066886714622446523 0.036730855983172161 0 0.00056830534753310273 0.036135298951357087 0 0.00066886714622446523 0.036730855983172161 0 0.0010362240168917071 0.037048732165730548 0 0.00063679011961513445 0.037239992949420216 0 0.00066886714622446523 0.036730855983172161 0 0.0011243117047990382 0.036764866765458593 0 0.0010362240168917071 0.037048732165730548 0 0.0011243117047990382 0.036764866765458593 0 0.0013364024673836142 0.036939557152726295 0 0.0010362240168917071 0.037048732165730548 0 0.0013364024673836142 0.036939557152726295 0 0.0015947967934677447 0.036773490699990606 0 0.0013757395450627625 0.036724924615999834 0 0.0011243117047990382 0.036764866765458593 0 0.0013364024673836142 0.036939557152726295 0 0.0013757395450627625 0.036724924615999834 0 0.0018868287114947038 0.036840381968205833 0 0.0015947967934677447 0.036773490699990606 0 0.0015975873091471633 0.037028762471558896 0 0.0013364024673836142 0.036939557152726295 0 0.0015947967934677447 0.036773490699990606 0 0.0015975873091471633 0.037028762471558896 0 0.0018868287114947038 0.036840381968205833 0 0.0018063026850508777 0.036582734297286479 0 0.0015947967934677447 0.036773490699990606 0 0.0018063026850508777 0.036582734297286479 0 0.0015947967934677447 0.036773490699990606 0 0.0015096026937434684 0.036573091493715917 0 0.0011243117047990382 0.036764866765458593 0 0.0013757395450627625 0.036724924615999834 0 0.0012673702788104394 0.036586714617575351 0 0.0015947967934677447 0.036773490699990606 0 0.0013757395450627625 0.036724924615999834 0 0.0015096026937434684 0.036573091493715917 0 0.0013757395450627625 0.036724924615999834 0 0.0015096026937434684 0.036573091493715917 0 0.0012673702788104394 0.036586714617575351 0 0.0013538583097784018 0.036439690687322272 0 0.0015262849035995857 0.036445838691076898 0 0.0013268925446658301 0.036421701713029837 0 0.0016637843088002577 0.036328194121731994 0 0.0015262849035995857 0.036445838691076898 0 0.0013268925446658301 0.036421701713029837 0 0.0015096026937434684 0.036573091493715917 0 0.0012673702788104394 0.036586714617575351 0 0.0013538583097784018 0.036439690687322272 0 0.0018063026850508777 0.036582734297286479 0 0.0016637843088002577 0.036328194121731994 0 0.0015262849035995857 0.036445838691076898 0 0.0015096026937434684 0.036573091493715917 0 0.0013538583097784018 0.036439690687322272 0 0.0015262849035995857 0.036445838691076898 0 0.0018063026850508777 0.036582734297286479 0 0.0015096026937434684 0.036573091493715917 0 0.0015262849035995857 0.036445838691076898 0 8.4545806487160865e-05 0.035098945945762794 0 0.0011422688760848101 0.036059869737649033 0 0.00056830534753310273 0.036135298951357087 0 0.00099731756155231784 0.036511270143373617 0 0.0011422688760848101 0.036059869737649033 0 0.00056830534753310273 0.036135298951357087 0 0.00099731756155231784 0.036511270143373617 0 0.0013538583097784018 0.036439690687322272 0 0.0012016985179339286 0.036293654386451032 0 -0.00079378757290013305 0.036698677838775375 0 -0.00089916206463185446 0.036801719025949725 0 -0.00084520721107171647 0.036826528985502559 0 -0.00089916206463185446 0.036801719025949725 0 8.4545806487160865e-05 0.035098945945762794 0 0.00056830534753310273 0.036135298951357087 0 -2.7198866627394226e-05 0.036270772448761979 0 0.00066886714622446523 0.036730855983172161 0 0.00056830534753310273 0.036135298951357087 0 -2.7198866627394226e-05 0.036270772448761979 0 -0.00066087556759389648 0.035567779504885579 0 -2.7198866627394226e-05 0.036270772448761979 0 -0.00090509765455808319 0.036542602979252721 0 -0.00090509765455808319 0.036542602979252721 0 -0.00023950254462497378 0.03683299279147715 0 -0.00026685248502273485 0.037557153058858317 0 -2.7198866627394226e-05 0.036270772448761979 0 -0.00090509765455808319 0.036542602979252721 0 -0.00023950254462497378 0.03683299279147715 0 0.00066886714622446523 0.036730855983172161 0 -2.7198866627394226e-05 0.036270772448761979 0 0.00024480526006322504 0.036954765260050371 0 -2.7198866627394226e-05 0.036270772448761979 0 -0.00023950254462497378 0.03683299279147715 0 0.00024480526006322504 0.036954765260050371 0 0.00066886714622446523 0.036730855983172161 0 0.00024480526006322504 0.036954765260050371 0 0.00063679011961513445 0.037239992949420216 0 -0.00023950254462497378 0.03683299279147715 0 0.00024480526006322504 0.036954765260050371 0 -0.00026685248502273485 0.037557153058858317 0 0.00024480526006322504 0.036954765260050371 0 -0.00026685248502273485 0.037557153058858317 0 0.00063679011961513445 0.037239992949420216 0 -0.0041123690148973813 0.03633329365971584 0 -0.0017003343554606888 0.035973327992289417 0 -0.00026685248502273485 0.037557153058858317 0 0.00067067951794513826 0.037683848320203696 0 0.00063679011961513445 0.037239992949420216 0 -0.0069557395123878369 0.031750345180067557 0 -0.0046913345216209419 0.032186650280946277 0 -0.0054904118618443786 0.032831700138956046 0 -0.0041164126871903539 0.037021334516523098 0 -0.0041123690148973813 0.03633329365971584 0 -0.0068589184055386429 0.035640709797097485 0 -0.0041123690148973813 0.03633329365971584 0 -0.0074645817145534274 0.038730813608835679 0 -0.0071422089632256283 0.038187639521624649 0 -0.0067251532730545523 0.038864769349385139 0 -0.0041123690148973813 0.03633329365971584 0 -0.0041739811433653736 0.036178466847707827 0 -0.0054904118618443786 0.032831700138956046 0 -0.0048414171837627409 0.033533106625895467 0 -0.0064711626348440063 0.034060373199715589 0 -0.0054904118618443786 0.032831700138956046 0 -0.0048414171837627409 0.033533106625895467 0 -0.0044507457825113143 0.03262664018485207 0 -0.0046913345216209419 0.032186650280946277 0 -0.0054904118618443786 0.032831700138956046 0 -0.0044507457825113143 0.03262664018485207 0 -0.0046748293376325054 0.032209308259584908 0 -0.0044507457825113143 0.03262664018485207 0 -0.0028278892659478203 0.032653265939506106 0 -0.0036477456371222659 0.033098728122738716 0 -0.0044507457825113143 0.03262664018485207 0 -0.0028278892659478203 0.032653265939506106 0 -0.0048414171837627409 0.033533106625895467 0 -0.0036477456371222659 0.033098728122738716 0 -0.0044507457825113143 0.03262664018485207 0 -0.0048414171837627409 0.033533106625895467 0 -0.0036477456371222659 0.033098728122738716 0 -0.0039466650368255663 0.033929593071528028 0 -0.0017003343554606888 0.035973327992289417 0 -2.2443480060257349e-05 0.035794241647108586 0 -0.0036477456371222659 0.033098728122738716 0 -0.0015277081928266796 0.033830176819607004 0 -0.0039466650368255663 0.033929593071528028 0 -0.0036477456371222659 0.033098728122738716 0 -0.0028278892659478203 0.032653265939506106 0 -0.0015277081928266796 0.033830176819607004 0 -0.0028278892659478203 0.032653265939506106 0 -0.0015277081928266796 0.033830176819607004 0 -0.0009429627376675928 0.033147777329639846 0 0.00067067951794513826 0.037683848320203696 0 0.0012446021440240126 0.037321846986651405 0 0.0014876498578846305 0.037707016448997807 0 0.00067067951794513826 0.037683848320203696 0 0.00063679011961513445 0.037239992949420216 0 0.0012446021440240126 0.037321846986651405 0 0.0010362240168917071 0.037048732165730548 0 0.00063679011961513445 0.037239992949420216 0 0.0012446021440240126 0.037321846986651405 0 0.0013364024673836142 0.036939557152726295 0 0.0010362240168917071 0.037048732165730548 0 0.0012446021440240126 0.037321846986651405 0 0.001904391083468894 0.037113798993116301 0 0.0015975873091471633 0.037028762471558896 0 0.0016140074193778922 0.037314463781792269 0 0.0013364024673836142 0.036939557152726295 0 0.0015975873091471633 0.037028762471558896 0 0.0012446021440240126 0.037321846986651405 0 0.0015975873091471633 0.037028762471558896 0 0.0012446021440240126 0.037321846986651405 0 0.0016140074193778922 0.037314463781792269 0 0.0012446021440240126 0.037321846986651405 0 0.0016140074193778922 0.037314463781792269 0 0.0014876498578846305 0.037707016448997807 0 0.001874555799469455 0.037427011138298723 0 0.0016140074193778922 0.037314463781792269 0 0.0014876498578846305 0.037707016448997807 0 0.0013737457046550355 0.035709482136318846 0 -0.0011228515954678031 0.034898612137528706 0 0.0009838102120216742 0.033673029622538188 0 -0.0015277081928266796 0.033830176819607004 0 -0.0009429627376675928 0.033147777329639846 0 -0.0015969021248106799 0.033674199423687559 0 -0.00052244469305070564 0.034506124470075977 0 -0.0015984580149462321 0.035121494039361704 0 0.00077297733161678286 0.033623593525466532 0 -0.0015969021248106799 0.033674199423687559 0 -0.00052244469305070564 0.034506124470075977 0 -0.00052244469305070564 0.034506124470075977 0 -0.00066804085702457366 0.035386024229320481 0 -0.0015984580149462321 0.035121494039361704 0 -0.0011228515954678031 0.034898612137528706 0 -0.0023740744072218659 0.03472014187384153 0 -0.0015969021248106799 0.033674199423687559 0 -0.0027117835330867325 0.034676928570920612 0 -0.0015984580149462321 0.035121494039361704 0 -0.0015969021248106799 0.033674199423687559 0 -0.0027117835330867325 0.034676928570920612 0 -0.0039466650368255663 0.033929593071528028 0 -0.0027713696739619115 0.035958498658983373 0 -0.0015984580149462321 0.035121494039361704 0 -0.0014327292287835986 0.036193370207497549 0 -0.0027117835330867325 0.034676928570920612 0 -0.0027713696739619115 0.035958498658983373 0 -0.0015984580149462321 0.035121494039361704 0 -0.0027117835330867325 0.034676928570920612 0 -0.0027713696739619115 0.035958498658983373 0 -0.0038079362631705093 0.035005367643328303 0 -8.333206136268469e-05 0.036665838689050968 0 -0.00066804085702457366 0.035386024229320481 0 -0.0014327292287835986 0.036193370207497549 0 -0.00066804085702457366 0.035386024229320481 0 -0.0015984580149462321 0.035121494039361704 0 -0.0014327292287835986 0.036193370207497549 0 -8.333206136268469e-05 0.036665838689050968 0 -0.0014327292287835986 0.036193370207497549 0 -0.0022239263145534755 0.037488283873046452 0 -8.333206136268469e-05 0.036665838689050968 0 -0.00034178890056907227 0.038848984498867416 0 -0.0022239263145534755 0.037488283873046452 0 -0.0027713696739619115 0.035958498658983373 0 -0.0014327292287835986 0.036193370207497549 0 -0.0022239263145534755 0.037488283873046452 0 -0.0027713696739619115 0.035958498658983373 0 -0.0022239263145534755 0.037488283873046452 0 -0.0041174227849542526 0.036931450720801409 0 -0.0058949787534633181 0.035193245997342616 0 -0.0098696378500805516 0.032318291975937434 0 -0.008918032454826785 0.035576851935330861 0 -0.0056522502433572243 0.036711230670265986 0 -0.0076611500562030416 0.035393280787133267 0 -0.0039921451290083976 0.038280303173309334 0 -0.0041174227849542526 0.036931450720801409 0 -0.005775076566418561 0.037446142605775841 0 -0.0022239263145534755 0.037488283873046452 0 -0.0039921451290083976 0.038280303173309334 0 -0.0041174227849542526 0.036931450720801409 0 -0.0041174227849542526 0.036931450720801409 0 -0.0056550922961139949 0.036389998074982499 0 -0.0045765311641722253 0.035791333439738886 0 -0.0041174227849542526 0.036931450720801409 0 -0.0056550922961139949 0.036389998074982499 0 -0.005775076566418561 0.037446142605775841 0 -0.0045765311641722253 0.035791333439738886 0 -0.005075046702208188 0.034622224371294502 0 -0.0062022554915974401 0.035374445193635036 0 -0.0056550922961139949 0.036389998074982499 0 -0.0045765311641722253 0.035791333439738886 0 -0.0062022554915974401 0.035374445193635036 0 -0.0045765311641722253 0.035791333439738886 0 -0.0038079362631705093 0.035005367643328303 0 -0.005075046702208188 0.034622224371294502 0 -0.0027713696739619115 0.035958498658983373 0 -0.0041174227849542526 0.036931450720801409 0 -0.0045765311641722253 0.035791333439738886 0 -0.0027713696739619115 0.035958498658983373 0 -0.0045765311641722253 0.035791333439738886 0 -0.0038079362631705093 0.035005367643328303 0 -0.0027117835330867325 0.034676928570920612 0 -0.0038079362631705093 0.035005367643328303 0 -0.0039466650368255663 0.033929593071528028 0 -0.0038079362631705093 0.035005367643328303 0 -0.0039466650368255663 0.033929593071528028 0 -0.005075046702208188 0.034622224371294502 0 -0.0048414171837627409 0.033533106625895467 0 -0.005075046702208188 0.034622224371294502 0 -0.0064711626348440063 0.034060373199715589 0 -0.0048414171837627409 0.033533106625895467 0 -0.0039466650368255663 0.033929593071528028 0 -0.005075046702208188 0.034622224371294502 0 -0.005075046702208188 0.034622224371294502 0 -0.0064711626348440063 0.034060373199715589 0 -0.0062022554915974401 0.035374445193635036 0 -0.0064711626348440063 0.034060373199715589 0 -0.0077426966129015657 0.034911220581530386 0 -0.0062022554915974401 0.035374445193635036 0 -0.0085277643401704441 0.033647801192613493 0 -0.0064711626348440063 0.034060373199715589 0 -0.0077426966129015657 0.034911220581530386 0 -0.0085277643401704441 0.033647801192613493 0 -0.0077426966129015657 0.034911220581530386 0 -0.0097865047592773646 0.035094921933428933 0 -0.0093986747073904336 0.034446986514450439 0 -0.010488187101797728 0.03390713266258804 0 -0.0077426966129015657 0.034911220581530386 0 -0.0077624405460501936 0.036372458995042926 0 -0.0097865047592773646 0.035094921933428933 0 -0.0056550922961139949 0.036389998074982499 0 -0.0077624405460501936 0.036372458995042926 0 -0.0062022554915974401 0.035374445193635036 0 -0.0077426966129015657 0.034911220581530386 0 -0.0077624405460501936 0.036372458995042926 0 -0.0062022554915974401 0.035374445193635036 0 -0.011685741170252844 0.033401997974429019 0 -0.01154064738332706 0.033303071949753044 0 -0.012043184114848168 0.033048444926556619 0 -0.010097385673928221 0.033725759906159974 0 -0.011685741170252844 0.033401997974429019 0 -0.0097865047592773646 0.035094921933428933 0 -0.010953298131719085 0.033637646352089344 0 -0.010488187101797728 0.03390713266258804 0 -0.0085277643401704441 0.033647801192613493 0 -0.010097385673928221 0.033725759906159974 0 -0.0097865047592773646 0.035094921933428933 0 -0.012279267793918029 0.032124276666363499 0 -0.012043184114848168 0.033048444926556619 0 -0.012160471716947729 0.032383335901809251 0 -0.012043184114848168 0.033048444926556619 0 -0.011828473126366977 0.032769075061920831 0 -0.012160471716947729 0.032383335901809251 0 -0.012236375512382377 0.032601877111907769 0 -0.012301587262533557 0.03188832683259505 0 -0.01154064738332706 0.033303071949753044 0 -0.011828473126366977 0.032769075061920831 0 -0.011533533770479281 0.032346759894893308 0 -0.01154064738332706 0.033303071949753044 0 -0.012043184114848168 0.033048444926556619 0 -0.011828473126366977 0.032769075061920831 0 -0.011828473126366977 0.032769075061920831 0 -0.011533533770479281 0.032346759894893308 0 -0.012160471716947729 0.032383335901809251 0 -0.011533533770479281 0.032346759894893308 0 -0.012160471716947729 0.032383335901809251 0 -0.012116373302248684 0.031996023703172193 0 -0.012160471716947729 0.032383335901809251 0 -0.012116373302248684 0.031996023703172193 0 -0.012308765766964934 0.032680997970703306 0 -0.011533533770479281 0.032346759894893308 0 -0.012116373302248684 0.031996023703172193 0 -0.011526551793535815 0.031462459871842458 0 -0.012301587262533557 0.03188832683259505 0 -0.012329992926727196 0.031139534225613785 0 -0.012279267793918029 0.032124276666363499 0 -0.0098696378500805516 0.032318291975937434 0 -0.012308765766964934 0.032680997970703306 0 -0.0093986747073904336 0.034446986514450439 0 -0.0076611500562030416 0.035393280787133267 0 -0.0056550922961139949 0.036389998074982499 0 -0.0077624405460501936 0.036372458995042926 0 -0.005775076566418561 0.037446142605775841 0 -0.012279267793918029 0.032124276666363499 0 -0.012160471716947729 0.032383335901809251 0 -0.012308765766964934 0.032680997970703306 0 -0.012116373302248684 0.031996023703172193 0 -0.012308765766964934 0.032680997970703306 0 -0.012455770383895812 0.031739665966577978 0 -0.011946821836224831 0.033189563772749411 0 -0.011791417610488434 0.033522812514362114 0 -0.012308765766964934 0.032680997970703306 0 -0.013244462423101368 0.031169488380128597 0 -0.012455770383895812 0.031739665966577978 0 -0.0098696378500805516 0.032318291975937434 0 -0.012308765766964934 0.032680997970703306 0 -0.008918032454826785 0.035576851935330861 0 -0.012308765766964934 0.032680997970703306 0 -0.011354215471002656 0.036900169139900886 0 -0.008918032454826785 0.035576851935330861 0 -0.011354215471002656 0.036900169139900886 0 -0.008918032454826785 0.035576851935330861 0 -0.008662625598513312 0.038574627299231591 0 -0.012455770383895812 0.031739665966577978 0 -0.012655931100236542 0.030720113128724479 0 -0.01224372093510518 0.031178553281498829 0 -0.013244462423101368 0.031169488380128597 0 -0.012455770383895812 0.031739665966577978 0 -0.012655931100236542 0.030720113128724479 0 -0.012655931100236542 0.030720113128724479 0 -0.013076473291571191 0.030404743319393194 0 -0.01271665398349086 0.029982298996474113 0 -0.013244462423101368 0.031169488380128597 0 -0.012655931100236542 0.030720113128724479 0 -0.013076473291571191 0.030404743319393194 0 -0.011354215471002656 0.036900169139900886 0 -0.010077937814847768 0.040532756481492939 0 -0.008662625598513312 0.038574627299231591 0 -0.011791417610488434 0.033522812514362114 0 -0.011534743882860993 0.03319469451065421 0 -0.013244462423101368 0.031169488380128597 0 -0.013076473291571191 0.030404743319393194 0 -0.013463611744519436 0.030045474254252989 0 -0.013076473291571191 0.030404743319393194 0 -0.013342283683807882 0.030084637483901285 0 -0.013047159651662445 0.030028766070278042 0 -0.011918159563029407 0.032774689592930596 0 -0.011534743882860993 0.03319469451065421 0 -0.010077937814847768 0.040532756481492939 0 -0.0076468665864157792 0.040551772523680557 0 -0.008662625598513312 0.038574627299231591 0 -0.012116373302248684 0.031996023703172193 0 -0.011526551793535815 0.031462459871842458 0 -0.01224372093510518 0.031178553281498829 0 -0.011526551793535815 0.031462459871842458 0 -0.01224372093510518 0.031178553281498829 0 -0.012330706060249094 0.030329368018662199 0 -0.012116373302248684 0.031996023703172193 0 -0.012455770383895812 0.031739665966577978 0 -0.01224372093510518 0.031178553281498829 0 -0.012330706060249094 0.030329368018662199 0 -0.012258166096171502 0.029862871511941801 0 -0.012300613114515701 0.029744360999712966 0 -0.012655931100236542 0.030720113128724479 0 -0.012330706060249094 0.030329368018662199 0 -0.01271665398349086 0.029982298996474113 0 -0.012655931100236542 0.030720113128724479 0 -0.01224372093510518 0.031178553281498829 0 -0.012330706060249094 0.030329368018662199 0 -0.012329992926727196 0.031139534225613785 0 -0.012334546718455056 0.030756664692199669 0 -0.011526551793535815 0.031462459871842458 0 -0.012330706060249094 0.030329368018662199 0 -0.012258166096171502 0.029862871511941801 0 -0.013170404915346833 0.030223646827776639 0 -0.012258166096171502 0.029862871511941801 0 -0.012847466124272027 0.029659641060636777 0 -0.012258166096171502 0.029862871511941801 0 -0.012189797218358726 0.029693895565731938 0 -0.012847466124272027 0.029659641060636777 0 -0.012258166096171502 0.029862871511941801 0 -0.012189797218358726 0.029693895565731938 0 -0.012300613114515701 0.029744360999712966 0 -0.012189797218358726 0.029693895565731938 0 -0.012300613114515701 0.029744360999712966 0 -0.012159205709485756 0.029328817952034271 0 -0.012330706060249094 0.030329368018662199 0 -0.012300613114515701 0.029744360999712966 0 -0.01271665398349086 0.029982298996474113 0 -0.012300613114515701 0.029744360999712966 0 -0.01271665398349086 0.029982298996474113 0 -0.01264562846289688 0.029335474725357014 0 -0.01241664551482969 0.029152647495277698 0 -0.012159205709485756 0.029328817952034271 0 -0.011708684289297833 0.028558683309984168 0 -0.012300613114515701 0.029744360999712966 0 -0.01241664551482969 0.029152647495277698 0 -0.01264562846289688 0.029335474725357014 0 -0.01241664551482969 0.029152647495277698 0 -0.012708516883759293 0.02887759081413907 0 -0.012401997679676141 0.028356792165477266 0 -0.01241664551482969 0.029152647495277698 0 -0.01264562846289688 0.029335474725357014 0 -0.012708516883759293 0.02887759081413907 0 -0.012300613114515701 0.029744360999712966 0 -0.01241664551482969 0.029152647495277698 0 -0.012159205709485756 0.029328817952034271 0 -0.012189797218358726 0.029693895565731938 0 -0.01295546371119672 0.03016192509827521 0 -0.011900525719714726 0.031084146592141707 0 -0.013121893985841746 0.028511314814237049 0 -0.01372941492209759 0.026812788976114131 0 -0.012189797218358726 0.029693895565731938 0 -0.012159205709485756 0.029328817952034271 0 -0.011708684289297833 0.028558683309984168 0 -0.012151109701578532 0.032734774072219357 0 -0.012647364674583769 0.030478750599653347 0 -0.013950523375474085 0.031017489595154775 0 -0.011534743882860993 0.03319469451065421 0 -0.012515052338467014 0.030341010354628994 0 -0.013069408148941133 0.029653928002633771 0 -0.013342283683807882 0.030084637483901285 0 -0.013473506748551035 0.029216343420802628 0 -0.013069408148941133 0.029653928002633771 0 -0.013342283683807882 0.030084637483901285 0 -0.013047159651662445 0.030028766070278042 0 -0.013069408148941133 0.029653928002633771 0 -0.013047159651662445 0.030028766070278042 0 -0.01271665398349086 0.029982298996474113 0 -0.013069408148941133 0.029653928002633771 0 -0.01271665398349086 0.029982298996474113 0 -0.012863575026237936 0.028935766691551769 0 -0.013076473291571191 0.030404743319393194 0 -0.013047159651662445 0.030028766070278042 0 -0.01271665398349086 0.029982298996474113 0 -0.01271665398349086 0.029982298996474113 0 -0.01264562846289688 0.029335474725357014 0 -0.013286840199735772 0.028826256660459938 0 -0.012858019689781442 0.029187417931389043 0 -0.013084719765986637 0.028551109819725098 0 -0.01264562846289688 0.029335474725357014 0 -0.012708516883759293 0.02887759081413907 0 -0.013286840199735772 0.028826256660459938 0 -0.012708516883759293 0.02887759081413907 0 -0.013286840199735772 0.028826256660459938 0 -0.01284196633860709 0.02849115595121594 0 -0.013069408148941133 0.029653928002633771 0 -0.012863575026237936 0.028935766691551769 0 -0.013473506748551035 0.029216343420802628 0 -0.012647364674583769 0.030478750599653347 0 -0.013950523375474085 0.031017489595154775 0 -0.014008118683524029 0.029504368359670085 0 -0.013950523375474085 0.031017489595154775 0 -0.014008118683524029 0.029504368359670085 0 -0.015603759344115398 0.029330274436040096 0 -0.010077937814847768 0.040532756481492939 0 -0.0070367932649762349 0.042481142252398629 0 -0.0076468665864157792 0.040551772523680557 0 -0.011534743882860993 0.03319469451065421 0 -0.0097103730822912585 0.034506920508307164 0 -0.0070367932649762349 0.042481142252398629 0 -0.0076468665864157792 0.040551772523680557 0 -0.0057999895844080959 0.041220009670394644 0 -0.0076468665864157792 0.040551772523680557 0 -0.0057999895844080959 0.041220009670394644 0 -0.0068097381370660825 0.039683930490110965 0 -0.0070367932649762349 0.042481142252398629 0 -0.0057999895844080959 0.041220009670394644 0 -0.0048239387751659764 0.042269273828349913 0 -0.0057999895844080959 0.041220009670394644 0 -0.0036899166046105046 0.04129397951291431 0 -0.0044333129630769888 0.039921857545850668 0 -0.0057999895844080959 0.041220009670394644 0 -0.0048239387751659764 0.042269273828349913 0 -0.0036899166046105046 0.04129397951291431 0 -0.0057999895844080959 0.041220009670394644 0 -0.0068097381370660825 0.039683930490110965 0 -0.0044333129630769888 0.039921857545850668 0 -0.0048239387751659764 0.042269273828349913 0 -0.0031037879226785037 0.042477152163641715 0 -0.0046831345627505027 0.043783324244091121 0 -0.0097103730822912585 0.034506920508307164 0 -0.008545774342272907 0.033787030028709593 0 -0.0070367932649762349 0.042481142252398629 0 -0.0048239387751659764 0.042269273828349913 0 -0.0046831345627505027 0.043783324244091121 0 -0.0031037879226785037 0.042477152163641715 0 -0.0046831345627505027 0.043783324244091121 0 -0.0030819211935157981 0.043543634875425022 0 -0.0031037879226785037 0.042477152163641715 0 -0.0017375365797836749 0.042664444927823043 0 -0.0030819211935157981 0.043543634875425022 0 -0.0048239387751659764 0.042269273828349913 0 -0.0031037879226785037 0.042477152163641715 0 -0.0036899166046105046 0.04129397951291431 0 -0.0015683017262142385 0.042494955931342684 0 -0.0017375365797836749 0.042664444927823043 0 -0.0017979272313184142 0.042038503948954538 0 -0.0015683017262142385 0.042494955931342684 0 -0.0017375365797836749 0.042664444927823043 0 -0.0012660994299191664 0.042281474631995532 0 -0.0015623408105471725 0.042472400360315264 0 -0.0015683017262142385 0.042494955931342684 0 -0.0012660994299191664 0.042281474631995532 0 -0.0031037879226785037 0.042477152163641715 0 -0.0017375365797836749 0.042664444927823043 0 -0.0018335700551679113 0.041932594387561632 0 -0.0031037879226785037 0.042477152163641715 0 -0.0018335700551679113 0.041932594387561632 0 -0.0021954556793579347 0.041319769449723411 0 -0.0017375365797836749 0.042664444927823043 0 -0.0018335700551679113 0.041932594387561632 0 -0.0012660994299191664 0.042281474631995532 0 -0.0018335700551679113 0.041932594387561632 0 -0.0012660994299191664 0.042281474631995532 0 -0.0010892369088680333 0.040858848331617313 0 -0.0018335700551679113 0.041932594387561632 0 -0.0021954556793579347 0.041319769449723411 0 -0.0010892369088680333 0.040858848331617313 0 -0.0021954556793579347 0.041319769449723411 0 -0.0010892369088680333 0.040858848331617313 0 -0.0021637861267572727 0.040089594716709871 0 -0.0036899166046105046 0.04129397951291431 0 -0.0021637861267572727 0.040089594716709871 0 -0.0044333129630769888 0.039921857545850668 0 -0.0031037879226785037 0.042477152163641715 0 -0.0021954556793579347 0.041319769449723411 0 -0.0036899166046105046 0.04129397951291431 0 -0.0021954556793579347 0.041319769449723411 0 -0.0036899166046105046 0.04129397951291431 0 -0.0021637861267572727 0.040089594716709871 0 -0.0021637861267572727 0.040089594716709871 0 -0.0028110765796133747 0.038808855630359324 0 -0.0044333129630769888 0.039921857545850668 0 -0.00034178890056907227 0.038848984498867416 0 -0.0021637861267572727 0.040089594716709871 0 -0.0028110765796133747 0.038808855630359324 0 -0.00034178890056907227 0.038848984498867416 0 -0.0010892369088680333 0.040858848331617313 0 -0.0021637861267572727 0.040089594716709871 0 -0.00034178890056907227 0.038848984498867416 0 -0.0022239263145534755 0.037488283873046452 0 -0.0028110765796133747 0.038808855630359324 0 -0.0022239263145534755 0.037488283873046452 0 -0.0039921451290083976 0.038280303173309334 0 -0.0028110765796133747 0.038808855630359324 0 -0.0058949787534633181 0.035193245997342616 0 -0.0028110765796133747 0.038808855630359324 0 -0.0062070304991371826 0.038065211477110561 0 -0.0056522502433572243 0.036711230670265986 0 -0.0045462309137148669 0.037534032257580778 0 -0.0058949787534633181 0.035193245997342616 0 -0.0062070304991371826 0.038065211477110561 0 -0.008918032454826785 0.035576851935330861 0 -0.0062070304991371826 0.038065211477110561 0 -0.008918032454826785 0.035576851935330861 0 -0.008662625598513312 0.038574627299231591 0 -0.0062070304991371826 0.038065211477110561 0 -0.008662625598513312 0.038574627299231591 0 -0.0068097381370660825 0.039683930490110965 0 -0.0076468665864157792 0.040551772523680557 0 -0.008662625598513312 0.038574627299231591 0 -0.0068097381370660825 0.039683930490110965 0 -0.0062070304991371826 0.038065211477110561 0 -0.0068097381370660825 0.039683930490110965 0 -0.0044333129630769888 0.039921857545850668 0 -0.0028110765796133747 0.038808855630359324 0 -0.0062070304991371826 0.038065211477110561 0 -0.0044333129630769888 0.039921857545850668 0 -0.013751781985692976 0.027795260288085398 0 -0.013049568490786197 0.027871279135184213 0 -0.01306964983427328 0.027181780450151155 0 -0.013751781985692976 0.027795260288085398 0 -0.01306964983427328 0.027181780450151155 0 -0.01368730180727949 0.027103533198659435 0 -0.013751781985692976 0.027795260288085398 0 -0.01368730180727949 0.027103533198659435 0 -0.014400140351163141 0.027217755677435691 0 -0.012066574268458835 0.03037003765736369 0 -0.012075692158838729 0.030538176406571454 0 -0.012120581177853437 0.030400421556474433 0 -0.01311981449375353 0.028894030159960438 0 -0.013133144047122389 0.028763563651156485 0 -0.012075692158838729 0.030538176406571454 0 -0.012005196302214432 0.030585663496745914 0 -0.012055471036283454 0.030691507578854929 0 -0.012066574268458835 0.03037003765736369 0 -0.012075692158838729 0.030538176406571454 0 -0.012005196302214432 0.030585663496745914 0 -0.018142607437638358 0.019288537170635112 0 -0.018722996615256872 0.018991199628863545 0 -0.018782594880283044 0.019270622356495643 0 -0.013049568490786197 0.027871279135184213 0 -0.012893454497289913 0.02769012185984341 0 -0.012799903937248365 0.027924609091936642 0 -0.013133144047122389 0.028763563651156485 0 -0.016433099808559403 0.027249226507121693 0 -0.016270039204120967 0.024810198228891904 0 -0.016433099808559403 0.027249226507121693 0 -0.018142607437638358 0.019288537170635112 0 -0.018782594880283044 0.019270622356495643 0 -0.018872704103864262 0.019584633993055687 0 -0.018142607437638358 0.019288537170635112 0 -0.018177881344242135 0.01982955331508585 0 -0.018872704103864262 0.019584633993055687 0 -0.013049568490786197 0.027871279135184213 0 -0.012893454497289913 0.02769012185984341 0 -0.01306964983427328 0.027181780450151155 0 -0.018142607437638358 0.019288537170635112 0 -0.018177881344242135 0.01982955331508585 0 -0.017319861989996566 0.019856414503111028 0 -0.016270039204120967 0.024810198228891904 0 -0.015754801808885027 0.024017139729716318 0 -0.017992198129533614 0.020280850064143575 0 -0.018177881344242135 0.01982955331508585 0 -0.017319861989996566 0.019856414503111028 0 -0.017992198129533614 0.020280850064143575 0 -0.017421439865501216 0.020665152914265517 0 -0.017319861989996566 0.019856414503111028 0 -0.018177881344242135 0.01982955331508585 0 -0.018872704103864262 0.019584633993055687 0 -0.018763035425379299 0.020219973059326903 0 -0.017992198129533614 0.020280850064143575 0 -0.018177881344242135 0.01982955331508585 0 -0.018763035425379299 0.020219973059326903 0 -0.017992198129533614 0.020280850064143575 0 -0.018259995146775513 0.020827404577309777 0 -0.018763035425379299 0.020219973059326903 0 -0.018259995146775513 0.020827404577309777 0 -0.017421439865501216 0.020665152914265517 0 -0.017594712331225497 0.021088931288711338 0 -0.017992198129533614 0.020280850064143575 0 -0.018259995146775513 0.020827404577309777 0 -0.017421439865501216 0.020665152914265517 0 -0.017421439865501216 0.020665152914265517 0 -0.017319861989996566 0.019856414503111028 0 -0.016529883364541243 0.02068184373947167 0 -0.017421439865501216 0.020665152914265517 0 -0.016529883364541243 0.02068184373947167 0 -0.016905476357827989 0.021375252811131777 0 -0.015754801808885027 0.024017139729716318 0 -0.015448280974130313 0.023623514770239676 0 -0.01306964983427328 0.027181780450151155 0 -0.01368730180727949 0.027103533198659435 0 -0.013356973472370691 0.02632251254010215 0 -0.01368730180727949 0.027103533198659435 0 -0.013356973472370691 0.02632251254010215 0 -0.014257505988918643 0.026726025033161519 0 -0.013356973472370691 0.02632251254010215 0 -0.014257505988918643 0.026726025033161519 0 -0.013937899205712994 0.024898400294765193 0 -0.014257505988918643 0.026726025033161519 0 -0.015173097907574307 0.026060412202622049 0 -0.013937899205712994 0.024898400294765193 0 -0.014257505988918643 0.026726025033161519 0 -0.015173097907574307 0.026060412202622049 0 -0.01489764686706304 0.027296955377243238 0 -0.015173097907574307 0.026060412202622049 0 -0.01489764686706304 0.027296955377243238 0 -0.015501609042613882 0.026812591946418579 0 -0.01489764686706304 0.027296955377243238 0 -0.014400140351163141 0.027217755677435691 0 -0.015239376412303773 0.02743537762617548 0 -0.01489764686706304 0.027296955377243238 0 -0.014347275800938211 0.028372777644386251 0 -0.015239376412303773 0.02743537762617548 0 -0.014257505988918643 0.026726025033161519 0 -0.01489764686706304 0.027296955377243238 0 -0.014400140351163141 0.027217755677435691 0 -0.01368730180727949 0.027103533198659435 0 -0.014257505988918643 0.026726025033161519 0 -0.014400140351163141 0.027217755677435691 0 -0.017473273168062818 0.02659231095922154 0 -0.018929054456215434 0.024916408257528236 0 -0.016667288198996721 0.025463135174456804 0 -0.014293257974281019 0.027442412534009981 0 -0.01372941492209759 0.026812788976114131 0 -0.015173097907574307 0.026060412202622049 0 -0.015501609042613882 0.026812591946418579 0 -0.016667288198996721 0.025463135174456804 0 -0.017473273168062818 0.02659231095922154 0 -0.015501609042613882 0.026812591946418579 0 -0.016667288198996721 0.025463135174456804 0 -0.01489764686706304 0.027296955377243238 0 -0.015501609042613882 0.026812591946418579 0 -0.014347275800938211 0.028372777644386251 0 -0.013590933244668041 0.02881971700549097 0 -0.013568023152458151 0.028783895792208369 0 -0.01295546371119672 0.03016192509827521 0 -0.014347275800938211 0.028372777644386251 0 -0.01323441792074849 0.029165854877641163 0 -0.014347275800938211 0.028372777644386251 0 -0.01323441792074849 0.029165854877641163 0 -0.015239376412303773 0.02743537762617548 0 -0.017473273168062818 0.02659231095922154 0 -0.015501609042613882 0.026812591946418579 0 -0.014347275800938211 0.028372777644386251 0 -0.014293257974281019 0.027442412534009981 0 -0.01432606943590491 0.027683824778969246 0 -0.012189797218358726 0.029693895565731938 0 -0.01323441792074849 0.029165854877641163 0 -0.012847466124272027 0.029659641060636777 0 -0.012189797218358726 0.029693895565731938 0 -0.01295546371119672 0.03016192509827521 0 -0.01323441792074849 0.029165854877641163 0 -0.01323441792074849 0.029165854877641163 0 -0.012847466124272027 0.029659641060636777 0 -0.01271636408201572 0.029807063784465099 0 -0.012847466124272027 0.029659641060636777 0 -0.01271636408201572 0.029807063784465099 0 -0.012751388756570727 0.030047012442898764 0 -0.01271636408201572 0.029807063784465099 0 -0.012751388756570727 0.030047012442898764 0 -0.01224703908130105 0.030179492039154692 0 -0.01323441792074849 0.029165854877641163 0 -0.01271636408201572 0.029807063784465099 0 -0.012082617101448775 0.029924867913184397 0 -0.012437991564410144 0.030499811581083159 0 -0.012751388756570727 0.030047012442898764 0 -0.01224703908130105 0.030179492039154692 0 -0.012437991564410144 0.030499811581083159 0 -0.01224703908130105 0.030179492039154692 0 -0.012093466361459377 0.030733246040728385 0 -0.012437991564410144 0.030499811581083159 0 -0.012751388756570727 0.030047012442898764 0 -0.012803977484799443 0.030743987422435282 0 -0.013170404915346833 0.030223646827776639 0 -0.012847466124272027 0.029659641060636777 0 -0.012751388756570727 0.030047012442898764 0 -0.013170404915346833 0.030223646827776639 0 -0.012751388756570727 0.030047012442898764 0 -0.012803977484799443 0.030743987422435282 0 -0.013751781985692976 0.027795260288085398 0 -0.014400140351163141 0.027217755677435691 0 -0.015239376412303773 0.02743537762617548 0 -0.01311981449375353 0.028894030159960438 0 -0.013568023152458151 0.028783895792208369 0 -0.012066574268458835 0.03037003765736369 0 -0.012082617101448775 0.029924867913184397 0 -0.012113929812972525 0.030209215016975113 0 -0.01271636408201572 0.029807063784465099 0 -0.012082617101448775 0.029924867913184397 0 -0.01224703908130105 0.030179492039154692 0 -0.012082617101448775 0.029924867913184397 0 -0.01224703908130105 0.030179492039154692 0 -0.012113929812972525 0.030209215016975113 0 -0.01224703908130105 0.030179492039154692 0 -0.011690452104709675 0.030794382020325264 0 -0.012093466361459377 0.030733246040728385 0 -0.01224703908130105 0.030179492039154692 0 -0.012120581177853437 0.030400421556474433 0 -0.012113929812972525 0.030209215016975113 0 -0.012130147492876988 0.030542962504089857 0 -0.012009843000398691 0.030673090066779062 0 -0.012066574268458835 0.03037003765736369 0 -0.012120581177853437 0.030400421556474433 0 -0.012113929812972525 0.030209215016975113 0 -0.011690452104709675 0.030794382020325264 0 -0.011896822054897709 0.031271892504884727 0 -0.011603723993822574 0.031446068190047333 0 -0.012009843000398691 0.030673090066779062 0 -0.011874861055476731 0.030871671056118145 0 -0.012093466361459377 0.030733246040728385 0 -0.011896822054897709 0.031271892504884727 0 -0.012275584556985285 0.03096892708022771 0 -0.011690452104709675 0.030794382020325264 0 -0.012093466361459377 0.030733246040728385 0 -0.011896822054897709 0.031271892504884727 0 -0.011896822054897709 0.031271892504884727 0 -0.012229388625753151 0.031716870023124559 0 -0.011752422501572256 0.031699470708534884 0 -0.011896822054897709 0.031271892504884727 0 -0.011752422501572256 0.031699470708534884 0 -0.011603723993822574 0.031446068190047333 0 -0.013244534799485112 0.031407971227032941 0 -0.013170404915346833 0.030223646827776639 0 -0.012803977484799443 0.030743987422435282 0 -0.012437991564410144 0.030499811581083159 0 -0.012803977484799443 0.030743987422435282 0 -0.012275584556985285 0.03096892708022771 0 -0.012437991564410144 0.030499811581083159 0 -0.012093466361459377 0.030733246040728385 0 -0.012275584556985285 0.03096892708022771 0 -0.011896822054897709 0.031271892504884727 0 -0.012275584556985285 0.03096892708022771 0 -0.012229388625753151 0.031716870023124559 0 -0.012803977484799443 0.030743987422435282 0 -0.012275584556985285 0.03096892708022771 0 -0.012229388625753151 0.031716870023124559 0 -0.013244534799485112 0.031407971227032941 0 -0.012803977484799443 0.030743987422435282 0 -0.012229388625753151 0.031716870023124559 0 -0.01299919681368812 0.032963759087149505 0 -0.013244534799485112 0.031407971227032941 0 -0.012569735034545195 0.032386407962231883 0 -0.013244534799485112 0.031407971227032941 0 -0.012229388625753151 0.031716870023124559 0 -0.012569735034545195 0.032386407962231883 0 -0.012229388625753151 0.031716870023124559 0 -0.012569735034545195 0.032386407962231883 0 -0.012006941632830517 0.032284475327598802 0 -0.012569735034545195 0.032386407962231883 0 -0.012730672310582333 0.033088974865636313 0 -0.012006941632830517 0.032284475327598802 0 -0.013189731147566656 0.03311662455027041 0 -0.013160155833803677 0.033120480572670342 0 -0.012730672310582333 0.033088974865636313 0 -0.013544242508884053 0.034228007583304007 0 -0.01293401449354842 0.033559088312945511 0 -0.012730672310582333 0.033088974865636313 0 -0.012483189583302728 0.033254067129560916 0 -0.01293401449354842 0.033559088312945511 0 -0.01299919681368812 0.032963759087149505 0 -0.012730672310582333 0.033088974865636313 0 -0.012483189583302728 0.033254067129560916 0 -0.01299919681368812 0.032963759087149505 0 -0.012569735034545195 0.032386407962231883 0 -0.012730672310582333 0.033088974865636313 0 -0.011752422501572256 0.031699470708534884 0 -0.011659841094932745 0.031756831053600568 0 -0.011612145723558587 0.031520846599138418 0 -0.011752422501572256 0.031699470708534884 0 -0.011612145723558587 0.031520846599138418 0 -0.011603723993822574 0.031446068190047333 0 -0.012229388625753151 0.031716870023124559 0 -0.011752422501572256 0.031699470708534884 0 -0.012006941632830517 0.032284475327598802 0 -0.013160155833803677 0.033120480572670342 0 -0.013199519383561483 0.033070419833451443 0 -0.011752422501572256 0.031699470708534884 0 -0.012006941632830517 0.032284475327598802 0 -0.011659841094932745 0.031756831053600568 0 -0.013544242508884053 0.034228007583304007 0 -0.01437407548497192 0.034613516944204066 0 -0.014318905617681017 0.034381663895546227 0 -0.01437407548497192 0.034613516944204066 0 -0.014323999574781207 0.035042145362199906 0 -0.014351365307596406 0.034935039896447806 0 -0.013199519383561483 0.033070419833451443 0 -0.013365648798626506 0.032932227379823154 0 -0.011659841094932745 0.031756831053600568 0 -0.01168762576598655 0.031363492805067131 0 -0.011612145723558587 0.031520846599138418 0 -0.01168762576598655 0.031363492805067131 0 -0.011698455040833005 0.03136807072757937 0 -0.011612145723558587 0.031520846599138418 0 -0.011698455040833005 0.03136807072757937 0 -0.011612145723558587 0.031520846599138418 0 -0.011600740347446091 0.031417551533765881 0 -0.011612145723558587 0.031520846599138418 0 -0.011603723993822574 0.031446068190047333 0 -0.011600740347446091 0.031417551533765881 0 -0.011603723993822574 0.031446068190047333 0 -0.011600740347446091 0.031417551533765881 0 -0.011537515009187883 0.031204787908877651 0 -0.011800756920880064 0.031023515016852327 0 -0.011874861055476731 0.030871671056118145 0 -0.012083806168976885 0.030903317577433097 0 -0.012055471036283454 0.030691507578854929 0 -0.012123472933440321 0.030630813627038074 0 -0.012075692158838729 0.030538176406571454 0 -0.012055471036283454 0.030691507578854929 0 -0.012123472933440321 0.030630813627038074 0 -0.011690452104709675 0.030794382020325264 0 -0.011603723993822574 0.031446068190047333 0 -0.011537515009187883 0.031204787908877651 0 -0.012075692158838729 0.030538176406571454 0 -0.012120581177853437 0.030400421556474433 0 -0.012123472933440321 0.030630813627038074 0 -0.011947218087172759 0.030830353877402784 0 -0.011855148021115583 0.031017164965013576 0 -0.011844573700247522 0.030794045113805193 0 -0.012005196302214432 0.030585663496745914 0 -0.011947218087172759 0.030830353877402784 0 -0.011844573700247522 0.030794045113805193 0 -0.012005196302214432 0.030585663496745914 0 -0.012055471036283454 0.030691507578854929 0 -0.011947218087172759 0.030830353877402784 0 -0.012083806168976885 0.030903317577433097 0 -0.012055471036283454 0.030691507578854929 0 -0.011947218087172759 0.030830353877402784 0 -0.012083806168976885 0.030903317577433097 0 -0.011947218087172759 0.030830353877402784 0 -0.01187696488283114 0.031227365097895067 0 -0.011800756920880064 0.031023515016852327 0 -0.011779502259358535 0.031078616577375286 0 -0.011947218087172759 0.030830353877402784 0 -0.011855148021115583 0.031017164965013576 0 -0.01187696488283114 0.031227365097895067 0 -0.011855148021115583 0.031017164965013576 0 -0.01187696488283114 0.031227365097895067 0 -0.011871826665051412 0.031157610452767083 0 -0.01187696488283114 0.031227365097895067 0 -0.011877252021652508 0.031228215651103751 0 -0.011871826665051412 0.031157610452767083 0 -0.01187696488283114 0.031227365097895067 0 -0.011807360224274034 0.031286427388629509 0 -0.011877252021652508 0.031228215651103751 0 -0.011698455040833005 0.03136807072757937 0 -0.01187696488283114 0.031227365097895067 0 -0.011807360224274034 0.031286427388629509 0 -0.011698455040833005 0.03136807072757937 0 -0.011600740347446091 0.031417551533765881 0 -0.01187696488283114 0.031227365097895067 0 -0.01168762576598655 0.031363492805067131 0 -0.011698455040833005 0.03136807072757937 0 -0.011807360224274034 0.031286427388629509 0 -0.014323999574781207 0.035042145362199906 0 -0.015215178588657051 0.035046257877198617 0 -0.014606839657082699 0.034999645283105126 0 -0.013365648798626506 0.032932227379823154 0 -0.01424758757823013 0.032577039146453039 0 -0.01168762576598655 0.031363492805067131 0 -0.011807360224274034 0.031286427388629509 0 -0.011888263994028632 0.031206403601432255 0 -0.011877252021652508 0.031228215651103751 0 -0.011888263994028632 0.031206403601432255 0 -0.011901177386593935 0.031196208471465734 0 -0.011807360224274034 0.031286427388629509 0 -0.011877252021652508 0.031228215651103751 0 -0.011888263994028632 0.031206403601432255 0 -0.015215178588657051 0.035046257877198617 0 -0.015092326933652273 0.03436251248173558 0 -0.015697020744875615 0.034566663583981368 0 -0.014472756740740575 0.035306920691761341 0 -0.014709378213257488 0.035640284363654219 0 -0.014582429287547669 0.035511778865566869 0 -0.015744689654370012 0.03534264213958651 0 -0.016467430939178934 0.035425349709573714 0 -0.015092326933652273 0.03436251248173558 0 -0.015697020744875615 0.034566663583981368 0 -0.015704470776333204 0.034239361761149105 0 -0.015092326933652273 0.03436251248173558 0 -0.015665584479155274 0.033733965992212782 0 -0.015704470776333204 0.034239361761149105 0 -0.014520214587910231 0.035409836113118577 0 -0.014494289053271131 0.035230620728580436 0 -0.014437552692384252 0.035323367123236284 0 -0.014520214587910231 0.035409836113118577 0 -0.014494289053271131 0.035230620728580436 0 -0.014582429287547669 0.035511778865566869 0 -0.014472756740740575 0.035306920691761341 0 -0.014494289053271131 0.035230620728580436 0 -0.014582429287547669 0.035511778865566869 0 -0.015215178588657051 0.035046257877198617 0 -0.015092326933652273 0.03436251248173558 0 -0.014606839657082699 0.034999645283105126 0 -0.014494289053271131 0.035230620728580436 0 -0.014606839657082699 0.034999645283105126 0 -0.014445571604396018 0.035025111649658963 0 -0.015744689654370012 0.03534264213958651 0 -0.015496111525824184 0.035355631749061596 0 -0.014472756740740575 0.035306920691761341 0 -0.014494289053271131 0.035230620728580436 0 -0.014606839657082699 0.034999645283105126 0 -0.014323999574781207 0.035042145362199906 0 -0.014606839657082699 0.034999645283105126 0 -0.014445571604396018 0.035025111649658963 0 -0.014323999574781207 0.035042145362199906 0 -0.014351365307596406 0.034935039896447806 0 -0.014445571604396018 0.035025111649658963 0 -0.014351365307596406 0.034935039896447806 0 -0.014324043229873833 0.034854012117720344 0 -0.0144195930045793 0.035091094497263303 0 -0.014351365307596406 0.034935039896447806 0 -0.014445571604396018 0.035025111649658963 0 -0.0144195930045793 0.035091094497263303 0 -0.014494289053271131 0.035230620728580436 0 -0.014445571604396018 0.035025111649658963 0 -0.0144195930045793 0.035091094497263303 0 -0.01437407548497192 0.034613516944204066 0 -0.014351365307596406 0.034935039896447806 0 -0.014324043229873833 0.034854012117720344 0 -0.014324043229873833 0.034854012117720344 0 -0.014264580598085124 0.035088126511780414 0 -0.014288290373214713 0.034665634495341838 0 -0.014324043229873833 0.034854012117720344 0 -0.014324235532322439 0.035199999673954104 0 -0.01436780397478446 0.035123017805348329 0 -0.014324043229873833 0.034854012117720344 0 -0.014324235532322439 0.035199999673954104 0 -0.014264580598085124 0.035088126511780414 0 -0.014324043229873833 0.034854012117720344 0 -0.0144195930045793 0.035091094497263303 0 -0.01436780397478446 0.035123017805348329 0 -0.0144195930045793 0.035091094497263303 0 -0.01436780397478446 0.035123017805348329 0 -0.014437552692384252 0.035323367123236284 0 -0.014494289053271131 0.035230620728580436 0 -0.0144195930045793 0.035091094497263303 0 -0.014437552692384252 0.035323367123236284 0 -0.014324235532322439 0.035199999673954104 0 -0.01436780397478446 0.035123017805348329 0 -0.014437552692384252 0.035323367123236284 0 -0.014437552692384252 0.035323367123236284 0 -0.014398817242576585 0.035530650420433046 0 -0.01455574502645781 0.03558112407059439 0 -0.014324235532322439 0.035199999673954104 0 -0.014437552692384252 0.035323367123236284 0 -0.014398817242576585 0.035530650420433046 0 -0.014398817242576585 0.035530650420433046 0 -0.014515980967841641 0.03566130829166124 0 -0.01455574502645781 0.03558112407059439 0 -0.014264580598085124 0.035088126511780414 0 -0.014293191906558912 0.035431888277218382 0 -0.014242325797638079 0.035374399117693453 0 -0.014324235532322439 0.035199999673954104 0 -0.014398817242576585 0.035530650420433046 0 -0.014293191906558912 0.035431888277218382 0 -0.014324235532322439 0.035199999673954104 0 -0.014264580598085124 0.035088126511780414 0 -0.014293191906558912 0.035431888277218382 0 -0.014398817242576585 0.035530650420433046 0 -0.014293191906558912 0.035431888277218382 0 -0.01428082530504915 0.035699735004845315 0 -0.014293191906558912 0.035431888277218382 0 -0.014249860271066228 0.035550654550328263 0 -0.01428082530504915 0.035699735004845315 0 -0.014249860271066228 0.035550654550328263 0 -0.014242325797638079 0.035374399117693453 0 -0.014206148562540245 0.035682468525570249 0 -0.014293191906558912 0.035431888277218382 0 -0.014249860271066228 0.035550654550328263 0 -0.014242325797638079 0.035374399117693453 0 -0.01428082530504915 0.035699735004845315 0 -0.01411398832907073 0.035879170519773282 0 -0.014373690905019838 0.035911950478550586 0 -0.014249860271066228 0.035550654550328263 0 -0.01428082530504915 0.035699735004845315 0 -0.014206148562540245 0.035682468525570249 0 -0.01428082530504915 0.035699735004845315 0 -0.014206148562540245 0.035682468525570249 0 -0.01411398832907073 0.035879170519773282 0 -0.01428082530504915 0.035699735004845315 0 -0.014468721275131748 0.035752658016363563 0 -0.014373690905019838 0.035911950478550586 0 -0.014398817242576585 0.035530650420433046 0 -0.014515980967841641 0.03566130829166124 0 -0.014468721275131748 0.035752658016363563 0 -0.014515980967841641 0.03566130829166124 0 -0.014468721275131748 0.035752658016363563 0 -0.014665866265208499 0.035759987220807345 0 -0.014398817242576585 0.035530650420433046 0 -0.01428082530504915 0.035699735004845315 0 -0.014468721275131748 0.035752658016363563 0 -0.014468721275131748 0.035752658016363563 0 -0.014665866265208499 0.035759987220807345 0 -0.014621914515624701 0.035857026826650519 0 -0.014515980967841641 0.03566130829166124 0 -0.014665866265208499 0.035759987220807345 0 -0.01455574502645781 0.03558112407059439 0 -0.014665866265208499 0.035759987220807345 0 -0.014916116361947231 0.035800902203249482 0 -0.014720945259743313 0.035687294128320037 0 -0.014665866265208499 0.035759987220807345 0 -0.014720945259743313 0.035687294128320037 0 -0.01455574502645781 0.03558112407059439 0 -0.014665866265208499 0.035759987220807345 0 -0.014916116361947231 0.035800902203249482 0 -0.014901665902517462 0.035873305396504754 0 -0.014916116361947231 0.035800902203249482 0 -0.014884859965752419 0.035743649509990316 0 -0.015058673765158443 0.035804968124360737 0 -0.014916116361947231 0.035800902203249482 0 -0.014884859965752419 0.035743649509990316 0 -0.014720945259743313 0.035687294128320037 0 -0.014884859965752419 0.035743649509990316 0 -0.014720945259743313 0.035687294128320037 0 -0.014709378213257488 0.035640284363654219 0 -0.014720945259743313 0.035687294128320037 0 -0.014709378213257488 0.035640284363654219 0 -0.014582429287547669 0.035511778865566869 0 -0.014520214587910231 0.035409836113118577 0 -0.014582429287547669 0.035511778865566869 0 -0.01455574502645781 0.03558112407059439 0 -0.014520214587910231 0.035409836113118577 0 -0.014437552692384252 0.035323367123236284 0 -0.01455574502645781 0.03558112407059439 0 -0.014720945259743313 0.035687294128320037 0 -0.014582429287547669 0.035511778865566869 0 -0.01455574502645781 0.03558112407059439 0 -0.011162857117628806 0.032412471191090336 0 -0.012297512764346295 0.032407664554976588 0 -0.011994878583678908 0.03321933962307539 0 -0.012297512764346295 0.032407664554976588 0 -0.011994878583678908 0.03321933962307539 0 -0.012675170587106516 0.033213610460545225 0 -0.011994878583678908 0.03321933962307539 0 -0.012483189583302728 0.033254067129560916 0 -0.012675170587106516 0.033213610460545225 0 -0.011685741170252844 0.033401997974429019 0 -0.01154064738332706 0.033303071949753044 0 -0.011994878583678908 0.03321933962307539 0 -0.01299919681368812 0.032963759087149505 0 -0.011994878583678908 0.03321933962307539 0 -0.012483189583302728 0.033254067129560916 0 -0.012236375512382377 0.032601877111907769 0 -0.012197456033971293 0.032773738961032209 0 -0.012483189583302728 0.033254067129560916 0 -0.012675170587106516 0.033213610460545225 0 -0.01293401449354842 0.033559088312945511 0 -0.013544242508884053 0.034228007583304007 0 -0.01293401449354842 0.033559088312945511 0 -0.013378717534799691 0.033659002446661417 0 -0.012675170587106516 0.033213610460545225 0 -0.01293401449354842 0.033559088312945511 0 -0.013378717534799691 0.033659002446661417 0 -0.012297512764346295 0.032407664554976588 0 -0.013195907223846559 0.032927599604736825 0 -0.012786016078949452 0.03166324622288972 0 -0.012297512764346295 0.032407664554976588 0 -0.012675170587106516 0.033213610460545225 0 -0.013195907223846559 0.032927599604736825 0 -0.012675170587106516 0.033213610460545225 0 -0.013378717534799691 0.033659002446661417 0 -0.013195907223846559 0.032927599604736825 0 -0.013195907223846559 0.032927599604736825 0 -0.014274945614023772 0.033969496426734115 0 -0.014296314577317249 0.032464691485965431 0 -0.012870051010826335 0.034445496598706438 0 -0.012720070978582217 0.0346342914459054 0 -0.013378717534799691 0.033659002446661417 0 -0.013195907223846559 0.032927599604736825 0 -0.014274945614023772 0.033969496426734115 0 -0.014274945614023772 0.033969496426734115 0 -0.014302253192319984 0.034933933022713262 0 -0.014682296210678058 0.035006807624409872 0 -0.013544242508884053 0.034228007583304007 0 -0.013378717534799691 0.033659002446661417 0 -0.014274945614023772 0.033969496426734115 0 -0.013544242508884053 0.034228007583304007 0 -0.014274945614023772 0.033969496426734115 0 -0.014318905617681017 0.034381663895546227 0 -0.014274945614023772 0.033969496426734115 0 -0.014318905617681017 0.034381663895546227 0 -0.014288290373214713 0.034665634495341838 0 -0.014324043229873833 0.034854012117720344 0 -0.014318905617681017 0.034381663895546227 0 -0.014288290373214713 0.034665634495341838 0 -0.01437407548497192 0.034613516944204066 0 -0.014324043229873833 0.034854012117720344 0 -0.014318905617681017 0.034381663895546227 0 -0.014274945614023772 0.033969496426734115 0 -0.014288290373214713 0.034665634495341838 0 -0.014302253192319984 0.034933933022713262 0 -0.014264580598085124 0.035088126511780414 0 -0.014288290373214713 0.034665634495341838 0 -0.014302253192319984 0.034933933022713262 0 -0.014264580598085124 0.035088126511780414 0 -0.014302253192319984 0.034933933022713262 0 -0.014242325797638079 0.035374399117693453 0 -0.014302253192319984 0.034933933022713262 0 -0.014356119737426135 0.035344915012727025 0 -0.014242325797638079 0.035374399117693453 0 -0.014302253192319984 0.034933933022713262 0 -0.014356119737426135 0.035344915012727025 0 -0.014682296210678058 0.035006807624409872 0 -0.014356119737426135 0.035344915012727025 0 -0.014250237069575233 0.035755476447899885 0 -0.014649025705192371 0.035659969695549812 0 -0.014356119737426135 0.035344915012727025 0 -0.014247690358594155 0.035579957141735882 0 -0.014250237069575233 0.035755476447899885 0 -0.014356119737426135 0.035344915012727025 0 -0.014247690358594155 0.035579957141735882 0 -0.014242325797638079 0.035374399117693453 0 -0.014247690358594155 0.035579957141735882 0 -0.014242325797638079 0.035374399117693453 0 -0.014206148562540245 0.035682468525570249 0 -0.014149129626083992 0.035820594052853594 0 -0.014250237069575233 0.035755476447899885 0 -0.013690394086861157 0.035984323190263852 0 -0.014247690358594155 0.035579957141735882 0 -0.014206148562540245 0.035682468525570249 0 -0.014149129626083992 0.035820594052853594 0 -0.014206148562540245 0.035682468525570249 0 -0.014149129626083992 0.035820594052853594 0 -0.01411398832907073 0.035879170519773282 0 -0.014247690358594155 0.035579957141735882 0 -0.014149129626083992 0.035820594052853594 0 -0.014250237069575233 0.035755476447899885 0 -0.014250237069575233 0.035755476447899885 0 -0.014207960004509647 0.035769616854562675 0 -0.013690394086861157 0.035984323190263852 0 -0.011100606011960994 0.038134702061144304 0 -0.010464562266523801 0.037731210200931641 0 -0.011046809073301678 0.037097812471558737 0 -0.012236124533551827 0.035564037756137409 0 -0.012079857927114383 0.036041833751849939 0 -0.01244708249001731 0.035531161729882417 0 -0.012236124533551827 0.035564037756137409 0 -0.014222320091607205 0.031449373101220701 0 -0.014296314577317249 0.032464691485965431 0 -0.012786016078949452 0.03166324622288972 0 -0.014356119737426135 0.035344915012727025 0 -0.014649025705192371 0.035659969695549812 0 -0.014682296210678058 0.035006807624409872 0 -0.012236124533551827 0.035564037756137409 0 -0.012720070978582217 0.0346342914459054 0 -0.012236124533551827 0.035564037756137409 0 -0.011297032010563942 0.035299186318275368 0 -0.013195907223846559 0.032927599604736825 0 -0.014296314577317249 0.032464691485965431 0 -0.012786016078949452 0.03166324622288972 0 -0.010080437916533199 0.038379953919561657 0 -0.010464562266523801 0.037731210200931641 0 -0.0097893426570743215 0.037571807437711581 0 -0.011100606011960994 0.038134702061144304 0 -0.010080437916533199 0.038379953919561657 0 -0.010464562266523801 0.037731210200931641 0 -0.0090973918170668897 0.037908754815342706 0 -0.010080437916533199 0.038379953919561657 0 -0.0097893426570743215 0.037571807437711581 0 -0.0090973918170668897 0.037908754815342706 0 -0.0093283660652926786 0.037357485472499848 0 -0.0097893426570743215 0.037571807437711581 0 -0.0090556814922233813 0.038534196287659306 0 -0.0090973918170668897 0.037908754815342706 0 -0.010080437916533199 0.038379953919561657 0 -0.011291970331253676 0.031573328379088113 0 -0.012297512764346295 0.032407664554976588 0 -0.012786016078949452 0.03166324622288972 0 -0.010018516100937376 0.03526089634007306 0 -0.011297032010563942 0.035299186318275368 0 -0.0093657106447463754 0.03651717473754796 0 -0.0098729493213469428 0.036487016996986817 0 -0.0096125284747876644 0.036703660376247171 0 -0.0098729493213469428 0.036487016996986817 0 -0.0096125284747876644 0.036703660376247171 0 -0.0097701693003628999 0.036953916048046161 0 -0.0098729493213469428 0.036487016996986817 0 -0.0097701693003628999 0.036953916048046161 0 -0.010334122205968833 0.036598686540509094 0 -0.0093657106447463754 0.03651717473754796 0 -0.0096125284747876644 0.036703660376247171 0 -0.0093489136064666568 0.036979596824161007 0 -0.0096125284747876644 0.036703660376247171 0 -0.0093489136064666568 0.036979596824161007 0 -0.0097701693003628999 0.036953916048046161 0 -0.0093489136064666568 0.036979596824161007 0 -0.0093283660652926786 0.037357485472499848 0 -0.0097701693003628999 0.036953916048046161 0 -0.0093283660652926786 0.037357485472499848 0 -0.0097893426570743215 0.037571807437711581 0 -0.0097701693003628999 0.036953916048046161 0 -0.0097893426570743215 0.037571807437711581 0 -0.0097701693003628999 0.036953916048046161 0 -0.010286761702641962 0.037189460109791316 0 -0.010464562266523801 0.037731210200931641 0 -0.010286761702641962 0.037189460109791316 0 -0.011046809073301678 0.037097812471558737 0 -0.010286761702641962 0.037189460109791316 0 -0.010334122205968833 0.036598686540509094 0 -0.011046809073301678 0.037097812471558737 0 -0.010464562266523801 0.037731210200931641 0 -0.0097893426570743215 0.037571807437711581 0 -0.010286761702641962 0.037189460109791316 0 -0.0097701693003628999 0.036953916048046161 0 -0.010286761702641962 0.037189460109791316 0 -0.010334122205968833 0.036598686540509094 0 -0.010334122205968833 0.036598686540509094 0 -0.011046809073301678 0.037097812471558737 0 -0.011073637608603864 0.036091368996984313 0 -0.013690394086861157 0.035984323190263852 0 -0.013421455510998506 0.035903478280335022 0 -0.01275723584140894 0.03585434727501563 0 -0.012079857927114383 0.036041833751849939 0 -0.011727493810799057 0.035559779127980744 0 -0.014149129626083992 0.035820594052853594 0 -0.013690394086861157 0.035984323190263852 0 -0.01411398832907073 0.035879170519773282 0 -0.013690394086861157 0.035984323190263852 0 -0.01411398832907073 0.035879170519773282 0 -0.013982001756383505 0.035968005066177568 0 -0.013690394086861157 0.035984323190263852 0 -0.013421455510998506 0.035903478280335022 0 -0.013982001756383505 0.035968005066177568 0 -0.013421455510998506 0.035903478280335022 0 -0.012984581333199612 0.035602988831435887 0 -0.01275723584140894 0.03585434727501563 0 -0.013421455510998506 0.035903478280335022 0 -0.012984581333199612 0.035602988831435887 0 -0.014018771257145485 0.035746338911788161 0 -0.012984581333199612 0.035602988831435887 0 -0.011292612418303634 0.034999794918601237 0 -0.013341905622137325 0.034999596667907557 0 -0.011289235693606986 0.034999785611374748 0 -0.011073637608603864 0.036091368996984313 0 -0.010835301167648564 0.035000094804070417 0 -0.012984581333199612 0.035602988831435887 0 -0.011292612418303634 0.034999794918601237 0 -0.01275723584140894 0.03585434727501563 0 -0.011291216760464068 0.035000238556044609 0 -0.011727493810799057 0.035559779127980744 0 -0.010334122205968833 0.036598686540509094 0 -0.011073637608603864 0.036091368996984313 0 -0.010084321715295956 0.035774824400895827 0 -0.0098729493213469428 0.036487016996986817 0 -0.010334122205968833 0.036598686540509094 0 -0.010084321715295956 0.035774824400895827 0 -0.010833379576813669 0.035000943329093412 0 -0.0099999783600684226 0.035926876202823373 0 -0.010834263332830538 0.034999984312141026 0 -0.0093448379579592449 0.03499997062193199 0 -0.0097336297050902437 0.036221452551060782 0 -0.011073637608603864 0.036091368996984313 0 -0.010835301167648564 0.035000094804070417 0 -0.010084321715295956 0.035774824400895827 0 -0.0085290807518570606 0.036218789014864514 0 -0.0093448379579592449 0.03499997062193199 0 -0.0097336297050902437 0.036221452551060782 0 -0.0093107241397407357 0.036697001844031053 0 -0.0099999783600684226 0.035926876202823373 0 -0.0093657106447463754 0.03651717473754796 0 -0.0098729493213469428 0.036487016996986817 0 -0.010084321715295956 0.035774824400895827 0 -0.0085708851915711152 0.03678489071354523 0 -0.0085290807518570606 0.036218789014864514 0 -0.0097336297050902437 0.036221452551060782 0 -0.0085708851915711152 0.03678489071354523 0 -0.0086799185224103338 0.037242131866502201 0 -0.0097336297050902437 0.036221452551060782 0 -0.015199053468942205 0.035862361106648498 0 -0.014741000891478596 0.035908307395778161 0 -0.014569316956414698 0.035924805428777962 0 -0.015199053468942205 0.035862361106648498 0 -0.014569316956414698 0.035924805428777962 0 -0.015414853777974771 0.03568523172171597 0 -0.015199053468942205 0.035862361106648498 0 -0.015208669012448781 0.03587337140460891 0 -0.016123064456668407 0.035740407680445715 0 -0.015199053468942205 0.035862361106648498 0 -0.015208669012448781 0.03587337140460891 0 -0.014901665902517462 0.035873305396504754 0 -0.014916116361947231 0.035800902203249482 0 -0.015208669012448781 0.03587337140460891 0 -0.015058673765158443 0.035804968124360737 0 -0.014916116361947231 0.035800902203249482 0 -0.015208669012448781 0.03587337140460891 0 -0.014901665902517462 0.035873305396504754 0 -0.015199053468942205 0.035862361106648498 0 -0.014901665902517462 0.035873305396504754 0 -0.014741000891478596 0.035908307395778161 0 -0.014901665902517462 0.035873305396504754 0 -0.014741000891478596 0.035908307395778161 0 -0.014621914515624701 0.035857026826650519 0 -0.014665866265208499 0.035759987220807345 0 -0.014901665902517462 0.035873305396504754 0 -0.014621914515624701 0.035857026826650519 0 -0.014741000891478596 0.035908307395778161 0 -0.014373690905019838 0.035911950478550586 0 -0.014569316956414698 0.035924805428777962 0 -0.014468721275131748 0.035752658016363563 0 -0.014621914515624701 0.035857026826650519 0 -0.014373690905019838 0.035911950478550586 0 -0.014741000891478596 0.035908307395778161 0 -0.014621914515624701 0.035857026826650519 0 -0.014373690905019838 0.035911950478550586 0 -0.01411398832907073 0.035879170519773282 0 -0.014373690905019838 0.035911950478550586 0 -0.013982001756383505 0.035968005066177568 0 -0.013421455510998506 0.035903478280335022 0 -0.013982001756383505 0.035968005066177568 0 -0.014018771257145485 0.035746338911788161 0 -0.014373690905019838 0.035911950478550586 0 -0.013982001756383505 0.035968005066177568 0 -0.014569316956414698 0.035924805428777962 0 -0.013982001756383505 0.035968005066177568 0 -0.014569316956414698 0.035924805428777962 0 -0.014018771257145485 0.035746338911788161 0 -0.014569316956414698 0.035924805428777962 0 -0.014018771257145485 0.035746338911788161 0 -0.015414853777974771 0.03568523172171597 0 -0.012984581333199612 0.035602988831435887 0 -0.014018771257145485 0.035746338911788161 0 -0.013341905622137325 0.034999596667907557 0 -0.014018771257145485 0.035746338911788161 0 -0.013341905622137325 0.034999596667907557 0 -0.015393233815110343 0.03499952561192228 0 -0.014018771257145485 0.035746338911788161 0 -0.015393233815110343 0.03499952561192228 0 -0.015414853777974771 0.03568523172171597 0 -0.015393233815110343 0.03499952561192228 0 -0.015414853777974771 0.03568523172171597 0 -0.017440926619490409 0.034999958557886041 0 -0.015199053468942205 0.035862361106648498 0 -0.015414853777974771 0.03568523172171597 0 -0.016123064456668407 0.035740407680445715 0 -0.015414853777974771 0.03568523172171597 0 -0.017440926619490409 0.034999958557886041 0 -0.016123064456668407 0.035740407680445715 0 -0.017444825591094684 0.035000013858937168 0 -0.018008282482256124 0.035494752745888897 0 -0.019019639435603464 0.034999839331679078 0 -0.017444825591094684 0.035000013858937168 0 -0.018008282482256124 0.035494752745888897 0 -0.018027407976610597 0.03648120459396121 0 -0.017444161592556021 0.035000347126115869 0 -0.017500568301148503 0.035641005034814606 0 -0.018008282482256124 0.035494752745888897 0 -0.019143529303757484 0.0360026505353849 0 -0.018647815114998776 0.036157375722272504 0 -0.018008282482256124 0.035494752745888897 0 -0.019019639435603464 0.034999839331679078 0 -0.019143529303757484 0.0360026505353849 0 -0.019019639435603464 0.034999839331679078 0 -0.019143529303757484 0.0360026505353849 0 -0.019955069123045083 0.035627302092573733 0 -0.019143529303757484 0.0360026505353849 0 -0.020082735962402908 0.036476735561385747 0 -0.019955069123045083 0.035627302092573733 0 -0.019143529303757484 0.0360026505353849 0 -0.018910892269579056 0.036444385023866079 0 -0.018647815114998776 0.036157375722272504 0 -0.019143529303757484 0.0360026505353849 0 -0.018910892269579056 0.036444385023866079 0 -0.019451064513515238 0.036630505179208926 0 -0.018910892269579056 0.036444385023866079 0 -0.019451064513515238 0.036630505179208926 0 -0.019144785932691002 0.036966684983986996 0 -0.019143529303757484 0.0360026505353849 0 -0.019451064513515238 0.036630505179208926 0 -0.020082735962402908 0.036476735561385747 0 -0.0180220454925859 0.036102514856405622 0 -0.018027209838532364 0.036409823870904065 0 -0.018008282482256124 0.035494752745888897 0 -0.018027407976610597 0.03648120459396121 0 -0.018214939058384311 0.036690416631535848 0 -0.018008282482256124 0.035494752745888897 0 -0.018647815114998776 0.036157375722272504 0 -0.018538121749027678 0.036667931790715695 0 -0.018910892269579056 0.036444385023866079 0 -0.018647815114998776 0.036157375722272504 0 -0.018538121749027678 0.036667931790715695 0 -0.018910892269579056 0.036444385023866079 0 -0.018538121749027678 0.036667931790715695 0 -0.019144785932691002 0.036966684983986996 0 -0.018538121749027678 0.036667931790715695 0 -0.019144785932691002 0.036966684983986996 0 -0.018735943116871066 0.037775492946749166 0 -0.015208669012448781 0.03587337140460891 0 -0.016123064456668407 0.035740407680445715 0 -0.015269432983212476 0.035840816341474881 0 -0.017500568301148503 0.035641005034814606 0 -0.017861269631507803 0.036244591797181341 0 -0.018027209838532364 0.036409823870904065 0 -0.017861269631507803 0.036244591797181341 0 -0.018027407976610597 0.03648120459396121 0 -0.018214939058384311 0.036690416631535848 0 -0.018381612274474279 0.037718186386933701 0 -0.019451064513515238 0.036630505179208926 0 -0.020081794358632148 0.037365037610946734 0 -0.020082735962402908 0.036476735561385747 0 -0.019451064513515238 0.036630505179208926 0 -0.019144785932691002 0.036966684983986996 0 -0.020081794358632148 0.037365037610946734 0 -0.019144785932691002 0.036966684983986996 0 -0.018735943116871066 0.037775492946749166 0 -0.020081794358632148 0.037365037610946734 0 -0.018510012877671539 0.03643775478951284 0 -0.018047255987539354 0.035903438690824858 0 -0.020081794358632148 0.037365037610946734 0 -0.020195085685014151 0.037523924755650535 0 -0.020287112515990777 0.037500025628808116 0 -0.018735943116871066 0.037775492946749166 0 -0.020081794358632148 0.037365037610946734 0 -0.018961293246044914 0.038803926668824658 0 -0.017861269631507803 0.036244591797181341 0 -0.017809984738156485 0.035710909289502928 0 -0.015208669012448781 0.03587337140460891 0 -0.015269432983212476 0.035840816341474881 0 -0.015058673765158443 0.035804968124360737 0 -0.015269432983212476 0.035840816341474881 0 -0.01499010538291946 0.035779022943067812 0 -0.015058673765158443 0.035804968124360737 0 -0.017861269631507803 0.036244591797181341 0 -0.018047255987539354 0.035903438690824858 0 -0.020725392456134813 0.037304087369044482 0 -0.020920879823392264 0.037339265518073615 0 -0.020738864241394605 0.037517634594438236 0 -0.020725392456134813 0.037304087369044482 0 -0.020475853306721848 0.037467588688749581 0 -0.020738864241394605 0.037517634594438236 0 -0.020475853306721848 0.037467588688749581 0 -0.020081794358632148 0.037365037610946734 0 -0.020287112515990777 0.037500025628808116 0 -0.020725392456134813 0.037304087369044482 0 -0.020475853306721848 0.037467588688749581 0 -0.020081794358632148 0.037365037610946734 0 -0.020081794358632148 0.037365037610946734 0 -0.020777557092771855 0.036944398888258921 0 -0.020082735962402908 0.036476735561385747 0 -0.020725392456134813 0.037304087369044482 0 -0.020081794358632148 0.037365037610946734 0 -0.020777557092771855 0.036944398888258921 0 -0.02167540469495563 0.036685255619137429 0 -0.022157732548376084 0.036736222653573479 0 -0.020725392456134813 0.037304087369044482 0 -0.020777557092771855 0.036944398888258921 0 -0.021029412153485923 0.037077252352736179 0 -0.020777557092771855 0.036944398888258921 0 -0.021414141148352005 0.035938643148041863 0 -0.022261289858023437 0.037519750935413501 0 -0.020777557092771855 0.036944398888258921 0 -0.021414141148352005 0.035938643148041863 0 -0.020082735962402908 0.036476735561385747 0 -0.021414141148352005 0.035938643148041863 0 -0.020082735962402908 0.036476735561385747 0 -0.019955069123045083 0.035627302092573733 0 -0.021414141148352005 0.035938643148041863 0 -0.020594838612344908 0.034999989753786404 0 -0.019955069123045083 0.035627302092573733 0 -0.019019639435603464 0.034999839331679078 0 -0.020594838612344908 0.034999989753786404 0 -0.019955069123045083 0.035627302092573733 0 -0.021414141148352005 0.035938643148041863 0 -0.020594838612344908 0.034999989753786404 0 -0.022169403410340977 0.034999647681307595 0 -0.021414141148352005 0.035938643148041863 0 -0.022169403410340977 0.034999647681307595 0 -0.022698989012437876 0.035733439241955517 0 -0.02217151673612601 0.035000484739837405 0 -0.023596145755403249 0.035510058392737846 0 -0.022169403410340977 0.034999647681307595 0 -0.022698989012437876 0.035733439241955517 0 -0.023504919642134237 0.035400074849617526 0 -0.022169951830356419 0.034999992335872962 0 -0.024048269582944867 0.034999983871391686 0 -0.023696077962653633 0.035613110519088546 0 -0.022698989012437876 0.035733439241955517 0 -0.023504919642134237 0.035400074849617526 0 -0.023348826327737125 0.036118988238039461 0 -0.022698989012437876 0.035733439241955517 0 -0.023348826327737125 0.036118988238039461 0 -0.022703814047302689 0.036418145345378496 0 -0.023348826327737125 0.036118988238039461 0 -0.023631332041947076 0.036869430191471014 0 -0.022703814047302689 0.036418145345378496 0 -0.021414141148352005 0.035938643148041863 0 -0.022698989012437876 0.035733439241955517 0 -0.022703814047302689 0.036418145345378496 0 -0.021414141148352005 0.035938643148041863 0 -0.022703814047302689 0.036418145345378496 0 -0.022261289858023437 0.037519750935413501 0 -0.02592674365362501 0.03499988991479467 0 -0.026194025515877659 0.035952391738597066 0 -0.025263469359329556 0.036173676614807221 0 -0.024048269582944867 0.034999983871391686 0 -0.023696077962653633 0.035613110519088546 0 -0.025263469359329556 0.036173676614807221 0 -0.023504919642134237 0.035400074849617526 0 -0.023348826327737125 0.036118988238039461 0 -0.025083679128024478 0.035889624381006353 0 -0.024048269582944867 0.034999983871391686 0 -0.02592674365362501 0.03499988991479467 0 -0.025263469359329556 0.036173676614807221 0 -0.023596145755403249 0.035510058392737846 0 -0.024899167874360396 0.035975401012385479 0 -0.023348826327737125 0.036118988238039461 0 -0.023631332041947076 0.036869430191471014 0 -0.025083679128024478 0.035889624381006353 0 -0.023631332041947076 0.036869430191471014 0 -0.025083679128024478 0.035889624381006353 0 -0.024949924415808435 0.037350392799453416 0 -0.024899167874360396 0.035975401012385479 0 -0.025592947136938677 0.036223771977790351 0 -0.025083679128024478 0.035889624381006353 0 -0.026103040610868579 0.036917946833862396 0 -0.026771230295227606 0.036488131522953667 0 -0.026194025515877659 0.035952391738597066 0 -0.025263469359329556 0.036173676614807221 0 -0.026771230295227606 0.036488131522953667 0 -0.025083679128024478 0.035889624381006353 0 -0.026103040610868579 0.036917946833862396 0 -0.024949924415808435 0.037350392799453416 0 -0.026045894922595528 0.037726418787651546 0 -0.024949924415808435 0.037350392799453416 0 -0.025218604506555088 0.03862931452806239 0 -0.026045894922595528 0.037726418787651546 0 -0.026103040610868579 0.036917946833862396 0 -0.024949924415808435 0.037350392799453416 0 -0.023631332041947076 0.036869430191471014 0 -0.024949924415808435 0.037350392799453416 0 -0.023708800154817685 0.038070558780776566 0 -0.021498718744450585 0.037339607974785256 0 -0.021777948633673126 0.0372647439856496 0 -0.021374622551885374 0.037152879696865614 0 -0.025322398301057956 0.036532372936136127 0 -0.023292078772658226 0.036715467912604091 0 -0.024949924415808435 0.037350392799453416 0 -0.025218604506555088 0.03862931452806239 0 -0.023708800154817685 0.038070558780776566 0 -0.027951677323022377 0.036299377832836523 0 -0.027693759057359209 0.035820026056007599 0 -0.027212736717300953 0.036090080697809113 0 -0.027239317770945869 0.036561432284492421 0 -0.027533348537278093 0.036268738518874681 0 -0.027114811370390034 0.036381438306337256 0 -0.025322398301057956 0.036532372936136127 0 -0.025938157097834161 0.036638503137306856 0 -0.027533348537278093 0.036268738518874681 0 -0.027212736717300953 0.036090080697809113 0 -0.027114811370390034 0.036381438306337256 0 -0.025792239973217692 0.036515586610997332 0 -0.025322398301057956 0.036532372936136127 0 -0.023631332041947076 0.036869430191471014 0 -0.022261289858023437 0.037519750935413501 0 -0.023708800154817685 0.038070558780776566 0 -0.022157732548376084 0.036736222653573479 0 -0.023292078772658226 0.036715467912604091 0 -0.023631332041947076 0.036869430191471014 0 -0.022703814047302689 0.036418145345378496 0 -0.022261289858023437 0.037519750935413501 0 -0.021498718744450585 0.037339607974785256 0 -0.021374622551885374 0.037152879696865614 0 -0.021265262498985148 0.037409935762633614 0 -0.021374622551885374 0.037152879696865614 0 -0.021112305991466285 0.037282470135175216 0 -0.021265262498985148 0.037409935762633614 0 -0.021029412153485923 0.037077252352736179 0 -0.021374622551885374 0.037152879696865614 0 -0.021112305991466285 0.037282470135175216 0 -0.021029412153485923 0.037077252352736179 0 -0.021112305991466285 0.037282470135175216 0 -0.020920879823392264 0.037339265518073615 0 -0.021112305991466285 0.037282470135175216 0 -0.020920879823392264 0.037339265518073615 0 -0.02100980206113845 0.037495755436040022 0 -0.020725392456134813 0.037304087369044482 0 -0.021029412153485923 0.037077252352736179 0 -0.020920879823392264 0.037339265518073615 0 -0.020920879823392264 0.037339265518073615 0 -0.02100980206113845 0.037495755436040022 0 -0.020738864241394605 0.037517634594438236 0 -0.02100980206113845 0.037495755436040022 0 -0.020877116850786793 0.03763937514521383 0 -0.021017700688576939 0.037658165652300464 0 -0.02100980206113845 0.037495755436040022 0 -0.020877116850786793 0.03763937514521383 0 -0.020738864241394605 0.037517634594438236 0 -0.02100980206113845 0.037495755436040022 0 -0.021154026900295109 0.037620348251086781 0 -0.021017700688576939 0.037658165652300464 0 -0.021112305991466285 0.037282470135175216 0 -0.02100980206113845 0.037495755436040022 0 -0.021265262498985148 0.037409935762633614 0 -0.021265262498985148 0.037409935762633614 0 -0.021154026900295109 0.037620348251086781 0 -0.021447843435266341 0.037570644784656604 0 -0.021498718744450585 0.037339607974785256 0 -0.021265262498985148 0.037409935762633614 0 -0.021447843435266341 0.037570644784656604 0 -0.02100980206113845 0.037495755436040022 0 -0.021265262498985148 0.037409935762633614 0 -0.021154026900295109 0.037620348251086781 0 -0.029054535512725153 0.034565613611493559 0 -0.028673441694642976 0.035276988283846587 0 -0.028649151495447563 0.034714892126210789 0 -0.021154026900295109 0.037620348251086781 0 -0.021139105475458709 0.037800736925980412 0 -0.021447843435266341 0.037570644784656604 0 -0.02497257061043015 0.034410538018353497 0 -0.024911721908132463 0.035921888191723705 0 -0.021154026900295109 0.037620348251086781 0 -0.021139105475458709 0.037800736925980412 0 -0.021052755492619438 0.0377681063913003 0 -0.02497257061043015 0.034410538018353497 0 -0.024873642796809595 0.034418477802772691 0 -0.021116039032511736 0.037778657773737595 0 -0.021052755492619438 0.0377681063913003 0 -0.020963862224201692 0.037783136134048059 0 -0.021052755492619438 0.0377681063913003 0 -0.020949616087801524 0.037719564853773244 0 -0.021017700688576939 0.037658165652300464 0 -0.021052755492619438 0.0377681063913003 0 -0.020949616087801524 0.037719564853773244 0 -0.020963862224201692 0.037783136134048059 0 -0.020949616087801524 0.037719564853773244 0 -0.020877116850786793 0.03763937514521383 0 -0.020838213933165775 0.037744763066778736 0 -0.020949616087801524 0.037719564853773244 0 -0.020963862224201692 0.037783136134048059 0 -0.020838213933165775 0.037744763066778736 0 -0.020949616087801524 0.037719564853773244 0 -0.020877116850786793 0.03763937514521383 0 -0.021017700688576939 0.037658165652300464 0 -0.021154026900295109 0.037620348251086781 0 -0.021052755492619438 0.0377681063913003 0 -0.021017700688576939 0.037658165652300464 0 -0.027951677323022377 0.036299377832836523 0 -0.027693759057359209 0.035820026056007599 0 -0.028064629159796444 0.03545674502844004 0 -0.027496134298640926 0.035368729131788096 0 -0.027693759057359209 0.035820026056007599 0 -0.027212736717300953 0.036090080697809113 0 -0.027496134298640926 0.035368729131788096 0 -0.027693759057359209 0.035820026056007599 0 -0.028064629159796444 0.03545674502844004 0 -0.025322398301057956 0.036532372936136127 0 -0.024911721908132463 0.035921888191723705 0 -0.021498718744450585 0.037339607974785256 0 -0.021777948633673126 0.0372647439856496 0 -0.021447843435266341 0.037570644784656604 0 -0.027951677323022377 0.036299377832836523 0 -0.028064629159796444 0.03545674502844004 0 -0.028673441694642976 0.035276988283846587 0 -0.028064629159796444 0.03545674502844004 0 -0.028673441694642976 0.035276988283846587 0 -0.028327370881841521 0.034616684779007353 0 -0.028673441694642976 0.035276988283846587 0 -0.028649151495447563 0.034714892126210789 0 -0.028327370881841521 0.034616684779007353 0 -0.028649151495447563 0.034714892126210789 0 -0.028327370881841521 0.034616684779007353 0 -0.028572174846226754 0.034467707879734716 0 -0.027496134298640926 0.035368729131788096 0 -0.028064629159796444 0.03545674502844004 0 -0.028327370881841521 0.034616684779007353 0 -0.028486175272869153 0.034352200764539251 0 -0.028327370881841521 0.034616684779007353 0 -0.028469181021389994 0.03452654136033053 0 -0.028357695475806712 0.035192972563507202 0 -0.02839395100269931 0.03506330476254596 0 -0.028493300011149175 0.034564533412637988 0 -0.02838880102029483 0.034567323562542308 0 -0.028613391956174038 0.034657604810522206 0 -0.028327370881841521 0.034616684779007353 0 -0.028469181021389994 0.03452654136033053 0 -0.028388265657382207 0.034528903829284384 0 -0.028469181021389994 0.03452654136033053 0 -0.028493300011149175 0.034564533412637988 0 -0.028388265657382207 0.034528903829284384 0 -0.02868245960074323 0.032601491393079253 0 -0.028771097175244037 0.03249529062081058 0 -0.027853841885882431 0.032397704980161736 0 -0.026868288678125136 0.032019763157930203 0 -0.026322713260652449 0.03262764330793775 0 -0.028771097175244037 0.03249529062081058 0 -0.027783520785605597 0.031433599799829362 0 -0.028771097175244037 0.03249529062081058 0 -0.027156726953512164 0.033503204608817672 0 -0.028327370881841521 0.034616684779007353 0 -0.028388265657382207 0.034528903829284384 0 -0.028572174846226754 0.034467707879734716 0 -0.032129569836811693 0.025472667088181418 0 -0.030288272631052143 0.025759150152512754 0 -0.031239282237748214 0.026863407014259919 0 -0.028771097175244037 0.03249529062081058 0 -0.030158449626285264 0.031905663848950737 0 -0.032129569836811693 0.025472667088181418 0 -0.033702639843796553 0.026088922489703435 0 -0.033019973265637159 0.027234972392181096 0 -0.032129569836811693 0.025472667088181418 0 -0.033019973265637159 0.027234972392181096 0 -0.031239282237748214 0.026863407014259919 0 -0.021116039032511736 0.037778657773737595 0 -0.020963862224201692 0.037783136134048059 0 -0.020848655432771247 0.037848902156168297 0 -0.025896179435667178 0.031662746674455511 0 -0.026322713260652449 0.03262764330793775 0 -0.024821628545137416 0.032852608195840231 0 -0.02497257061043015 0.034410538018353497 0 -0.024163477121232676 0.032046296592023016 0 -0.021116039032511736 0.037778657773737595 0 -0.020834940743915939 0.037968402869895744 0 -0.020848655432771247 0.037848902156168297 0 -0.020963862224201692 0.037783136134048059 0 -0.020848655432771247 0.037848902156168297 0 -0.020838213933165775 0.037744763066778736 0 -0.025896179435667178 0.031662746674455511 0 -0.026868288678125136 0.032019763157930203 0 -0.026322713260652449 0.03262764330793775 0 -0.02497257061043015 0.034410538018353497 0 -0.027156726953512164 0.033503204608817672 0 -0.029054535512725153 0.034565613611493559 0 -0.028649151495447563 0.034714892126210789 0 -0.028572174846226754 0.034467707879734716 0 -0.030288272631052143 0.025759150152512754 0 -0.029661544170033253 0.02714937946056967 0 -0.031239282237748214 0.026863407014259919 0 -0.030288272631052143 0.025759150152512754 0 -0.02847465886252816 0.026078988729042303 0 -0.029661544170033253 0.02714937946056967 0 -0.027783520785605597 0.031433599799829362 0 -0.024163477121232676 0.032046296592023016 0 -0.022476393187880851 0.031329901560981581 0 -0.02157871902952526 0.031461469028973163 0 -0.021822883694882722 0.0320140423637882 0 -0.024163477121232676 0.032046296592023016 0 -0.02150288354779134 0.032741450421808344 0 -0.024163477121232676 0.032046296592023016 0 -0.023490402105040359 0.030238867040306754 0 -0.020834940743915939 0.037968402869895744 0 -0.020566993042788438 0.037856145105119851 0 -0.02057959431661447 0.037979476755220162 0 -0.020848655432771247 0.037848902156168297 0 -0.020685451138637772 0.037771816515914845 0 -0.020566993042788438 0.037856145105119851 0 -0.020834940743915939 0.037968402869895744 0 -0.020848655432771247 0.037848902156168297 0 -0.020566993042788438 0.037856145105119851 0 -0.020848655432771247 0.037848902156168297 0 -0.020685451138637772 0.037771816515914845 0 -0.020838213933165775 0.037744763066778736 0 -0.020566993042788438 0.037856145105119851 0 -0.020272948631404979 0.037741883941855292 0 -0.02049383233461775 0.037707993381694928 0 -0.020685451138637772 0.037771816515914845 0 -0.020566993042788438 0.037856145105119851 0 -0.02049383233461775 0.037707993381694928 0 -0.02150288354779134 0.032741450421808344 0 -0.019651019710481214 0.032792287991139653 0 -0.020566993042788438 0.037856145105119851 0 -0.02057959431661447 0.037979476755220162 0 -0.020362206829384579 0.037983540630091503 0 -0.02157871902952526 0.031461469028973163 0 -0.021093353363605537 0.031684670361959412 0 -0.02067920359179868 0.031615074960073597 0 -0.021427474527117362 0.031812690191962693 0 -0.02157871902952526 0.031461469028973163 0 -0.021822883694882722 0.0320140423637882 0 -0.021427474527117362 0.031812690191962693 0 -0.02157871902952526 0.031461469028973163 0 -0.021093353363605537 0.031684670361959412 0 -0.021093353363605537 0.031684670361959412 0 -0.02067920359179868 0.031615074960073597 0 -0.020700970729565414 0.031721175233185746 0 -0.019944941179925194 0.031855580340280132 0 -0.020436768342625321 0.031821034175723448 0 -0.019879352729317241 0.031542527403262313 0 -0.021093353363605537 0.031684670361959412 0 -0.02073016424515399 0.031708263500598514 0 -0.02078353824326875 0.031926205949312662 0 -0.016654801311176557 0.034827278371397825 0 -0.016284855355455451 0.03453635748426831 0 -0.016391194742531107 0.034226037722634071 0 -0.019651019710481214 0.032792287991139653 0 -0.018612073866701297 0.033670431525338579 0 -0.019669567526138645 0.03218196097970015 0 -0.019544466611421375 0.032200339812916923 0 -0.019544466611421375 0.032200339812916923 0 -0.019874318351108249 0.03132481749636485 0 -0.016654801311176557 0.034827278371397825 0 -0.016674656246762704 0.034900369389163841 0 -0.016383700479378861 0.034931991760637528 0 -0.019651019710481214 0.032792287991139653 0 -0.019544466611421375 0.032200339812916923 0 -0.016654801311176557 0.034827278371397825 0 -0.016330165280819185 0.034878326055285812 0 -0.016224707890327528 0.034716720343827417 0 -0.016654801311176557 0.034827278371397825 0 -0.016383700479378861 0.034931991760637528 0 -0.016330165280819185 0.034878326055285812 0 -0.019544466611421375 0.032200339812916923 0 -0.018096210320695062 0.031652733038192833 0 -0.018096210320695062 0.031652733038192833 0 -0.018097673069883517 0.031663743791846548 0 -0.016654801311176557 0.034827278371397825 0 -0.016284855355455451 0.03453635748426831 0 -0.016224707890327528 0.034716720343827417 0 -0.015215178588657051 0.035046257877198617 0 -0.01638826238947547 0.03494005387818272 0 -0.015993750828018183 0.034787533239268344 0 -0.01424758757823013 0.032577039146453039 0 -0.018096210320695062 0.031652733038192833 0 -0.015215178588657051 0.035046257877198617 0 -0.015993750828018183 0.034787533239268344 0 -0.015697020744875615 0.034566663583981368 0 -0.016330165280819185 0.034878326055285812 0 -0.015993750828018183 0.034787533239268344 0 -0.016224707890327528 0.034716720343827417 0 -0.01638826238947547 0.03494005387818272 0 -0.016330165280819185 0.034878326055285812 0 -0.015993750828018183 0.034787533239268344 0 -0.015993750828018183 0.034787533239268344 0 -0.016103831963544861 0.034591869372023867 0 -0.016224707890327528 0.034716720343827417 0 -0.016284855355455451 0.03453635748426831 0 -0.016103831963544861 0.034591869372023867 0 -0.016224707890327528 0.034716720343827417 0 -0.016284855355455451 0.03453635748426831 0 -0.016143898151311471 0.034474638094209142 0 -0.016200374151345068 0.034351963020063589 0 -0.016284855355455451 0.03453635748426831 0 -0.016103831963544861 0.034591869372023867 0 -0.016143898151311471 0.034474638094209142 0 -0.016103831963544861 0.034591869372023867 0 -0.016143898151311471 0.034474638094209142 0 -0.015985936288173342 0.034418389191410631 0 -0.016103831963544861 0.034591869372023867 0 -0.015697020744875615 0.034566663583981368 0 -0.015985936288173342 0.034418389191410631 0 -0.015993750828018183 0.034787533239268344 0 -0.016103831963544861 0.034591869372023867 0 -0.015697020744875615 0.034566663583981368 0 -0.016107356551656089 0.03400246808419452 0 -0.016266796271205634 0.034207208389254146 0 -0.016181660797970652 0.033662479430990454 0 -0.017660088269211709 0.034191307029562829 0 -0.017829731619603433 0.034314623753564755 0 -0.015697020744875615 0.034566663583981368 0 -0.015704470776333204 0.034239361761149105 0 -0.015985936288173342 0.034418389191410631 0 -0.015704470776333204 0.034239361761149105 0 -0.016036454564200133 0.034212575396950759 0 -0.015985936288173342 0.034418389191410631 0 -0.016036454564200133 0.034212575396950759 0 -0.015985936288173342 0.034418389191410631 0 -0.016200374151345068 0.034351963020063589 0 -0.016143898151311471 0.034474638094209142 0 -0.015985936288173342 0.034418389191410631 0 -0.016200374151345068 0.034351963020063589 0 -0.016036454564200133 0.034212575396950759 0 -0.016200374151345068 0.034351963020063589 0 -0.016266796271205634 0.034207208389254146 0 -0.016036454564200133 0.034212575396950759 0 -0.016107356551656089 0.03400246808419452 0 -0.016266796271205634 0.034207208389254146 0 -0.016107356551656089 0.03400246808419452 0 -0.015923800330131906 0.034021053534577621 0 -0.016001791446391141 0.033772829928942184 0 -0.016036454564200133 0.034212575396950759 0 -0.016107356551656089 0.03400246808419452 0 -0.015923800330131906 0.034021053534577621 0 -0.015704470776333204 0.034239361761149105 0 -0.016036454564200133 0.034212575396950759 0 -0.015923800330131906 0.034021053534577621 0 -0.015665584479155274 0.033733965992212782 0 -0.015704470776333204 0.034239361761149105 0 -0.015923800330131906 0.034021053534577621 0 -0.018721312080342115 0.03452006133402865 0 -0.018770658829771615 0.034144963098781136 0 -0.018930021607965086 0.034873383431594941 0 -0.018598543195454984 0.033414782234201884 0 -0.018721312080342115 0.03452006133402865 0 -0.018770658829771615 0.034144963098781136 0 -0.016266796271205634 0.034207208389254146 0 -0.016391194742531107 0.034226037722634071 0 -0.016262114735165499 0.03370574387435999 0 -0.019651019710481214 0.032792287991139653 0 -0.019167911813230871 0.035516229224089688 0 -0.018612073866701297 0.033670431525338579 0 -0.017829731619603433 0.034314623753564755 0 -0.020566993042788438 0.037856145105119851 0 -0.020362206829384579 0.037983540630091503 0 -0.020272948631404979 0.037741883941855292 0 -0.016284855355455451 0.03453635748426831 0 -0.016200374151345068 0.034351963020063589 0 -0.016391194742531107 0.034226037722634071 0 -0.016200374151345068 0.034351963020063589 0 -0.016266796271205634 0.034207208389254146 0 -0.016391194742531107 0.034226037722634071 0 -0.018721312080342115 0.03452006133402865 0 -0.018930021607965086 0.034873383431594941 0 -0.018875259485131055 0.03560860860137495 0 -0.019167911813230871 0.035516229224089688 0 -0.018047255987539354 0.035903438690824858 0 -0.020272948631404979 0.037741883941855292 0 -0.020341111174591028 0.037606548952959798 0 -0.02049383233461775 0.037707993381694928 0 -0.020272948631404979 0.037741883941855292 0 -0.020341111174591028 0.037606548952959798 0 -0.020195085685014151 0.037523924755650535 0 -0.015665584479155274 0.033733965992212782 0 -0.016130530144327592 0.033471859036541929 0 -0.016160423229426461 0.033203016915985206 0 -0.016467430939178934 0.035425349709573714 0 -0.017809984738156485 0.035710909289502928 0 -0.015665584479155274 0.033733965992212782 0 -0.015923800330131906 0.034021053534577621 0 -0.016001791446391141 0.033772829928942184 0 -0.015665584479155274 0.033733965992212782 0 -0.016001791446391141 0.033772829928942184 0 -0.016130530144327592 0.033471859036541929 0 -0.016107356551656089 0.03400246808419452 0 -0.016001791446391141 0.033772829928942184 0 -0.016181660797970652 0.033662479430990454 0 -0.0161908394373989 0.033672500006453186 0 -0.016130530144327592 0.033471859036541929 0 -0.016160423229426461 0.033203016915985206 0 -0.016001791446391141 0.033772829928942184 0 -0.016181660797970652 0.033662479430990454 0 -0.016130530144327592 0.033471859036541929 0 -0.017829731619603433 0.034314623753564755 0 -0.017809984738156485 0.035710909289502928 0 -0.017829731619603433 0.034314623753564755 0 -0.017780278673489656 0.034239631288281606 0 -0.014884859965752419 0.035743649509990316 0 -0.014709378213257488 0.035640284363654219 0 -0.01499010538291946 0.035779022943067812 0 -0.017784782128689461 0.036202219674045202 0 -0.017746755880820721 0.035833484279544393 0 -0.017714139587916598 0.035877293535886416 0 -0.018930021607965086 0.034873383431594941 0 -0.018952465123028756 0.035512002240812676 0 -0.018875259485131055 0.03560860860137495 0 -0.017809984738156485 0.035710909289502928 0 -0.018047255987539354 0.035903438690824858 0 -0.014884859965752419 0.035743649509990316 0 -0.01499010538291946 0.035779022943067812 0 -0.015058673765158443 0.035804968124360737 0 -0.020341111174591028 0.037606548952959798 0 -0.020195085685014151 0.037523924755650535 0 -0.020287112515990777 0.037500025628808116 0 -0.020341111174591028 0.037606548952959798 0 -0.020287112515990777 0.037500025628808116 0 -0.020515388418649638 0.037589937575985166 0 -0.020475853306721848 0.037467588688749581 0 -0.020287112515990777 0.037500025628808116 0 -0.020515388418649638 0.037589937575985166 0 -0.020475853306721848 0.037467588688749581 0 -0.020515388418649638 0.037589937575985166 0 -0.020738864241394605 0.037517634594438236 0 -0.020877116850786793 0.03763937514521383 0 -0.020738864241394605 0.037517634594438236 0 -0.020687567698212599 0.03766670535989293 0 -0.020515388418649638 0.037589937575985166 0 -0.020738864241394605 0.037517634594438236 0 -0.020687567698212599 0.03766670535989293 0 -0.020877116850786793 0.03763937514521383 0 -0.020687567698212599 0.03766670535989293 0 -0.020838213933165775 0.037744763066778736 0 -0.020685451138637772 0.037771816515914845 0 -0.020687567698212599 0.03766670535989293 0 -0.020838213933165775 0.037744763066778736 0 -0.020685451138637772 0.037771816515914845 0 -0.020687567698212599 0.03766670535989293 0 -0.02049383233461775 0.037707993381694928 0 -0.020341111174591028 0.037606548952959798 0 -0.020515388418649638 0.037589937575985166 0 -0.02049383233461775 0.037707993381694928 0 -0.020515388418649638 0.037589937575985166 0 -0.020687567698212599 0.03766670535989293 0 -0.02049383233461775 0.037707993381694928 0 -0.034994681784914938 0.034998136311606136 0 -0.034117898661203239 0.033683610314265873 0 -0.035082367084211377 0.030804719865787974 0 -0.034994681784914938 0.034998136311606136 0 -0.034999367270904663 0.029229277438034933 0 -0.035082367084211377 0.030804719865787974 0 -0.034117898661203239 0.033683610314265873 0 -0.034763456178275198 0.0320834577042962 0 -0.035082367084211377 0.030804719865787974 0 -0.034945834545608977 0.030812221998671185 0 -0.034922062571796419 0.030037411269197435 0 -0.034994681784914938 0.034998136311606136 0 -0.034117898661203239 0.033683610314265873 0 -0.031262075041341778 0.034997205885768816 0 -0.034117898661203239 0.033683610314265873 0 -0.033269589255971982 0.033696228326673329 0 -0.034107994454607937 0.032452453184731694 0 -0.034117898661203239 0.033683610314265873 0 -0.031262075041341778 0.034997205885768816 0 -0.033269589255971982 0.033696228326673329 0 -0.031250421678284894 0.034998966365161775 0 -0.031781577542987112 0.034273873920773544 0 -0.031262075041341778 0.034997205885768816 0 -0.033269589255971982 0.033696228326673329 0 -0.034947346356571235 0.03355064281330275 0 -0.033269589255971982 0.033696228326673329 0 -0.034107994454607937 0.032452453184731694 0 -0.034947346356571235 0.03355064281330275 0 -0.034107994454607937 0.032452453184731694 0 -0.034756670283255256 0.030673356655616241 0 -0.035242317796667914 0.031736116397981989 0 -0.034989956998355332 0.031198197276166011 0 -0.034945834545608977 0.030812221998671185 0 -0.034117898661203239 0.033683610314265873 0 -0.034107994454607937 0.032452453184731694 0 -0.034763456178275198 0.0320834577042962 0 -0.034284271632663017 0.030566412653412669 0 -0.034756670283255256 0.030673356655616241 0 -0.034748767742792987 0.029844281277568746 0 -0.034107994454607937 0.032452453184731694 0 -0.034284271632663017 0.030566412653412669 0 -0.034756670283255256 0.030673356655616241 0 -0.034756670283255256 0.030673356655616241 0 -0.036016788115909255 0.03049526761746741 0 -0.035242317796667914 0.031736116397981989 0 -0.034756670283255256 0.030673356655616241 0 -0.036016788115909255 0.03049526761746741 0 -0.03505964737872775 0.029822737629412441 0 -0.036016788115909255 0.03049526761746741 0 -0.036467182634667236 0.031608494038983033 0 -0.035242317796667914 0.031736116397981989 0 -0.031549440353327116 0.03378198933941419 0 -0.03012914567556543 0.033557387458157291 0 -0.036016788115909255 0.03049526761746741 0 -0.036467182634667236 0.031608494038983033 0 -0.037212977578717735 0.029876398211772754 0 -0.029070763323623933 0.037190218918222273 0 -0.028910166836507781 0.036949647969687631 0 -0.0300586566249951 0.03632088219510058 0 -0.029070763323623933 0.037190218918222273 0 -0.028910166836507781 0.036949647969687631 0 -0.028805874954902347 0.037177434202649989 0 -0.034107994454607937 0.032452453184731694 0 -0.035242317796667914 0.031736116397981989 0 -0.034947346356571235 0.03355064281330275 0 -0.036467182634667236 0.031608494038983033 0 -0.035242317796667914 0.031736116397981989 0 -0.034947346356571235 0.03355064281330275 0 -0.031549440353327116 0.03378198933941419 0 -0.031781577542987112 0.034273873920773544 0 -0.031249301464887119 0.034999977572065258 0 -0.0300586566249951 0.03632088219510058 0 -0.029527037835691279 0.034999909219872005 0 -0.029527037835691279 0.034999909219872005 0 -0.028899976748998302 0.035969329004595312 0 -0.027805365566904244 0.034999962194972728 0 -0.0300586566249951 0.03632088219510058 0 -0.029527037835691279 0.034999909219872005 0 -0.028899976748998302 0.035969329004595312 0 -0.028910166836507781 0.036949647969687631 0 -0.0300586566249951 0.03632088219510058 0 -0.028899976748998302 0.035969329004595312 0 -0.028910166836507781 0.036949647969687631 0 -0.028899976748998302 0.035969329004595312 0 -0.028148440801151201 0.03634972018518394 0 -0.027406585976627731 0.036411139354206985 0 -0.026914614106491121 0.036209277818072517 0 -0.027058376684276141 0.036609574399128951 0 -0.027406585976627731 0.036411139354206985 0 -0.027804301939216687 0.035000101474759675 0 -0.027050399429250253 0.035778340452331067 0 -0.028899976748998302 0.035969329004595312 0 -0.028148440801151201 0.03634972018518394 0 -0.027805365566904244 0.034999962194972728 0 -0.028222822359138408 0.035743687063473153 0 -0.027805645696621365 0.035000781537368048 0 -0.02592674365362501 0.03499988991479467 0 -0.027804301939216687 0.035000101474759675 0 -0.027050399429250253 0.035778340452331067 0 -0.02592674365362501 0.03499988991479467 0 -0.026194025515877659 0.035952391738597066 0 -0.027050399429250253 0.035778340452331067 0 -0.026194025515877659 0.035952391738597066 0 -0.026914614106491121 0.036209277818072517 0 -0.026771230295227606 0.036488131522953667 0 -0.026194025515877659 0.035952391738597066 0 -0.027050399429250253 0.035778340452331067 0 -0.026914614106491121 0.036209277818072517 0 -0.027406585976627731 0.036411139354206985 0 -0.027050399429250253 0.035778340452331067 0 -0.026914614106491121 0.036209277818072517 0 -0.026914614106491121 0.036209277818072517 0 -0.026771230295227606 0.036488131522953667 0 -0.027058376684276141 0.036609574399128951 0 -0.02691003605384398 0.036664430292177544 0 -0.026771230295227606 0.036488131522953667 0 -0.027058376684276141 0.036609574399128951 0 -0.026103040610868579 0.036917946833862396 0 -0.02691003605384398 0.036664430292177544 0 -0.026771230295227606 0.036488131522953667 0 -0.026045894922595528 0.037726418787651546 0 -0.026103040610868579 0.036917946833862396 0 -0.02691003605384398 0.036664430292177544 0 -0.025792239973217692 0.036515586610997332 0 -0.02598109194528379 0.036454029033766717 0 -0.027239317770945869 0.036561432284492421 0 -0.027022327488413725 0.036564941954433168 0 -0.027114811370390034 0.036381438306337256 0 -0.027239317770945869 0.036561432284492421 0 -0.02691003605384398 0.036664430292177544 0 -0.027022327488413725 0.036564941954433168 0 -0.02691003605384398 0.036664430292177544 0 -0.027022327488413725 0.036564941954433168 0 -0.027058376684276141 0.036609574399128951 0 -0.028910166836507781 0.036949647969687631 0 -0.028148440801151201 0.03634972018518394 0 -0.028290313607000326 0.037543340657302693 0 -0.028222822359138408 0.035743687063473153 0 -0.028829252031718527 0.035663240794309388 0 -0.027406585976627731 0.036411139354206985 0 -0.027058376684276141 0.036609574399128951 0 -0.026979971569344667 0.036600302202895764 0 -0.02866665732793177 0.035957835633968843 0 -0.028829252031718527 0.035663240794309388 0 -0.027022327488413725 0.036564941954433168 0 -0.027058376684276141 0.036609574399128951 0 -0.026979971569344667 0.036600302202895764 0 -0.029070763323623933 0.037190218918222273 0 -0.028805874954902347 0.037177434202649989 0 -0.028816119398340993 0.037320325840305882 0 -0.028829252031718527 0.035663240794309388 0 -0.03012914567556543 0.033557387458157291 0 -0.028749976683241391 0.034158768535446353 0 -0.028630308968913342 0.034241794150907508 0 -0.02874959155962175 0.034269399610652659 0 -0.028829252031718527 0.035663240794309388 0 -0.028423921639883623 0.035448602524411316 0 -0.027022327488413725 0.036564941954433168 0 -0.026958954651405933 0.036193712655146502 0 -0.027114811370390034 0.036381438306337256 0 -0.027022327488413725 0.036564941954433168 0 -0.026979971569344667 0.036600302202895764 0 -0.026958954651405933 0.036193712655146502 0 -0.026958954651405933 0.036193712655146502 0 -0.027212736717300953 0.036090080697809113 0 -0.027114811370390034 0.036381438306337256 0 -0.028624191960250438 0.034323921185944295 0 -0.02874959155962175 0.034269399610652659 0 -0.02861548402118038 0.034431974686181789 0 -0.028486175272869153 0.034352200764539251 0 -0.028630308968913342 0.034241794150907508 0 -0.028624191960250438 0.034323921185944295 0 -0.027496134298640926 0.035368729131788096 0 -0.026958954651405933 0.036193712655146502 0 -0.027212736717300953 0.036090080697809113 0 -0.028357695475806712 0.035192972563507202 0 -0.028423921639883623 0.035448602524411316 0 -0.028630308968913342 0.034241794150907508 0 -0.028624191960250438 0.034323921185944295 0 -0.02874959155962175 0.034269399610652659 0 -0.03012914567556543 0.033557387458157291 0 -0.02936485827688495 0.034292999267154733 0 -0.03012914567556543 0.033557387458157291 0 -0.030956379902261983 0.031931594254351742 0 -0.028873428638071845 0.034073984592137868 0 -0.028842842127601697 0.034460397296822119 0 -0.02861548402118038 0.034431974686181789 0 -0.028486175272869153 0.034352200764539251 0 -0.028624191960250438 0.034323921185944295 0 -0.02861548402118038 0.034431974686181789 0 -0.028486175272869153 0.034352200764539251 0 -0.028469181021389994 0.03452654136033053 0 -0.02861548402118038 0.034431974686181789 0 -0.028469181021389994 0.03452654136033053 0 -0.028493300011149175 0.034564533412637988 0 -0.028629510427318771 0.034547163240645724 0 -0.028842842127601697 0.034460397296822119 0 -0.02861548402118038 0.034431974686181789 0 -0.028629510427318771 0.034547163240645724 0 -0.028469181021389994 0.03452654136033053 0 -0.02861548402118038 0.034431974686181789 0 -0.028629510427318771 0.034547163240645724 0 -0.028493300011149175 0.034564533412637988 0 -0.028629510427318771 0.034547163240645724 0 -0.028613391956174038 0.034657604810522206 0 -0.028629510427318771 0.034547163240645724 0 -0.028613391956174038 0.034657604810522206 0 -0.028846833028554245 0.034713860497966341 0 -0.030158449626285264 0.031905663848950737 0 -0.030513522957375 0.031753096931606141 0 -0.033702639843796553 0.026088922489703435 0 -0.035280561693605793 0.026899779272679114 0 -0.034700465130745921 0.027436942608616826 0 -0.030513522957375 0.031753096931606141 0 -0.030626098422567041 0.031741024296724298 0 -0.035319713912893444 0.026970937920126174 0 -0.035324600389312281 0.02715894914420048 0 -0.035741294406015145 0.027302126453764154 0 -0.030513522957375 0.031753096931606141 0 -0.030527892738949059 0.031692443308621268 0 -0.028842842127601697 0.034460397296822119 0 -0.028629510427318771 0.034547163240645724 0 -0.028846833028554245 0.034713860497966341 0 -0.030956379902261983 0.031931594254351742 0 -0.030513522957375 0.031753096931606141 0 -0.036658471139060018 0.028316450243804085 0 -0.035828836839153506 0.027626612367708688 0 -0.035803556815483965 0.028241691517788957 0 -0.036658471139060018 0.028316450243804085 0 -0.035962603559724804 0.0274026405640172 0 -0.035828836839153506 0.027626612367708688 0 -0.035828836839153506 0.027626612367708688 0 -0.035804472809189171 0.027570632630640166 0 -0.03573321139960596 0.027503536977920958 0 -0.035828836839153506 0.027626612367708688 0 -0.035741294406015145 0.027302126453764154 0 -0.03573321139960596 0.027503536977920958 0 -0.035962603559724804 0.0274026405640172 0 -0.035828836839153506 0.027626612367708688 0 -0.035741294406015145 0.027302126453764154 0 -0.035828836839153506 0.027626612367708688 0 -0.035672168229338469 0.027758406836764841 0 -0.035804472809189171 0.027570632630640166 0 -0.035828836839153506 0.027626612367708688 0 -0.035803556815483965 0.028241691517788957 0 -0.035672168229338469 0.027758406836764841 0 -0.035803556815483965 0.028241691517788957 0 -0.036161780908894575 0.02910489298204549 0 -0.035293323741350587 0.028986848683379366 0 -0.037212977578717735 0.029876398211772754 0 -0.036658471139060018 0.028316450243804085 0 -0.036161780908894575 0.02910489298204549 0 -0.036658471139060018 0.028316450243804085 0 -0.035803556815483965 0.028241691517788957 0 -0.036161780908894575 0.02910489298204549 0 -0.036016788115909255 0.03049526761746741 0 -0.037212977578717735 0.029876398211772754 0 -0.036161780908894575 0.02910489298204549 0 -0.035874751659404715 0.029781652965626692 0 -0.035505130884856052 0.029342513641674454 0 -0.036016788115909255 0.03049526761746741 0 -0.036161780908894575 0.02910489298204549 0 -0.035293323741350587 0.028986848683379366 0 -0.034756670283255256 0.030673356655616241 0 -0.03505964737872775 0.029822737629412441 0 -0.034748767742792987 0.029844281277568746 0 -0.03505964737872775 0.029822737629412441 0 -0.034748767742792987 0.029844281277568746 0 -0.035146278112325048 0.029134406789657306 0 -0.035505130884856052 0.029342513641674454 0 -0.03513411238228635 0.028733204936197635 0 -0.035293323741350587 0.028986848683379366 0 -0.035281659641797469 0.028157716440335559 0 -0.035472155887840778 0.028128827275033741 0 -0.035803556815483965 0.028241691517788957 0 -0.035293323741350587 0.028986848683379366 0 -0.035472155887840778 0.028128827275033741 0 -0.035803556815483965 0.028241691517788957 0 -0.035472155887840778 0.028128827275033741 0 -0.035672168229338469 0.027758406836764841 0 -0.035472155887840778 0.028128827275033741 0 -0.035672168229338469 0.027758406836764841 0 -0.035493087237727781 0.02774804845042627 0 -0.035672168229338469 0.027758406836764841 0 -0.03568107635258267 0.027554940557907363 0 -0.035804472809189171 0.027570632630640166 0 -0.035672168229338469 0.027758406836764841 0 -0.035493087237727781 0.02774804845042627 0 -0.03568107635258267 0.027554940557907363 0 -0.035493087237727781 0.02774804845042627 0 -0.035496051169104849 0.027174893271680194 0 -0.03568107635258267 0.027554940557907363 0 -0.035281659641797469 0.028157716440335559 0 -0.035472155887840778 0.028128827275033741 0 -0.035493087237727781 0.02774804845042627 0 -0.03513411238228635 0.028733204936197635 0 -0.034972132384390231 0.028407361539162335 0 -0.035281659641797469 0.028157716440335559 0 -0.035493087237727781 0.02774804845042627 0 -0.035327673587969531 0.02774347450028114 0 -0.035493087237727781 0.02774804845042627 0 -0.035327673587969531 0.02774347450028114 0 -0.035496051169104849 0.027174893271680194 0 -0.034999678202780049 0.026325560879598045 0 -0.035327673587969531 0.02774347450028114 0 -0.035496051169104849 0.027174893271680194 0 -0.034999678202780049 0.026325560879598045 0 -0.034999611492279772 0.027773637142410525 0 -0.035327673587969531 0.02774347450028114 0 -0.034999611492279772 0.027773637142410525 0 -0.035327673587969531 0.02774347450028114 0 -0.034998914914211865 0.029223584711707256 0 -0.035146278112325048 0.029134406789657306 0 -0.034998914914211865 0.029223584711707256 0 -0.034712433897235662 0.029677796895386362 0 -0.035146278112325048 0.029134406789657306 0 -0.035327673587969531 0.02774347450028114 0 -0.034998914914211865 0.029223584711707256 0 -0.034748767742792987 0.029844281277568746 0 -0.035146278112325048 0.029134406789657306 0 -0.034712433897235662 0.029677796895386362 0 -0.034284271632663017 0.030566412653412669 0 -0.034748767742792987 0.029844281277568746 0 -0.034712433897235662 0.029677796895386362 0 -0.034999336627626498 0.029225848000915988 0 -0.034922062571796419 0.030037411269197435 0 -0.034999884654944899 0.022550606259518449 0 -0.036535532699456447 0.023332915618644777 0 -0.036121702350322964 0.021594379908459881 0 -0.036535532699456447 0.023332915618644777 0 -0.037237754161194424 0.022028929284579352 0 -0.036121702350322964 0.021594379908459881 0 -0.034999884654944899 0.022550606259518449 0 -0.036535532699456447 0.023332915618644777 0 -0.034999870421493808 0.024436425781662392 0 -0.034999933941949724 0.026322406143901102 0 -0.034999870421493808 0.024436425781662392 0 -0.036546114964245612 0.025233750360179798 0 -0.035000436994223276 0.026322799735860825 0 -0.035706608728328516 0.026129324152618805 0 -0.036535532699456447 0.023332915618644777 0 -0.034999870421493808 0.024436425781662392 0 -0.036546114964245612 0.025233750360179798 0 -0.036535532699456447 0.023332915618644777 0 -0.036546114964245612 0.025233750360179798 0 -0.037931369629084062 0.024136464735143356 0 -0.035706608728328516 0.026129324152618805 0 -0.036452375805140179 0.02582087162235203 0 -0.035496051169104849 0.027174893271680194 0 -0.03568107635258267 0.027554940557907363 0 -0.035787843754480138 0.027551799332851203 0 -0.03568107635258267 0.027554940557907363 0 -0.035787843754480138 0.027551799332851203 0 -0.035804472809189171 0.027570632630640166 0 -0.037931369629084062 0.024136464735143356 0 -0.037883084476336822 0.022878070464256398 0 -0.039107714699923878 0.022996366149121601 0 -0.036535532699456447 0.023332915618644777 0 -0.037931369629084062 0.024136464735143356 0 -0.037883084476336822 0.022878070464256398 0 -0.036535532699456447 0.023332915618644777 0 -0.037883084476336822 0.022878070464256398 0 -0.037237754161194424 0.022028929284579352 0 -0.037883084476336822 0.022878070464256398 0 -0.037237754161194424 0.022028929284579352 0 -0.038565049847960629 0.021946345530540552 0 -0.037237754161194424 0.022028929284579352 0 -0.038565049847960629 0.021946345530540552 0 -0.037965571338805022 0.021120680027843078 0 -0.038565049847960629 0.021946345530540552 0 -0.039549056195065255 0.021650342742374221 0 -0.03919967370153838 0.020830481965377103 0 -0.039549056195065255 0.021650342742374221 0 -0.039107714699923878 0.022996366149121601 0 -0.039796578029972197 0.021831114141566292 0 -0.036822291425209333 0.025537384346512679 0 -0.036502784024481212 0.025346391891846218 0 -0.037883084476336822 0.022878070464256398 0 -0.038565049847960629 0.021946345530540552 0 -0.039107714699923878 0.022996366149121601 0 -0.038565049847960629 0.021946345530540552 0 -0.039549056195065255 0.021650342742374221 0 -0.039107714699923878 0.022996366149121601 0 -0.035787843754480138 0.027551799332851203 0 -0.035840612993753136 0.028121424664169399 0 -0.035804472809189171 0.027570632630640166 0 -0.036452375805140179 0.02582087162235203 0 -0.036822291425209333 0.025537384346512679 0 -0.035804472809189171 0.027570632630640166 0 -0.03573321139960596 0.027503536977920958 0 -0.035528004749711239 0.027738797803772051 0 -0.035537374486426958 0.027462182391997762 0 -0.03573321139960596 0.027503536977920958 0 -0.035528004749711239 0.027738797803772051 0 -0.035741294406015145 0.027302126453764154 0 -0.035537374486426958 0.027462182391997762 0 -0.03573321139960596 0.027503536977920958 0 -0.035324600389312281 0.02715894914420048 0 -0.035741294406015145 0.027302126453764154 0 -0.035537374486426958 0.027462182391997762 0 -0.035537374486426958 0.027462182391997762 0 -0.035528004749711239 0.027738797803772051 0 -0.035276161643611019 0.027464168693542838 0 -0.035840612993753136 0.028121424664169399 0 -0.035528004749711239 0.027738797803772051 0 -0.03493357246139675 0.028224495890219206 0 -0.035840612993753136 0.028121424664169399 0 -0.035804472809189171 0.027570632630640166 0 -0.035528004749711239 0.027738797803772051 0 -0.035840612993753136 0.028121424664169399 0 -0.03493357246139675 0.028224495890219206 0 -0.034766754043058415 0.029179034791093791 0 -0.03493357246139675 0.028224495890219206 0 -0.03413352452836467 0.028195522139722817 0 -0.034766754043058415 0.029179034791093791 0 -0.03493357246139675 0.028224495890219206 0 -0.034700465130745921 0.027436942608616826 0 -0.03413352452836467 0.028195522139722817 0 -0.035528004749711239 0.027738797803772051 0 -0.034700465130745921 0.027436942608616826 0 -0.035276161643611019 0.027464168693542838 0 -0.035528004749711239 0.027738797803772051 0 -0.03493357246139675 0.028224495890219206 0 -0.034700465130745921 0.027436942608616826 0 -0.035324600389312281 0.02715894914420048 0 -0.034700465130745921 0.027436942608616826 0 -0.035276161643611019 0.027464168693542838 0 -0.035280561693605793 0.026899779272679114 0 -0.035324600389312281 0.02715894914420048 0 -0.034700465130745921 0.027436942608616826 0 -0.035324600389312281 0.02715894914420048 0 -0.035537374486426958 0.027462182391997762 0 -0.035276161643611019 0.027464168693542838 0 -0.033702639843796553 0.026088922489703435 0 -0.034700465130745921 0.027436942608616826 0 -0.033019973265637159 0.027234972392181096 0 -0.034700465130745921 0.027436942608616826 0 -0.03413352452836467 0.028195522139722817 0 -0.033019973265637159 0.027234972392181096 0 -0.03413352452836467 0.028195522139722817 0 -0.034766754043058415 0.029179034791093791 0 -0.03301570324338883 0.028766047981893663 0 -0.03413352452836467 0.028195522139722817 0 -0.033019973265637159 0.027234972392181096 0 -0.03301570324338883 0.028766047981893663 0 -0.036502784024481212 0.025346391891846218 0 -0.035299809528776947 0.025228227928199391 0 -0.034766754043058415 0.029179034791093791 0 -0.03301570324338883 0.028766047981893663 0 -0.032941369482243757 0.030065811958358224 0 -0.039549056195065255 0.021650342742374221 0 -0.039796578029972197 0.021831114141566292 0 -0.040047452041234437 0.021390146997450406 0 -0.039796578029972197 0.021831114141566292 0 -0.040047452041234437 0.021390146997450406 0 -0.039205197886190812 0.020917443642227324 0 -0.040047452041234437 0.021390146997450406 0 -0.039205197886190812 0.020917443642227324 0 -0.038959784760276499 0.021642239526957256 0 -0.040047452041234437 0.021390146997450406 0 -0.039215286847461638 0.022844603007766036 0 -0.038959784760276499 0.021642239526957256 0 -0.039549056195065255 0.021650342742374221 0 -0.040047452041234437 0.021390146997450406 0 -0.03919967370153838 0.020830481965377103 0 -0.040047452041234437 0.021390146997450406 0 -0.039974561202396779 0.020372078964307858 0 -0.03919967370153838 0.020830481965377103 0 -0.039974561202396779 0.020372078964307858 0 -0.040032253237572021 0.019510559760688433 0 -0.039489596400585004 0.019971489856742936 0 -0.039974561202396779 0.020372078964307858 0 -0.04114853426962916 0.020254431731477885 0 -0.040561626214939472 0.019746720947584211 0 -0.040047452041234437 0.021390146997450406 0 -0.039974561202396779 0.020372078964307858 0 -0.04114853426962916 0.020254431731477885 0 -0.038332628390698294 0.019975376301404411 0 -0.038041222862638002 0.019593481148348253 0 -0.04114853426962916 0.020254431731477885 0 -0.041078820944802447 0.019465252177299195 0 -0.040561626214939472 0.019746720947584211 0 -0.041078820944802447 0.019465252177299195 0 -0.040561626214939472 0.019746720947584211 0 -0.040591120876670501 0.019186637413010025 0 -0.041078820944802447 0.019465252177299195 0 -0.040591120876670501 0.019186637413010025 0 -0.041066159610815146 0.018877339015123208 0 -0.040591120876670501 0.019186637413010025 0 -0.041066159610815146 0.018877339015123208 0 -0.040551172134175612 0.018461721747465878 0 -0.041066159610815146 0.018877339015123208 0 -0.040551172134175612 0.018461721747465878 0 -0.04123663649510996 0.018071213197856342 0 -0.039991355892904201 0.018127026132238426 0 -0.040015168362722765 0.018856638687540849 0 -0.039323242693024736 0.018379630816570132 0 -0.040551172134175612 0.018461721747465878 0 -0.039991355892904201 0.018127026132238426 0 -0.040387561406408291 0.017682049699116565 0 -0.040551172134175612 0.018461721747465878 0 -0.039991355892904201 0.018127026132238426 0 -0.040015168362722765 0.018856638687540849 0 -0.040591120876670501 0.019186637413010025 0 -0.040551172134175612 0.018461721747465878 0 -0.040015168362722765 0.018856638687540849 0 -0.040015168362722765 0.018856638687540849 0 -0.040032253237572021 0.019510559760688433 0 -0.039510776944936904 0.019245971204407738 0 -0.040591120876670501 0.019186637413010025 0 -0.040015168362722765 0.018856638687540849 0 -0.040032253237572021 0.019510559760688433 0 -0.039974561202396779 0.020372078964307858 0 -0.040561626214939472 0.019746720947584211 0 -0.040032253237572021 0.019510559760688433 0 -0.040561626214939472 0.019746720947584211 0 -0.040591120876670501 0.019186637413010025 0 -0.040032253237572021 0.019510559760688433 0 -0.040032253237572021 0.019510559760688433 0 -0.039510776944936904 0.019245971204407738 0 -0.039489596400585004 0.019971489856742936 0 -0.039510776944936904 0.019245971204407738 0 -0.039323242693024736 0.018379630816570132 0 -0.038852772914680998 0.019404816645384095 0 -0.039510776944936904 0.019245971204407738 0 -0.038852772914680998 0.019404816645384095 0 -0.039489596400585004 0.019971489856742936 0 -0.040015168362722765 0.018856638687540849 0 -0.039510776944936904 0.019245971204407738 0 -0.039323242693024736 0.018379630816570132 0 -0.039991355892904201 0.018127026132238426 0 -0.039323242693024736 0.018379630816570132 0 -0.039502145093036491 0.017833707903935427 0 -0.039323242693024736 0.018379630816570132 0 -0.038523708321447699 0.01825477838254062 0 -0.038995581838097357 0.017752466599022493 0 -0.039323242693024736 0.018379630816570132 0 -0.038523708321447699 0.01825477838254062 0 -0.038852772914680998 0.019404816645384095 0 -0.038523708321447699 0.01825477838254062 0 -0.038852772914680998 0.019404816645384095 0 -0.037849361620317393 0.018917882318409251 0 -0.038852772914680998 0.019404816645384095 0 -0.03919967370153838 0.020830481965377103 0 -0.038112758105291751 0.020008005416882888 0 -0.03919967370153838 0.020830481965377103 0 -0.037965571338805022 0.021120680027843078 0 -0.038112758105291751 0.020008005416882888 0 -0.039974561202396779 0.020372078964307858 0 -0.039489596400585004 0.019971489856742936 0 -0.03919967370153838 0.020830481965377103 0 -0.038852772914680998 0.019404816645384095 0 -0.039489596400585004 0.019971489856742936 0 -0.03919967370153838 0.020830481965377103 0 -0.038565049847960629 0.021946345530540552 0 -0.03919967370153838 0.020830481965377103 0 -0.037965571338805022 0.021120680027843078 0 -0.037237754161194424 0.022028929284579352 0 -0.037965571338805022 0.021120680027843078 0 -0.036967510310685132 0.020192414325887309 0 -0.037965571338805022 0.021120680027843078 0 -0.036967510310685132 0.020192414325887309 0 -0.038112758105291751 0.020008005416882888 0 -0.038852772914680998 0.019404816645384095 0 -0.038112758105291751 0.020008005416882888 0 -0.037849361620317393 0.018917882318409251 0 -0.036967510310685132 0.020192414325887309 0 -0.038112758105291751 0.020008005416882888 0 -0.037849361620317393 0.018917882318409251 0 -0.038523708321447699 0.01825477838254062 0 -0.037849361620317393 0.018917882318409251 0 -0.037724239063341256 0.017550655515998288 0 -0.037849361620317393 0.018917882318409251 0 -0.036901757778200969 0.018300368953850413 0 -0.037724239063341256 0.017550655515998288 0 -0.036967510310685132 0.020192414325887309 0 -0.037849361620317393 0.018917882318409251 0 -0.036901757778200969 0.018300368953850413 0 -0.036967510310685132 0.020192414325887309 0 -0.036901757778200969 0.018300368953850413 0 -0.036136993118516932 0.019108242208827265 0 -0.036901757778200969 0.018300368953850413 0 -0.036136993118516932 0.019108242208827265 0 -0.035931428290073564 0.017795000979715318 0 -0.036901757778200969 0.018300368953850413 0 -0.035931428290073564 0.017795000979715318 0 -0.036545064725736355 0.017008332548441724 0 -0.035931428290073564 0.017795000979715318 0 -0.034999862300021709 0.018778984312362149 0 -0.034999898263644108 0.016893182058134615 0 -0.036136993118516932 0.019108242208827265 0 -0.035931428290073564 0.017795000979715318 0 -0.034999862300021709 0.018778984312362149 0 -0.036136993118516932 0.019108242208827265 0 -0.034999862300021709 0.018778984312362149 0 -0.034999920610283057 0.020664774934776142 0 -0.036967510310685132 0.020192414325887309 0 -0.036136993118516932 0.019108242208827265 0 -0.034999920610283057 0.020664774934776142 0 -0.036967510310685132 0.020192414325887309 0 -0.034999920610283057 0.020664774934776142 0 -0.036121702350322964 0.021594379908459881 0 -0.037237754161194424 0.022028929284579352 0 -0.036967510310685132 0.020192414325887309 0 -0.036121702350322964 0.021594379908459881 0 -0.034999884654944899 0.022550606259518449 0 -0.034999920610283057 0.020664774934776142 0 -0.036121702350322964 0.021594379908459881 0 -0.025057889045276099 0.028340218893601967 0 -0.026877937495054838 0.028271669456919321 0 -0.024573419977559491 0.025821547790147142 0 -0.025057889045276099 0.028340218893601967 0 -0.024773569349357046 0.028989007238703294 0 -0.024086683367814721 0.026415113123995346 0 -0.021503411720674982 0.026391538259549454 0 -0.020457649953257676 0.02955073912054575 0 -0.021503411720674982 0.026391538259549454 0 -0.022038077898755257 0.026369613541666642 0 -0.025057889045276099 0.028340218893601967 0 -0.024773569349357046 0.028989007238703294 0 -0.026009799483047998 0.028561380549690839 0 -0.024918372689921944 0.028947137178854818 0 -0.026009799483047998 0.028561380549690839 0 -0.02607953138763654 0.029621249353189383 0 -0.028051252376584519 0.029469133829439793 0 -0.027908187075624716 0.028584960992914712 0 -0.028836499328338535 0.028771588414233454 0 -0.026877937495054838 0.028271669456919321 0 -0.026009799483047998 0.028561380549690839 0 -0.026987015820779579 0.029495058981529283 0 -0.025057889045276099 0.028340218893601967 0 -0.026877937495054838 0.028271669456919321 0 -0.026009799483047998 0.028561380549690839 0 -0.02607953138763654 0.029621249353189383 0 -0.026987015820779579 0.029495058981529283 0 -0.027132785295494118 0.030304541558857118 0 -0.026987015820779579 0.029495058981529283 0 -0.027132785295494118 0.030304541558857118 0 -0.029156581806431568 0.030881400867975944 0 -0.026877937495054838 0.028271669456919321 0 -0.026987015820779579 0.029495058981529283 0 -0.029156581806431568 0.030881400867975944 0 -0.026009799483047998 0.028561380549690839 0 -0.02607953138763654 0.029621249353189383 0 -0.026987015820779579 0.029495058981529283 0 -0.027132785295494118 0.030304541558857118 0 -0.025391924780426425 0.030817688889051297 0 -0.027068283051986591 0.03126516937174665 0 -0.02607953138763654 0.029621249353189383 0 -0.027132785295494118 0.030304541558857118 0 -0.025391924780426425 0.030817688889051297 0 -0.019582525368757511 0.018878952767710316 0 -0.019428950332790504 0.019075232287977539 0 -0.019666841865607 0.019165814377271162 0 -0.024918372689921944 0.028947137178854818 0 -0.02607953138763654 0.029621249353189383 0 -0.025391924780426425 0.030817688889051297 0 -0.021503411720674982 0.026391538259549454 0 -0.023914791205222625 0.024625273525198409 0 -0.021503411720674982 0.026391538259549454 0 -0.019326141135962274 0.026230906950789376 0 -0.019582525368757511 0.018878952767710316 0 -0.019428950332790504 0.019075232287977539 0 -0.019180331773335006 0.018937794719988677 0 -0.019428950332790504 0.019075232287977539 0 -0.019180331773335006 0.018937794719988677 0 -0.019275631126249294 0.019222019349430276 0 -0.019180331773335006 0.018937794719988677 0 -0.019012607956907172 0.019140701293002094 0 -0.019275631126249294 0.019222019349430276 0 -0.019326141135962274 0.026230906950789376 0 -0.016433099808559403 0.027249226507121693 0 -0.019180331773335006 0.018937794719988677 0 -0.018722996615256872 0.018991199628863545 0 -0.019012607956907172 0.019140701293002094 0 -0.019017755016860701 0.027790650712121917 0 -0.018313566880802781 0.027994948022746397 0 -0.018935790584981488 0.027398353146641026 0 -0.016433099808559403 0.027249226507121693 0 -0.017219767380502418 0.029277178841590017 0 -0.011855148021115583 0.031017164965013576 0 -0.011835684875262549 0.031028818904265693 0 -0.011871826665051412 0.031157610452767083 0 -0.011855148021115583 0.031017164965013576 0 -0.011844573700247522 0.030794045113805193 0 -0.011835684875262549 0.031028818904265693 0 -0.019671758226173883 0.027569111471333594 0 -0.019017755016860701 0.027790650712121917 0 -0.018935790584981488 0.027398353146641026 0 -0.017219767380502418 0.029277178841590017 0 -0.020457649953257676 0.02955073912054575 0 -0.019671758226173883 0.027569111471333594 0 -0.018935790584981488 0.027398353146641026 0 -0.019506416578248715 0.026820111932608394 0 -0.011835684875262549 0.031028818904265693 0 -0.011883644387260275 0.031131179552167727 0 -0.011907031927403226 0.03113003253024452 0 -0.011883644387260275 0.031131179552167727 0 -0.011921140815000713 0.03116409357882757 0 -0.011907031927403226 0.03113003253024452 0 -0.020020323530535629 0.030485018522310361 0 -0.020457649953257676 0.02955073912054575 0 -0.011835684875262549 0.031028818904265693 0 -0.011883644387260275 0.031131179552167727 0 -0.011871826665051412 0.031157610452767083 0 -0.011883644387260275 0.031131179552167727 0 -0.011871826665051412 0.031157610452767083 0 -0.011910302021074534 0.031174208172128102 0 -0.011888263994028632 0.031206403601432255 0 -0.011941485694024548 0.031188890857452894 0 -0.011901177386593935 0.031196208471465734 0 -0.011877252021652508 0.031228215651103751 0 -0.011871826665051412 0.031157610452767083 0 -0.011901177386593935 0.031196208471465734 0 -0.011871826665051412 0.031157610452767083 0 -0.011901177386593935 0.031196208471465734 0 -0.011910302021074534 0.031174208172128102 0 -0.011941485694024548 0.031188890857452894 0 -0.011901177386593935 0.031196208471465734 0 -0.011910302021074534 0.031174208172128102 0 -0.020149220887233744 0.030493351054089447 0 -0.020059272698237457 0.030385254143895798 0 -0.019954562049989012 0.029586595611460764 0 -0.020084872966569745 0.030521646292915136 0 -0.020000411563360174 0.030415523809880336 0 -0.020193335462174649 0.031094488651098658 0 -0.020020323530535629 0.030485018522310361 0 -0.020322824121838032 0.030424449384820532 0 -0.011883644387260275 0.031131179552167727 0 -0.011921140815000713 0.03116409357882757 0 -0.011910302021074534 0.031174208172128102 0 -0.011941485694024548 0.031188890857452894 0 -0.011921140815000713 0.03116409357882757 0 -0.011910302021074534 0.031174208172128102 0 -0.020020323530535629 0.030485018522310361 0 -0.019874318351108249 0.03132481749636485 0 -0.020436768342625321 0.031821034175723448 0 -0.019766969507387409 0.030995473260622936 0 -0.019879352729317241 0.031542527403262313 0 -0.018096210320695062 0.031652733038192833 0 -0.020020323530535629 0.030485018522310361 0 -0.020322824121838032 0.030424449384820532 0 -0.019874318351108249 0.03132481749636485 0 -0.021093353363605537 0.031684670361959412 0 -0.02078353824326875 0.031926205949312662 0 -0.02121588621132427 0.032084238855928399 0 -0.026752342679437095 0.028044010665853776 0 -0.027985038346122888 0.028055294660186865 0 -0.0276108105058674 0.027065269773291427 0 -0.020940278962070076 0.032370678514982522 0 -0.02078353824326875 0.031926205949312662 0 -0.02121588621132427 0.032084238855928399 0 -0.021427474527117362 0.031812690191962693 0 -0.021093353363605537 0.031684670361959412 0 -0.02121588621132427 0.032084238855928399 0 -0.021427474527117362 0.031812690191962693 0 -0.02121588621132427 0.032084238855928399 0 -0.021822883694882722 0.0320140423637882 0 -0.02121588621132427 0.032084238855928399 0 -0.021199561984509056 0.032668177257089086 0 -0.021822883694882722 0.0320140423637882 0 -0.021426560486502443 0.029815655211821245 0 -0.023490402105040359 0.030238867040306754 0 -0.020940278962070076 0.032370678514982522 0 -0.02121588621132427 0.032084238855928399 0 -0.021199561984509056 0.032668177257089086 0 -0.020322824121838032 0.030424449384820532 0 -0.021426560486502443 0.029815655211821245 0 -0.020322824121838032 0.030424449384820532 0 -0.020816217046529979 0.029636980558812431 0 -0.021327585456887826 0.029149369594856644 0 -0.020816217046529979 0.029636980558812431 0 -0.025057889045276099 0.028340218893601967 0 -0.024246544032492125 0.026225610946352385 0 -0.024086683367814721 0.026415113123995346 0 -0.020059272698237457 0.030385254143895798 0 -0.019848929459483574 0.029709032932198037 0 -0.019954562049989012 0.029586595611460764 0 -0.025272264649448262 0.030343569430602266 0 -0.021426560486502443 0.029815655211821245 0 -0.020150679391827079 0.030628228683262839 0 -0.019885195725269006 0.029784060034084962 0 -0.019660728519858086 0.030043849286133482 0 -0.025057889045276099 0.028340218893601967 0 -0.024285917198925807 0.026158708509892579 0 -0.024573419977559491 0.025821547790147142 0 -0.020816217046529979 0.029636980558812431 0 -0.021426560486502443 0.029815655211821245 0 -0.020816217046529979 0.029636980558812431 0 -0.020457649953257676 0.02955073912054575 0 -0.027985038346122888 0.028055294660186865 0 -0.028679371516579261 0.027539756672241702 0 -0.028836499328338535 0.028771588414233454 0 -0.026752342679437095 0.028044010665853776 0 -0.027908187075624716 0.028584960992914712 0 -0.027985038346122888 0.028055294660186865 0 -0.028051252376584519 0.029469133829439793 0 -0.026752342679437095 0.028044010665853776 0 -0.027908187075624716 0.028584960992914712 0 -0.027908187075624716 0.028584960992914712 0 -0.027985038346122888 0.028055294660186865 0 -0.028836499328338535 0.028771588414233454 0 -0.02847465886252816 0.026078988729042303 0 -0.0276108105058674 0.027065269773291427 0 -0.028679371516579261 0.027539756672241702 0 -0.027985038346122888 0.028055294660186865 0 -0.0276108105058674 0.027065269773291427 0 -0.028679371516579261 0.027539756672241702 0 -0.02847465886252816 0.026078988729042303 0 -0.028679371516579261 0.027539756672241702 0 -0.029661544170033253 0.02714937946056967 0 -0.028679371516579261 0.027539756672241702 0 -0.029661544170033253 0.02714937946056967 0 -0.029505880062523814 0.02809691077538657 0 -0.029661544170033253 0.02714937946056967 0 -0.030650054127629292 0.028030428994006703 0 -0.029505880062523814 0.02809691077538657 0 -0.029661544170033253 0.02714937946056967 0 -0.030650054127629292 0.028030428994006703 0 -0.031239282237748214 0.026863407014259919 0 -0.030650054127629292 0.028030428994006703 0 -0.031382651576355169 0.02922449637127857 0 -0.029962286194810419 0.029062887170000804 0 -0.030650054127629292 0.028030428994006703 0 -0.029505880062523814 0.02809691077538657 0 -0.029962286194810419 0.029062887170000804 0 -0.028836499328338535 0.028771588414233454 0 -0.029505880062523814 0.02809691077538657 0 -0.029962286194810419 0.029062887170000804 0 -0.028679371516579261 0.027539756672241702 0 -0.028836499328338535 0.028771588414233454 0 -0.029505880062523814 0.02809691077538657 0 -0.033019973265637159 0.027234972392181096 0 -0.031239282237748214 0.026863407014259919 0 -0.031908364490323748 0.027954068005524906 0 -0.030650054127629292 0.028030428994006703 0 -0.031239282237748214 0.026863407014259919 0 -0.031908364490323748 0.027954068005524906 0 -0.030650054127629292 0.028030428994006703 0 -0.031908364490323748 0.027954068005524906 0 -0.031382651576355169 0.02922449637127857 0 -0.031908364490323748 0.027954068005524906 0 -0.03301570324338883 0.028766047981893663 0 -0.031382651576355169 0.02922449637127857 0 -0.033019973265637159 0.027234972392181096 0 -0.031908364490323748 0.027954068005524906 0 -0.03301570324338883 0.028766047981893663 0 -0.03301570324338883 0.028766047981893663 0 -0.031382651576355169 0.02922449637127857 0 -0.032941369482243757 0.030065811958358224 0 -0.0368130090131309 0.020722083279545531 0 -0.039205197886190812 0.020917443642227324 0 -0.038000894959555991 0.021445722235381853 0 -0.033180925885861183 0.025096428764773592 0 -0.035299809528776947 0.025228227928199391 0 -0.031382651576355169 0.02922449637127857 0 -0.031041111710022721 0.030778942334361792 0 -0.032941369482243757 0.030065811958358224 0 -0.039205197886190812 0.020917443642227324 0 -0.038959784760276499 0.021642239526957256 0 -0.038000894959555991 0.021445722235381853 0 -0.028836499328338535 0.028771588414233454 0 -0.029206685850256282 0.029687684959194632 0 -0.029962286194810419 0.029062887170000804 0 -0.028051252376584519 0.029469133829439793 0 -0.028836499328338535 0.028771588414233454 0 -0.029206685850256282 0.029687684959194632 0 -0.031382651576355169 0.02922449637127857 0 -0.029962286194810419 0.029062887170000804 0 -0.030142081300595275 0.029975388644454037 0 -0.029206685850256282 0.029687684959194632 0 -0.029962286194810419 0.029062887170000804 0 -0.030142081300595275 0.029975388644454037 0 -0.031041111710022721 0.030778942334361792 0 -0.030142081300595275 0.029975388644454037 0 -0.029156581806431568 0.030881400867975944 0 -0.031382651576355169 0.02922449637127857 0 -0.031041111710022721 0.030778942334361792 0 -0.030142081300595275 0.029975388644454037 0 -0.029206685850256282 0.029687684959194632 0 -0.030142081300595275 0.029975388644454037 0 -0.029156581806431568 0.030881400867975944 0 -0.025272264649448262 0.030343569430602266 0 -0.026737543139637263 0.03099182904254557 0 -0.027132785295494118 0.030304541558857118 0 -0.029156581806431568 0.030881400867975944 0 -0.028070463699405752 0.031011713076263613 0 -0.028051252376584519 0.029469133829439793 0 -0.029206685850256282 0.029687684959194632 0 -0.029156581806431568 0.030881400867975944 0 -0.029156581806431568 0.030881400867975944 0 -0.028892846200368642 0.031581113875591101 0 -0.028070463699405752 0.031011713076263613 0 -0.028892846200368642 0.031581113875591101 0 -0.028070463699405752 0.031011713076263613 0 -0.027068283051986591 0.03126516937174665 0 -0.0368130090131309 0.020722083279545531 0 -0.033408541614089626 0.02172294537361567 0 -0.036809331348643559 0.021963978120594106 0 -0.033408541614089626 0.02172294537361567 0 -0.033466386182374221 0.022752889581152427 0 -0.036809331348643559 0.021963978120594106 0 -0.031041111710022721 0.030778942334361792 0 -0.029156581806431568 0.030881400867975944 0 -0.028892846200368642 0.031581113875591101 0 -0.033222626705129508 0.021631236519904291 0 -0.034944754527421358 0.021524671217365399 0 -0.033180925885861183 0.025096428764773592 0 -0.030176380574230787 0.024626019193916812 0 -0.036110039419758572 0.021944559973689319 0 -0.03643544069745451 0.022078984283781741 0 -0.036809331348643559 0.021963978120594106 0 -0.03643544069745451 0.022078984283781741 0 -0.036643419946876768 0.02210823509211754 0 -0.036809331348643559 0.021963978120594106 0 -0.03643544069745451 0.022078984283781741 0 -0.036643419946876768 0.02210823509211754 0 -0.036594322902699754 0.022168968881092193 0 -0.036643419946876768 0.02210823509211754 0 -0.036594322902699754 0.022168968881092193 0 -0.036793293632992108 0.022126452417146267 0 -0.03643544069745451 0.022078984283781741 0 -0.036594322902699754 0.022168968881092193 0 -0.03642422166275372 0.022225981555756204 0 -0.03643544069745451 0.022078984283781741 0 -0.036215294297458706 0.022128121692754559 0 -0.03642422166275372 0.022225981555756204 0 -0.036215294297458706 0.022128121692754559 0 -0.036045527688028892 0.02206731903064962 0 -0.035974833730659919 0.022181150242954053 0 -0.036110039419758572 0.021944559973689319 0 -0.036045527688028892 0.02206731903064962 0 -0.036194475321717531 0.02205539008813202 0 -0.03643544069745451 0.022078984283781741 0 -0.036215294297458706 0.022128121692754559 0 -0.036194475321717531 0.02205539008813202 0 -0.036110039419758572 0.021944559973689319 0 -0.03643544069745451 0.022078984283781741 0 -0.036194475321717531 0.02205539008813202 0 -0.036215294297458706 0.022128121692754559 0 -0.036045527688028892 0.02206731903064962 0 -0.036194475321717531 0.02205539008813202 0 -0.038959784760276499 0.021642239526957256 0 -0.03809923011859264 0.02202662185270729 0 -0.038000894959555991 0.021445722235381853 0 -0.038959784760276499 0.021642239526957256 0 -0.03809923011859264 0.02202662185270729 0 -0.038594037549136456 0.022389758680047216 0 -0.037473333778956147 0.022018174381732956 0 -0.038000894959555991 0.021445722235381853 0 -0.036809331348643559 0.021963978120594106 0 -0.037473333778956147 0.022018174381732956 0 -0.036793293632992108 0.022126452417146267 0 -0.037730640917169163 0.022498956867843641 0 -0.03809923011859264 0.02202662185270729 0 -0.037473333778956147 0.022018174381732956 0 -0.038000894959555991 0.021445722235381853 0 -0.03809923011859264 0.02202662185270729 0 -0.037473333778956147 0.022018174381732956 0 -0.037730640917169163 0.022498956867843641 0 -0.0368130090131309 0.020722083279545531 0 -0.038000894959555991 0.021445722235381853 0 -0.036809331348643559 0.021963978120594106 0 -0.037473333778956147 0.022018174381732956 0 -0.036809331348643559 0.021963978120594106 0 -0.036793293632992108 0.022126452417146267 0 -0.036643419946876768 0.02210823509211754 0 -0.036809331348643559 0.021963978120594106 0 -0.036793293632992108 0.022126452417146267 0 -0.036793293632992108 0.022126452417146267 0 -0.037730640917169163 0.022498956867843641 0 -0.037786143167640916 0.0234436242179209 0 -0.036594322902699754 0.022168968881092193 0 -0.036793293632992108 0.022126452417146267 0 -0.03667744961185853 0.022201022464715663 0 -0.036594322902699754 0.022168968881092193 0 -0.03667744961185853 0.022201022464715663 0 -0.03642422166275372 0.022225981555756204 0 -0.037207285201366083 0.020672992442862772 0 -0.036863589996262096 0.019761825313898623 0 -0.037730640917169163 0.022498956867843641 0 -0.038113726183298641 0.022974949224693137 0 -0.037786143167640916 0.0234436242179209 0 -0.036819906802705235 0.019912692014276707 0 -0.036863589996262096 0.019761825313898623 0 -0.039215286847461638 0.022844603007766036 0 -0.038959784760276499 0.021642239526957256 0 -0.038594037549136456 0.022389758680047216 0 -0.039215286847461638 0.022844603007766036 0 -0.038113726183298641 0.022974949224693137 0 -0.038279415314846993 0.024025825061065879 0 -0.038132830821800051 0.022487606065390346 0 -0.038113726183298641 0.022974949224693137 0 -0.038594037549136456 0.022389758680047216 0 -0.03809923011859264 0.02202662185270729 0 -0.038132830821800051 0.022487606065390346 0 -0.038594037549136456 0.022389758680047216 0 -0.03809923011859264 0.02202662185270729 0 -0.037730640917169163 0.022498956867843641 0 -0.038132830821800051 0.022487606065390346 0 -0.037730640917169163 0.022498956867843641 0 -0.038132830821800051 0.022487606065390346 0 -0.038113726183298641 0.022974949224693137 0 -0.039215286847461638 0.022844603007766036 0 -0.038113726183298641 0.022974949224693137 0 -0.038594037549136456 0.022389758680047216 0 -0.038041222862638002 0.019593481148348253 0 -0.037199205878979624 0.018025629569314944 0 -0.04114853426962916 0.020254431731477885 0 -0.041078820944802447 0.019465252177299195 0 -0.04188351841632177 0.019215658268022656 0 -0.038113726183298641 0.022974949224693137 0 -0.038279415314846993 0.024025825061065879 0 -0.037842647207636089 0.023322472669170285 0 -0.041078820944802447 0.019465252177299195 0 -0.041066159610815146 0.018877339015123208 0 -0.04188351841632177 0.019215658268022656 0 -0.037199205878979624 0.018025629569314944 0 -0.036863589996262096 0.019761825313898623 0 -0.036863589996262096 0.019761825313898623 0 -0.035905095752022144 0.018244974915013402 0 -0.03464229995846059 0.016200745016617963 0 -0.035393059051435395 0.017431914167425979 0 -0.037048834895310703 0.015094617402304084 0 -0.03667744961185853 0.022201022464715663 0 -0.03642422166275372 0.022225981555756204 0 -0.03638660368548427 0.022364241877960957 0 -0.037199205878979624 0.018025629569314944 0 -0.03764589292257841 0.015213099011313701 0 -0.03464229995846059 0.016200745016617963 0 -0.036202561057177923 0.013988101617945847 0 -0.037048834895310703 0.015094617402304084 0 -0.035541330024243666 0.015033344414448572 0 -0.036725311234471369 0.013363184026673169 0 -0.035615734356332959 0.012897198562000476 0 -0.041066159610815146 0.018877339015123208 0 -0.04188351841632177 0.019215658268022656 0 -0.04123663649510996 0.018071213197856342 0 -0.035541330024243666 0.015033344414448572 0 -0.035615734356332959 0.012897198562000476 0 -0.034452312519750797 0.01323003268295102 0 -0.037199205878979624 0.018025629569314944 0 -0.037331271859442641 0.016093665999849509 0 -0.036215294297458706 0.022128121692754559 0 -0.03610778337937328 0.022328893715272292 0 -0.03642422166275372 0.022225981555756204 0 -0.036215294297458706 0.022128121692754559 0 -0.03610778337937328 0.022328893715272292 0 -0.035974833730659919 0.022181150242954053 0 -0.03610778337937328 0.022328893715272292 0 -0.03642422166275372 0.022225981555756204 0 -0.03638660368548427 0.022364241877960957 0 -0.035905095752022144 0.018244974915013402 0 -0.034315823064296175 0.016695157087739221 0 -0.03610778337937328 0.022328893715272292 0 -0.03638660368548427 0.022364241877960957 0 -0.036066078727923279 0.022439592577183073 0 -0.036202561057177923 0.013988101617945847 0 -0.037048834895310703 0.015094617402304084 0 -0.038593609631435426 0.012722770501120226 0 -0.03610778337937328 0.022328893715272292 0 -0.035918539325291148 0.022420412434552919 0 -0.036066078727923279 0.022439592577183073 0 -0.027998621341084228 0.021277925415726134 0 -0.028916889077066854 0.020582902023361074 0 -0.020554839608355135 0.020683158938256101 0 -0.021040719300621871 0.020083778744326247 0 -0.021344527986129545 0.021014566943654535 0 -0.03610778337937328 0.022328893715272292 0 -0.035842151103285688 0.022299829630671349 0 -0.035918539325291148 0.022420412434552919 0 -0.020554839608355135 0.020683158938256101 0 -0.020266356393033192 0.020226040262286624 0 -0.021040719300621871 0.020083778744326247 0 -0.020554839608355135 0.020683158938256101 0 -0.020266356393033192 0.020226040262286624 0 -0.019980054523197118 0.020778890368542548 0 -0.020266356393033192 0.020226040262286624 0 -0.020387733355551736 0.019701278121442251 0 -0.021040719300621871 0.020083778744326247 0 -0.020387733355551736 0.019701278121442251 0 -0.021040719300621871 0.020083778744326247 0 -0.020826943067128709 0.019097364127815267 0 -0.020266356393033192 0.020226040262286624 0 -0.020387733355551736 0.019701278121442251 0 -0.019862515759215188 0.01990801470249506 0 -0.03610778337937328 0.022328893715272292 0 -0.035842151103285688 0.022299829630671349 0 -0.035974833730659919 0.022181150242954053 0 -0.035842151103285688 0.022299829630671349 0 -0.035974833730659919 0.022181150242954053 0 -0.035678081248447131 0.02203273372032594 0 -0.027998621341084228 0.021277925415726134 0 -0.026849735444193761 0.022060994571151894 0 -0.033222626705129508 0.021631236519904291 0 -0.026849735444193761 0.022060994571151894 0 -0.036045527688028892 0.02206731903064962 0 -0.035974833730659919 0.022181150242954053 0 -0.035678081248447131 0.02203273372032594 0 -0.036110039419758572 0.021944559973689319 0 -0.036045527688028892 0.02206731903064962 0 -0.035678081248447131 0.02203273372032594 0 -0.033466386182374221 0.022752889581152427 0 -0.029525148786842748 0.023486923764840972 0 -0.029442132641389639 0.023104971032334731 0 -0.020387733355551736 0.019701278121442251 0 -0.020280526647756186 0.019186872326428045 0 -0.020826943067128709 0.019097364127815267 0 -0.020387733355551736 0.019701278121442251 0 -0.020280526647756186 0.019186872326428045 0 -0.019884613633066494 0.019263073329866768 0 -0.024726452639930886 0.022357078205964959 0 -0.026658830201890277 0.022716862625440811 0 -0.01951980497000156 0.019582816587713506 0 -0.019785137032261799 0.01949802525121223 0 -0.019504394673474371 0.01931744148058202 0 -0.025060546405548653 0.022259855207132341 0 -0.027157963211214164 0.02183854456060157 0 -0.027060566142962827 0.021398070628228252 0 -0.024726452639930886 0.022357078205964959 0 -0.026849735444193761 0.022060994571151894 0 -0.026849735444193761 0.022060994571151894 0 -0.026658830201890277 0.022716862625440811 0 -0.026658830201890277 0.022716862625440811 0 -0.023914791205222625 0.024625273525198409 0 -0.019785137032261799 0.01949802525121223 0 -0.019504394673474371 0.01931744148058202 0 -0.019666841865607 0.019165814377271162 0 -0.025842342839318432 0.032706373695748019 0 -0.025391924780426425 0.030817688889051297 0 -0.027068283051986591 0.03126516937174665 0 -0.019428950332790504 0.019075232287977539 0 -0.019504394673474371 0.01931744148058202 0 -0.019666841865607 0.019165814377271162 0 -0.028892846200368642 0.031581113875591101 0 -0.025842342839318432 0.032706373695748019 0 -0.027068283051986591 0.03126516937174665 0 -0.033408541614089626 0.02172294537361567 0 -0.033466386182374221 0.022752889581152427 0 -0.029442132641389639 0.023104971032334731 0 -0.030176380574230787 0.024626019193916812 0 -0.026658830201890277 0.022716862625440811 0 -0.027132785295494118 0.030304541558857118 0 -0.028070463699405752 0.031011713076263613 0 -0.027068283051986591 0.03126516937174665 0 -0.019084176775295517 0.019372252880289577 0 -0.018782594880283044 0.019270622356495643 0 -0.019012607956907172 0.019140701293002094 0 -0.018722996615256872 0.018991199628863545 0 -0.018782594880283044 0.019270622356495643 0 -0.019012607956907172 0.019140701293002094 0 -0.019084176775295517 0.019372252880289577 0 -0.019012607956907172 0.019140701293002094 0 -0.019275631126249294 0.019222019349430276 0 -0.019428950332790504 0.019075232287977539 0 -0.019504394673474371 0.01931744148058202 0 -0.019275631126249294 0.019222019349430276 0 -0.01951980497000156 0.019582816587713506 0 -0.019504394673474371 0.01931744148058202 0 -0.019340482556557952 0.019414462069791378 0 -0.019504394673474371 0.01931744148058202 0 -0.019275631126249294 0.019222019349430276 0 -0.019340482556557952 0.019414462069791378 0 -0.019084176775295517 0.019372252880289577 0 -0.019275631126249294 0.019222019349430276 0 -0.019340482556557952 0.019414462069791378 0 -0.019084176775295517 0.019372252880289577 0 -0.019340482556557952 0.019414462069791378 0 -0.019323289083200672 0.01959874314494893 0 -0.024726452639930886 0.022357078205964959 0 -0.023036707534178687 0.022177572833635504 0 -0.01951980497000156 0.019582816587713506 0 -0.019340482556557952 0.019414462069791378 0 -0.019323289083200672 0.01959874314494893 0 -0.023036707534178687 0.022177572833635504 0 -0.021469725562393148 0.021981373867128482 0 -0.019084176775295517 0.019372252880289577 0 -0.019323289083200672 0.01959874314494893 0 -0.018872704103864262 0.019584633993055687 0 -0.019084176775295517 0.019372252880289577 0 -0.018782594880283044 0.019270622356495643 0 -0.018872704103864262 0.019584633993055687 0 -0.019884613633066494 0.019263073329866768 0 -0.018872704103864262 0.019584633993055687 0 -0.019249805296855056 0.019995658936745205 0 -0.018872704103864262 0.019584633993055687 0 -0.019249805296855056 0.019995658936745205 0 -0.018763035425379299 0.020219973059326903 0 -0.019249805296855056 0.019995658936745205 0 -0.018763035425379299 0.020219973059326903 0 -0.019491599218125495 0.020326718181758154 0 -0.020266356393033192 0.020226040262286624 0 -0.019862515759215188 0.01990801470249506 0 -0.019491599218125495 0.020326718181758154 0 -0.019884613633066494 0.019263073329866768 0 -0.019249805296855056 0.019995658936745205 0 -0.019862515759215188 0.01990801470249506 0 -0.020387733355551736 0.019701278121442251 0 -0.019884613633066494 0.019263073329866768 0 -0.019862515759215188 0.01990801470249506 0 -0.019249805296855056 0.019995658936745205 0 -0.019862515759215188 0.01990801470249506 0 -0.019491599218125495 0.020326718181758154 0 -0.020266356393033192 0.020226040262286624 0 -0.019491599218125495 0.020326718181758154 0 -0.019980054523197118 0.020778890368542548 0 -0.019491599218125495 0.020326718181758154 0 -0.019980054523197118 0.020778890368542548 0 -0.019148529689949342 0.02093878173608122 0 -0.018259995146775513 0.020827404577309777 0 -0.018763035425379299 0.020219973059326903 0 -0.019148529689949342 0.02093878173608122 0 -0.018763035425379299 0.020219973059326903 0 -0.019491599218125495 0.020326718181758154 0 -0.019148529689949342 0.02093878173608122 0 -0.018259995146775513 0.020827404577309777 0 -0.019148529689949342 0.02093878173608122 0 -0.018602669211266146 0.021435882063090203 0 -0.019148529689949342 0.02093878173608122 0 -0.019298972248830523 0.021735002074326437 0 -0.018602669211266146 0.021435882063090203 0 -0.019148529689949342 0.02093878173608122 0 -0.01992128129508693 0.021316138149669275 0 -0.019298972248830523 0.021735002074326437 0 -0.019980054523197118 0.020778890368542548 0 -0.019148529689949342 0.02093878173608122 0 -0.01992128129508693 0.021316138149669275 0 -0.019980054523197118 0.020778890368542548 0 -0.01992128129508693 0.021316138149669275 0 -0.020485358659143176 0.021175296896886485 0 -0.020059260123571877 0.021867044587153543 0 -0.01936782022353719 0.022321194616850563 0 -0.020743119465800874 0.022368486644359194 0 -0.01992128129508693 0.021316138149669275 0 -0.020059260123571877 0.021867044587153543 0 -0.019298972248830523 0.021735002074326437 0 -0.020059260123571877 0.021867044587153543 0 -0.019298972248830523 0.021735002074326437 0 -0.01936782022353719 0.022321194616850563 0 -0.019298972248830523 0.021735002074326437 0 -0.01877782851259165 0.021879448921027993 0 -0.018602669211266146 0.021435882063090203 0 -0.019298972248830523 0.021735002074326437 0 -0.01877782851259165 0.021879448921027993 0 -0.01936782022353719 0.022321194616850563 0 -0.019750972869614834 0.022372897149600876 0 -0.020865983869092972 0.021414796449650934 0 -0.020708362222480146 0.023303022194295728 0 -0.020946560987653223 0.020227005473669204 0 -0.020001632915172519 0.020570323065299396 0 -0.01877782851259165 0.021879448921027993 0 -0.01936782022353719 0.022321194616850563 0 -0.01834679144972903 0.02212844466155232 0 -0.019750972869614834 0.022372897149600876 0 -0.020865983869092972 0.021414796449650934 0 -0.018829890815310342 0.022109547128283273 0 -0.020865983869092972 0.021414796449650934 0 -0.018829890815310342 0.022109547128283273 0 -0.01834679144972903 0.02212844466155232 0 -0.019750972869614834 0.022372897149600876 0 -0.020708362222480146 0.023303022194295728 0 -0.018404113240244727 0.022524883265116567 0 -0.021962147194656511 0.016381304399792344 0 -0.02022452864322322 0.018456051839732129 0 -0.020946560987653223 0.020227005473669204 0 -0.023390747986611057 0.019127224982779002 0 -0.020865983869092972 0.021414796449650934 0 -0.022727305244194525 0.022055710145603789 0 -0.02343301090866183 0.021136460892669181 0 -0.020865983869092972 0.021414796449650934 0 -0.022727305244194525 0.022055710145603789 0 -0.022359630707367694 0.022882545084480826 0 -0.020865983869092972 0.021414796449650934 0 -0.022359630707367694 0.022882545084480826 0 -0.020708362222480146 0.023303022194295728 0 -0.021962147194656511 0.016381304399792344 0 -0.024876632656790729 0.014208205151212669 0 -0.021471994507238416 0.011389012762278329 0 -0.021809551030182148 0.011535607899350519 0 -0.02152525857377038 0.011561135462327531 0 -0.022359630707367694 0.022882545084480826 0 -0.020708362222480146 0.023303022194295728 0 -0.023188427821349031 0.024214386794962541 0 -0.021471994507238416 0.011389012762278329 0 -0.021150147231725962 0.011295646482047504 0 -0.021258851075988759 0.01145610299741249 0 -0.021471994507238416 0.011389012762278329 0 -0.021384726277255604 0.011523133095132417 0 -0.02152525857377038 0.011561135462327531 0 -0.021471994507238416 0.011389012762278329 0 -0.021384726277255604 0.011523133095132417 0 -0.021258851075988759 0.01145610299741249 0 -0.021384726277255604 0.011523133095132417 0 -0.021258851075988759 0.01145610299741249 0 -0.02126543405545251 0.011552072307527649 0 -0.027251879491417087 0.011656648287412034 0 -0.026117092793554866 0.011075904785588368 0 -0.026834061861586895 0.010718659613757604 0 -0.027251879491417087 0.011656648287412034 0 -0.026834061861586895 0.010718659613757604 0 -0.027516405518404303 0.010637988249322943 0 -0.027251879491417087 0.011656648287412034 0 -0.026117092793554866 0.011075904785588368 0 -0.02611533940835177 0.012287350973550193 0 -0.026117092793554866 0.011075904785588368 0 -0.02611533940835177 0.012287350973550193 0 -0.025316711840811874 0.011688031025070393 0 -0.026117092793554866 0.011075904785588368 0 -0.026277461990276692 0.010178226453212331 0 -0.024933469834543316 0.0099488049315949144 0 -0.026117092793554866 0.011075904785588368 0 -0.026277461990276692 0.010178226453212331 0 -0.026834061861586895 0.010718659613757604 0 -0.026277461990276692 0.010178226453212331 0 -0.026834061861586895 0.010718659613757604 0 -0.026980900248233158 0.0099288903639797171 0 -0.026834061861586895 0.010718659613757604 0 -0.027444410510736875 0.010298065714061212 0 -0.027516405518404303 0.010637988249322943 0 -0.026980900248233158 0.0099288903639797171 0 -0.027444410510736875 0.010298065714061212 0 -0.027571371041074148 0.0098436128169396651 0 -0.026834061861586895 0.010718659613757604 0 -0.026980900248233158 0.0099288903639797171 0 -0.027444410510736875 0.010298065714061212 0 -0.026486412305904657 0.016039437304815579 0 -0.025203129152147726 0.0139217645699438 0 -0.027251879491417087 0.011656648287412034 0 -0.027516405518404303 0.010637988249322943 0 -0.028542274770551816 0.0098805167155504598 0 -0.027444410510736875 0.010298065714061212 0 -0.027516405518404303 0.010637988249322943 0 -0.028542274770551816 0.0098805167155504598 0 -0.027444410510736875 0.010298065714061212 0 -0.028542274770551816 0.0098805167155504598 0 -0.027571371041074148 0.0098436128169396651 0 -0.024876632656790729 0.014208205151212669 0 -0.024143373568945085 0.015588082541756311 0 -0.023188427821349031 0.024214386794962541 0 -0.023201542272624304 0.023235657832962706 0 -0.024013284150716303 0.023087791653306811 0 -0.023360455075513983 0.023824534141156133 0 -0.024013284150716303 0.023087791653306811 0 -0.023549579015924586 0.023922835467631926 0 -0.024876632656790729 0.014208205151212669 0 -0.025203129152147726 0.0139217645699438 0 -0.022359630707367694 0.022882545084480826 0 -0.023188427821349031 0.024214386794962541 0 -0.023201542272624304 0.023235657832962706 0 -0.023241974329148637 0.022763906919463995 0 -0.024013284150716303 0.023087791653306811 0 -0.023755601448739644 0.022299395828910339 0 -0.023201542272624304 0.023235657832962706 0 -0.023241974329148637 0.022763906919463995 0 -0.024013284150716303 0.023087791653306811 0 -0.022359630707367694 0.022882545084480826 0 -0.023201542272624304 0.023235657832962706 0 -0.023241974329148637 0.022763906919463995 0 -0.024634930597006548 0.022685333580855165 0 -0.024013284150716303 0.023087791653306811 0 -0.023549579015924586 0.023922835467631926 0 -0.024634930597006548 0.022685333580855165 0 -0.024013284150716303 0.023087791653306811 0 -0.023755601448739644 0.022299395828910339 0 -0.024634930597006548 0.022685333580855165 0 -0.023755601448739644 0.022299395828910339 0 -0.024214880564122455 0.021965205433158851 0 -0.023755601448739644 0.022299395828910339 0 -0.024214880564122455 0.021965205433158851 0 -0.02343301090866183 0.021136460892669181 0 -0.024634930597006548 0.022685333580855165 0 -0.024214880564122455 0.021965205433158851 0 -0.024692253409799077 0.021584588368384932 0 -0.022727305244194525 0.022055710145603789 0 -0.023755601448739644 0.022299395828910339 0 -0.02343301090866183 0.021136460892669181 0 -0.022727305244194525 0.022055710145603789 0 -0.023241974329148637 0.022763906919463995 0 -0.023755601448739644 0.022299395828910339 0 -0.022727305244194525 0.022055710145603789 0 -0.022359630707367694 0.022882545084480826 0 -0.023241974329148637 0.022763906919463995 0 -0.024214880564122455 0.021965205433158851 0 -0.02343301090866183 0.021136460892669181 0 -0.024692253409799077 0.021584588368384932 0 -0.023390747986611057 0.019127224982779002 0 -0.028683916091400023 0.016814621074484011 0 -0.02343301090866183 0.021136460892669181 0 -0.024692253409799077 0.021584588368384932 0 -0.025964306058076345 0.020981703441978486 0 -0.024634930597006548 0.022685333580855165 0 -0.024692253409799077 0.021584588368384932 0 -0.025964306058076345 0.020981703441978486 0 -0.026486412305904657 0.016039437304815579 0 -0.028683916091400023 0.016814621074484011 0 -0.02611533940835177 0.012287350973550193 0 -0.025722596642511548 0.013456003596971394 0 -0.025316711840811874 0.011688031025070393 0 -0.027251879491417087 0.011656648287412034 0 -0.02611533940835177 0.012287350973550193 0 -0.026005484442399515 0.013442185904654581 0 -0.02611533940835177 0.012287350973550193 0 -0.026005484442399515 0.013442185904654581 0 -0.025722596642511548 0.013456003596971394 0 -0.028683916091400023 0.016814621074484011 0 -0.029487563438795706 0.016297111363625338 0 -0.031877623565132233 0.014711789449378445 0 -0.029773824500661343 0.014804060525378807 0 -0.030249943240088301 0.016863793018599877 0 -0.029433856818627892 0.016768801202649522 0 -0.028916889077066854 0.020582902023361074 0 -0.022476455691595749 0.022267008027355838 0 -0.022628262813729441 0.02207232992839497 0 -0.021169160201218441 0.021558557414738392 0 -0.029433856818627892 0.016768801202649522 0 -0.024834321047612178 0.017507587375702831 0 -0.021696790143866877 0.022010822368452195 0 -0.020799866977751758 0.021698737506128583 0 -0.021344527986129545 0.021014566943654535 0 -0.029487563438795706 0.016297111363625338 0 -0.029433856818627892 0.016768801202649522 0 -0.028683916091400023 0.016814621074484011 0 -0.029433856818627892 0.016768801202649522 0 -0.023517458123505777 0.017766772931418193 0 -0.024834321047612178 0.017507587375702831 0 -0.020059260123571877 0.021867044587153543 0 -0.020743119465800874 0.022368486644359194 0 -0.021169160201218441 0.021558557414738392 0 -0.01992128129508693 0.021316138149669275 0 -0.020059260123571877 0.021867044587153543 0 -0.021169160201218441 0.021558557414738392 0 -0.020743119465800874 0.022368486644359194 0 -0.022476455691595749 0.022267008027355838 0 -0.021169160201218441 0.021558557414738392 0 -0.01992128129508693 0.021316138149669275 0 -0.020799866977751758 0.021698737506128583 0 -0.020485358659143176 0.021175296896886485 0 -0.020554839608355135 0.020683158938256101 0 -0.020485358659143176 0.021175296896886485 0 -0.021344527986129545 0.021014566943654535 0 -0.020799866977751758 0.021698737506128583 0 -0.020485358659143176 0.021175296896886485 0 -0.021344527986129545 0.021014566943654535 0 -0.020554839608355135 0.020683158938256101 0 -0.019980054523197118 0.020778890368542548 0 -0.020485358659143176 0.021175296896886485 0 -0.035875017798929772 0.022412940563011723 0 -0.035918539325291148 0.022420412434552919 0 -0.036066078727923279 0.022439592577183073 0 -0.03764589292257841 0.015213099011313701 0 -0.038029468845881244 0.014054685535755489 0 -0.036202561057177923 0.013988101617945847 0 -0.038593609631435426 0.012722770501120226 0 -0.037772953109916678 0.011830050944272532 0 -0.038593609631435426 0.012722770501120226 0 -0.037772953109916678 0.011830050944272532 0 -0.038577328528789707 0.011298943125974214 0 -0.037772953109916678 0.011830050944272532 0 -0.037252178514925641 0.010983756247900291 0 -0.036860692370169569 0.011536784128687083 0 -0.037772953109916678 0.011830050944272532 0 -0.037252178514925641 0.010983756247900291 0 -0.037769092602835563 0.010891869378364671 0 -0.037252178514925641 0.010983756247900291 0 -0.037769092602835563 0.010891869378364671 0 -0.037169686944425379 0.010319727405821752 0 -0.037769092602835563 0.010891869378364671 0 -0.038577328528789707 0.011298943125974214 0 -0.038531601792071483 0.010769545593690994 0 -0.037772953109916678 0.011830050944272532 0 -0.037769092602835563 0.010891869378364671 0 -0.038577328528789707 0.011298943125974214 0 -0.039600485665917805 0.010916982464146739 0 -0.038593609631435426 0.012722770501120226 0 -0.038577328528789707 0.011298943125974214 0 -0.029433856818627892 0.016768801202649522 0 -0.034315823064296175 0.016695157087739221 0 -0.038577328528789707 0.011298943125974214 0 -0.039230385866662859 0.01075229924551648 0 -0.038531601792071483 0.010769545593690994 0 -0.039600485665917805 0.010916982464146739 0 -0.038577328528789707 0.011298943125974214 0 -0.039230385866662859 0.01075229924551648 0 -0.029433856818627892 0.016768801202649522 0 -0.030590178919426128 0.01597000947083415 0 -0.03488427351018368 0.012261029618790172 0 -0.035615734356332959 0.012897198562000476 0 -0.034452312519750797 0.01323003268295102 0 -0.03488427351018368 0.012261029618790172 0 -0.035615734356332959 0.012897198562000476 0 -0.035906119700143492 0.01175536836386188 0 -0.036725311234471369 0.013363184026673169 0 -0.037772953109916678 0.011830050944272532 0 -0.036599990803755235 0.012272588230222811 0 -0.035615734356332959 0.012897198562000476 0 -0.036599990803755235 0.012272588230222811 0 -0.035906119700143492 0.01175536836386188 0 -0.036725311234471369 0.013363184026673169 0 -0.035615734356332959 0.012897198562000476 0 -0.036599990803755235 0.012272588230222811 0 -0.037772953109916678 0.011830050944272532 0 -0.036599990803755235 0.012272588230222811 0 -0.036860692370169569 0.011536784128687083 0 -0.037252178514925641 0.010983756247900291 0 -0.036514465156382105 0.010824951996085574 0 -0.037169686944425379 0.010319727405821752 0 -0.037252178514925641 0.010983756247900291 0 -0.036860692370169569 0.011536784128687083 0 -0.036514465156382105 0.010824951996085574 0 -0.036514465156382105 0.010824951996085574 0 -0.0356015212503797 0.011040382896545339 0 -0.035836257219014019 0.010326024162125113 0 -0.036514465156382105 0.010824951996085574 0 -0.035906119700143492 0.01175536836386188 0 -0.0356015212503797 0.011040382896545339 0 -0.036860692370169569 0.011536784128687083 0 -0.036514465156382105 0.010824951996085574 0 -0.035906119700143492 0.01175536836386188 0 -0.036599990803755235 0.012272588230222811 0 -0.036860692370169569 0.011536784128687083 0 -0.035906119700143492 0.01175536836386188 0 -0.035906119700143492 0.01175536836386188 0 -0.0356015212503797 0.011040382896545339 0 -0.034929039936991854 0.011399008428627341 0 -0.0356015212503797 0.011040382896545339 0 -0.034929039936991854 0.011399008428627341 0 -0.03486598804938118 0.010343622996767336 0 -0.034929039936991854 0.011399008428627341 0 -0.03486598804938118 0.010343622996767336 0 -0.033988302990399608 0.010882493052336703 0 -0.03488427351018368 0.012261029618790172 0 -0.034929039936991854 0.011399008428627341 0 -0.034502405209561354 0.011720537142996043 0 -0.03488427351018368 0.012261029618790172 0 -0.035906119700143492 0.01175536836386188 0 -0.034929039936991854 0.011399008428627341 0 -0.03486598804938118 0.010343622996767336 0 -0.035448015262015978 0.0093231391546688431 0 -0.034418958938506959 0.0090966123043694468 0 -0.0356015212503797 0.011040382896545339 0 -0.03486598804938118 0.010343622996767336 0 -0.035836257219014019 0.010326024162125113 0 -0.035836257219014019 0.010326024162125113 0 -0.035448015262015978 0.0093231391546688431 0 -0.036504673262632209 0.0098654303591091536 0 -0.03486598804938118 0.010343622996767336 0 -0.035836257219014019 0.010326024162125113 0 -0.035448015262015978 0.0093231391546688431 0 -0.033697737019758187 0.0091720439715005288 0 -0.033665165097402451 0.011195904773821538 0 -0.036504673262632209 0.0098654303591091536 0 -0.036248973699410457 0.008647025331375716 0 -0.037818331201464286 0.0096635244209102491 0 -0.035448015262015978 0.0093231391546688431 0 -0.036504673262632209 0.0098654303591091536 0 -0.036248973699410457 0.008647025331375716 0 -0.036514465156382105 0.010824951996085574 0 -0.035836257219014019 0.010326024162125113 0 -0.036504673262632209 0.0098654303591091536 0 -0.036504673262632209 0.0098654303591091536 0 -0.037169686944425379 0.010319727405821752 0 -0.037818331201464286 0.0096635244209102491 0 -0.036514465156382105 0.010824951996085574 0 -0.036504673262632209 0.0098654303591091536 0 -0.037169686944425379 0.010319727405821752 0 -0.034488039804622388 0.0051701676705132203 0 -0.033960497567022685 0.0052843119536744006 0 -0.034787732027833466 0.0057134965195650414 0 -0.034488039804622388 0.0051701676705132203 0 -0.034190496427411621 0.0047427069861227201 0 -0.034841490422670811 0.004712672196907128 0 -0.034488039804622388 0.0051701676705132203 0 -0.034190496427411621 0.0047427069861227201 0 -0.033960497567022685 0.0052843119536744006 0 -0.035448015262015978 0.0093231391546688431 0 -0.034418958938506959 0.0090966123043694468 0 -0.0345945243573864 0.0072737157103163622 0 -0.034190496427411621 0.0047427069861227201 0 -0.033960497567022685 0.0052843119536744006 0 -0.033197014732875681 0.0050821493473094895 0 -0.033697737019758187 0.0091720439715005288 0 -0.033000236401847557 0.0078217227261585323 0 -0.035448015262015978 0.0093231391546688431 0 -0.036248973699410457 0.008647025331375716 0 -0.0345945243573864 0.0072737157103163622 0 -0.030590178919426128 0.01597000947083415 0 -0.033665165097402451 0.011195904773821538 0 -0.031042107923357865 0.013006683774100926 0 -0.030467229910737016 0.012700816556791809 0 -0.03107168942673004 0.012572365060565792 0 -0.039120897090435446 0.010789380303273024 0 -0.038531601792071483 0.010769545593690994 0 -0.037598062775397172 0.0099469250626794768 0 -0.029487563438795706 0.016297111363625338 0 -0.030451651412334656 0.012361091675837415 0 -0.031153044083269636 0.013007609881503013 0 -0.031042107923357865 0.013006683774100926 0 -0.03107168942673004 0.012572365060565792 0 -0.029487563438795706 0.016297111363625338 0 -0.030590178919426128 0.01597000947083415 0 -0.029159233780824856 0.01583456172121056 0 -0.029188621283222433 0.015972311163620186 0 -0.028924356636319266 0.015841994708603899 0 -0.030590178919426128 0.01597000947083415 0 -0.031563073644659781 0.015777016826777467 0 -0.037769092602835563 0.010891869378364671 0 -0.038531601792071483 0.010769545593690994 0 -0.037598062775397172 0.0099469250626794768 0 -0.037769092602835563 0.010891869378364671 0 -0.037169686944425379 0.010319727405821752 0 -0.037598062775397172 0.0099469250626794768 0 -0.034028287772381691 0.010929991816145956 0 -0.033665165097402451 0.011195904773821538 0 -0.034488039804622388 0.0051701676705132203 0 -0.034787732027833466 0.0057134965195650414 0 -0.034841490422670811 0.004712672196907128 0 -0.033665165097402451 0.011195904773821538 0 -0.031944391523006883 0.0089240374201730727 0 -0.034787732027833466 0.0057134965195650414 0 -0.034841490422670811 0.004712672196907128 0 -0.035806474917609014 0.0046935772536596219 0 -0.030467229910737016 0.012700816556791809 0 -0.03107168942673004 0.012572365060565792 0 -0.030987429026139841 0.012144897766542097 0 -0.030451651412334656 0.012361091675837415 0 -0.031944391523006883 0.0089240374201730727 0 -0.026117092793554866 0.011075904785588368 0 -0.025316711840811874 0.011688031025070393 0 -0.024933469834543316 0.0099488049315949144 0 -0.035806474917609014 0.0046935772536596219 0 -0.035172014106311364 0.004145249431583467 0 -0.035453231389715692 0.0033822528785357651 0 -0.035494398360142211 0.0039020410957355707 0 -0.035664318481135125 0.0033769590413613377 0 -0.035453231389715692 0.0033822528785357651 0 -0.031944391523006883 0.0089240374201730727 0 -0.032197989362849913 0.0068096193481105675 0 -0.034841490422670811 0.004712672196907128 0 -0.035806474917609014 0.0046935772536596219 0 -0.035172014106311364 0.004145249431583467 0 -0.034687835575730949 0.0038349658799060214 0 -0.035172014106311364 0.004145249431583467 0 -0.035453231389715692 0.0033822528785357651 0 -0.034190496427411621 0.0047427069861227201 0 -0.034841490422670811 0.004712672196907128 0 -0.034687835575730949 0.0038349658799060214 0 -0.034841490422670811 0.004712672196907128 0 -0.034687835575730949 0.0038349658799060214 0 -0.035172014106311364 0.004145249431583467 0 -0.034687835575730949 0.0038349658799060214 0 -0.034622158590348624 0.0029977448097352473 0 -0.035261523233766905 0.0028737940390045611 0 -0.034687835575730949 0.0038349658799060214 0 -0.035453231389715692 0.0033822528785357651 0 -0.035261523233766905 0.0028737940390045611 0 -0.035453231389715692 0.0033822528785357651 0 -0.035261523233766905 0.0028737940390045611 0 -0.035707074815279037 0.0029054437947000139 0 -0.035664318481135125 0.0033769590413613377 0 -0.035453231389715692 0.0033822528785357651 0 -0.035707074815279037 0.0029054437947000139 0 -0.034190496427411621 0.0047427069861227201 0 -0.03394759234474904 0.0042317580166977443 0 -0.033197014732875681 0.0050821493473094895 0 -0.03394759234474904 0.0042317580166977443 0 -0.033489078382371584 0.0040215114434958192 0 -0.033197014732875681 0.0050821493473094895 0 -0.033489078382371584 0.0040215114434958192 0 -0.033197014732875681 0.0050821493473094895 0 -0.032976094384819334 0.0043200119708564268 0 -0.034190496427411621 0.0047427069861227201 0 -0.034687835575730949 0.0038349658799060214 0 -0.03394759234474904 0.0042317580166977443 0 -0.034687835575730949 0.0038349658799060214 0 -0.03394759234474904 0.0042317580166977443 0 -0.034100825955118923 0.003496262662573065 0 -0.034687835575730949 0.0038349658799060214 0 -0.034100825955118923 0.003496262662573065 0 -0.034622158590348624 0.0029977448097352473 0 -0.03394759234474904 0.0042317580166977443 0 -0.034100825955118923 0.003496262662573065 0 -0.033489078382371584 0.0040215114434958192 0 -0.034100825955118923 0.003496262662573065 0 -0.033526765659418797 0.0033032789715160011 0 -0.033489078382371584 0.0040215114434958192 0 -0.033526765659418797 0.0033032789715160011 0 -0.033489078382371584 0.0040215114434958192 0 -0.033092990949958163 0.003684572954604266 0 -0.033545685076981538 0.0027133132242830997 0 -0.034091378099424328 0.0025215433240437196 0 -0.033325286317832797 0.0022395056051801843 0 -0.034100825955118923 0.003496262662573065 0 -0.033526765659418797 0.0033032789715160011 0 -0.034091378099424328 0.0025215433240437196 0 -0.033545685076981538 0.0027133132242830997 0 -0.033325286317832797 0.0022395056051801843 0 -0.03293296285185067 0.002982410817376973 0 -0.033526765659418797 0.0033032789715160011 0 -0.033545685076981538 0.0027133132242830997 0 -0.03293296285185067 0.002982410817376973 0 -0.033526765659418797 0.0033032789715160011 0 -0.033545685076981538 0.0027133132242830997 0 -0.034091378099424328 0.0025215433240437196 0 -0.034622158590348624 0.0029977448097352473 0 -0.034091378099424328 0.0025215433240437196 0 -0.034931640197419345 0.00237834992048925 0 -0.034100825955118923 0.003496262662573065 0 -0.034622158590348624 0.0029977448097352473 0 -0.034091378099424328 0.0025215433240437196 0 -0.034527929829966088 0.0020954404186327223 0 -0.033804855715491543 0.0018586759175869439 0 -0.034363436690843685 0.0016381715271078013 0 -0.034091378099424328 0.0025215433240437196 0 -0.034527929829966088 0.0020954404186327223 0 -0.034931640197419345 0.00237834992048925 0 -0.034091378099424328 0.0025215433240437196 0 -0.034527929829966088 0.0020954404186327223 0 -0.033804855715491543 0.0018586759175869439 0 -0.034527929829966088 0.0020954404186327223 0 -0.035052959622548764 0.0018529754818517861 0 -0.034363436690843685 0.0016381715271078013 0 -0.034091378099424328 0.0025215433240437196 0 -0.033804855715491543 0.0018586759175869439 0 -0.033325286317832797 0.0022395056051801843 0 -0.033804855715491543 0.0018586759175869439 0 -0.033325286317832797 0.0022395056051801843 0 -0.032821958361583706 0.0018435158190050433 0 -0.035653840118716688 0.0024117171225216403 0 -0.035261523233766905 0.0028737940390045611 0 -0.035707074815279037 0.0029054437947000139 0 -0.035435772999199075 0.0023320949510951148 0 -0.035653840118716688 0.0024117171225216403 0 -0.035710470199467284 0.0019865545280043596 0 -0.035435772999199075 0.0023320949510951148 0 -0.035653840118716688 0.0024117171225216403 0 -0.035261523233766905 0.0028737940390045611 0 -0.034622158590348624 0.0029977448097352473 0 -0.035261523233766905 0.0028737940390045611 0 -0.034931640197419345 0.00237834992048925 0 -0.035435772999199075 0.0023320949510951148 0 -0.035261523233766905 0.0028737940390045611 0 -0.034931640197419345 0.00237834992048925 0 -0.035435772999199075 0.0023320949510951148 0 -0.034931640197419345 0.00237834992048925 0 -0.035487410937217773 0.0018280445590099803 0 -0.034931640197419345 0.00237834992048925 0 -0.035052959622548764 0.0018529754818517861 0 -0.035487410937217773 0.0018280445590099803 0 -0.034527929829966088 0.0020954404186327223 0 -0.034931640197419345 0.00237834992048925 0 -0.035052959622548764 0.0018529754818517861 0 -0.035052959622548764 0.0018529754818517861 0 -0.035487410937217773 0.0018280445590099803 0 -0.035462025143984915 0.0015056532342072027 0 -0.035435772999199075 0.0023320949510951148 0 -0.035487410937217773 0.0018280445590099803 0 -0.035710470199467284 0.0019865545280043596 0 -0.035487410937217773 0.0018280445590099803 0 -0.035788875390582474 0.0015315775267825569 0 -0.035686909059835577 0.001372840556956761 0 -0.035487410937217773 0.0018280445590099803 0 -0.035710470199467284 0.0019865545280043596 0 -0.035788875390582474 0.0015315775267825569 0 -0.035788875390582474 0.0015315775267825569 0 -0.03593103066598842 0.0016442232892977103 0 -0.035935620423217129 0.0012435010259467139 0 -0.03593103066598842 0.0016442232892977103 0 -0.035982909490498351 0.0012494644758126599 0 -0.035935620423217129 0.0012435010259467139 0 -0.035710470199467284 0.0019865545280043596 0 -0.035788875390582474 0.0015315775267825569 0 -0.03593103066598842 0.0016442232892977103 0 -0.035710470199467284 0.0019865545280043596 0 -0.03593103066598842 0.0016442232892977103 0 -0.035869264158974436 0.0022485306635450916 0 -0.035653840118716688 0.0024117171225216403 0 -0.035710470199467284 0.0019865545280043596 0 -0.035869264158974436 0.0022485306635450916 0 -0.035869264158974436 0.0022485306635450916 0 -0.0360105653919187 0.0025071817110851142 0 -0.036046497366490189 0.0019730177563986907 0 -0.03593103066598842 0.0016442232892977103 0 -0.035869264158974436 0.0022485306635450916 0 -0.036046497366490189 0.0019730177563986907 0 -0.035869264158974436 0.0022485306635450916 0 -0.0360105653919187 0.0025071817110851142 0 -0.035707074815279037 0.0029054437947000139 0 -0.035653840118716688 0.0024117171225216403 0 -0.035869264158974436 0.0022485306635450916 0 -0.035707074815279037 0.0029054437947000139 0 -0.0360105653919187 0.0025071817110851142 0 -0.036406706983565636 0.0022391258430477178 0 -0.036046497366490189 0.0019730177563986907 0 -0.036406706983565636 0.0022391258430477178 0 -0.036046497366490189 0.0019730177563986907 0 -0.036124374263882694 0.0016060933076510336 0 -0.03593103066598842 0.0016442232892977103 0 -0.036046497366490189 0.0019730177563986907 0 -0.036124374263882694 0.0016060933076510336 0 -0.03593103066598842 0.0016442232892977103 0 -0.036124374263882694 0.0016060933076510336 0 -0.035982909490498351 0.0012494644758126599 0 -0.036124374263882694 0.0016060933076510336 0 -0.035990083573737994 0.0010755600763425409 0 -0.035982909490498351 0.0012494644758126599 0 -0.036406706983565636 0.0022391258430477178 0 -0.036124374263882694 0.0016060933076510336 0 -0.036234175976455993 0.0012423105996707501 0 -0.035102237504318116 -6.9615478962936942e-05 0 -0.035287065434610278 -0.00025493470034643678 0 -0.035226042737773036 -0.00027416956149212596 0 -0.036124374263882694 0.0016060933076510336 0 -0.036234175976455993 0.0012423105996707501 0 -0.035990083573737994 0.0010755600763425409 0 -0.035287065434610278 -0.00025493470034643678 0 -0.035226042737773036 -0.00027416956149212596 0 -0.034756273509898204 -0.0001538758734068235 0 -0.030116666603489273 0.0039974623790473476 0 -0.031440361691367928 0.0033919891108682284 0 -0.031870350040341312 0.0019785701187935113 0 -0.032947197411967694 0.0025459370622077249 0 -0.033380104469312402 0.0016324398032891525 0 -0.030116666603489273 0.0039974623790473476 0 -0.031440361691367928 0.0033919891108682284 0 -0.030908269119030291 0.0047496107614209537 0 -0.031440361691367928 0.0033919891108682284 0 -0.031962536669590362 0.0047653422718015124 0 -0.030908269119030291 0.0047496107614209537 0 -0.02662220232537367 0.008600500068140806 0 -0.026106935376662543 0.010482412974479449 0 -0.031962536669590362 0.0047653422718015124 0 -0.030544289649329679 0.0057929825583200199 0 -0.030084235648925994 0.0075095141615611205 0 -0.021329886302728883 0.012048959552836708 0 -0.021550921584660241 0.011779089859846086 0 -0.021315108445691004 0.011836550736027599 0 -0.031962536669590362 0.0047653422718015124 0 -0.030908269119030291 0.0047496107614209537 0 -0.030544289649329679 0.0057929825583200199 0 -0.030116666603489273 0.0039974623790473476 0 -0.030908269119030291 0.0047496107614209537 0 -0.030544289649329679 0.0057929825583200199 0 -0.028426245459493484 0.0059940670853515935 0 -0.030116666603489273 0.0039974623790473476 0 -0.030544289649329679 0.0057929825583200199 0 -0.028426245459493484 0.0059940670853515935 0 -0.030544289649329679 0.0057929825583200199 0 -0.029800986011347824 0.0065871014550697056 0 -0.032345103629065355 0.0040199670502624749 0 -0.034230784399837622 0.0014197168500240801 0 -0.032345103629065355 0.0040199670502624749 0 -0.032947197411967694 0.0025459370622077249 0 -0.028426245459493484 0.0059940670853515935 0 -0.029224371615585592 0.0071169552356591869 0 -0.028443413589276937 0.0075312012733569789 0 -0.028426245459493484 0.0059940670853515935 0 -0.029224371615585592 0.0071169552356591869 0 -0.029800986011347824 0.0065871014550697056 0 -0.029224371615585592 0.0071169552356591869 0 -0.029800986011347824 0.0065871014550697056 0 -0.030084235648925994 0.0075095141615611205 0 -0.030544289649329679 0.0057929825583200199 0 -0.029800986011347824 0.0065871014550697056 0 -0.030084235648925994 0.0075095141615611205 0 -0.029224371615585592 0.0071169552356591869 0 -0.030084235648925994 0.0075095141615611205 0 -0.029288441496446625 0.0079958371520083733 0 -0.029224371615585592 0.0071169552356591869 0 -0.029288441496446625 0.0079958371520083733 0 -0.028443413589276937 0.0075312012733569789 0 -0.029288441496446625 0.0079958371520083733 0 -0.028610814186188931 0.0080921532001591006 0 -0.028443413589276937 0.0075312012733569789 0 -0.021550921584660241 0.011779089859846086 0 -0.021315108445691004 0.011836550736027599 0 -0.021419865881814472 0.011724686047575827 0 -0.021550921584660241 0.011779089859846086 0 -0.021419865881814472 0.011724686047575827 0 -0.021536726051230189 0.011657787671174761 0 -0.021315108445691004 0.011836550736027599 0 -0.021419865881814472 0.011724686047575827 0 -0.021295552002749654 0.011717007505796812 0 -0.02138841053031483 0.011642840877289661 0 -0.021207670158274152 0.011635809452173263 0 -0.02126543405545251 0.011552072307527649 0 -0.021295552002749654 0.011717007505796812 0 -0.02138841053031483 0.011642840877289661 0 -0.021207670158274152 0.011635809452173263 0 -0.021419865881814472 0.011724686047575827 0 -0.021295552002749654 0.011717007505796812 0 -0.02138841053031483 0.011642840877289661 0 -0.021419865881814472 0.011724686047575827 0 -0.02138841053031483 0.011642840877289661 0 -0.021536726051230189 0.011657787671174761 0 -0.02138841053031483 0.011642840877289661 0 -0.021536726051230189 0.011657787671174761 0 -0.02152525857377038 0.011561135462327531 0 -0.02138841053031483 0.011642840877289661 0 -0.021384726277255604 0.011523133095132417 0 -0.02152525857377038 0.011561135462327531 0 -0.02138841053031483 0.011642840877289661 0 -0.021384726277255604 0.011523133095132417 0 -0.02126543405545251 0.011552072307527649 0 -0.021809551030182148 0.011535607899350519 0 -0.021536726051230189 0.011657787671174761 0 -0.02152525857377038 0.011561135462327531 0 -0.024876632656790729 0.014208205151212669 0 -0.026106935376662543 0.010482412974479449 0 -0.021809551030182148 0.011535607899350519 0 -0.021550921584660241 0.011779089859846086 0 -0.021536726051230189 0.011657787671174761 0 -0.029288441496446625 0.0079958371520083733 0 -0.028159073633227043 0.0095715045500106809 0 -0.028463381577342642 0.0085704437075082348 0 -0.027664965649160798 0.010829407580318091 0 -0.030084235648925994 0.0075095141615611205 0 -0.029288441496446625 0.0079958371520083733 0 -0.027187002913850542 0.011184746981992068 0 -0.025203129152147726 0.0139217645699438 0 -0.029288441496446625 0.0079958371520083733 0 -0.028610814186188931 0.0080921532001591006 0 -0.028463381577342642 0.0085704437075082348 0 -0.028159073633227043 0.0095715045500106809 0 -0.028049325092299352 0.008998789043813387 0 -0.028463381577342642 0.0085704437075082348 0 -0.027664965649160798 0.010829407580318091 0 -0.029288441496446625 0.0079958371520083733 0 -0.027336204328011624 0.01068247106532255 0 -0.028159073633227043 0.0095715045500106809 0 -0.028049325092299352 0.008998789043813387 0 -0.027819043838217712 0.0092248113504926309 0 -0.028250407633851858 0.0082598208956843003 0 -0.027525045886685046 0.0088599158578952508 0 -0.028443413589276937 0.0075312012733569789 0 -0.028049325092299352 0.008998789043813387 0 -0.028463381577342642 0.0085704437075082348 0 -0.028037790865862909 0.0086403738058010108 0 -0.028463381577342642 0.0085704437075082348 0 -0.028037790865862909 0.0086403738058010108 0 -0.028250407633851858 0.0082598208956843003 0 -0.028610814186188931 0.0080921532001591006 0 -0.028463381577342642 0.0085704437075082348 0 -0.028250407633851858 0.0082598208956843003 0 -0.028037790865862909 0.0086403738058010108 0 -0.028250407633851858 0.0082598208956843003 0 -0.027525045886685046 0.0088599158578952508 0 -0.028037790865862909 0.0086403738058010108 0 -0.0278437332236318 0.0088706133202612926 0 -0.027525045886685046 0.0088599158578952508 0 -0.028049325092299352 0.008998789043813387 0 -0.028037790865862909 0.0086403738058010108 0 -0.0278437332236318 0.0088706133202612926 0 -0.0278437332236318 0.0088706133202612926 0 -0.027525045886685046 0.0088599158578952508 0 -0.027735833611976478 0.0090662399375904413 0 -0.028542274770551816 0.0098805167155504598 0 -0.027571371041074148 0.0098436128169396651 0 -0.027323359812857866 0.0092682386115716924 0 -0.028159073633227043 0.0095715045500106809 0 -0.027819043838217712 0.0092248113504926309 0 -0.027323359812857866 0.0092682386115716924 0 -0.027735833611976478 0.0090662399375904413 0 -0.027819043838217712 0.0092248113504926309 0 -0.027323359812857866 0.0092682386115716924 0 -0.027525045886685046 0.0088599158578952508 0 -0.027735833611976478 0.0090662399375904413 0 -0.027323359812857866 0.0092682386115716924 0 -0.025203129152147726 0.0139217645699438 0 -0.02535311290225644 0.013715605436406608 0 -0.028049325092299352 0.008998789043813387 0 -0.027735833611976478 0.0090662399375904413 0 -0.027819043838217712 0.0092248113504926309 0 -0.028049325092299352 0.008998789043813387 0 -0.0278437332236318 0.0088706133202612926 0 -0.027735833611976478 0.0090662399375904413 0 -0.024933469834543316 0.0099488049315949144 0 -0.0264666024513148 0.0092306620039434486 0 -0.026942945092854081 0.0077152908064925078 0 -0.026980900248233158 0.0099288903639797171 0 -0.027571371041074148 0.0098436128169396651 0 -0.027323359812857866 0.0092682386115716924 0 -0.026277461990276692 0.010178226453212331 0 -0.026980900248233158 0.0099288903639797171 0 -0.0264666024513148 0.0092306620039434486 0 -0.035494398360142211 0.0039020410957355707 0 -0.035664318481135125 0.0033769590413613377 0 -0.036028265784771356 0.0032260037936159862 0 -0.026980900248233158 0.0099288903639797171 0 -0.0264666024513148 0.0092306620039434486 0 -0.027323359812857866 0.0092682386115716924 0 -0.031944391523006883 0.0089240374201730727 0 -0.032064928762890056 0.0061744511279044831 0 -0.027525045886685046 0.0088599158578952508 0 -0.027323359812857866 0.0092682386115716924 0 -0.027071359246927641 0.0087810526155582564 0 -0.0264666024513148 0.0092306620039434486 0 -0.027323359812857866 0.0092682386115716924 0 -0.027071359246927641 0.0087810526155582564 0 -0.026277461990276692 0.010178226453212331 0 -0.024933469834543316 0.0099488049315949144 0 -0.0264666024513148 0.0092306620039434486 0 -0.0264666024513148 0.0092306620039434486 0 -0.027071359246927641 0.0087810526155582564 0 -0.026942945092854081 0.0077152908064925078 0 -0.027525045886685046 0.0088599158578952508 0 -0.027071359246927641 0.0087810526155582564 0 -0.026942945092854081 0.0077152908064925078 0 -0.035664318481135125 0.0033769590413613377 0 -0.036028265784771356 0.0032260037936159862 0 -0.035707074815279037 0.0029054437947000139 0 -0.0360105653919187 0.0025071817110851142 0 -0.036028265784771356 0.0032260037936159862 0 -0.035707074815279037 0.0029054437947000139 0 -0.029541144042031786 0.0052134445620780059 0 -0.027525045886685046 0.0088599158578952508 0 -0.026942945092854081 0.0077152908064925078 0 -0.032345103629065355 0.0040199670502624749 0 -0.032064928762890056 0.0061744511279044831 0 -0.0360105653919187 0.0025071817110851142 0 -0.036406706983565636 0.0022391258430477178 0 -0.036028265784771356 0.0032260037936159862 0 -0.032345103629065355 0.0040199670502624749 0 -0.030088823206717435 0.0071264680174176137 0 -0.028426245459493484 0.0059940670853515935 0 -0.027525045886685046 0.0088599158578952508 0 -0.028443413589276937 0.0075312012733569789 0 -0.028610814186188931 0.0080921532001591006 0 -0.028250407633851858 0.0082598208956843003 0 -0.028443413589276937 0.0075312012733569789 0 -0.034999848493308394 0.015006926200791889 0 -0.035966001702280676 0.014311873608668294 0 -0.034999952992952284 0.013120916139165502 0 -0.035981049280424109 0.013365044584597783 0 -0.035966001702280676 0.014311873608668294 0 -0.034999952992952284 0.013120916139165502 0 -0.035981049280424109 0.013365044584597783 0 -0.036812199258147438 0.014172869054023077 0 -0.037272111990833828 0.013455293861339375 0 -0.035981049280424109 0.013365044584597783 0 -0.036812199258147438 0.014172869054023077 0 -0.035966001702280676 0.014311873608668294 0 -0.036767317442441098 0.015194175806892155 0 -0.035966001702280676 0.014311873608668294 0 -0.03602146592480758 0.015679051996454831 0 -0.036812199258147438 0.014172869054023077 0 -0.036767317442441098 0.015194175806892155 0 -0.035966001702280676 0.014311873608668294 0 -0.034999848493308394 0.015006926200791889 0 -0.035966001702280676 0.014311873608668294 0 -0.03602146592480758 0.015679051996454831 0 -0.034999848493308394 0.015006926200791889 0 -0.035788636116251001 0.016649286426100383 0 -0.034999898263644108 0.016893182058134615 0 -0.034999848493308394 0.015006926200791889 0 -0.035788636116251001 0.016649286426100383 0 -0.03602146592480758 0.015679051996454831 0 -0.035931428290073564 0.017795000979715318 0 -0.035788636116251001 0.016649286426100383 0 -0.034999898263644108 0.016893182058134615 0 -0.035931428290073564 0.017795000979715318 0 -0.035788636116251001 0.016649286426100383 0 -0.036545064725736355 0.017008332548441724 0 -0.036545064725736355 0.017008332548441724 0 -0.03602146592480758 0.015679051996454831 0 -0.037295531850338397 0.016367373727538274 0 -0.036767317442441098 0.015194175806892155 0 -0.03602146592480758 0.015679051996454831 0 -0.037297226995662014 0.015515666161819182 0 -0.035788636116251001 0.016649286426100383 0 -0.036545064725736355 0.017008332548441724 0 -0.03602146592480758 0.015679051996454831 0 -0.036658660086936169 0.015806226540630498 0 -0.037226164329007355 0.015871896836083997 0 -0.036767317442441098 0.015194175806892155 0 -0.037297226995662014 0.015515666161819182 0 -0.037780101889349584 0.015224893060346857 0 -0.036901757778200969 0.018300368953850413 0 -0.036545064725736355 0.017008332548441724 0 -0.037145932547488561 0.017223461754237411 0 -0.037295531850338397 0.016367373727538274 0 -0.037145932547488561 0.017223461754237411 0 -0.037724239063341256 0.017550655515998288 0 -0.036901757778200969 0.018300368953850413 0 -0.037145932547488561 0.017223461754237411 0 -0.037724239063341256 0.017550655515998288 0 -0.036545064725736355 0.017008332548441724 0 -0.037295531850338397 0.016367373727538274 0 -0.037145932547488561 0.017223461754237411 0 -0.037724239063341256 0.017550655515998288 0 -0.038380419721407634 0.016803117483228439 0 -0.038505709061776403 0.017517537703533016 0 -0.038523708321447699 0.01825477838254062 0 -0.037724239063341256 0.017550655515998288 0 -0.038505709061776403 0.017517537703533016 0 -0.037226164329007355 0.015871896836083997 0 -0.038143010270464642 0.015944926724721063 0 -0.037780101889349584 0.015224893060346857 0 -0.038346687349483356 0.014972539641054083 0 -0.038176972508600054 0.015541468139025173 0 -0.037297226995662014 0.015515666161819182 0 -0.037780101889349584 0.015224893060346857 0 -0.038176972508600054 0.015541468139025173 0 -0.037295531850338397 0.016367373727538274 0 -0.037724239063341256 0.017550655515998288 0 -0.038380419721407634 0.016803117483228439 0 -0.037861416605719442 0.014665793686091541 0 -0.037780101889349584 0.015224893060346857 0 -0.038346687349483356 0.014972539641054083 0 -0.037065591338776557 0.014084336693672614 0 -0.037598830772428544 0.013457720428268864 0 -0.036767317442441098 0.015194175806892155 0 -0.037861416605719442 0.014665793686091541 0 -0.037780101889349584 0.015224893060346857 0 -0.036812199258147438 0.014172869054023077 0 -0.036767317442441098 0.015194175806892155 0 -0.03840541380798284 0.014077925492431729 0 -0.036812199258147438 0.014172869054023077 0 -0.03840541380798284 0.014077925492431729 0 -0.037272111990833828 0.013455293861339375 0 -0.03840541380798284 0.014077925492431729 0 -0.039272499372529898 0.012755926967542897 0 -0.038620190559934001 0.012845554035650512 0 -0.03840541380798284 0.014077925492431729 0 -0.03805174587551139 0.013091839652973695 0 -0.038620190559934001 0.012845554035650512 0 -0.03840541380798284 0.014077925492431729 0 -0.037272111990833828 0.013455293861339375 0 -0.03805174587551139 0.013091839652973695 0 -0.037861416605719442 0.014665793686091541 0 -0.038777481926704577 0.014197372988177632 0 -0.038470994286983522 0.014687434239490874 0 -0.037598830772428544 0.013457720428268864 0 -0.037786614965684279 0.012073588859442312 0 -0.03840541380798284 0.014077925492431729 0 -0.039963010001510611 0.013142306494233785 0 -0.039272499372529898 0.012755926967542897 0 -0.038777481926704577 0.014197372988177632 0 -0.038893321464398764 0.014912189932315289 0 -0.038470994286983522 0.014687434239490874 0 -0.037406339806761592 0.011359435642010795 0 -0.037203802998916423 0.012957294975582314 0 -0.037786614965684279 0.012073588859442312 0 -0.038451506585942312 0.014503026239716488 0 -0.038369577497150704 0.013662656524144279 0 -0.038813574101894482 0.013437548524570408 0 -0.038656856855362916 0.015356793958515328 0 -0.038813574101894482 0.013437548524570408 0 -0.038656856855362916 0.015356793958515328 0 -0.039863058293712318 0.015215254852806616 0 -0.037786614965684279 0.012073588859442312 0 -0.037406339806761592 0.011359435642010795 0 -0.038656856855362916 0.015356793958515328 0 -0.039552731193462018 0.016227598383647304 0 -0.039863058293712318 0.015215254852806616 0 -0.038893321464398764 0.014912189932315289 0 -0.038470994286983522 0.014687434239490874 0 -0.038346687349483356 0.014972539641054083 0 -0.038893321464398764 0.014912189932315289 0 -0.038346687349483356 0.014972539641054083 0 -0.038612603545594808 0.015227660636015864 0 -0.037861416605719442 0.014665793686091541 0 -0.038470994286983522 0.014687434239490874 0 -0.038346687349483356 0.014972539641054083 0 -0.038346687349483356 0.014972539641054083 0 -0.038612603545594808 0.015227660636015864 0 -0.038176972508600054 0.015541468139025173 0 -0.038380419721407634 0.016803117483228439 0 -0.038889966870683051 0.017265168217380007 0 -0.039374194007477756 0.017056571505208264 0 -0.038143010270464642 0.015944926724721063 0 -0.038876673968809797 0.015898264393678366 0 -0.038612603545594808 0.015227660636015864 0 -0.038176972508600054 0.015541468139025173 0 -0.039003778096477183 0.015614463864394648 0 -0.038380419721407634 0.016803117483228439 0 -0.038505709061776403 0.017517537703533016 0 -0.038889966870683051 0.017265168217380007 0 -0.038505709061776403 0.017517537703533016 0 -0.038889966870683051 0.017265168217380007 0 -0.038995581838097357 0.017752466599022493 0 -0.038523708321447699 0.01825477838254062 0 -0.038505709061776403 0.017517537703533016 0 -0.038995581838097357 0.017752466599022493 0 -0.039323242693024736 0.018379630816570132 0 -0.038995581838097357 0.017752466599022493 0 -0.039502145093036491 0.017833707903935427 0 -0.038995581838097357 0.017752466599022493 0 -0.039502145093036491 0.017833707903935427 0 -0.039401240509926369 0.017311097687216 0 -0.038889966870683051 0.017265168217380007 0 -0.039401240509926369 0.017311097687216 0 -0.039374194007477756 0.017056571505208264 0 -0.038889966870683051 0.017265168217380007 0 -0.038995581838097357 0.017752466599022493 0 -0.039401240509926369 0.017311097687216 0 -0.039502145093036491 0.017833707903935427 0 -0.039401240509926369 0.017311097687216 0 -0.039833047034256608 0.017623157300673268 0 -0.038451506585942312 0.014503026239716488 0 -0.038876673968809797 0.015898264393678366 0 -0.039401240509926369 0.017311097687216 0 -0.039344037478236435 0.01702233265325093 0 -0.039704523712491002 0.01701438899634071 0 -0.038959050992019365 0.01694610549452899 0 -0.039552731193462018 0.016227598383647304 0 -0.039704523712491002 0.01701438899634071 0 -0.038876673968809797 0.015898264393678366 0 -0.038965761217951506 0.015940700939134682 0 -0.038656856855362916 0.015356793958515328 0 -0.038959050992019365 0.01694610549452899 0 -0.039552731193462018 0.016227598383647304 0 -0.038893321464398764 0.014912189932315289 0 -0.038612603545594808 0.015227660636015864 0 -0.039003778096477183 0.015614463864394648 0 -0.038893114588008711 0.015974218046615907 0 -0.038876673968809797 0.015898264393678366 0 -0.039552731193462018 0.016227598383647304 0 -0.040669137077178376 0.016857666598593217 0 -0.039863058293712318 0.015215254852806616 0 -0.039552731193462018 0.016227598383647304 0 -0.039704523712491002 0.01701438899634071 0 -0.040669137077178376 0.016857666598593217 0 -0.037251390843861899 0.014473948103696963 0 -0.037203802998916423 0.012957294975582314 0 -0.039704523712491002 0.01701438899634071 0 -0.040387561406408291 0.017682049699116565 0 -0.039833047034256608 0.017623157300673268 0 -0.039401240509926369 0.017311097687216 0 -0.039704523712491002 0.01701438899634071 0 -0.039833047034256608 0.017623157300673268 0 -0.039704523712491002 0.01701438899634071 0 -0.040387561406408291 0.017682049699116565 0 -0.040669137077178376 0.016857666598593217 0 -0.039991355892904201 0.018127026132238426 0 -0.039502145093036491 0.017833707903935427 0 -0.039833047034256608 0.017623157300673268 0 -0.039991355892904201 0.018127026132238426 0 -0.040387561406408291 0.017682049699116565 0 -0.039833047034256608 0.017623157300673268 0 -0.037331271859442641 0.016093665999849509 0 -0.037251390843861899 0.014473948103696963 0 -0.040387561406408291 0.017682049699116565 0 -0.04123663649510996 0.018071213197856342 0 -0.040669137077178376 0.016857666598593217 0 -0.034452312519750797 0.01323003268295102 0 -0.034125446907469444 0.012219009307663238 0 -0.033831888304287731 0.011936507342812932 0 -0.040551172134175612 0.018461721747465878 0 -0.040387561406408291 0.017682049699116565 0 -0.04123663649510996 0.018071213197856342 0 -0.03488427351018368 0.012261029618790172 0 -0.034452312519750797 0.01323003268295102 0 -0.034125446907469444 0.012219009307663238 0 -0.034125446907469444 0.012219009307663238 0 -0.034502405209561354 0.011720537142996043 0 -0.033988302990399608 0.010882493052336703 0 -0.034125446907469444 0.012219009307663238 0 -0.033988302990399608 0.010882493052336703 0 -0.032272193338695535 0.0095686161426115773 0 -0.034125446907469444 0.012219009307663238 0 -0.033831888304287731 0.011936507342812932 0 -0.033813629785735891 0.011128579991873533 0 -0.03488427351018368 0.012261029618790172 0 -0.034125446907469444 0.012219009307663238 0 -0.034502405209561354 0.011720537142996043 0 -0.034524443625474362 0.010666408917751202 0 -0.034542054582562806 0.0098349477074870118 0 -0.034929039936991854 0.011399008428627341 0 -0.034502405209561354 0.011720537142996043 0 -0.033988302990399608 0.010882493052336703 0 -0.03486598804938118 0.010343622996767336 0 -0.033988302990399608 0.010882493052336703 0 -0.033794244212704876 0.0097106739588988782 0 -0.03486598804938118 0.010343622996767336 0 -0.033794244212704876 0.0097106739588988782 0 -0.034418958938506959 0.0090966123043694468 0 -0.033794244212704876 0.0097106739588988782 0 -0.034418958938506959 0.0090966123043694468 0 -0.033236354938144232 0.0085838889176097204 0 -0.033794244212704876 0.0097106739588988782 0 -0.032272193338695535 0.0095686161426115773 0 -0.033236354938144232 0.0085838889176097204 0 -0.033988302990399608 0.010882493052336703 0 -0.033794244212704876 0.0097106739588988782 0 -0.032272193338695535 0.0095686161426115773 0 -0.033831888304287731 0.011936507342812932 0 -0.033662728424576169 0.011109950711109495 0 -0.033813629785735891 0.011128579991873533 0 -0.034542054582562806 0.0098349477074870118 0 -0.036137281457411061 0.0097665430668370367 0 -0.032272193338695535 0.0095686161426115773 0 -0.031256924210386387 0.0071207159879219783 0 -0.033236354938144232 0.0085838889176097204 0 -0.033517746193715989 0.010720076673913285 0 -0.033813629785735891 0.011128579991873533 0 -0.033660862778425824 0.010647138213895308 0 -0.031256924210386387 0.0071207159879219783 0 -0.033031026473276964 0.0072692538983233313 0 -0.033236354938144232 0.0085838889176097204 0 -0.032272193338695535 0.0095686161426115773 0 -0.031256924210386387 0.0071207159879219783 0 -0.030351364176443379 0.005953811301094649 0 -0.033517746193715989 0.010720076673913285 0 -0.033662728424576169 0.011109950711109495 0 -0.033813629785735891 0.011128579991873533 0 -0.031256924210386387 0.0071207159879219783 0 -0.032183442815783149 0.0065924730545900015 0 -0.033031026473276964 0.0072692538983233313 0 -0.031256924210386387 0.0071207159879219783 0 -0.032183442815783149 0.0065924730545900015 0 -0.030974988946658399 0.0052594229006976464 0 -0.032183442815783149 0.0065924730545900015 0 -0.033031026473276964 0.0072692538983233313 0 -0.032188098120209646 0.0052539830387028259 0 -0.033031026473276964 0.0072692538983233313 0 -0.0345945243573864 0.0072737157103163622 0 -0.032188098120209646 0.0052539830387028259 0 -0.034418958938506959 0.0090966123043694468 0 -0.0345945243573864 0.0072737157103163622 0 -0.033236354938144232 0.0085838889176097204 0 -0.033031026473276964 0.0072692538983233313 0 -0.0345945243573864 0.0072737157103163622 0 -0.033236354938144232 0.0085838889176097204 0 -0.033197014732875681 0.0050821493473094895 0 -0.032628360830208925 0.0046828390969563252 0 -0.032976094384819334 0.0043200119708564268 0 -0.033000236401847557 0.0078217227261585323 0 -0.032454643808244088 0.007254502478139001 0 -0.033197014732875681 0.0050821493473094895 0 -0.032628360830208925 0.0046828390969563252 0 -0.032188098120209646 0.0052539830387028259 0 -0.032628360830208925 0.0046828390969563252 0 -0.03206365471364106 0.0047786935843934378 0 -0.032496616960372704 0.0038215480061120745 0 -0.032628360830208925 0.0046828390969563252 0 -0.032976094384819334 0.0043200119708564268 0 -0.032496616960372704 0.0038215480061120745 0 -0.032628360830208925 0.0046828390969563252 0 -0.032188098120209646 0.0052539830387028259 0 -0.03206365471364106 0.0047786935843934378 0 -0.03171805062041997 0.0049721135361639711 0 -0.03206365471364106 0.0047786935843934378 0 -0.031672436841497981 0.0034813655945766463 0 -0.032183442815783149 0.0065924730545900015 0 -0.032188098120209646 0.0052539830387028259 0 -0.030974988946658399 0.0052594229006976464 0 -0.032188098120209646 0.0052539830387028259 0 -0.030974988946658399 0.0052594229006976464 0 -0.03206365471364106 0.0047786935843934378 0 -0.035316798534815751 0.0090286800988646342 0 -0.035186181417951184 0.0089833696685643043 0 -0.035090642920143654 0.0085781856545976403 0 -0.035316798534815751 0.0090286800988646342 0 -0.031256924210386387 0.0071207159879219783 0 -0.030351364176443379 0.005953811301094649 0 -0.031026707442293133 0.0056224986995841988 0 -0.036137281457411061 0.0097665430668370367 0 -0.035316798534815751 0.0090286800988646342 0 -0.03206365471364106 0.0047786935843934378 0 -0.031672436841497981 0.0034813655945766463 0 -0.032496616960372704 0.0038215480061120745 0 -0.035316798534815751 0.0090286800988646342 0 -0.035514062812505118 0.0071512524407688341 0 -0.031672436841497981 0.0034813655945766463 0 -0.032496616960372704 0.0038215480061120745 0 -0.032255128551978228 0.0028806630405227786 0 -0.032976094384819334 0.0043200119708564268 0 -0.032496616960372704 0.0038215480061120745 0 -0.033092990949958163 0.003684572954604266 0 -0.033489078382371584 0.0040215114434958192 0 -0.032976094384819334 0.0043200119708564268 0 -0.033092990949958163 0.003684572954604266 0 -0.033526765659418797 0.0033032789715160011 0 -0.033092990949958163 0.003684572954604266 0 -0.03293296285185067 0.002982410817376973 0 -0.032496616960372704 0.0038215480061120745 0 -0.033092990949958163 0.003684572954604266 0 -0.03293296285185067 0.002982410817376973 0 -0.032496616960372704 0.0038215480061120745 0 -0.03293296285185067 0.002982410817376973 0 -0.032255128551978228 0.0028806630405227786 0 -0.03293296285185067 0.002982410817376973 0 -0.032759252124652208 0.0023827191799073691 0 -0.032255128551978228 0.0028806630405227786 0 -0.033325286317832797 0.0022395056051801843 0 -0.03293296285185067 0.002982410817376973 0 -0.032759252124652208 0.0023827191799073691 0 -0.033325286317832797 0.0022395056051801843 0 -0.032759252124652208 0.0023827191799073691 0 -0.032821958361583706 0.0018435158190050433 0 -0.032759252124652208 0.0023827191799073691 0 -0.032821958361583706 0.0018435158190050433 0 -0.032249579092783101 0.0023100115499012888 0 -0.032224232491233865 0.0018949367693950644 0 -0.032249579092783101 0.0023100115499012888 0 -0.031767416763995547 0.0022487404337287816 0 -0.032224232491233865 0.0018949367693950644 0 -0.031767416763995547 0.0022487404337287816 0 -0.031708884366213642 0.001860308857085657 0 -0.032821958361583706 0.0018435158190050433 0 -0.032224232491233865 0.0018949367693950644 0 -0.032249579092783101 0.0023100115499012888 0 -0.032759252124652208 0.0023827191799073691 0 -0.032249579092783101 0.0023100115499012888 0 -0.032255128551978228 0.0028806630405227786 0 -0.032249579092783101 0.0023100115499012888 0 -0.032255128551978228 0.0028806630405227786 0 -0.031634024262673539 0.0022384021522138175 0 -0.035098779930785598 0.0061135252965013537 0 -0.036002290442627947 0.006456701295153338 0 -0.031672436841497981 0.0034813655945766463 0 -0.032255128551978228 0.0028806630405227786 0 -0.031634024262673539 0.0022384021522138175 0 -0.035514062812505118 0.0071512524407688341 0 -0.036002290442627947 0.006456701295153338 0 -0.038752333228443202 0.010024475386234388 0 -0.038904101175616344 0.010074777777310242 0 -0.038948281757061894 0.010136789970503194 0 -0.038752333228443202 0.010024475386234388 0 -0.038948281757061894 0.010136789970503194 0 -0.038934645742564583 0.010175425142563038 0 -0.038904101175616344 0.010074777777310242 0 -0.03896476427771408 0.010126080738323124 0 -0.038948281757061894 0.010136789970503194 0 -0.03896476427771408 0.010126080738323124 0 -0.038981939632338494 0.010040016342503033 0 -0.038958517565092526 0.010061061743935429 0 -0.038904101175616344 0.010074777777310242 0 -0.03896476427771408 0.010126080738323124 0 -0.038958517565092526 0.010061061743935429 0 -0.03896476427771408 0.010126080738323124 0 -0.038948281757061894 0.010136789970503194 0 -0.039021388276420189 0.010242242561090615 0 -0.038948281757061894 0.010136789970503194 0 -0.038934645742564583 0.010175425142563038 0 -0.039083059109720528 0.010107950342429738 0 -0.038948281757061894 0.010136789970503194 0 -0.039083059109720528 0.010107950342429738 0 -0.039021388276420189 0.010242242561090615 0 -0.036002290442627947 0.006456701295153338 0 -0.036751719138899443 0.0069513300489831703 0 -0.036280222960705773 0.006657485090055675 0 -0.036691851938568512 0.0064229791813252947 0 -0.036447516474835621 0.0061492127437846582 0 -0.036751719138899443 0.0069513300489831703 0 -0.036325661624983074 0.0060921714133442004 0 -0.036242911958158749 0.0069316674610584578 0 -0.036288607490981124 0.0069406745845584953 0 -0.03624804275786659 0.0069600935402755497 0 -0.036002290442627947 0.006456701295153338 0 -0.036325661624983074 0.0060921714133442004 0 -0.039083059109720528 0.010107950342429738 0 -0.039021388276420189 0.010242242561090615 0 -0.038580837396108 0.010282210906448598 0 -0.036751719138899443 0.0069513300489831703 0 -0.036660510154202353 0.007619201206910761 0 -0.036280222960705773 0.006657485090055675 0 -0.035518787496911036 0.006612187672247612 0 -0.035825123384186558 0.0061693141401912618 0 -0.036751719138899443 0.0069513300489831703 0 -0.037211712498375196 0.0076567506691116328 0 -0.039800737627993223 0.0093997805423084394 0 -0.038580837396108 0.010282210906448598 0 -0.03825754006635794 0.0091771502227384893 0 -0.03896476427771408 0.010126080738323124 0 -0.039021388276420189 0.010242242561090615 0 -0.038981939632338494 0.010040016342503033 0 -0.038299684814524233 0.010936630585663489 0 -0.038227145388972462 0.011109965315651289 0 -0.039021388276420189 0.010242242561090615 0 -0.038928924629641988 0.010755795315932525 0 -0.038580837396108 0.010282210906448598 0 -0.039021388276420189 0.010242242561090615 0 -0.038928924629641988 0.010755795315932525 0 -0.039518030747231168 0.011088507940811761 0 -0.038928924629641988 0.010755795315932525 0 -0.039072744938881084 0.011176073363235929 0 -0.038538894297917271 0.011487984567139158 0 -0.039592591603584595 0.011858776336150846 0 -0.039518030747231168 0.011088507940811761 0 -0.039812104501705997 0.012165197443467045 0 -0.038928924629641988 0.010755795315932525 0 -0.039072744938881084 0.011176073363235929 0 -0.039518030747231168 0.011088507940811761 0 -0.038227145388972462 0.011109965315651289 0 -0.037955850045895204 0.011567097171597009 0 -0.039170766939961257 0.011522477139449363 0 -0.039057557747787318 0.012111926375127592 0 -0.038538894297917271 0.011487984567139158 0 -0.039072744938881084 0.011176073363235929 0 -0.039170766939961257 0.011522477139449363 0 -0.038538894297917271 0.011487984567139158 0 -0.039170766939961257 0.011522477139449363 0 -0.039592591603584595 0.011858776336150846 0 -0.039057557747787318 0.012111926375127592 0 -0.039170766939961257 0.011522477139449363 0 -0.039592591603584595 0.011858776336150846 0 -0.039518030747231168 0.011088507940811761 0 -0.039072744938881084 0.011176073363235929 0 -0.039170766939961257 0.011522477139449363 0 -0.039518030747231168 0.011088507940811761 0 -0.038958517565092526 0.010061061743935429 0 -0.038864876008841302 0.0099609866353788067 0 -0.038853750596654614 0.0098093328658882834 0 -0.038593114429306616 0.0095826592925570709 0 -0.038752333228443202 0.010024475386234388 0 -0.038853750596654614 0.0098093328658882834 0 -0.038981939632338494 0.010040016342503033 0 -0.038958517565092526 0.010061061743935429 0 -0.038904908542074755 0.010019290320995593 0 -0.037199898233834433 0.01031022914847169 0 -0.036952777369240922 0.01019347560034131 0 -0.038981939632338494 0.010040016342503033 0 -0.038904908542074755 0.010019290320995593 0 -0.038925986298976159 0.010010631955994444 0 -0.038904101175616344 0.010074777777310242 0 -0.038958517565092526 0.010061061743935429 0 -0.038864876008841302 0.0099609866353788067 0 -0.038752333228443202 0.010024475386234388 0 -0.038904101175616344 0.010074777777310242 0 -0.038864876008841302 0.0099609866353788067 0 -0.038752333228443202 0.010024475386234388 0 -0.038864876008841302 0.0099609866353788067 0 -0.038853750596654614 0.0098093328658882834 0 -0.038904908542074755 0.010019290320995593 0 -0.038925986298976159 0.010010631955994444 0 -0.038898040598953215 0.0100041608404208 0 -0.036137281457411061 0.0097665430668370367 0 -0.036952777369240922 0.01019347560034131 0 -0.038682358936367414 0.0095366062540235882 0 -0.038593114429306616 0.0095826592925570709 0 -0.038853750596654614 0.0098093328658882834 0 -0.038871701339557529 0.0099961877310228136 0 -0.038904908542074755 0.010019290320995593 0 -0.038898040598953215 0.0100041608404208 0 -0.037406339806761592 0.011359435642010795 0 -0.036137281457411061 0.0097665430668370367 0 -0.038889860246508 0.0099911132345129623 0 -0.038871701339557529 0.0099961877310228136 0 -0.038898040598953215 0.0100041608404208 0 -0.037406339806761592 0.011359435642010795 0 -0.037955850045895204 0.011567097171597009 0 -0.037786614965684279 0.012073588859442312 0 -0.037955850045895204 0.011567097171597009 0 -0.038889860246508 0.0099911132345129623 0 -0.038925986298976159 0.010010631955994444 0 -0.038898040598953215 0.0100041608404208 0 -0.038209223621346405 0.011549715091530794 0 -0.038244024122638526 0.011531054676028853 0 -0.038197797687698348 0.011446790001178129 0 -0.039963010001510611 0.013142306494233785 0 -0.039803265498688539 0.012176903487517165 0 -0.039272499372529898 0.012755926967542897 0 -0.039272499372529898 0.012755926967542897 0 -0.039057557747787318 0.012111926375127592 0 -0.038620190559934001 0.012845554035650512 0 -0.039272499372529898 0.012755926967542897 0 -0.039057557747787318 0.012111926375127592 0 -0.039421488033080099 0.012205550453841155 0 -0.039592591603584595 0.011858776336150846 0 -0.039057557747787318 0.012111926375127592 0 -0.039421488033080099 0.012205550453841155 0 -0.039803265498688539 0.012176903487517165 0 -0.039272499372529898 0.012755926967542897 0 -0.039421488033080099 0.012205550453841155 0 -0.039592591603584595 0.011858776336150846 0 -0.039803265498688539 0.012176903487517165 0 -0.039421488033080099 0.012205550453841155 0 -0.037997574771815229 0.011606990913151422 0 -0.037955850045895204 0.011567097171597009 0 -0.038339333970167318 0.01231432160455807 0 -0.037418861127668152 0.012046564770436804 0 -0.038538894297917271 0.011487984567139158 0 -0.039057557747787318 0.012111926375127592 0 -0.038339333970167318 0.01231432160455807 0 -0.038620190559934001 0.012845554035650512 0 -0.039057557747787318 0.012111926375127592 0 -0.038339333970167318 0.01231432160455807 0 -0.038538894297917271 0.011487984567139158 0 -0.03805174587551139 0.013091839652973695 0 -0.038339333970167318 0.01231432160455807 0 -0.038620190559934001 0.012845554035650512 0 -0.03805174587551139 0.013091839652973695 0 -0.038339333970167318 0.01231432160455807 0 -0.037418861127668152 0.012046564770436804 0 -0.037272111990833828 0.013455293861339375 0 -0.03805174587551139 0.013091839652973695 0 -0.037418861127668152 0.012046564770436804 0 -0.037272111990833828 0.013455293861339375 0 -0.037418861127668152 0.012046564770436804 0 -0.036096119831349416 0.012262056494120233 0 -0.037418861127668152 0.012046564770436804 0 -0.037980252600967393 0.010865281684564094 0 -0.036972850780828057 0.010762602761022077 0 -0.037418861127668152 0.012046564770436804 0 -0.038538894297917271 0.011487984567139158 0 -0.037980252600967393 0.010865281684564094 0 -0.038928924629641988 0.010755795315932525 0 -0.038538894297917271 0.011487984567139158 0 -0.037980252600967393 0.010865281684564094 0 -0.038928924629641988 0.010755795315932525 0 -0.037980252600967393 0.010865281684564094 0 -0.038580837396108 0.010282210906448598 0 -0.037980252600967393 0.010865281684564094 0 -0.038580837396108 0.010282210906448598 0 -0.037683217922390148 0.0099823595755042394 0 -0.038580837396108 0.010282210906448598 0 -0.03825754006635794 0.0091771502227384893 0 -0.037683217922390148 0.0099823595755042394 0 -0.036660510154202353 0.007619201206910761 0 -0.03572469125634866 0.0079963708901129721 0 -0.03825754006635794 0.0091771502227384893 0 -0.037683217922390148 0.0099823595755042394 0 -0.036673611061193823 0.0088511909384473945 0 -0.036972850780828057 0.010762602761022077 0 -0.037683217922390148 0.0099823595755042394 0 -0.036673611061193823 0.0088511909384473945 0 -0.037980252600967393 0.010865281684564094 0 -0.036972850780828057 0.010762602761022077 0 -0.037683217922390148 0.0099823595755042394 0 -0.036972850780828057 0.010762602761022077 0 -0.035948538200973483 0.010539596258442193 0 -0.036673611061193823 0.0088511909384473945 0 -0.034999972012682165 0.0098324453668338849 0 -0.035948538200973483 0.010539596258442193 0 -0.036673611061193823 0.0088511909384473945 0 -0.034999972012682165 0.0098324453668338849 0 -0.034999922856152201 0.008430038404220316 0 -0.036673611061193823 0.0088511909384473945 0 -0.034999972012682165 0.0098324453668338849 0 -0.035948538200973483 0.010539596258442193 0 -0.034999904389560778 0.011234718322137523 0 -0.035001026989891437 0.011235985175803934 0 -0.036004036015020502 0.012187607445787781 0 -0.035948538200973483 0.010539596258442193 0 -0.034999904389560778 0.011234718322137523 0 -0.036096119831349416 0.012262056494120233 0 -0.037418861127668152 0.012046564770436804 0 -0.036972850780828057 0.010762602761022077 0 -0.036096119831349416 0.012262056494120233 0 -0.036972850780828057 0.010762602761022077 0 -0.035948538200973483 0.010539596258442193 0 -0.036096119831349416 0.012262056494120233 0 -0.036558963055819266 0.012711128382437972 0 -0.036004036015020502 0.012187607445787781 0 -0.035981049280424109 0.013365044584597783 0 -0.037272111990833828 0.013455293861339375 0 -0.036192153197768695 0.012445972440423959 0 -0.034999976954870275 0.011235089890363027 0 -0.036192153197768695 0.012445972440423959 0 -0.034999952992952284 0.013120916139165502 0 -0.035981049280424109 0.013365044584597783 0 -0.036192153197768695 0.012445972440423959 0 -0.034999952992952284 0.013120916139165502 0 -0.035853713083841353 0.0050247561832478397 0 -0.03499992309910753 0.0048399485253320775 0 -0.035680113932177675 0.0057581800711730352 0 -0.035853713083841353 0.0050247561832478397 0 -0.036309226537676792 0.005516964765789484 0 -0.035680113932177675 0.0057581800711730352 0 -0.035853713083841353 0.0050247561832478397 0 -0.035661788733842535 0.0044007306160586705 0 -0.036142026150854517 0.0045530805905269053 0 -0.035853713083841353 0.0050247561832478397 0 -0.03499992309910753 0.0048399485253320775 0 -0.035661788733842535 0.0044007306160586705 0 -0.036805859936001301 0.0050501474686292305 0 -0.036309226537676792 0.005516964765789484 0 -0.037266367117400771 0.0056140804386194919 0 -0.037529528478544016 0.0045323573122612489 0 -0.036442333746453399 0.0041995190211344046 0 -0.03648027705264812 0.0043653538677782544 0 -0.035853713083841353 0.0050247561832478397 0 -0.036142026150854517 0.0045530805905269053 0 -0.036331016990167268 0.0049176212818083879 0 -0.036142026150854517 0.0045530805905269053 0 -0.036417337427116066 0.0046326855770753173 0 -0.03648027705264812 0.0043653538677782544 0 -0.036142026150854517 0.0045530805905269053 0 -0.036417337427116066 0.0046326855770753173 0 -0.036331016990167268 0.0049176212818083879 0 -0.036417337427116066 0.0046326855770753173 0 -0.036704405975624757 0.0047004464669874318 0 -0.03648027705264812 0.0043653538677782544 0 -0.036417337427116066 0.0046326855770753173 0 -0.036704405975624757 0.0047004464669874318 0 -0.036331016990167268 0.0049176212818083879 0 -0.036704405975624757 0.0047004464669874318 0 -0.036805859936001301 0.0050501474686292305 0 -0.036331016990167268 0.0049176212818083879 0 -0.036805859936001301 0.0050501474686292305 0 -0.036331016990167268 0.0049176212818083879 0 -0.036309226537676792 0.005516964765789484 0 -0.035853713083841353 0.0050247561832478397 0 -0.036331016990167268 0.0049176212818083879 0 -0.036309226537676792 0.005516964765789484 0 -0.035715386746295825 0.0065039711294163655 0 -0.036303502193941475 0.0052717208913670814 0 -0.034919413017955751 0.0063846465968574288 0 -0.03515847029332362 0.0059333087753072567 0 -0.035092196405225359 0.0052341410836275687 0 -0.036309226537676792 0.005516964765789484 0 -0.035680113932177675 0.0057581800711730352 0 -0.036222355818005932 0.0066776871548359634 0 -0.036309226537676792 0.005516964765789484 0 -0.036222355818005932 0.0066776871548359634 0 -0.037266367117400771 0.0056140804386194919 0 -0.034999919223402884 0.0063524128114775379 0 -0.035680113932177675 0.0057581800711730352 0 -0.036222355818005932 0.0066776871548359634 0 -0.03499992309910753 0.0048399485253320775 0 -0.034999919223402884 0.0063524128114775379 0 -0.035680113932177675 0.0057581800711730352 0 -0.03499912980336873 0.0078656635444700109 0 -0.035071155490265599 0.0072068817558516209 0 -0.034919413017955751 0.0063846465968574288 0 -0.034999919223402884 0.0063524128114775379 0 -0.03500000275250055 0.0078649707959738118 0 -0.036222355818005932 0.0066776871548359634 0 -0.035000499348720113 0.0078630617565176048 0 -0.035715386746295825 0.0065039711294163655 0 -0.03499912980336873 0.0078656635444700109 0 -0.035000168270282808 0.0084274149531833945 0 -0.035071155490265599 0.0072068817558516209 0 -0.035000168270282808 0.0084274149531833945 0 -0.035071155490265599 0.0072068817558516209 0 -0.035139012627725501 0.0069477742927202078 0 -0.035000396095273348 0.0084288274466026158 0 -0.03572469125634866 0.0079963708901129721 0 -0.035071155490265599 0.0072068817558516209 0 -0.035139012627725501 0.0069477742927202078 0 -0.035236303505784959 0.006418627711390827 0 -0.034919413017955751 0.0063846465968574288 0 -0.03515847029332362 0.0059333087753072567 0 -0.035236303505784959 0.006418627711390827 0 -0.035071155490265599 0.0072068817558516209 0 -0.034919413017955751 0.0063846465968574288 0 -0.035236303505784959 0.006418627711390827 0 -0.03515847029332362 0.0059333087753072567 0 -0.035236303505784959 0.006418627711390827 0 -0.035439659388197653 0.005660932388852266 0 -0.035518787496911036 0.006612187672247612 0 -0.035139012627725501 0.0069477742927202078 0 -0.035236303505784959 0.006418627711390827 0 -0.035518787496911036 0.006612187672247612 0 -0.035615849926714509 0.0059888930901610977 0 -0.035825123384186558 0.0061693141401912618 0 -0.035518787496911036 0.006612187672247612 0 -0.035236303505784959 0.006418627711390827 0 -0.035615849926714509 0.0059888930901610977 0 -0.035236303505784959 0.006418627711390827 0 -0.035615849926714509 0.0059888930901610977 0 -0.035439659388197653 0.005660932388852266 0 -0.035615849926714509 0.0059888930901610977 0 -0.035717885708517638 0.0053034251402638141 0 -0.035881443615903473 0.0054592869049959088 0 -0.035615849926714509 0.0059888930901610977 0 -0.035439659388197653 0.005660932388852266 0 -0.035717885708517638 0.0053034251402638141 0 -0.035439659388197653 0.005660932388852266 0 -0.035717885708517638 0.0053034251402638141 0 -0.035528408603240143 0.0050185512332161612 0 -0.035439659388197653 0.005660932388852266 0 -0.035528408603240143 0.0050185512332161612 0 -0.035092196405225359 0.0052341410836275687 0 -0.035717885708517638 0.0053034251402638141 0 -0.035528408603240143 0.0050185512332161612 0 -0.035831365569781309 0.004644463399059229 0 -0.03515847029332362 0.0059333087753072567 0 -0.035439659388197653 0.005660932388852266 0 -0.035092196405225359 0.0052341410836275687 0 -0.037529528478544016 0.0045323573122612489 0 -0.038865187442132361 0.004355503537620967 0 -0.037119409598832358 0.0034095948811857795 0 -0.036518846377261889 0.003660242380899615 0 -0.03595386798975686 0.0033116124824688477 0 -0.036704405975624757 0.0047004464669874318 0 -0.037529528478544016 0.0045323573122612489 0 -0.03648027705264812 0.0043653538677782544 0 -0.037266367117400771 0.0056140804386194919 0 -0.037529528478544016 0.0045323573122612489 0 -0.038865187442132361 0.004355503537620967 0 -0.036805859936001301 0.0050501474686292305 0 -0.037266367117400771 0.0056140804386194919 0 -0.037529528478544016 0.0045323573122612489 0 -0.036704405975624757 0.0047004464669874318 0 -0.036805859936001301 0.0050501474686292305 0 -0.037529528478544016 0.0045323573122612489 0 -0.036303502193941475 0.0052717208913670814 0 -0.036844205896900503 0.0040226601388112758 0 -0.035528408603240143 0.0050185512332161612 0 -0.035092196405225359 0.0052341410836275687 0 -0.035547506756782865 0.0042238334703011433 0 -0.035528408603240143 0.0050185512332161612 0 -0.035547506756782865 0.0042238334703011433 0 -0.035831365569781309 0.004644463399059229 0 -0.035958678434152645 0.0040814444741180391 0 -0.036143159212505764 0.0042695584905296236 0 -0.035831365569781309 0.004644463399059229 0 -0.035547506756782865 0.0042238334703011433 0 -0.035958678434152645 0.0040814444741180391 0 -0.035831365569781309 0.004644463399059229 0 -0.036143159212505764 0.0042695584905296236 0 -0.036419484657967627 0.0038468352039856225 0 -0.036190928653846273 0.0037826720650742576 0 -0.035958678434152645 0.0040814444741180391 0 -0.036143159212505764 0.0042695584905296236 0 -0.036190928653846273 0.0037826720650742576 0 -0.036143159212505764 0.0042695584905296236 0 -0.03637377535743927 0.0046092223248454869 0 -0.036419484657967627 0.0038468352039856225 0 -0.036143159212505764 0.0042695584905296236 0 -0.03637377535743927 0.0046092223248454869 0 -0.036058497089185931 0.0049284640157454106 0 -0.03637377535743927 0.0046092223248454869 0 -0.036269498309644217 0.0049833209041049145 0 -0.036438569719478862 0.0051059183657249036 0 -0.03637377535743927 0.0046092223248454869 0 -0.036058497089185931 0.0049284640157454106 0 -0.036269498309644217 0.0049833209041049145 0 -0.036058497089185931 0.0049284640157454106 0 -0.036093704923799132 0.0052815189006896841 0 -0.036269498309644217 0.0049833209041049145 0 -0.036143159212505764 0.0042695584905296236 0 -0.036058497089185931 0.0049284640157454106 0 -0.035831365569781309 0.004644463399059229 0 -0.035717885708517638 0.0053034251402638141 0 -0.036058497089185931 0.0049284640157454106 0 -0.035831365569781309 0.004644463399059229 0 -0.035717885708517638 0.0053034251402638141 0 -0.036058497089185931 0.0049284640157454106 0 -0.035881443615903473 0.0054592869049959088 0 -0.035881443615903473 0.0054592869049959088 0 -0.036093704923799132 0.0052815189006896841 0 -0.035944474602197941 0.0057491382339137313 0 -0.036058497089185931 0.0049284640157454106 0 -0.035881443615903473 0.0054592869049959088 0 -0.036093704923799132 0.0052815189006896841 0 -0.035944474602197941 0.0057491382339137313 0 -0.03609145994713376 0.0059208161148215921 0 -0.036220762601945941 0.0055337924733044669 0 -0.036093704923799132 0.0052815189006896841 0 -0.035944474602197941 0.0057491382339137313 0 -0.036220762601945941 0.0055337924733044669 0 -0.035615849926714509 0.0059888930901610977 0 -0.035881443615903473 0.0054592869049959088 0 -0.035944474602197941 0.0057491382339137313 0 -0.035944474602197941 0.0057491382339137313 0 -0.035825123384186558 0.0061693141401912618 0 -0.03609145994713376 0.0059208161148215921 0 -0.036280222960705773 0.006657485090055675 0 -0.035825123384186558 0.0061693141401912618 0 -0.036195390608117245 0.0061926468758544215 0 -0.035615849926714509 0.0059888930901610977 0 -0.035944474602197941 0.0057491382339137313 0 -0.035825123384186558 0.0061693141401912618 0 -0.035825123384186558 0.0061693141401912618 0 -0.03609145994713376 0.0059208161148215921 0 -0.036195390608117245 0.0061926468758544215 0 -0.03609145994713376 0.0059208161148215921 0 -0.036195390608117245 0.0061926468758544215 0 -0.036314145371869687 0.0059187716867141376 0 -0.036691851938568512 0.0064229791813252947 0 -0.036447516474835621 0.0061492127437846582 0 -0.036646624806224243 0.0057889229143768626 0 -0.036325661624983074 0.0060921714133442004 0 -0.036284499221564119 0.0054617252438038146 0 -0.036280222960705773 0.006657485090055675 0 -0.036195390608117245 0.0061926468758544215 0 -0.036447516474835621 0.0061492127437846582 0 -0.036447516474835621 0.0061492127437846582 0 -0.036314145371869687 0.0059187716867141376 0 -0.036646624806224243 0.0057889229143768626 0 -0.036195390608117245 0.0061926468758544215 0 -0.036447516474835621 0.0061492127437846582 0 -0.036314145371869687 0.0059187716867141376 0 -0.03609145994713376 0.0059208161148215921 0 -0.036314145371869687 0.0059187716867141376 0 -0.036220762601945941 0.0055337924733044669 0 -0.036314145371869687 0.0059187716867141376 0 -0.036646624806224243 0.0057889229143768626 0 -0.036389337411657632 0.0055989324327711809 0 -0.036646624806224243 0.0057889229143768626 0 -0.036389337411657632 0.0055989324327711809 0 -0.036438569719478862 0.0051059183657249036 0 -0.036284499221564119 0.0054617252438038146 0 -0.036290224847820143 0.0054413260401809625 0 -0.036420580924164413 0.0051028569368378488 0 -0.036438569719478862 0.0051059183657249036 0 -0.036550302343732417 0.0049951997725262024 0 -0.036314145371869687 0.0059187716867141376 0 -0.036389337411657632 0.0055989324327711809 0 -0.036220762601945941 0.0055337924733044669 0 -0.036389337411657632 0.0055989324327711809 0 -0.036220762601945941 0.0055337924733044669 0 -0.036438569719478862 0.0051059183657249036 0 -0.036220762601945941 0.0055337924733044669 0 -0.036269498309644217 0.0049833209041049145 0 -0.036438569719478862 0.0051059183657249036 0 -0.036093704923799132 0.0052815189006896841 0 -0.036220762601945941 0.0055337924733044669 0 -0.036269498309644217 0.0049833209041049145 0 -0.03637377535743927 0.0046092223248454869 0 -0.036438569719478862 0.0051059183657249036 0 -0.036616895654359265 0.0047401109330773086 0 -0.036616895654359265 0.0047401109330773086 0 -0.036550302343732417 0.0049951997725262024 0 -0.036838253216246251 0.0051120453781078089 0 -0.036438569719478862 0.0051059183657249036 0 -0.036616895654359265 0.0047401109330773086 0 -0.036550302343732417 0.0049951997725262024 0 -0.036420580924164413 0.0051028569368378488 0 -0.036550302343732417 0.0049951997725262024 0 -0.036838253216246251 0.0051120453781078089 0 -0.036325661624983074 0.0060921714133442004 0 -0.036076913082538749 0.0050074649561204099 0 -0.036284499221564119 0.0054617252438038146 0 -0.036076913082538749 0.0050074649561204099 0 -0.036382446147738799 0.0052672247685896468 0 -0.036405408319250883 0.0054280700647413105 0 -0.036160668191632009 0.0054027088267911399 0 -0.032224232491233865 0.0018949367693950644 0 -0.031708884366213642 0.001860308857085657 0 -0.032621557854091966 0.0011980557321315203 0 -0.032821958361583706 0.0018435158190050433 0 -0.032621557854091966 0.0011980557321315203 0 -0.033812595154590293 0.0012166713329636644 0 -0.036076913082538749 0.0050074649561204099 0 -0.035807266780452034 0.0036531361063422913 0 -0.032821958361583706 0.0018435158190050433 0 -0.032224232491233865 0.0018949367693950644 0 -0.032621557854091966 0.0011980557321315203 0 -0.036076913082538749 0.0050074649561204099 0 -0.036784236963386757 0.0046670911032610446 0 -0.036838253216246251 0.0051120453781078089 0 -0.036969932195780215 0.0043853881296390769 0 -0.037545393084045885 0.0044995968604843893 0 -0.036616895654359265 0.0047401109330773086 0 -0.036838253216246251 0.0051120453781078089 0 -0.036969932195780215 0.0043853881296390769 0 -0.036969932195780215 0.0043853881296390769 0 -0.036626621696733114 0.004266484181436634 0 -0.036825188943896379 0.0037178425316192554 0 -0.036969932195780215 0.0043853881296390769 0 -0.036825188943896379 0.0037178425316192554 0 -0.037296920188109262 0.0036980323905473397 0 -0.036616895654359265 0.0047401109330773086 0 -0.036969932195780215 0.0043853881296390769 0 -0.036626621696733114 0.004266484181436634 0 -0.03637377535743927 0.0046092223248454869 0 -0.036626621696733114 0.004266484181436634 0 -0.036419484657967627 0.0038468352039856225 0 -0.03637377535743927 0.0046092223248454869 0 -0.036616895654359265 0.0047401109330773086 0 -0.036626621696733114 0.004266484181436634 0 -0.036419484657967627 0.0038468352039856225 0 -0.036825188943896379 0.0037178425316192554 0 -0.036638516225574756 0.0029623712858154443 0 -0.036626621696733114 0.004266484181436634 0 -0.036419484657967627 0.0038468352039856225 0 -0.036825188943896379 0.0037178425316192554 0 -0.036825188943896379 0.0037178425316192554 0 -0.03712412361702818 0.0028829721535379113 0 -0.036638516225574756 0.0029623712858154443 0 -0.036825188943896379 0.0037178425316192554 0 -0.03712412361702818 0.0028829721535379113 0 -0.037296920188109262 0.0036980323905473397 0 -0.03712412361702818 0.0028829721535379113 0 -0.036741267844324181 0.0018817560458906943 0 -0.037220786916311262 0.0016779010692393368 0 -0.03712412361702818 0.0028829721535379113 0 -0.036638516225574756 0.0029623712858154443 0 -0.036741267844324181 0.0018817560458906943 0 -0.036638516225574756 0.0029623712858154443 0 -0.036275336620550297 0.0019854186558369647 0 -0.035887534295102351 0.002211263321777695 0 -0.036419484657967627 0.0038468352039856225 0 -0.036638516225574756 0.0029623712858154443 0 -0.036389087322165531 0.0034680877969563368 0 -0.03670298871302341 0.002983318790901936 0 -0.036613680419390449 0.0029628960815670565 0 -0.036275336620550297 0.0019854186558369647 0 -0.035912795872132065 0.0016343654301593398 0 -0.035887534295102351 0.002211263321777695 0 -0.036638516225574756 0.0029623712858154443 0 -0.036275336620550297 0.0019854186558369647 0 -0.036741267844324181 0.0018817560458906943 0 -0.036275336620550297 0.0019854186558369647 0 -0.036296996277725403 0.0012674940356480285 0 -0.036741267844324181 0.0018817560458906943 0 -0.036275336620550297 0.0019854186558369647 0 -0.036296996277725403 0.0012674940356480285 0 -0.035912795872132065 0.0016343654301593398 0 -0.036296996277725403 0.0012674940356480285 0 -0.036741267844324181 0.0018817560458906943 0 -0.036788136796959824 0.00096386578694367619 0 -0.036741267844324181 0.0018817560458906943 0 -0.036788136796959824 0.00096386578694367619 0 -0.037220786916311262 0.0016779010692393368 0 -0.036788136796959824 0.00096386578694367619 0 -0.03654196244332928 9.8334638274712879e-05 0 -0.037208547212356446 0.00069238730159917232 0 -0.036857360733323602 -0.00038027822253231317 0 -0.03654196244332928 9.8334638274712879e-05 0 -0.037208547212356446 0.00069238730159917232 0 -0.036296996277725403 0.0012674940356480285 0 -0.03654196244332928 9.8334638274712879e-05 0 -0.035672833608064523 0.0011291007559664579 0 -0.036296996277725403 0.0012674940356480285 0 -0.036788136796959824 0.00096386578694367619 0 -0.03654196244332928 9.8334638274712879e-05 0 -0.03654196244332928 9.8334638274712879e-05 0 -0.035672833608064523 0.0011291007559664579 0 -0.035553980854924158 0.00059882841258100509 0 -0.03647681668359868 -0.0008025283174756141 0 -0.03654196244332928 9.8334638274712879e-05 0 -0.036384799216961319 -0.00058184723453629894 0 -0.036446261118470651 2.4931989091324305e-05 0 -0.036107171634726098 4.1700319487726501e-05 0 -0.036107171634726098 4.1700319487726501e-05 0 -0.035551360134016642 8.7770373690111537e-05 0 -0.035672833608064523 0.0011291007559664579 0 -0.035553980854924158 0.00059882841258100509 0 -0.035397108734323807 0.00097100541621190613 0 -0.035553980854924158 0.00059882841258100509 0 -0.035397108734323807 0.00097100541621190613 0 -0.035341937728638119 0.00071445585824525093 0 -0.035672833608064523 0.0011291007559664579 0 -0.035397108734323807 0.00097100541621190613 0 -0.03547752061600383 0.00129450062706945 0 -0.03547752061600383 0.00129450062706945 0 -0.035531818185955549 0.0015475262833841645 0 -0.035324915319396417 0.0011216381969816715 0 -0.03547752061600383 0.00129450062706945 0 -0.035570727076587885 0.0016238412263972269 0 -0.035531818185955549 0.0015475262833841645 0 -0.036296996277725403 0.0012674940356480285 0 -0.035672833608064523 0.0011291007559664579 0 -0.035912795872132065 0.0016343654301593398 0 -0.035672833608064523 0.0011291007559664579 0 -0.03547752061600383 0.00129450062706945 0 -0.035570727076587885 0.0016238412263972269 0 -0.035672833608064523 0.0011291007559664579 0 -0.035912795872132065 0.0016343654301593398 0 -0.035570727076587885 0.0016238412263972269 0 -0.036613680419390449 0.0029628960815670565 0 -0.036726579856100817 0.0029966591314960203 0 -0.035570727076587885 0.0016238412263972269 0 -0.035887534295102351 0.002211263321777695 0 -0.035393824145927531 0.0017572509496670728 0 -0.036389087322165531 0.0034680877969563368 0 -0.036190928653846273 0.0037826720650742576 0 -0.036046574517432858 0.0035349010898967476 0 -0.036709234900003572 0.002974708181895552 0 -0.036726579856100817 0.0029966591314960203 0 -0.035912795872132065 0.0016343654301593398 0 -0.035570727076587885 0.0016238412263972269 0 -0.035887534295102351 0.002211263321777695 0 -0.036419484657967627 0.0038468352039856225 0 -0.036389087322165531 0.0034680877969563368 0 -0.036190928653846273 0.0037826720650742576 0 -0.036726579856100817 0.0029966591314960203 0 -0.036463013572787063 0.0022486361718291512 0 -0.036844205896900503 0.0040226601388112758 0 -0.036726579856100817 0.0029966591314960203 0 -0.035547506756782865 0.0042238334703011433 0 -0.035958678434152645 0.0040814444741180391 0 -0.036046574517432858 0.0035349010898967476 0 -0.035958678434152645 0.0040814444741180391 0 -0.036190928653846273 0.0037826720650742576 0 -0.036046574517432858 0.0035349010898967476 0 -0.038865187442132361 0.004355503537620967 0 -0.040768532453662173 0.0027601857024008034 0 -0.038125199943734395 0.0020470853304128673 0 -0.038865187442132361 0.004355503537620967 0 -0.037119409598832358 0.0034095948811857795 0 -0.038125199943734395 0.0020470853304128673 0 -0.037119409598832358 0.0034095948811857795 0 -0.036307844165921858 0.0023774974055122246 0 -0.038125199943734395 0.0020470853304128673 0 -0.037529528478544016 0.0045323573122612489 0 -0.037119409598832358 0.0034095948811857795 0 -0.035196874519545791 0.0035494778375091494 0 -0.037119409598832358 0.0034095948811857795 0 -0.036307844165921858 0.0023774974055122246 0 -0.035862998689760783 0.002885292898559994 0 -0.036463013572787063 0.0022486361718291512 0 -0.035789501561131136 0.0018867984668647214 0 -0.036307844165921858 0.0023774974055122246 0 -0.038125199943734395 0.0020470853304128673 0 -0.035087979145536539 0.0011027125523463089 0 -0.035324915319396417 0.0011216381969816715 0 -0.035293429121950257 0.00087530958547797297 0 -0.035087979145536539 0.0011027125523463089 0 -0.035397108734323807 0.00097100541621190613 0 -0.03547752061600383 0.00129450062706945 0 -0.035324915319396417 0.0011216381969816715 0 -0.035397108734323807 0.00097100541621190613 0 -0.035324915319396417 0.0011216381969816715 0 -0.035293429121950257 0.00087530958547797297 0 -0.035397108734323807 0.00097100541621190613 0 -0.035341937728638119 0.00071445585824525093 0 -0.035293429121950257 0.00087530958547797297 0 -0.036138661077635685 -0.0012178486704705674 0 -0.036384799216961319 -0.00058184723453629894 0 -0.036090417707883335 -0.00054878197845566429 0 -0.036090417707883335 -0.00054878197845566429 0 -0.034997095926704289 0.00012524053233468625 0 -0.035374764017312856 -0.00050091628387829025 0 -0.035673796397726436 -0.001031883233749992 0 -0.036090417707883335 -0.00054878197845566429 0 -0.035374764017312856 -0.00050091628387829025 0 -0.036138661077635685 -0.0012178486704705674 0 -0.035673796397726436 -0.001031883233749992 0 -0.036090417707883335 -0.00054878197845566429 0 -0.035551360134016642 8.7770373690111537e-05 0 -0.035146869222484348 0.00012235685299669081 0 -0.035341937728638119 0.00071445585824525093 0 -0.035293429121950257 0.00087530958547797297 0 -0.035103604021298945 0.00060560928913396472 0 -0.035341937728638119 0.00071445585824525093 0 -0.035103604021298945 0.00060560928913396472 0 -0.034997095926704289 0.00012524053233468625 0 -0.034997095926704289 0.00012524053233468625 0 -0.034769204055902204 -0.00014358216111903346 0 -0.034778794154833925 0.00093483478001253357 0 -0.035469018688181406 0.00050147681580215786 0 -0.035683341925509635 0.0018774684987753719 0 -0.035103604021298945 0.00060560928913396472 0 -0.034997095926704289 0.00012524053233468625 0 -0.034778794154833925 0.00093483478001253357 0 -0.034997095926704289 0.00012524053233468625 0 -0.035374764017312856 -0.00050091628387829025 0 -0.034769204055902204 -0.00014358216111903346 0 -0.035189337595860404 -0.0009307869459286225 0 -0.035374764017312856 -0.00050091628387829025 0 -0.034769204055902204 -0.00014358216111903346 0 -0.035673796397726436 -0.001031883233749992 0 -0.035189337595860404 -0.0009307869459286225 0 -0.035374764017312856 -0.00050091628387829025 0 -0.034845929200282337 -0.0014422889618367525 0 -0.035189337595860404 -0.0009307869459286225 0 -0.034769204055902204 -0.00014358216111903346 0 -0.035312180233702431 -0.00066247495299371338 0 -0.035469018688181406 0.00050147681580215786 0 -0.034999972908944341 -0.00080441400371403877 0 -0.036027640253297473 0.00089273860099464437 0 -0.034999980449325285 0.0012616355598795319 0 -0.034999980449325285 0.0012616355598795319 0 -0.035752525053100746 0.0017733581183243679 0 -0.034999988927259418 0.0033273231802852044 0 -0.036027640253297473 0.00089273860099464437 0 -0.035752525053100746 0.0017733581183243679 0 -0.036312156246998996 0.0024910899387290226 0 -0.036027640253297473 0.00089273860099464437 0 -0.034999980449325285 0.0012616355598795319 0 -0.035752525053100746 0.0017733581183243679 0 -0.035752525053100746 0.0017733581183243679 0 -0.036312156246998996 0.0024910899387290226 0 -0.034999988927259418 0.0033273231802852044 0 -0.035293429121950257 0.00087530958547797297 0 -0.035103604021298945 0.00060560928913396472 0 -0.035087979145536539 0.0011027125523463089 0 -0.035103604021298945 0.00060560928913396472 0 -0.035087979145536539 0.0011027125523463089 0 -0.034778794154833925 0.00093483478001253357 0 -0.036307844165921858 0.0023774974055122246 0 -0.035087979145536539 0.0011027125523463089 0 -0.035399733376327486 0.0021436306899968631 0 -0.034778794154833925 0.00093483478001253357 0 -0.035399733376327486 0.0021436306899968631 0 -0.035296257101015201 0.0025382183925663645 0 -0.035087979145536539 0.0011027125523463089 0 -0.034778794154833925 0.00093483478001253357 0 -0.035399733376327486 0.0021436306899968631 0 -0.037119409598832358 0.0034095948811857795 0 -0.035862998689760783 0.002885292898559994 0 -0.035196874519545791 0.0035494778375091494 0 -0.034778794154833925 0.00093483478001253357 0 -0.035296257101015201 0.0025382183925663645 0 -0.035196874519545791 0.0035494778375091494 0 -0.035683341925509635 0.0018774684987753719 0 -0.03595386798975686 0.0033116124824688477 0 -0.036307844165921858 0.0023774974055122246 0 -0.035399733376327486 0.0021436306899968631 0 -0.035862998689760783 0.002885292898559994 0 -0.035296257101015201 0.0025382183925663645 0 -0.035862998689760783 0.002885292898559994 0 -0.035196874519545791 0.0035494778375091494 0 -0.035399733376327486 0.0021436306899968631 0 -0.035296257101015201 0.0025382183925663645 0 -0.035862998689760783 0.002885292898559994 0 -0.03595386798975686 0.0033116124824688477 0 -0.035958569225164584 0.0033287880109881883 0 -0.035661788733842535 0.0044007306160586705 0 -0.036142026150854517 0.0045530805905269053 0 -0.03646438649802218 0.004162762807466267 0 -0.036142026150854517 0.0045530805905269053 0 -0.03646438649802218 0.004162762807466267 0 -0.03648027705264812 0.0043653538677782544 0 -0.03499992309910753 0.0048399485253320775 0 -0.035661788733842535 0.0044007306160586705 0 -0.034999988310813669 0.0033276100685994551 0 -0.03595386798975686 0.0033116124824688477 0 -0.035001280311946145 0.0033272400093228845 0 -0.036312156246998996 0.0024910899387290226 0 -0.036590882013623816 0.0040419597417661341 0 -0.034999988927259418 0.0033273231802852044 0 -0.035661788733842535 0.0044007306160586705 0 -0.03646438649802218 0.004162762807466267 0 -0.034999988310813669 0.0033276100685994551 0 -0.036056090848454875 0.00098782804700213098 0 -0.036332148310191097 0.0012059561225361923 0 -0.036021734565009435 0.0011148027364503467 0 -0.036056090848454875 0.00098782804700213098 0 -0.035716848673480829 0.0008869128725296127 0 -0.035877016555920273 0.00085488522930029804 0 -0.036056090848454875 0.00098782804700213098 0 -0.036021734565009435 0.0011148027364503467 0 -0.035716848673480829 0.0008869128725296127 0 -0.036056090848454875 0.00098782804700213098 0 -0.036175222028991941 0.0010757098837894672 0 -0.036332148310191097 0.0012059561225361923 0 -0.036056090848454875 0.00098782804700213098 0 -0.036175222028991941 0.0010757098837894672 0 -0.036015268249673597 0.0010573208763344003 0 -0.036332148310191097 0.0012059561225361923 0 -0.036021734565009435 0.0011148027364503467 0 -0.036217215309537316 0.0013984637803644852 0 -0.036021734565009435 0.0011148027364503467 0 -0.03563549383221943 0.0013123244358653563 0 -0.036217215309537316 0.0013984637803644852 0 -0.03563549383221943 0.0013123244358653563 0 -0.035670699539345464 0.0010580842673205573 0 -0.035236537484830313 0.00092701409207922585 0 -0.036021734565009435 0.0011148027364503467 0 -0.03563549383221943 0.0013123244358653563 0 -0.035670699539345464 0.0010580842673205573 0 -0.03563549383221943 0.0013123244358653563 0 -0.034995913093344336 0.0011632358053478805 0 -0.035236537484830313 0.00092701409207922585 0 -0.034995913093344336 0.0011632358053478805 0 -0.034728627014935301 0.0014250331259301513 0 -0.034398466413677768 0.0011285506251511564 0 -0.03563549383221943 0.0013123244358653563 0 -0.034995913093344336 0.0011632358053478805 0 -0.035203716947041094 0.0014351763108694856 0 -0.034995913093344336 0.0011632358053478805 0 -0.034728627014935301 0.0014250331259301513 0 -0.035203716947041094 0.0014351763108694856 0 -0.034995913093344336 0.0011632358053478805 0 -0.034594891450534682 0.00083881687240456161 0 -0.035236537484830313 0.00092701409207922585 0 -0.034995913093344336 0.0011632358053478805 0 -0.034594891450534682 0.00083881687240456161 0 -0.034398466413677768 0.0011285506251511564 0 -0.034594891450534682 0.00083881687240456161 0 -0.035236537484830313 0.00092701409207922585 0 -0.034659694640192973 0.00061664427769291214 0 -0.035236537484830313 0.00092701409207922585 0 -0.034659694640192973 0.00061664427769291214 0 -0.035177180136268138 0.00066716057561077321 0 -0.036021734565009435 0.0011148027364503467 0 -0.035670699539345464 0.0010580842673205573 0 -0.035716848673480829 0.0008869128725296127 0 -0.035670699539345464 0.0010580842673205573 0 -0.035236537484830313 0.00092701409207922585 0 -0.035716848673480829 0.0008869128725296127 0 -0.035236537484830313 0.00092701409207922585 0 -0.035716848673480829 0.0008869128725296127 0 -0.035177180136268138 0.00066716057561077321 0 -0.035716848673480829 0.0008869128725296127 0 -0.035614056283061052 0.00070597797446082312 0 -0.035877016555920273 0.00085488522930029804 0 -0.035716848673480829 0.0008869128725296127 0 -0.035614056283061052 0.00070597797446082312 0 -0.035177180136268138 0.00066716057561077321 0 -0.035614056283061052 0.00070597797446082312 0 -0.035262616868151374 0.00037288253920491178 0 -0.035825174408366474 0.00078601393245060383 0 -0.035614056283061052 0.00070597797446082312 0 -0.035825174408366474 0.00078601393245060383 0 -0.035877016555920273 0.00085488522930029804 0 -0.034659694640192973 0.00061664427769291214 0 -0.03468536405281962 0.00047889168922560411 0 -0.035177180136268138 0.00066716057561077321 0 -0.035614056283061052 0.00070597797446082312 0 -0.035177180136268138 0.00066716057561077321 0 -0.035262616868151374 0.00037288253920491178 0 -0.03468536405281962 0.00047889168922560411 0 -0.035177180136268138 0.00066716057561077321 0 -0.035262616868151374 0.00037288253920491178 0 -0.03468536405281962 0.00047889168922560411 0 -0.035262616868151374 0.00037288253920491178 0 -0.034480748410214472 0.0002843200576591495 0 -0.035287065434610278 -0.00025493470034643678 0 -0.035262616868151374 0.00037288253920491178 0 -0.034756273509898204 -0.0001538758734068235 0 -0.035262616868151374 0.00037288253920491178 0 -0.034756273509898204 -0.0001538758734068235 0 -0.034480748410214472 0.0002843200576591495 0 -0.034230784399837622 0.0014197168500240801 0 -0.03458121125828862 0.00097447390702114917 0 -0.036234175976455993 0.0012423105996707501 0 -0.035262616868151374 0.00037288253920491178 0 -0.035854006868618553 0.00084809658043911421 0 -0.035262616868151374 0.00037288253920491178 0 -0.035825174408366474 0.00078601393245060383 0 -0.035854006868618553 0.00084809658043911421 0 -0.035825174408366474 0.00078601393245060383 0 -0.035854006868618553 0.00084809658043911421 0 -0.035990083573737994 0.0010755600763425409 0 -0.036234175976455993 0.0012423105996707501 0 -0.035854006868618553 0.00084809658043911421 0 -0.035990083573737994 0.0010755600763425409 0 -0.035990083573737994 0.0010755600763425409 0 -0.035982909490498351 0.0012494644758126599 0 -0.035947431538102391 0.00099628177052044358 0 -0.035982909490498351 0.0012494644758126599 0 -0.035947431538102391 0.00099628177052044358 0 -0.035935620423217129 0.0012435010259467139 0 -0.035947431538102391 0.00099628177052044358 0 -0.035980383257702635 0.0010119945179421182 0 -0.035935620423217129 0.0012435010259467139 0 -0.035825174408366474 0.00078601393245060383 0 -0.035990083573737994 0.0010755600763425409 0 -0.035947431538102391 0.00099628177052044358 0 -0.035825174408366474 0.00078601393245060383 0 -0.035947431538102391 0.00099628177052044358 0 -0.035877016555920273 0.00085488522930029804 0 -0.036056090848454875 0.00098782804700213098 0 -0.035877016555920273 0.00085488522930029804 0 -0.035980383257702635 0.0010119945179421182 0 -0.035947431538102391 0.00099628177052044358 0 -0.035877016555920273 0.00085488522930029804 0 -0.035980383257702635 0.0010119945179421182 0 -0.036056090848454875 0.00098782804700213098 0 -0.036015268249673597 0.0010573208763344003 0 -0.035980383257702635 0.0010119945179421182 0 -0.036015268249673597 0.0010573208763344003 0 -0.035980383257702635 0.0010119945179421182 0 -0.035897918785588331 0.0011935827395374824 0 -0.035980383257702635 0.0010119945179421182 0 -0.035897918785588331 0.0011935827395374824 0 -0.035935620423217129 0.0012435010259467139 0 -0.035788875390582474 0.0015315775267825569 0 -0.035897918785588331 0.0011935827395374824 0 -0.035935620423217129 0.0012435010259467139 0 -0.035788875390582474 0.0015315775267825569 0 -0.035897918785588331 0.0011935827395374824 0 -0.035686909059835577 0.001372840556956761 0 -0.035897918785588331 0.0011935827395374824 0 -0.035686909059835577 0.001372840556956761 0 -0.035872011867529412 0.0011603915503114223 0 -0.035686909059835577 0.001372840556956761 0 -0.035728653671875076 0.0011963460274973198 0 -0.035872011867529412 0.0011603915503114223 0 -0.035686909059835577 0.001372840556956761 0 -0.035596930438271196 0.0013282502841137564 0 -0.035728653671875076 0.0011963460274973198 0 -0.035686909059835577 0.001372840556956761 0 -0.035462025143984915 0.0015056532342072027 0 -0.035596930438271196 0.0013282502841137564 0 -0.035487410937217773 0.0018280445590099803 0 -0.035686909059835577 0.001372840556956761 0 -0.035462025143984915 0.0015056532342072027 0 -0.035052959622548764 0.0018529754818517861 0 -0.035462025143984915 0.0015056532342072027 0 -0.035404229282208759 0.0012748624053386904 0 -0.035462025143984915 0.0015056532342072027 0 -0.035404229282208759 0.0012748624053386904 0 -0.035496093827126499 0.0012802925472181564 0 -0.035462025143984915 0.0015056532342072027 0 -0.035596930438271196 0.0013282502841137564 0 -0.035496093827126499 0.0012802925472181564 0 -0.035836559860503714 0.0023807534932438956 0 -0.035909910035091301 0.0026037026028440224 0 -0.035052959622548764 0.0018529754818517861 0 -0.034993311132849966 0.0012571457357080226 0 -0.034363436690843685 0.0016381715271078013 0 -0.035909910035091301 0.0026037026028440224 0 -0.035905573887147837 0.002600450679570199 0 -0.035596930438271196 0.0013282502841137564 0 -0.035496093827126499 0.0012802925472181564 0 -0.035728653671875076 0.0011963460274973198 0 -0.035502545877423512 0.0012745223994092083 0 -0.035496093827126499 0.0012802925472181564 0 -0.035728653671875076 0.0011963460274973198 0 -0.035909910035091301 0.0026037026028440224 0 -0.036655859762934985 0.0026917044063459201 0 -0.035502545877423512 0.0012745223994092083 0 -0.035728653671875076 0.0011963460274973198 0 -0.036092143692521894 0.0010927224289731113 0 -0.035728653671875076 0.0011963460274973198 0 -0.036024707934370813 0.00108676803453926 0 -0.036092143692521894 0.0010927224289731113 0 -0.03854732136510991 0.0051765090282178145 0 -0.038075870131818672 0.0046854083901326938 0 -0.038553220243979162 0.0042970764294468057 0 -0.036175222028991941 0.0010757098837894672 0 -0.036015268249673597 0.0010573208763344003 0 -0.036024707934370813 0.00108676803453926 0 -0.036015268249673597 0.0010573208763344003 0 -0.035897918785588331 0.0011935827395374824 0 -0.035872011867529412 0.0011603915503114223 0 -0.036015268249673597 0.0010573208763344003 0 -0.036024707934370813 0.00108676803453926 0 -0.035872011867529412 0.0011603915503114223 0 -0.035728653671875076 0.0011963460274973198 0 -0.036024707934370813 0.00108676803453926 0 -0.035872011867529412 0.0011603915503114223 0 -0.033804855715491543 0.0018586759175869439 0 -0.032821958361583706 0.0018435158190050433 0 -0.033812595154590293 0.0012166713329636644 0 -0.034993311132849966 0.0012571457357080226 0 -0.033812595154590293 0.0012166713329636644 0 -0.034363436690843685 0.0016381715271078013 0 -0.035909910035091301 0.0026037026028440224 0 -0.035807266780452034 0.0036531361063422913 0 -0.03854732136510991 0.0051765090282178145 0 -0.037613804796442017 0.0051188941297790171 0 -0.038075870131818672 0.0046854083901326938 0 -0.033804855715491543 0.0018586759175869439 0 -0.033812595154590293 0.0012166713329636644 0 -0.034363436690843685 0.0016381715271078013 0 -0.036667841408379885 0.0050493061547049649 0 -0.037613804796442017 0.0051188941297790171 0 -0.037545393084045885 0.0044995968604843893 0 -0.037613804796442017 0.0051188941297790171 0 -0.038075870131818672 0.0046854083901326938 0 -0.037545393084045885 0.0044995968604843893 0 -0.036969932195780215 0.0043853881296390769 0 -0.037545393084045885 0.0044995968604843893 0 -0.037296920188109262 0.0036980323905473397 0 -0.037545393084045885 0.0044995968604843893 0 -0.037940715687988381 0.0038896886954420617 0 -0.037296920188109262 0.0036980323905473397 0 -0.038075870131818672 0.0046854083901326938 0 -0.037545393084045885 0.0044995968604843893 0 -0.037940715687988381 0.0038896886954420617 0 -0.037940715687988381 0.0038896886954420617 0 -0.038553220243979162 0.0042970764294468057 0 -0.038529137342460565 0.0032253896820914284 0 -0.038075870131818672 0.0046854083901326938 0 -0.037940715687988381 0.0038896886954420617 0 -0.038553220243979162 0.0042970764294468057 0 -0.037940715687988381 0.0038896886954420617 0 -0.038529137342460565 0.0032253896820914284 0 -0.037676542683012196 0.0026702120610594738 0 -0.037940715687988381 0.0038896886954420617 0 -0.037296920188109262 0.0036980323905473397 0 -0.037676542683012196 0.0026702120610594738 0 -0.03712412361702818 0.0028829721535379113 0 -0.037296920188109262 0.0036980323905473397 0 -0.037676542683012196 0.0026702120610594738 0 -0.036175222028991941 0.0010757098837894672 0 -0.036024707934370813 0.00108676803453926 0 -0.036327793800050114 0.0011434262446618484 0 -0.036092143692521894 0.0010927224289731113 0 -0.036563221753339488 0.0012242380736924329 0 -0.036327793800050114 0.0011434262446618484 0 -0.036655859762934985 0.0026917044063459201 0 -0.037062804292127653 0.0023456504039249476 0 -0.036024707934370813 0.00108676803453926 0 -0.036092143692521894 0.0010927224289731113 0 -0.036327793800050114 0.0011434262446618484 0 -0.036563221753339488 0.0012242380736924329 0 -0.036327793800050114 0.0011434262446618484 0 -0.036700632677800153 0.0013399465171428768 0 -0.036332148310191097 0.0012059561225361923 0 -0.036327793800050114 0.0011434262446618484 0 -0.036700632677800153 0.0013399465171428768 0 -0.036175222028991941 0.0010757098837894672 0 -0.036332148310191097 0.0012059561225361923 0 -0.036327793800050114 0.0011434262446618484 0 -0.037062804292127653 0.0023456504039249476 0 -0.03724740924839931 0.0019790730601879705 0 -0.036563221753339488 0.0012242380736924329 0 -0.036700632677800153 0.0013399465171428768 0 -0.036888891873920776 0.001327824302828398 0 -0.036700632677800153 0.0013399465171428768 0 -0.037024636311096308 0.0012992787221860987 0 -0.036888891873920776 0.001327824302828398 0 -0.037024636311096308 0.0012992787221860987 0 -0.036888891873920776 0.001327824302828398 0 -0.037425345365997058 0.0010675723037484304 0 -0.03724740924839931 0.0019790730601879705 0 -0.037288587897868763 0.0017819291101122173 0 -0.036700632677800153 0.0013399465171428768 0 -0.037024636311096308 0.0012992787221860987 0 -0.036896031584966446 0.0014597098116927493 0 -0.036700632677800153 0.0013399465171428768 0 -0.036896031584966446 0.0014597098116927493 0 -0.036607436221012556 0.001490085777849456 0 -0.03712412361702818 0.0028829721535379113 0 -0.037676542683012196 0.0026702120610594738 0 -0.037220786916311262 0.0016779010692393368 0 -0.038529137342460565 0.0032253896820914284 0 -0.038263868308083912 0.0019867627826857968 0 -0.037676542683012196 0.0026702120610594738 0 -0.038263868308083912 0.0019867627826857968 0 -0.037592627087797606 0.0014657732623024407 0 -0.037425345365997058 0.0010675723037484304 0 -0.038263868308083912 0.0019867627826857968 0 -0.037676542683012196 0.0026702120610594738 0 -0.037592627087797606 0.0014657732623024407 0 -0.037676542683012196 0.0026702120610594738 0 -0.037592627087797606 0.0014657732623024407 0 -0.037220786916311262 0.0016779010692393368 0 -0.036788136796959824 0.00096386578694367619 0 -0.037220786916311262 0.0016779010692393368 0 -0.037208547212356446 0.00069238730159917232 0 -0.037592627087797606 0.0014657732623024407 0 -0.037220786916311262 0.0016779010692393368 0 -0.037208547212356446 0.00069238730159917232 0 -0.037592627087797606 0.0014657732623024407 0 -0.037208547212356446 0.00069238730159917232 0 -0.037425345365997058 0.0010675723037484304 0 -0.037252799739534354 0.00010429568562307328 0 -0.037208547212356446 0.00069238730159917232 0 -0.037425345365997058 0.0010675723037484304 0 -0.03728985218881746 0.00053247209025288598 0 -0.037252799739534354 0.00010429568562307328 0 -0.037425345365997058 0.0010675723037484304 0 -0.037252799739534354 0.00010429568562307328 0 -0.036857360733323602 -0.00038027822253231317 0 -0.037208547212356446 0.00069238730159917232 0 -0.036896031584966446 0.0014597098116927493 0 -0.037118975779574001 0.0012655000605005069 0 -0.036860037475528934 0.0017124635907999079 0 -0.037024636311096308 0.0012992787221860987 0 -0.036896031584966446 0.0014597098116927493 0 -0.037118975779574001 0.0012655000605005069 0 -0.037118975779574001 0.0012655000605005069 0 -0.037055126583643988 0.0013725861124462807 0 -0.036860037475528934 0.0017124635907999079 0 -0.037024636311096308 0.0012992787221860987 0 -0.037118975779574001 0.0012655000605005069 0 -0.037425345365997058 0.0010675723037484304 0 -0.03728985218881746 0.00053247209025288598 0 -0.037118975779574001 0.0012655000605005069 0 -0.037425345365997058 0.0010675723037484304 0 -0.03728985218881746 0.00053247209025288598 0 -0.037118975779574001 0.0012655000605005069 0 -0.037055126583643988 0.0013725861124462807 0 -0.037082842467212947 0.0007983486121005013 0 -0.037055126583643988 0.0013725861124462807 0 -0.037080150554953985 0.0014765673646087469 0 -0.037055126583643988 0.0013725861124462807 0 -0.037080150554953985 0.0014765673646087469 0 -0.036923386797747045 0.0019900963077570644 0 -0.037080150554953985 0.0014765673646087469 0 -0.037079469463064278 0.0021328088327808407 0 -0.036923386797747045 0.0019900963077570644 0 -0.037270045009505377 0.0012307506066394419 0 -0.037080150554953985 0.0014765673646087469 0 -0.037079469463064278 0.0021328088327808407 0 -0.037079469463064278 0.0021328088327808407 0 -0.036923386797747045 0.0019900963077570644 0 -0.036790226280762658 0.0024516293737869683 0 -0.036923386797747045 0.0019900963077570644 0 -0.036650355587313152 0.0020466274402572092 0 -0.036860037475528934 0.0017124635907999079 0 -0.036923386797747045 0.0019900963077570644 0 -0.036650355587313152 0.0020466274402572092 0 -0.036790226280762658 0.0024516293737869683 0 -0.037055126583643988 0.0013725861124462807 0 -0.036923386797747045 0.0019900963077570644 0 -0.036860037475528934 0.0017124635907999079 0 -0.036896031584966446 0.0014597098116927493 0 -0.036860037475528934 0.0017124635907999079 0 -0.036607436221012556 0.001490085777849456 0 -0.036860037475528934 0.0017124635907999079 0 -0.036459144043076201 0.0017318742661883949 0 -0.036607436221012556 0.001490085777849456 0 -0.036650355587313152 0.0020466274402572092 0 -0.036860037475528934 0.0017124635907999079 0 -0.036459144043076201 0.0017318742661883949 0 -0.036650355587313152 0.0020466274402572092 0 -0.036459144043076201 0.0017318742661883949 0 -0.036255298096899424 0.0019513762109320599 0 -0.036459144043076201 0.0017318742661883949 0 -0.03598794465551676 0.0016153874569029864 0 -0.036255298096899424 0.0019513762109320599 0 -0.036459144043076201 0.0017318742661883949 0 -0.036217215309537316 0.0013984637803644852 0 -0.03598794465551676 0.0016153874569029864 0 -0.036459144043076201 0.0017318742661883949 0 -0.036217215309537316 0.0013984637803644852 0 -0.036607436221012556 0.001490085777849456 0 -0.036332148310191097 0.0012059561225361923 0 -0.036217215309537316 0.0013984637803644852 0 -0.036607436221012556 0.001490085777849456 0 -0.036332148310191097 0.0012059561225361923 0 -0.036700632677800153 0.0013399465171428768 0 -0.036607436221012556 0.001490085777849456 0 -0.035038107676478483 0.001685474979343756 0 -0.035342256516895904 0.0019697770753744322 0 -0.03478993816177843 0.0020189227360751694 0 -0.035038107676478483 0.001685474979343756 0 -0.035529719423680342 0.0016365484012915053 0 -0.035342256516895904 0.0019697770753744322 0 -0.035038107676478483 0.001685474979343756 0 -0.03478993816177843 0.0020189227360751694 0 -0.034434483224445075 0.0017752160361085264 0 -0.035038107676478483 0.001685474979343756 0 -0.034728627014935301 0.0014250331259301513 0 -0.034434483224445075 0.0017752160361085264 0 -0.035038107676478483 0.001685474979343756 0 -0.035203716947041094 0.0014351763108694856 0 -0.035529719423680342 0.0016365484012915053 0 -0.035038107676478483 0.001685474979343756 0 -0.034728627014935301 0.0014250331259301513 0 -0.035203716947041094 0.0014351763108694856 0 -0.03563549383221943 0.0013123244358653563 0 -0.035203716947041094 0.0014351763108694856 0 -0.035529719423680342 0.0016365484012915053 0 -0.03563549383221943 0.0013123244358653563 0 -0.036217215309537316 0.0013984637803644852 0 -0.03598794465551676 0.0016153874569029864 0 -0.03563549383221943 0.0013123244358653563 0 -0.03598794465551676 0.0016153874569029864 0 -0.035529719423680342 0.0016365484012915053 0 -0.035529719423680342 0.0016365484012915053 0 -0.035843912230121393 0.0018676359665165867 0 -0.035342256516895904 0.0019697770753744322 0 -0.03598794465551676 0.0016153874569029864 0 -0.035529719423680342 0.0016365484012915053 0 -0.035843912230121393 0.0018676359665165867 0 -0.035843912230121393 0.0018676359665165867 0 -0.035632911807521983 0.0023842218033284972 0 -0.035342256516895904 0.0019697770753744322 0 -0.03598794465551676 0.0016153874569029864 0 -0.035843912230121393 0.0018676359665165867 0 -0.036255298096899424 0.0019513762109320599 0 -0.035843912230121393 0.0018676359665165867 0 -0.036255298096899424 0.0019513762109320599 0 -0.036254370565004787 0.0022771634812618602 0 -0.036650355587313152 0.0020466274402572092 0 -0.036255298096899424 0.0019513762109320599 0 -0.036254370565004787 0.0022771634812618602 0 -0.035843912230121393 0.0018676359665165867 0 -0.035632911807521983 0.0023842218033284972 0 -0.036254370565004787 0.0022771634812618602 0 -0.035136685236756206 0.0022895825653026849 0 -0.035632911807521983 0.0023842218033284972 0 -0.035342256516895904 0.0019697770753744322 0 -0.035136685236756206 0.0022895825653026849 0 -0.035632911807521983 0.0023842218033284972 0 -0.0346737953931745 0.0027128270965933953 0 -0.035136685236756206 0.0022895825653026849 0 -0.035342256516895904 0.0019697770753744322 0 -0.03478993816177843 0.0020189227360751694 0 -0.03478993816177843 0.0020189227360751694 0 -0.0346737953931745 0.0027128270965933953 0 -0.034131462588215956 0.0022643993599338924 0 -0.035136685236756206 0.0022895825653026849 0 -0.03478993816177843 0.0020189227360751694 0 -0.0346737953931745 0.0027128270965933953 0 -0.035632911807521983 0.0023842218033284972 0 -0.035494855590984517 0.0029606251784917489 0 -0.03630769247966497 0.0026981242846375849 0 -0.035632911807521983 0.0023842218033284972 0 -0.0346737953931745 0.0027128270965933953 0 -0.035494855590984517 0.0029606251784917489 0 -0.0346737953931745 0.0027128270965933953 0 -0.035494855590984517 0.0029606251784917489 0 -0.03472064484779578 0.0035698141283500573 0 -0.036650355587313152 0.0020466274402572092 0 -0.036254370565004787 0.0022771634812618602 0 -0.036790226280762658 0.0024516293737869683 0 -0.035632911807521983 0.0023842218033284972 0 -0.036254370565004787 0.0022771634812618602 0 -0.03630769247966497 0.0026981242846375849 0 -0.03630769247966497 0.0026981242846375849 0 -0.036790226280762658 0.0024516293737869683 0 -0.036952086419409044 0.0029695128360840554 0 -0.036254370565004787 0.0022771634812618602 0 -0.03630769247966497 0.0026981242846375849 0 -0.036790226280762658 0.0024516293737869683 0 -0.035906381130025228 0.0048796369040460131 0 -0.036952086419409044 0.0029695128360840554 0 -0.035877686306332257 0.0039009498703587537 0 -0.037079469463064278 0.0021328088327808407 0 -0.036790226280762658 0.0024516293737869683 0 -0.036952086419409044 0.0029695128360840554 0 -0.03630769247966497 0.0026981242846375849 0 -0.036952086419409044 0.0029695128360840554 0 -0.035877686306332257 0.0039009498703587537 0 -0.037626020207666214 0.001794415179722373 0 -0.037079469463064278 0.0021328088327808407 0 -0.036952086419409044 0.0029695128360840554 0 -0.03472064484779578 0.0035698141283500573 0 -0.035877686306332257 0.0039009498703587537 0 -0.034552545208902372 0.0044915252597036081 0 -0.035494855590984517 0.0029606251784917489 0 -0.03630769247966497 0.0026981242846375849 0 -0.035877686306332257 0.0039009498703587537 0 -0.035494855590984517 0.0029606251784917489 0 -0.03472064484779578 0.0035698141283500573 0 -0.035877686306332257 0.0039009498703587537 0 -0.034972603636250169 0.0050496985888538242 0 -0.035877686306332257 0.0039009498703587537 0 -0.034552545208902372 0.0044915252597036081 0 -0.034972603636250169 0.0050496985888538242 0 -0.034313773847017205 0.0054262576740042139 0 -0.034552545208902372 0.0044915252597036081 0 -0.034552545208902372 0.0044915252597036081 0 -0.033804121758382294 0.0049818564461592083 0 -0.033698280723189193 0.0042477906492788178 0 -0.034313773847017205 0.0054262576740042139 0 -0.034552545208902372 0.0044915252597036081 0 -0.033804121758382294 0.0049818564461592083 0 -0.03472064484779578 0.0035698141283500573 0 -0.034552545208902372 0.0044915252597036081 0 -0.033698280723189193 0.0042477906492788178 0 -0.033698280723189193 0.0042477906492788178 0 -0.032414089995765401 0.0046469743478386978 0 -0.03321359037542037 0.0037313097192423388 0 -0.033804121758382294 0.0049818564461592083 0 -0.033698280723189193 0.0042477906492788178 0 -0.032927258463121382 0.0052580762829910251 0 -0.031643430724682488 0.0057023091242299614 0 -0.032414089995765401 0.0046469743478386978 0 -0.030766138320553714 0.0050043043916806577 0 -0.031643430724682488 0.0057023091242299614 0 -0.032927258463121382 0.0052580762829910251 0 -0.032414089995765401 0.0046469743478386978 0 -0.032414089995765401 0.0046469743478386978 0 -0.031999805475327471 0.0039378251564581518 0 -0.030766138320553714 0.0050043043916806577 0 -0.033698280723189193 0.0042477906492788178 0 -0.032927258463121382 0.0052580762829910251 0 -0.032414089995765401 0.0046469743478386978 0 -0.032414089995765401 0.0046469743478386978 0 -0.031999805475327471 0.0039378251564581518 0 -0.03321359037542037 0.0037313097192423388 0 -0.031999805475327471 0.0039378251564581518 0 -0.032794264414772095 0.0033103653214851341 0 -0.032311610367029023 0.0029268838042998276 0 -0.031999805475327471 0.0039378251564581518 0 -0.032794264414772095 0.0033103653214851341 0 -0.03321359037542037 0.0037313097192423388 0 -0.032794264414772095 0.0033103653214851341 0 -0.03321359037542037 0.0037313097192423388 0 -0.03375717363796233 0.0028817269800891629 0 -0.034047805692488033 0.0033956792296695125 0 -0.03321359037542037 0.0037313097192423388 0 -0.03375717363796233 0.0028817269800891629 0 -0.0346737953931745 0.0027128270965933953 0 -0.034047805692488033 0.0033956792296695125 0 -0.03375717363796233 0.0028817269800891629 0 -0.0346737953931745 0.0027128270965933953 0 -0.03472064484779578 0.0035698141283500573 0 -0.034047805692488033 0.0033956792296695125 0 -0.03472064484779578 0.0035698141283500573 0 -0.033698280723189193 0.0042477906492788178 0 -0.034047805692488033 0.0033956792296695125 0 -0.033698280723189193 0.0042477906492788178 0 -0.034047805692488033 0.0033956792296695125 0 -0.03321359037542037 0.0037313097192423388 0 -0.029115951403960109 0.0062119864739926768 0 -0.029236108364253621 0.0051925917595396108 0 -0.030766138320553714 0.0050043043916806577 0 -0.029236108364253621 0.0051925917595396108 0 -0.030766138320553714 0.0050043043916806577 0 -0.030025926585970902 0.0045376044840899094 0 -0.031999805475327471 0.0039378251564581518 0 -0.030766138320553714 0.0050043043916806577 0 -0.030849097641945863 0.0037069309422433348 0 -0.030766138320553714 0.0050043043916806577 0 -0.030849097641945863 0.0037069309422433348 0 -0.030025926585970902 0.0045376044840899094 0 -0.031999805475327471 0.0039378251564581518 0 -0.030849097641945863 0.0037069309422433348 0 -0.032311610367029023 0.0029268838042998276 0 -0.030849097641945863 0.0037069309422433348 0 -0.030025926585970902 0.0045376044840899094 0 -0.029282763860617574 0.004202544772047432 0 -0.029236108364253621 0.0051925917595396108 0 -0.030025926585970902 0.0045376044840899094 0 -0.029282763860617574 0.004202544772047432 0 -0.029236108364253621 0.0051925917595396108 0 -0.029282763860617574 0.004202544772047432 0 -0.02815899527735018 0.0049611161312562114 0 -0.029282763860617574 0.004202544772047432 0 -0.029923555094594306 0.0028796177068288204 0 -0.027654457537129279 0.0041230600826155147 0 -0.030849097641945863 0.0037069309422433348 0 -0.029282763860617574 0.004202544772047432 0 -0.029923555094594306 0.0028796177068288204 0 -0.029923555094594306 0.0028796177068288204 0 -0.031567027103984117 0.0026686295172566286 0 -0.031218940315178648 0.0018890049888669537 0 -0.030849097641945863 0.0037069309422433348 0 -0.029923555094594306 0.0028796177068288204 0 -0.031567027103984117 0.0026686295172566286 0 -0.030849097641945863 0.0037069309422433348 0 -0.031567027103984117 0.0026686295172566286 0 -0.032311610367029023 0.0029268838042998276 0 -0.031567027103984117 0.0026686295172566286 0 -0.031218940315178648 0.0018890049888669537 0 -0.032175161329146648 0.00198295669277288 0 -0.032100648295727854 0.0014798915004426241 0 -0.031218940315178648 0.0018890049888669537 0 -0.032175161329146648 0.00198295669277288 0 -0.032100648295727854 0.0014798915004426241 0 -0.031218940315178648 0.0018890049888669537 0 -0.031010641032193132 0.0011670498835172436 0 -0.031218940315178648 0.0018890049888669537 0 -0.03007529683474891 0.001877072186323584 0 -0.031010641032193132 0.0011670498835172436 0 -0.029923555094594306 0.0028796177068288204 0 -0.03007529683474891 0.001877072186323584 0 -0.028299584856728781 0.0022036973025722439 0 -0.029923555094594306 0.0028796177068288204 0 -0.031218940315178648 0.0018890049888669537 0 -0.03007529683474891 0.001877072186323584 0 -0.033392411039668918 0.0024998813714980747 0 -0.034131462588215956 0.0022643993599338924 0 -0.033708549825994444 0.0018734046806542198 0 -0.033392411039668918 0.0024998813714980747 0 -0.032894768570434087 0.0022937669038562434 0 -0.033708549825994444 0.0018734046806542198 0 -0.0346737953931745 0.0027128270965933953 0 -0.034131462588215956 0.0022643993599338924 0 -0.03375717363796233 0.0028817269800891629 0 -0.033392411039668918 0.0024998813714980747 0 -0.034131462588215956 0.0022643993599338924 0 -0.03375717363796233 0.0028817269800891629 0 -0.032794264414772095 0.0033103653214851341 0 -0.033392411039668918 0.0024998813714980747 0 -0.03375717363796233 0.0028817269800891629 0 -0.032794264414772095 0.0033103653214851341 0 -0.033392411039668918 0.0024998813714980747 0 -0.032311610367029023 0.0029268838042998276 0 -0.031567027103984117 0.0026686295172566286 0 -0.032311610367029023 0.0029268838042998276 0 -0.032894768570434087 0.0022937669038562434 0 -0.033392411039668918 0.0024998813714980747 0 -0.032311610367029023 0.0029268838042998276 0 -0.032894768570434087 0.0022937669038562434 0 -0.032894768570434087 0.0022937669038562434 0 -0.033025603039391865 0.0016243221398750606 0 -0.033708549825994444 0.0018734046806542198 0 -0.032894768570434087 0.0022937669038562434 0 -0.032175161329146648 0.00198295669277288 0 -0.033025603039391865 0.0016243221398750606 0 -0.031567027103984117 0.0026686295172566286 0 -0.032894768570434087 0.0022937669038562434 0 -0.032175161329146648 0.00198295669277288 0 -0.032100648295727854 0.0014798915004426241 0 -0.033025603039391865 0.0016243221398750606 0 -0.032715534407284835 0.0012954579095266012 0 -0.032100648295727854 0.0014798915004426241 0 -0.032175161329146648 0.00198295669277288 0 -0.033025603039391865 0.0016243221398750606 0 -0.033025603039391865 0.0016243221398750606 0 -0.033609698508225434 0.0014394591259499858 0 -0.033708549825994444 0.0018734046806542198 0 -0.033609698508225434 0.0014394591259499858 0 -0.033708549825994444 0.0018734046806542198 0 -0.034143350534516601 0.0014564460561384582 0 -0.03478993816177843 0.0020189227360751694 0 -0.034131462588215956 0.0022643993599338924 0 -0.034434483224445075 0.0017752160361085264 0 -0.034131462588215956 0.0022643993599338924 0 -0.033708549825994444 0.0018734046806542198 0 -0.034434483224445075 0.0017752160361085264 0 -0.034728627014935301 0.0014250331259301513 0 -0.034434483224445075 0.0017752160361085264 0 -0.034143350534516601 0.0014564460561384582 0 -0.033708549825994444 0.0018734046806542198 0 -0.034434483224445075 0.0017752160361085264 0 -0.034143350534516601 0.0014564460561384582 0 -0.034728627014935301 0.0014250331259301513 0 -0.034143350534516601 0.0014564460561384582 0 -0.034398466413677768 0.0011285506251511564 0 -0.034143350534516601 0.0014564460561384582 0 -0.034398466413677768 0.0011285506251511564 0 -0.033814666111271721 0.0011143892472001498 0 -0.033609698508225434 0.0014394591259499858 0 -0.034143350534516601 0.0014564460561384582 0 -0.033814666111271721 0.0011143892472001498 0 -0.033609698508225434 0.0014394591259499858 0 -0.033814666111271721 0.0011143892472001498 0 -0.03324020419937046 0.0012221829517412809 0 -0.033814666111271721 0.0011143892472001498 0 -0.034041519253023386 0.00082538220091939879 0 -0.033367288814052196 0.0007909307810897503 0 -0.034594891450534682 0.00083881687240456161 0 -0.034398466413677768 0.0011285506251511564 0 -0.034041519253023386 0.00082538220091939879 0 -0.034398466413677768 0.0011285506251511564 0 -0.033814666111271721 0.0011143892472001498 0 -0.034041519253023386 0.00082538220091939879 0 -0.034594891450534682 0.00083881687240456161 0 -0.034659694640192973 0.00061664427769291214 0 -0.034176664386776349 0.00059239147958276212 0 -0.034594891450534682 0.00083881687240456161 0 -0.034041519253023386 0.00082538220091939879 0 -0.034176664386776349 0.00059239147958276212 0 -0.034041519253023386 0.00082538220091939879 0 -0.034176664386776349 0.00059239147958276212 0 -0.033718589739343871 0.00056350930965491804 0 -0.034041519253023386 0.00082538220091939879 0 -0.033718589739343871 0.00056350930965491804 0 -0.033367288814052196 0.0007909307810897503 0 -0.034176664386776349 0.00059239147958276212 0 -0.033823111713871923 0.00036574949275611462 0 -0.034189640283337597 0.00041354616093401084 0 -0.034176664386776349 0.00059239147958276212 0 -0.033718589739343871 0.00056350930965491804 0 -0.033823111713871923 0.00036574949275611462 0 -0.033718589739343871 0.00056350930965491804 0 -0.033823111713871923 0.00036574949275611462 0 -0.033476555127335716 0.00021347745065823984 0 -0.033823111713871923 0.00036574949275611462 0 -0.033476555127335716 0.00021347745065823984 0 -0.03382623400613758 0.00018552733303953237 0 -0.033823111713871923 0.00036574949275611462 0 -0.034189640283337597 0.00041354616093401084 0 -0.03382623400613758 0.00018552733303953237 0 -0.034659694640192973 0.00061664427769291214 0 -0.034176664386776349 0.00059239147958276212 0 -0.034189640283337597 0.00041354616093401084 0 -0.032900386267593076 0.00025990075249476764 0 -0.032908433735974123 -7.1075738532595422e-06 0 -0.033476555127335716 0.00021347745065823984 0 -0.032900386267593076 0.00025990075249476764 0 -0.032908433735974123 -7.1075738532595422e-06 0 -0.032389884397152194 0.00015016746168136454 0 -0.032908433735974123 -7.1075738532595422e-06 0 -0.032389884397152194 0.00015016746168136454 0 -0.032420108466568766 -9.8938453095390627e-05 0 -0.032908433735974123 -7.1075738532595422e-06 0 -0.032420108466568766 -9.8938453095390627e-05 0 -0.032684120460397786 -0.00027817615210560203 0 -0.032908433735974123 -7.1075738532595422e-06 0 -0.033476555127335716 0.00021347745065823984 0 -0.033700538569401112 -0.00012033770156858182 0 -0.032900386267593076 0.00025990075249476764 0 -0.033476555127335716 0.00021347745065823984 0 -0.033156817553209587 0.00047682494589521815 0 -0.033718589739343871 0.00056350930965491804 0 -0.033156817553209587 0.00047682494589521815 0 -0.033367288814052196 0.0007909307810897503 0 -0.033718589739343871 0.00056350930965491804 0 -0.033476555127335716 0.00021347745065823984 0 -0.033156817553209587 0.00047682494589521815 0 -0.033156817553209587 0.00047682494589521815 0 -0.032869622473335337 0.00069565862275009415 0 -0.033367288814052196 0.0007909307810897503 0 -0.033156817553209587 0.00047682494589521815 0 -0.03250652895000794 0.00048376140758914731 0 -0.032869622473335337 0.00069565862275009415 0 -0.032900386267593076 0.00025990075249476764 0 -0.033156817553209587 0.00047682494589521815 0 -0.03250652895000794 0.00048376140758914731 0 -0.032900386267593076 0.00025990075249476764 0 -0.03250652895000794 0.00048376140758914731 0 -0.032389884397152194 0.00015016746168136454 0 -0.03250652895000794 0.00048376140758914731 0 -0.032869622473335337 0.00069565862275009415 0 -0.032211551573894402 0.00087354529608720053 0 -0.032849701369147902 0.00097354887252017284 0 -0.032715534407284835 0.0012954579095266012 0 -0.032211551573894402 0.00087354529608720053 0 -0.032869622473335337 0.00069565862275009415 0 -0.032849701369147902 0.00097354887252017284 0 -0.032211551573894402 0.00087354529608720053 0 -0.033814666111271721 0.0011143892472001498 0 -0.033367288814052196 0.0007909307810897503 0 -0.03324020419937046 0.0012221829517412809 0 -0.032849701369147902 0.00097354887252017284 0 -0.033367288814052196 0.0007909307810897503 0 -0.03324020419937046 0.0012221829517412809 0 -0.032869622473335337 0.00069565862275009415 0 -0.032849701369147902 0.00097354887252017284 0 -0.033367288814052196 0.0007909307810897503 0 -0.033025603039391865 0.0016243221398750606 0 -0.033609698508225434 0.0014394591259499858 0 -0.03324020419937046 0.0012221829517412809 0 -0.033025603039391865 0.0016243221398750606 0 -0.03324020419937046 0.0012221829517412809 0 -0.032715534407284835 0.0012954579095266012 0 -0.032849701369147902 0.00097354887252017284 0 -0.03324020419937046 0.0012221829517412809 0 -0.032715534407284835 0.0012954579095266012 0 -0.032100648295727854 0.0014798915004426241 0 -0.032715534407284835 0.0012954579095266012 0 -0.032211551573894402 0.00087354529608720053 0 -0.032100648295727854 0.0014798915004426241 0 -0.031010641032193132 0.0011670498835172436 0 -0.032211551573894402 0.00087354529608720053 0 -0.031010641032193132 0.0011670498835172436 0 -0.032211551573894402 0.00087354529608720053 0 -0.031452343352056517 0.00051288971992384785 0 -0.031010641032193132 0.0011670498835172436 0 -0.030210416715373403 0.00027501450412922086 0 -0.031452343352056517 0.00051288971992384785 0 -0.03007529683474891 0.001877072186323584 0 -0.031010641032193132 0.0011670498835172436 0 -0.029641641107063851 0.0012518050216920834 0 -0.031010641032193132 0.0011670498835172436 0 -0.029641641107063851 0.0012518050216920834 0 -0.030210416715373403 0.00027501450412922086 0 -0.030210416715373403 0.00027501450412922086 0 -0.030145355642695666 -0.00076727979088710998 0 -0.028444336841674956 -0.00061236587219842505 0 -0.030210416715373403 0.00027501450412922086 0 -0.031603322762130688 -7.1692991041707023e-05 0 -0.030145355642695666 -0.00076727979088710998 0 -0.031603322762130688 -7.1692991041707023e-05 0 -0.032126128281402072 -0.00072832521108232408 0 -0.030145355642695666 -0.00076727979088710998 0 -0.03250652895000794 0.00048376140758914731 0 -0.032211551573894402 0.00087354529608720053 0 -0.03201514717828044 0.00033519562672223958 0 -0.03201514717828044 0.00033519562672223958 0 -0.031452343352056517 0.00051288971992384785 0 -0.031603322762130688 -7.1692991041707023e-05 0 -0.032211551573894402 0.00087354529608720053 0 -0.03201514717828044 0.00033519562672223958 0 -0.031452343352056517 0.00051288971992384785 0 -0.03250652895000794 0.00048376140758914731 0 -0.03201514717828044 0.00033519562672223958 0 -0.032389884397152194 0.00015016746168136454 0 -0.030210416715373403 0.00027501450412922086 0 -0.031452343352056517 0.00051288971992384785 0 -0.031603322762130688 -7.1692991041707023e-05 0 -0.03201514717828044 0.00033519562672223958 0 -0.031603322762130688 -7.1692991041707023e-05 0 -0.032389884397152194 0.00015016746168136454 0 -0.031603322762130688 -7.1692991041707023e-05 0 -0.032389884397152194 0.00015016746168136454 0 -0.032420108466568766 -9.8938453095390627e-05 0 -0.031603322762130688 -7.1692991041707023e-05 0 -0.032420108466568766 -9.8938453095390627e-05 0 -0.032092334885074292 -0.00028485776159545864 0 -0.031603322762130688 -7.1692991041707023e-05 0 -0.032092334885074292 -0.00028485776159545864 0 -0.032126128281402072 -0.00072832521108232408 0 -0.032420108466568766 -9.8938453095390627e-05 0 -0.032242481548269787 -0.00043222875279657366 0 -0.032684120460397786 -0.00027817615210560203 0 -0.032420108466568766 -9.8938453095390627e-05 0 -0.032092334885074292 -0.00028485776159545864 0 -0.032242481548269787 -0.00043222875279657366 0 -0.032242481548269787 -0.00043222875279657366 0 -0.032126128281402072 -0.00072832521108232408 0 -0.032684120460397786 -0.00027817615210560203 0 -0.032092334885074292 -0.00028485776159545864 0 -0.032242481548269787 -0.00043222875279657366 0 -0.032126128281402072 -0.00072832521108232408 0 -0.026485821833169606 0.0062013251441984012 0 -0.025386297666517638 0.0065679617323100405 0 -0.020692297328052639 0.013061209970657722 0 -0.020340775514601717 0.012877481580330983 0 -0.020065614863166964 0.013178165230185545 0 -0.020692297328052639 0.013061209970657722 0 -0.02058365998116669 0.012785660234090732 0 -0.020751878018632174 0.012636089193006413 0 -0.020692297328052639 0.013061209970657722 0 -0.020340775514601717 0.012877481580330983 0 -0.02058365998116669 0.012785660234090732 0 -0.020065614863166964 0.013178165230185545 0 -0.019957014344705148 0.012716990981735182 0 -0.019557224003901051 0.012851495979003728 0 -0.020340775514601717 0.012877481580330983 0 -0.020065614863166964 0.013178165230185545 0 -0.019957014344705148 0.012716990981735182 0 -0.019957014344705148 0.012716990981735182 0 -0.020082867146489734 0.012453931555218097 0 -0.02044928604045097 0.012577853375120551 0 -0.020340775514601717 0.012877481580330983 0 -0.019957014344705148 0.012716990981735182 0 -0.02044928604045097 0.012577853375120551 0 -0.019957014344705148 0.012716990981735182 0 -0.020082867146489734 0.012453931555218097 0 -0.019580280170130578 0.012473951812823221 0 -0.02058365998116669 0.012785660234090732 0 -0.02044928604045097 0.012577853375120551 0 -0.020751878018632174 0.012636089193006413 0 -0.020340775514601717 0.012877481580330983 0 -0.02058365998116669 0.012785660234090732 0 -0.02044928604045097 0.012577853375120551 0 -0.02044928604045097 0.012577853375120551 0 -0.020751878018632174 0.012636089193006413 0 -0.020785848828468474 0.012320627350249896 0 -0.020751878018632174 0.012636089193006413 0 -0.021065633859628181 0.012472632878716139 0 -0.020785848828468474 0.012320627350249896 0 -0.020692297328052639 0.013061209970657722 0 -0.020751878018632174 0.012636089193006413 0 -0.021065633859628181 0.012472632878716139 0 -0.031870350040341312 0.0019785701187935113 0 -0.03381663607317506 0.0017117929309518893 0 -0.033581818674420914 0.00032371152798472497 0 -0.031440361691367928 0.0033919891108682284 0 -0.031870350040341312 0.0019785701187935113 0 -0.03381663607317506 0.0017117929309518893 0 -0.034756273509898204 -0.0001538758734068235 0 -0.033581818674420914 0.00032371152798472497 0 -0.034480748410214472 0.0002843200576591495 0 -0.033380104469312402 0.0016324398032891525 0 -0.033551465971702291 0.0012950080763233411 0 -0.03468536405281962 0.00047889168922560411 0 -0.034480748410214472 0.0002843200576591495 0 -0.034100225187949182 0.00034898924535904066 0 -0.033581818674420914 0.00032371152798472497 0 -0.034480748410214472 0.0002843200576591495 0 -0.034100225187949182 0.00034898924535904066 0 -0.03468536405281962 0.00047889168922560411 0 -0.034100225187949182 0.00034898924535904066 0 -0.034189640283337597 0.00041354616093401084 0 -0.034659694640192973 0.00061664427769291214 0 -0.03468536405281962 0.00047889168922560411 0 -0.034189640283337597 0.00041354616093401084 0 -0.033581818674420914 0.00032371152798472497 0 -0.034100225187949182 0.00034898924535904066 0 -0.03382623400613758 0.00018552733303953237 0 -0.034100225187949182 0.00034898924535904066 0 -0.034189640283337597 0.00041354616093401084 0 -0.03382623400613758 0.00018552733303953237 0 -0.033581818674420914 0.00032371152798472497 0 -0.03382623400613758 0.00018552733303953237 0 -0.033700538569401112 -0.00012033770156858182 0 -0.033476555127335716 0.00021347745065823984 0 -0.03382623400613758 0.00018552733303953237 0 -0.033700538569401112 -0.00012033770156858182 0 -0.026485821833169606 0.0062013251441984012 0 -0.026879308291741313 0.0071935007596429746 0 -0.034540151881150324 -0.00024832297579170155 0 -0.03381663607317506 0.0017117929309518893 0 -0.033581818674420914 0.00032371152798472497 0 -0.034540151881150324 -0.00024832297579170155 0 -0.033581818674420914 0.00032371152798472497 0 -0.033700538569401112 -0.00012033770156858182 0 -0.032908433735974123 -7.1075738532595422e-06 0 -0.033700538569401112 -0.00012033770156858182 0 -0.032684120460397786 -0.00027817615210560203 0 -0.032126128281402072 -0.00072832521108232408 0 -0.033700538569401112 -0.00012033770156858182 0 -0.032684120460397786 -0.00027817615210560203 0 -0.026485821833169606 0.0062013251441984012 0 -0.028322271620520739 0.0056068159345914973 0 -0.021673755448449836 0.012569222940837526 0 -0.019796067931625146 0.011592913928078249 0 -0.022778300539524569 0.010632449060137401 0 -0.021673755448449836 0.012569222940837526 0 -0.019796067931625146 0.011592913928078249 0 -0.020344856967044946 0.013853209183762625 0 -0.019796067931625146 0.011592913928078249 0 -0.022778300539524569 0.010632449060137401 0 -0.020113312952688464 0.0095788359262398287 0 -0.022778300539524569 0.010632449060137401 0 -0.024710631759863291 0.010607898354409633 0 -0.025625498475675478 0.007934702119588263 0 -0.024710631759863291 0.010607898354409633 0 -0.026318651852232838 0.010524862553807831 0 -0.025625498475675478 0.007934702119588263 0 -0.026318651852232838 0.010524862553807831 0 -0.024141706199953834 0.013132718095494553 0 -0.027095170864217685 0.013659343060392031 0 -0.024710631759863291 0.010607898354409633 0 -0.026318651852232838 0.010524862553807831 0 -0.024141706199953834 0.013132718095494553 0 -0.022778300539524569 0.010632449060137401 0 -0.024710631759863291 0.010607898354409633 0 -0.024141706199953834 0.013132718095494553 0 -0.021673755448449836 0.012569222940837526 0 -0.022778300539524569 0.010632449060137401 0 -0.024141706199953834 0.013132718095494553 0 -0.024141706199953834 0.013132718095494553 0 -0.021473507116099577 0.014643170748881971 0 -0.02322461249536166 0.017013446236034315 0 -0.024141706199953834 0.013132718095494553 0 -0.025574357656753571 0.015616258287223919 0 -0.02322461249536166 0.017013446236034315 0 -0.024141706199953834 0.013132718095494553 0 -0.025574357656753571 0.015616258287223919 0 -0.027095170864217685 0.013659343060392031 0 -0.020440493483646977 0.016219971079005854 0 -0.021473507116099577 0.014643170748881971 0 -0.02322461249536166 0.017013446236034315 0 -0.020440493483646977 0.016219971079005854 0 -0.021473507116099577 0.014643170748881971 0 -0.01997922664845463 0.015314678024380765 0 -0.021673755448449836 0.012569222940837526 0 -0.021473507116099577 0.014643170748881971 0 -0.020344856967044946 0.013853209183762625 0 -0.021673755448449836 0.012569222940837526 0 -0.024141706199953834 0.013132718095494553 0 -0.021473507116099577 0.014643170748881971 0 -0.019796067931625146 0.011592913928078249 0 -0.020344856967044946 0.013853209183762625 0 -0.019131151167621711 0.015108929081119325 0 -0.021473507116099577 0.014643170748881971 0 -0.020344856967044946 0.013853209183762625 0 -0.01997922664845463 0.015314678024380765 0 -0.020344856967044946 0.013853209183762625 0 -0.019131151167621711 0.015108929081119325 0 -0.01997922664845463 0.015314678024380765 0 -0.019131151167621711 0.015108929081119325 0 -0.01997922664845463 0.015314678024380765 0 -0.019171573089106605 0.016677973411603174 0 -0.020440493483646977 0.016219971079005854 0 -0.01997922664845463 0.015314678024380765 0 -0.019171573089106605 0.016677973411603174 0 -0.020440493483646977 0.016219971079005854 0 -0.019171573089106605 0.016677973411603174 0 -0.019806853008786509 0.017943660123356506 0 -0.019363845945758185 0.013427242759277877 0 -0.0186836204077824 0.014563120416857497 0 -0.0185403036829641 0.016558216548743947 0 -0.018050066816307504 0.016207325487663068 0 -0.018104060745662866 0.017806043490978717 0 -0.019796067931625146 0.011592913928078249 0 -0.0191529610721844 0.012512497321779639 0 -0.019139246051724325 0.01242260941318914 0 -0.019796067931625146 0.011592913928078249 0 -0.018050066816307504 0.016207325487663068 0 -0.016454590317394869 0.017251447464845377 0 -0.019796067931625146 0.011592913928078249 0 -0.019131151167621711 0.015108929081119325 0 -0.018050066816307504 0.016207325487663068 0 -0.019131151167621711 0.015108929081119325 0 -0.0185403036829641 0.016558216548743947 0 -0.018050066816307504 0.016207325487663068 0 -0.019131151167621711 0.015108929081119325 0 -0.019171573089106605 0.016677973411603174 0 -0.0185403036829641 0.016558216548743947 0 -0.018050066816307504 0.016207325487663068 0 -0.016454590317394869 0.017251447464845377 0 -0.017337342837915715 0.017525779069229329 0 -0.019957014344705148 0.012716990981735182 0 -0.019580280170130578 0.012473951812823221 0 -0.01954353681847595 0.01262775599721888 0 -0.019139246051724325 0.01242260941318914 0 -0.019580280170130578 0.012473951812823221 0 -0.01954353681847595 0.01262775599721888 0 -0.0191529610721844 0.012512497321779639 0 -0.019139246051724325 0.01242260941318914 0 -0.019580280170130578 0.012473951812823221 0 -0.019139246051724325 0.01242260941318914 0 -0.01954353681847595 0.01262775599721888 0 -0.019557224003901051 0.012851495979003728 0 -0.019957014344705148 0.012716990981735182 0 -0.01954353681847595 0.01262775599721888 0 -0.019557224003901051 0.012851495979003728 0 -0.020065614863166964 0.013178165230185545 0 -0.019557224003901051 0.012851495979003728 0 -0.019415573166207657 0.0132601888606598 0 -0.02351479441423892 0.010187526718543744 0 -0.024824086044499517 0.0070313986352389425 0 -0.025386297666517638 0.0065679617323100405 0 -0.024824086044499517 0.0070313986352389425 0 -0.019139246051724325 0.01242260941318914 0 -0.019557224003901051 0.012851495979003728 0 -0.019415573166207657 0.0132601888606598 0 -0.019796067931625146 0.011592913928078249 0 -0.018308166347030596 0.010554442711015339 0 -0.020113312952688464 0.0095788359262398287 0 -0.019796067931625146 0.011592913928078249 0 -0.019139246051724325 0.01242260941318914 0 -0.018308166347030596 0.010554442711015339 0 -0.025908235611388036 0.006264148531376787 0 -0.025585618224127055 0.006536947078231446 0 -0.02588587192817654 0.0065544524889284937 0 -0.025908235611388036 0.006264148531376787 0 -0.025585618224127055 0.006536947078231446 0 -0.025595086859744924 0.0059779720278769419 0 -0.024824086044499517 0.0070313986352389425 0 -0.024279723315772609 0.007418114274493094 0 -0.030210416715373403 0.00027501450412922086 0 -0.028444336841674956 -0.00061236587219842505 0 -0.028548028340852735 0.00086875812587010022 0 -0.024824086044499517 0.0070313986352389425 0 -0.02575721806894582 0.0046963782473373079 0 -0.029641641107063851 0.0012518050216920834 0 -0.028548028340852735 0.00086875812587010022 0 -0.028299584856728781 0.0022036973025722439 0 -0.029641641107063851 0.0012518050216920834 0 -0.030210416715373403 0.00027501450412922086 0 -0.028548028340852735 0.00086875812587010022 0 -0.025908235611388036 0.006264148531376787 0 -0.025595086859744924 0.0059779720278769419 0 -0.026003988885692608 0.0056103214825535064 0 -0.025595086859744924 0.0059779720278769419 0 -0.026003988885692608 0.0056103214825535064 0 -0.026050187187598339 0.0049499782283044065 0 -0.025908235611388036 0.006264148531376787 0 -0.026003988885692608 0.0056103214825535064 0 -0.026117039884842673 0.0057480147694610696 0 -0.026117039884842673 0.0057480147694610696 0 -0.026149966593624844 0.0060047985246544124 0 -0.025987458593095786 0.0062753907627121821 0 -0.026117039884842673 0.0057480147694610696 0 -0.026149966593624844 0.0060047985246544124 0 -0.026291341612616387 0.0054284788819974157 0 -0.026149966593624844 0.0060047985246544124 0 -0.025987458593095786 0.0062753907627121821 0 -0.025957596517661666 0.0066082851033610057 0 -0.025908235611388036 0.006264148531376787 0 -0.026117039884842673 0.0057480147694610696 0 -0.025987458593095786 0.0062753907627121821 0 -0.022778300539524569 0.010632449060137401 0 -0.020113312952688464 0.0095788359262398287 0 -0.025625498475675478 0.007934702119588263 0 -0.025908235611388036 0.006264148531376787 0 -0.025837003559582992 0.0067080086496247027 0 -0.02588587192817654 0.0065544524889284937 0 -0.024279723315772609 0.007418114274493094 0 -0.02484880062661236 0.0074644173176384417 0 -0.025908235611388036 0.006264148531376787 0 -0.025987458593095786 0.0062753907627121821 0 -0.025837003559582992 0.0067080086496247027 0 -0.025837003559582992 0.0067080086496247027 0 -0.02588587192817654 0.0065544524889284937 0 -0.025625498475675478 0.007934702119588263 0 -0.025987458593095786 0.0062753907627121821 0 -0.025837003559582992 0.0067080086496247027 0 -0.025957596517661666 0.0066082851033610057 0 -0.026318651852232838 0.010524862553807831 0 -0.025625498475675478 0.007934702119588263 0 -0.026471326460403892 0.0066077017713361968 0 -0.025837003559582992 0.0067080086496247027 0 -0.025625498475675478 0.007934702119588263 0 -0.025957596517661666 0.0066082851033610057 0 -0.025625498475675478 0.007934702119588263 0 -0.025957596517661666 0.0066082851033610057 0 -0.026471326460403892 0.0066077017713361968 0 -0.0039191108595597194 0.010099631502279265 0 -0.0037791176692597104 0.010695594109335214 0 -0.0037829510697381776 0.010997283488472551 0 -0.014675305696824487 0.009205553604439155 0 -0.014510099870116823 0.0082245988524477648 0 -0.026149966593624844 0.0060047985246544124 0 -0.026471326460403892 0.0066077017713361968 0 -0.026408059073391811 0.0054890300736465192 0 -0.0039191108595597194 0.010099631502279265 0 -0.0036878168531663748 0.010601423602378576 0 -0.0037791176692597104 0.010695594109335214 0 -0.026149966593624844 0.0060047985246544124 0 -0.025957596517661666 0.0066082851033610057 0 -0.026471326460403892 0.0066077017713361968 0 -0.0036878168531663748 0.010601423602378576 0 -0.0037791176692597104 0.010695594109335214 0 -0.0038388992497719924 0.010962370190977531 0 -0.0038388992497719924 0.010962370190977531 0 -0.0037829510697381776 0.010997283488472551 0 -0.0028561128205461684 0.01093184299061461 0 -0.0032678688638073652 0.0110109668864731 0 -0.0031973611732852162 0.011054941046703076 0 -0.0029845296779290515 0.010967967621568937 0 -0.0037791176692597104 0.010695594109335214 0 -0.0038388992497719924 0.010962370190977531 0 -0.0037829510697381776 0.010997283488472551 0 -0.026149966593624844 0.0060047985246544124 0 -0.026408059073391811 0.0054890300736465192 0 -0.026291341612616387 0.0054284788819974157 0 -0.026117039884842673 0.0057480147694610696 0 -0.026291341612616387 0.0054284788819974157 0 -0.026317333178108009 0.0051074312422427414 0 -0.026426533204698583 0.0049937938575708683 0 -0.026317333178108009 0.0051074312422427414 0 -0.026468206493015244 0.0047749525745748745 0 -0.026291341612616387 0.0054284788819974157 0 -0.026426533204698583 0.0049937938575708683 0 -0.026317333178108009 0.0051074312422427414 0 -0.026408059073391811 0.0054890300736465192 0 -0.026291341612616387 0.0054284788819974157 0 -0.026426533204698583 0.0049937938575708683 0 -0.026408059073391811 0.0054890300736465192 0 -0.026426533204698583 0.0049937938575708683 0 -0.026509867949065961 0.004520927824857697 0 -0.0037829510697381776 0.010997283488472551 0 -0.0028561128205461684 0.01093184299061461 0 -0.0027316841405738142 0.010941779472538746 0 -0.0032678688638073652 0.0110109668864731 0 -0.0028561128205461684 0.01093184299061461 0 -0.0030298138232890109 0.010976892572279687 0 -0.0032970159845550312 0.01077619387290189 0 -0.0032878226535376438 0.010861810761108743 0 -0.014510099870116823 0.0082245988524477648 0 -0.014200850005861092 0.0076464973831624587 0 -0.026426533204698583 0.0049937938575708683 0 -0.026483122552203919 0.0047160450738772198 0 -0.026509867949065961 0.004520927824857697 0 -0.026426533204698583 0.0049937938575708683 0 -0.026483122552203919 0.0047160450738772198 0 -0.026468206493015244 0.0047749525745748745 0 -0.026483122552203919 0.0047160450738772198 0 -0.026509867949065961 0.004520927824857697 0 -0.026563498140498257 0.0045966626580758816 0 -0.0028561128205461684 0.01093184299061461 0 -0.002886805675951302 0.010871282550786173 0 -0.0027609664378241126 0.010813777025570074 0 -0.0028561128205461684 0.01093184299061461 0 -0.0027316841405738142 0.010941779472538746 0 -0.0027609664378241126 0.010813777025570074 0 -0.0028561128205461684 0.01093184299061461 0 -0.002886805675951302 0.010871282550786173 0 -0.0030298138232890109 0.010976892572279687 0 -0.002886805675951302 0.010871282550786173 0 -0.0030298138232890109 0.010976892572279687 0 -0.0029967346823542148 0.01087870599344065 0 -0.0032678688638073652 0.0110109668864731 0 -0.0030298138232890109 0.010976892572279687 0 -0.0031434465774447559 0.011032988957650505 0 -0.0030298138232890109 0.010976892572279687 0 -0.0031434465774447559 0.011032988957650505 0 -0.0029967346823542148 0.01087870599344065 0 -0.0032922219528187004 0.011153077350967629 0 -0.0031434465774447559 0.011032988957650505 0 -0.0029967346823542148 0.01087870599344065 0 -0.0032922219528187004 0.011153077350967629 0 -0.0031973611732852162 0.011054941046703076 0 -0.0031434465774447559 0.011032988957650505 0 -0.0032678688638073652 0.0110109668864731 0 -0.0031973611732852162 0.011054941046703076 0 -0.0031434465774447559 0.011032988957650505 0 -0.02575721806894582 0.0046963782473373079 0 -0.026305492129201788 0.0044189386529365242 0 -0.03007529683474891 0.001877072186323584 0 -0.029641641107063851 0.0012518050216920834 0 -0.028299584856728781 0.0022036973025722439 0 -0.026003988885692608 0.0056103214825535064 0 -0.026050187187598339 0.0049499782283044065 0 -0.026317333178108009 0.0051074312422427414 0 -0.026050187187598339 0.0049499782283044065 0 -0.026317333178108009 0.0051074312422427414 0 -0.026611451135151284 0.0045550897811413808 0 -0.026003988885692608 0.0056103214825535064 0 -0.026117039884842673 0.0057480147694610696 0 -0.026317333178108009 0.0051074312422427414 0 -0.026468206493015244 0.0047749525745748745 0 -0.026563498140498257 0.0045966626580758816 0 -0.026611451135151284 0.0045550897811413808 0 -0.026317333178108009 0.0051074312422427414 0 -0.026468206493015244 0.0047749525745748745 0 -0.026611451135151284 0.0045550897811413808 0 -0.026483122552203919 0.0047160450738772198 0 -0.026468206493015244 0.0047749525745748745 0 -0.026563498140498257 0.0045966626580758816 0 -0.026509867949065961 0.004520927824857697 0 -0.026630483505463862 0.0045524577107051928 0 -0.026823771753734672 0.004648649181717264 0 -0.026563498140498257 0.0045966626580758816 0 -0.026705093093344737 0.0045222423483741907 0 -0.026611451135151284 0.0045550897811413808 0 -0.026509867949065961 0.004520927824857697 0 -0.026563498140498257 0.0045966626580758816 0 -0.026630483505463862 0.0045524577107051928 0 -0.026563498140498257 0.0045966626580758816 0 -0.026630483505463862 0.0045524577107051928 0 -0.026705093093344737 0.0045222423483741907 0 -0.026630483505463862 0.0045524577107051928 0 -0.026705093093344737 0.0045222423483741907 0 -0.026823771753734672 0.004648649181717264 0 -0.027024466758489799 0.0044159771699403671 0 -0.026611451135151284 0.0045550897811413808 0 -0.027654457537129279 0.0041230600826155147 0 -0.026705093093344737 0.0045222423483741907 0 -0.027024466758489799 0.0044159771699403671 0 -0.026611451135151284 0.0045550897811413808 0 -0.026050187187598339 0.0049499782283044065 0 -0.026611451135151284 0.0045550897811413808 0 -0.027654457537129279 0.0041230600826155147 0 -0.029923555094594306 0.0028796177068288204 0 -0.028299584856728781 0.0022036973025722439 0 -0.027654457537129279 0.0041230600826155147 0 -0.026305492129201788 0.0044189386529365242 0 -0.026511041564969202 0.00456626009702226 0 -0.029282763860617574 0.004202544772047432 0 -0.02815899527735018 0.0049611161312562114 0 -0.027654457537129279 0.0041230600826155147 0 -0.027024466758489799 0.0044159771699403671 0 -0.027654457537129279 0.0041230600826155147 0 -0.027427854730924184 0.0046972998936586977 0 -0.02815899527735018 0.0049611161312562114 0 -0.027427854730924184 0.0046972998936586977 0 -0.027159951314115187 0.0051495864432275279 0 -0.02815899527735018 0.0049611161312562114 0 -0.027654457537129279 0.0041230600826155147 0 -0.027427854730924184 0.0046972998936586977 0 -0.0027316841405738142 0.010941779472538746 0 -0.0019407610649580574 0.010079665228081713 0 -0.0025285607780697085 0.010562839028926227 0 -0.026509867949065961 0.004520927824857697 0 -0.026823771753734672 0.004648649181717264 0 -0.027008717340324891 0.0052098940963509095 0 -0.027046274462686429 0.0048701295266182481 0 -0.026823771753734672 0.004648649181717264 0 -0.027008717340324891 0.0052098940963509095 0 -0.014200850005861092 0.0076464973831624587 0 -0.013356468667106257 0.0065889678466058699 0 -0.027427854730924184 0.0046972998936586977 0 -0.027046274462686429 0.0048701295266182481 0 -0.027159951314115187 0.0051495864432275279 0 -0.027427854730924184 0.0046972998936586977 0 -0.027046274462686429 0.0048701295266182481 0 -0.02704215414927983 0.0046399337150924251 0 -0.027024466758489799 0.0044159771699403671 0 -0.027427854730924184 0.0046972998936586977 0 -0.02704215414927983 0.0046399337150924251 0 -0.027046274462686429 0.0048701295266182481 0 -0.02704215414927983 0.0046399337150924251 0 -0.026823771753734672 0.004648649181717264 0 -0.026705093093344737 0.0045222423483741907 0 -0.027024466758489799 0.0044159771699403671 0 -0.026823771753734672 0.004648649181717264 0 -0.027024466758489799 0.0044159771699403671 0 -0.02704215414927983 0.0046399337150924251 0 -0.026823771753734672 0.004648649181717264 0 -0.0019407610649580574 0.010079665228081713 0 -0.0024413588579842689 0.010333197473542586 0 -0.0025285607780697085 0.010562839028926227 0 -0.0019407610649580574 0.010079665228081713 0 -0.0024413588579842689 0.010333197473542586 0 -0.0023348573370002971 0.0099382635538031536 0 -0.027046274462686429 0.0048701295266182481 0 -0.027008717340324891 0.0052098940963509095 0 -0.027159951314115187 0.0051495864432275279 0 -0.026985868040185459 0.0053401614265527128 0 -0.027159951314115187 0.0051495864432275279 0 -0.02784781655042819 0.0057709502795325086 0 -0.013356468667106257 0.0065889678466058699 0 -0.013535018608424631 0.0064606176115157921 0 -0.015842361996397859 0.0055831122976535558 0 -0.013356468667106257 0.0065889678466058699 0 -0.027913996236414246 0.0066093716024827444 0 -0.026985868040185459 0.0053401614265527128 0 -0.02784781655042819 0.0057709502795325086 0 -0.02815899527735018 0.0049611161312562114 0 -0.027159951314115187 0.0051495864432275279 0 -0.02784781655042819 0.0057709502795325086 0 -0.029115951403960109 0.0062119864739926768 0 -0.029236108364253621 0.0051925917595396108 0 -0.02784781655042819 0.0057709502795325086 0 -0.029236108364253621 0.0051925917595396108 0 -0.02815899527735018 0.0049611161312562114 0 -0.02784781655042819 0.0057709502795325086 0 -0.0029069292297865985 0.010588112350210397 0 -0.003181853867724369 0.010569751432700274 0 -0.0026861733664368267 0.010213786975762213 0 -0.0032922219528187004 0.011153077350967629 0 -0.003181853867724369 0.010569751432700274 0 -0.0029967346823542148 0.01087870599344065 0 -0.0029069292297865985 0.010588112350210397 0 -0.003181853867724369 0.010569751432700274 0 -0.0029967346823542148 0.01087870599344065 0 -0.002886805675951302 0.010871282550786173 0 -0.0029967346823542148 0.01087870599344065 0 -0.002753233910154417 0.010648348300829622 0 -0.0029069292297865985 0.010588112350210397 0 -0.0029967346823542148 0.01087870599344065 0 -0.002753233910154417 0.010648348300829622 0 -0.002886805675951302 0.010871282550786173 0 -0.002753233910154417 0.010648348300829622 0 -0.0027609664378241126 0.010813777025570074 0 -0.0027316841405738142 0.010941779472538746 0 -0.0027609664378241126 0.010813777025570074 0 -0.0025285607780697085 0.010562839028926227 0 -0.002753233910154417 0.010648348300829622 0 -0.0027609664378241126 0.010813777025570074 0 -0.0025285607780697085 0.010562839028926227 0 -0.002753233910154417 0.010648348300829622 0 -0.0024413588579842689 0.010333197473542586 0 -0.0026861733664368267 0.010213786975762213 0 -0.002753233910154417 0.010648348300829622 0 -0.0024413588579842689 0.010333197473542586 0 -0.0025285607780697085 0.010562839028926227 0 -0.0029069292297865985 0.010588112350210397 0 -0.002753233910154417 0.010648348300829622 0 -0.0026861733664368267 0.010213786975762213 0 -0.0022751786897116676 0.0090861613480306119 0 -0.0026861733664368267 0.010213786975762213 0 -0.0023348573370002971 0.0099382635538031536 0 -0.0022751786897116676 0.0090861613480306119 0 -0.0019407610649580574 0.010079665228081713 0 -0.0023348573370002971 0.0099382635538031536 0 -0.0022751786897116676 0.0090861613480306119 0 -0.0026861733664368267 0.010213786975762213 0 -0.0030400614224258145 0.0098100436757522728 0 -0.0024413588579842689 0.010333197473542586 0 -0.0026861733664368267 0.010213786975762213 0 -0.0023348573370002971 0.0099382635538031536 0 -0.003181853867724369 0.010569751432700274 0 -0.0026861733664368267 0.010213786975762213 0 -0.0030400614224258145 0.0098100436757522728 0 -0.003181853867724369 0.010569751432700274 0 -0.0030400614224258145 0.0098100436757522728 0 -0.0037554152179111277 0.010059447365585098 0 -0.003181853867724369 0.010569751432700274 0 -0.0037554152179111277 0.010059447365585098 0 -0.0039831517595378552 0.010907621440951167 0 -0.0032922219528187004 0.011153077350967629 0 -0.003181853867724369 0.010569751432700274 0 -0.0039831517595378552 0.010907621440951167 0 -0.0039831517595378552 0.010907621440951167 0 -0.0043957225645431591 0.010797978878882895 0 -0.0044579328469595298 0.011464677219213451 0 -0.0043311385420438187 0.0098317895017384083 0 -0.0037554152179111277 0.010059447365585098 0 -0.0043957225645431591 0.010797978878882895 0 -0.0037554152179111277 0.010059447365585098 0 -0.0039831517595378552 0.010907621440951167 0 -0.0043957225645431591 0.010797978878882895 0 -0.0043957225645431591 0.010797978878882895 0 -0.0048453793293164217 0.010400759259071152 0 -0.0044280170822634853 0.012049743243083387 0 -0.0043311385420438187 0.0098317895017384083 0 -0.0043957225645431591 0.010797978878882895 0 -0.0048453793293164217 0.010400759259071152 0 -0.0048453793293164217 0.010400759259071152 0 -0.0059819442265981113 0.010494414596276916 0 -0.0044280170822634853 0.012049743243083387 0 -0.0056135316233206032 0.0097218415574631383 0 -0.0048453793293164217 0.010400759259071152 0 -0.0059819442265981113 0.010494414596276916 0 -0.0031831276491321716 0.011600309656370562 0 -0.0033492962634098932 0.011609282117349275 0 -0.0033392011584566401 0.014711477910113933 0 -0.0044280170822634853 0.012049743243083387 0 -0.002575799744260024 0.013032785231182517 0 -0.0044280170822634853 0.012049743243083387 0 -0.002575799744260024 0.013032785231182517 0 -0.0027924776584590605 0.011634115491465034 0 -0.0044280170822634853 0.012049743243083387 0 -0.0044579328469595298 0.011464677219213451 0 -0.0027924776584590605 0.011634115491465034 0 -0.0043957225645431591 0.010797978878882895 0 -0.0044280170822634853 0.012049743243083387 0 -0.0044579328469595298 0.011464677219213451 0 -0.0044579328469595298 0.011464677219213451 0 -0.0038307782963776121 0.010635599025721258 0 -0.0043747778777242351 0.01137300749585015 0 -0.0021289430289394731 0.010923200599879869 0 -0.0029216638042790003 0.011156818661954213 0 -0.0044579328469595298 0.011464677219213451 0 -0.0038307782963776121 0.010635599025721258 0 -0.0027924776584590605 0.011634115491465034 0 -0.0012585577913671454 0.011222908232754994 0 0.00015887492142420488 0.010869207377181812 0 -0.00077934880602904962 0.010214035969540503 0 -0.0012585577913671454 0.011222908232754994 0 -0.0024533169638981524 0.011358957466491416 0 -0.0019646739103533744 0.010367966616135333 0 -0.0025905626777739414 0.010743289786791229 0 -0.0029845296779290515 0.010967967621568937 0 -0.0024533169638981524 0.011358957466491416 0 -0.0025905626777739414 0.010743289786791229 0 -0.0024533169638981524 0.011358957466491416 0 -0.0019646739103533744 0.010367966616135333 0 -0.0032678688638073652 0.0110109668864731 0 -0.0029845296779290515 0.010967967621568937 0 -0.0029154625583684654 0.010258157803672827 0 -0.0025905626777739414 0.010743289786791229 0 -0.0029845296779290515 0.010967967621568937 0 -0.0029154625583684654 0.010258157803672827 0 -0.0032922219528187004 0.011153077350967629 0 -0.0031973611732852162 0.011054941046703076 0 -0.0029845296779290515 0.010967967621568937 0 -0.0032922219528187004 0.011153077350967629 0 -0.0029845296779290515 0.010967967621568937 0 -0.0024533169638981524 0.011358957466491416 0 -0.0032922219528187004 0.011153077350967629 0 -0.0039831517595378552 0.010907621440951167 0 -0.0043747778777242351 0.01137300749585015 0 -0.003095342708800468 0.011196920492511713 0 -0.0029216638042790003 0.011156818661954213 0 -0.0039831517595378552 0.010907621440951167 0 -0.0044579328469595298 0.011464677219213451 0 -0.0043747778777242351 0.01137300749585015 0 0.0040687046570065466 0.012697918245179024 0 0.0028840407988536313 0.014162455150164559 0 0.0025306829987066476 0.011929834914133918 0 0.0029478120874804115 0.014608029889080944 0 0.0035289953167670627 0.014603151556384145 0 0.0028840407988536313 0.014162455150164559 0 0.0028840407988536313 0.014162455150164559 0 0.0010748357006334153 0.013101589348184737 0 0.00036435828294923117 0.015241538425300549 0 0.0010723190780439382 0.012682346214512861 0 -3.5664605919611301e-07 0.012503948203335407 0 0.0029478120874804115 0.014608029889080944 0 0.0028840407988536313 0.014162455150164559 0 0.0025502719331432435 0.014548285864494925 0 0.0028840407988536313 0.014162455150164559 0 0.0010748357006334153 0.013101589348184737 0 0.0025306829987066476 0.011929834914133918 0 0.0010748357006334153 0.013101589348184737 0 -0.00088537599098046109 0.013067792624938217 0 0.00022679784358220311 0.011598209036191551 0 0.0010748357006334153 0.013101589348184737 0 -0.00088537599098046109 0.013067792624938217 0 0.00036435828294923117 0.015241538425300549 0 -0.00088537599098046109 0.013067792624938217 0 0.00036435828294923117 0.015241538425300549 0 -0.0017018955419911687 0.014503992089371139 0 -0.0023429603154542038 0.016468084927559853 0 -0.0033392011584566401 0.014711477910113933 0 -0.0017018955419911687 0.014503992089371139 0 -0.0033392011584566401 0.014711477910113933 0 -0.0017018955419911687 0.014503992089371139 0 -0.002575799744260024 0.013032785231182517 0 -0.00088537599098046109 0.013067792624938217 0 -0.002575799744260024 0.013032785231182517 0 -0.0027924776584590605 0.011634115491465034 0 -0.00088537599098046109 0.013067792624938217 0 -0.0017018955419911687 0.014503992089371139 0 -0.002575799744260024 0.013032785231182517 0 -0.0027924776584590605 0.011634115491465034 0 -0.0013509086005724378 0.010028854384233022 0 0.00022679784358220311 0.011598209036191551 0 -0.0021289430289394731 0.010923200599879869 0 -0.00084441050742410997 0.010580920778047578 0 -0.0038307782963776121 0.010635599025721258 0 -0.0027924776584590605 0.011634115491465034 0 -0.0013509086005724378 0.010028854384233022 0 -0.00084441050742410997 0.010580920778047578 0 1.5863203677435323e-06 0.010375270778451736 0 -0.0013509086005724378 0.010028854384233022 0 0.00022679784358220311 0.011598209036191551 0 0.0015178954916161898 0.010252460017526456 0 -0.00088537599098046109 0.013067792624938217 0 -0.0027924776584590605 0.011634115491465034 0 0.00022679784358220311 0.011598209036191551 0 0.0010748357006334153 0.013101589348184737 0 0.00022679784358220311 0.011598209036191551 0 0.0025306829987066476 0.011929834914133918 0 0.00022679784358220311 0.011598209036191551 0 0.0025306829987066476 0.011929834914133918 0 0.0015178954916161898 0.010252460017526456 0 0.0042775020388529416 0.011591035668385739 0 0.0025306829987066476 0.011929834914133918 0 0.0033126588752071195 0.010525886857843262 0 0.0025306829987066476 0.011929834914133918 0 0.0033126588752071195 0.010525886857843262 0 0.0015178954916161898 0.010252460017526456 0 0.0026582272471599279 0.0093104271629411185 0 0.0015178954916161898 0.010252460017526456 0 0.001485520861801797 0.0087714943217693658 0 0.0039224926679197712 0.0096203172482075827 0 0.0026582272471599279 0.0093104271629411185 0 0.0033126588752071195 0.010525886857843262 0 0.0039224926679197712 0.0096203172482075827 0 0.0035372609726651225 0.0086199785568397466 0 0.0026582272471599279 0.0093104271629411185 0 0.0026582272471599279 0.0093104271629411185 0 0.0033126588752071195 0.010525886857843262 0 0.0015178954916161898 0.010252460017526456 0 0.0015178954916161898 0.010252460017526456 0 0.00060148121706525266 0.0096955261274364428 0 0.001485520861801797 0.0087714943217693658 0 0.00060148121706525266 0.0096955261274364428 0 0.00053210163841223724 0.0088105323566532567 0 0.001485520861801797 0.0087714943217693658 0 0.00015887492142420488 0.010869207377181812 0 0.0015178954916161898 0.010252460017526456 0 0.00060148121706525266 0.0096955261274364428 0 0.00015887492142420488 0.010869207377181812 0 0.00060148121706525266 0.0096955261274364428 0 -0.00077934880602904962 0.010214035969540503 0 0.00060148121706525266 0.0096955261274364428 0 -0.00032326916150195487 0.0092400635702728842 0 -0.00077934880602904962 0.010214035969540503 0 0.00060148121706525266 0.0096955261274364428 0 -0.00032326916150195487 0.0092400635702728842 0 0.00053210163841223724 0.0088105323566532567 0 -0.00032326916150195487 0.0092400635702728842 0 -0.00011700646140333481 0.0083658025202481608 0 0.00053210163841223724 0.0088105323566532567 0 -0.00011700646140333481 0.0083658025202481608 0 -0.00082174678962783094 0.008001156523244176 0 1.9731435930686234e-05 0.0075336017528913604 0 -0.00011700646140333481 0.0083658025202481608 0 0.0010034442742338069 0.0079664500301366899 0 1.9731435930686234e-05 0.0075336017528913604 0 0.0010034442742338069 0.0079664500301366899 0 0.00086252339320988568 0.0073590526507104053 0 1.9731435930686234e-05 0.0075336017528913604 0 0.0010034442742338069 0.0079664500301366899 0 0.0018871039215848512 0.0072761387506554186 0 0.00086252339320988568 0.0073590526507104053 0 -0.00011700646140333481 0.0083658025202481608 0 0.0010034442742338069 0.0079664500301366899 0 0.00053210163841223724 0.0088105323566532567 0 0.0010034442742338069 0.0079664500301366899 0 0.00053210163841223724 0.0088105323566532567 0 0.001485520861801797 0.0087714943217693658 0 0.0010034442742338069 0.0079664500301366899 0 0.001485520861801797 0.0087714943217693658 0 0.002464590738362373 0.0079019073255402004 0 0.0026582272471599279 0.0093104271629411185 0 0.001485520861801797 0.0087714943217693658 0 0.002464590738362373 0.0079019073255402004 0 0.0010034442742338069 0.0079664500301366899 0 0.002464590738362373 0.0079019073255402004 0 0.0018871039215848512 0.0072761387506554186 0 0.0035375924828119133 0.007369808394487345 0 0.0029897888681546217 0.0069655218789951012 0 0.002464590738362373 0.0079019073255402004 0 0.0035372609726651225 0.0086199785568397466 0 0.0026582272471599279 0.0093104271629411185 0 0.002464590738362373 0.0079019073255402004 0 0.0035375924828119133 0.007369808394487345 0 0.0035372609726651225 0.0086199785568397466 0 0.002464590738362373 0.0079019073255402004 0 -0.0022770381122545471 0.0093805009463591819 0 -0.0031705822469971614 0.0096402659941743074 0 -0.0033051627948726256 0.010448148917798678 0 -0.0022770381122545471 0.0093805009463591819 0 -0.0029154625583684654 0.010258157803672827 0 -0.0019646739103533744 0.010367966616135333 0 -0.0026436186152982107 0.0099373491847768395 0 -0.0029675355808376248 0.010320220022103274 0 -0.0039191108595597194 0.010099631502279265 0 -0.0031705822469971614 0.0096402659941743074 0 -0.0032360057553907071 0.0093716622057307599 0 -0.0039191108595597194 0.010099631502279265 0 -0.0035048682619498801 0.01015085785561232 0 -0.0036149292603826458 0.010362758692478482 0 -0.0039191108595597194 0.010099631502279265 0 -0.0031705822469971614 0.0096402659941743074 0 -0.0035048682619498801 0.01015085785561232 0 -0.0031705822469971614 0.0096402659941743074 0 -0.0035048682619498801 0.01015085785561232 0 -0.0033051627948726256 0.010448148917798678 0 -0.0036878168531663748 0.010601423602378576 0 -0.0038388992497719924 0.010962370190977531 0 -0.0033051627948726256 0.010448148917798678 0 -0.0032970159845550312 0.01077619387290189 0 -0.0029675355808376248 0.010320220022103274 0 -0.0036878168531663748 0.010601423602378576 0 -0.0033051627948726256 0.010448148917798678 0 -0.0036149292603826458 0.010362758692478482 0 -0.0035048682619498801 0.01015085785561232 0 -0.0033051627948726256 0.010448148917798678 0 -0.0036149292603826458 0.010362758692478482 0 -0.0039191108595597194 0.010099631502279265 0 -0.0036878168531663748 0.010601423602378576 0 -0.0036149292603826458 0.010362758692478482 0 -0.0025905626777739414 0.010743289786791229 0 -0.0029154625583684654 0.010258157803672827 0 -0.0019646739103533744 0.010367966616135333 0 -0.0012585577913671454 0.011222908232754994 0 -0.0019646739103533744 0.010367966616135333 0 -0.00077934880602904962 0.010214035969540503 0 -0.0019646739103533744 0.010367966616135333 0 -0.00077934880602904962 0.010214035969540503 0 -0.0013992854136646851 0.0094562759375524663 0 -0.00032326916150195487 0.0092400635702728842 0 -0.00077934880602904962 0.010214035969540503 0 -0.0013992854136646851 0.0094562759375524663 0 -0.0022770381122545471 0.0093805009463591819 0 -0.0019646739103533744 0.010367966616135333 0 -0.0013992854136646851 0.0094562759375524663 0 -0.0022770381122545471 0.0093805009463591819 0 -0.0013992854136646851 0.0094562759375524663 0 -0.002081362016957028 0.0088110926806790162 0 -0.0013992854136646851 0.0094562759375524663 0 -0.002081362016957028 0.0088110926806790162 0 -0.0010588555775840123 0.0086376774866666044 0 -0.002081362016957028 0.0088110926806790162 0 -0.0010588555775840123 0.0086376774866666044 0 -0.0015453097872872848 0.0081257343486525902 0 -0.00032326916150195487 0.0092400635702728842 0 -0.0013992854136646851 0.0094562759375524663 0 -0.0010588555775840123 0.0086376774866666044 0 -0.00032326916150195487 0.0092400635702728842 0 -0.00011700646140333481 0.0083658025202481608 0 -0.0010588555775840123 0.0086376774866666044 0 -0.00082174678962783094 0.008001156523244176 0 -0.0014600778671507919 0.0073587127871037761 0 1.9731435930686234e-05 0.0075336017528913604 0 -0.00011700646140333481 0.0083658025202481608 0 -0.0010588555775840123 0.0086376774866666044 0 -0.00082174678962783094 0.008001156523244176 0 -0.0010588555775840123 0.0086376774866666044 0 -0.00082174678962783094 0.008001156523244176 0 -0.0015453097872872848 0.0081257343486525902 0 -0.00082174678962783094 0.008001156523244176 0 -0.0015453097872872848 0.0081257343486525902 0 -0.0014600778671507919 0.0073587127871037761 0 -0.002081362016957028 0.0088110926806790162 0 -0.0015453097872872848 0.0081257343486525902 0 -0.0022960817311362845 0.0079436611718534163 0 -0.004825309308551671 0.010539747198281402 0 -0.0073616432999397277 0.012511727657351403 0 -0.0015453097872872848 0.0081257343486525902 0 -0.0022960817311362845 0.0079436611718534163 0 -0.0014600778671507919 0.0073587127871037761 0 -0.02926405688736268 0.012112872227280349 0 -0.029459019361315935 0.015595080408845139 0 -0.032279097059878886 0.017879501883351707 0 -0.014916338204996682 0.011474749071999428 0 -0.014325943963715046 0.014516008100962759 0 -0.002081362016957028 0.0088110926806790162 0 -0.0022960817311362845 0.0079436611718534163 0 -0.0032589542746474837 0.0088384649386020597 0 -0.0032589542746474837 0.0088384649386020597 0 -0.0031093122040634488 0.008693844705466228 0 -0.0036801231745880549 0.010000216230392848 0 -0.0040803577639577432 0.0093626165288436414 0 -0.0032589542746474837 0.0088384649386020597 0 -0.0036801231745880549 0.010000216230392848 0 -0.004825309308551671 0.010539747198281402 0 -0.0042049968940696403 0.010046796717279295 0 -0.0022770381122545471 0.0093805009463591819 0 -0.0031705822469971614 0.0096402659941743074 0 -0.0028572251246774282 0.0090894884324538607 0 -0.002081362016957028 0.0088110926806790162 0 -0.0032589542746474837 0.0088384649386020597 0 -0.0028572251246774282 0.0090894884324538607 0 -0.0032589542746474837 0.0088384649386020597 0 -0.0028572251246774282 0.0090894884324538607 0 -0.0031093122040634488 0.008693844705466228 0 -0.0031705822469971614 0.0096402659941743074 0 -0.0028572251246774282 0.0090894884324538607 0 -0.0032360057553907071 0.0093716622057307599 0 -0.0022770381122545471 0.0093805009463591819 0 -0.002081362016957028 0.0088110926806790162 0 -0.0028572251246774282 0.0090894884324538607 0 -0.014675305696824487 0.009205553604439155 0 -0.014916338204996682 0.011474749071999428 0 -0.026318651852232838 0.010524862553807831 0 -0.026471326460403892 0.0066077017713361968 0 -0.02926405688736268 0.012112872227280349 0 -0.0039191108595597194 0.010099631502279265 0 -0.0032360057553907071 0.0093716622057307599 0 -0.0031093122040634488 0.008693844705466228 0 -0.0028572251246774282 0.0090894884324538607 0 -0.0032360057553907071 0.0093716622057307599 0 -0.0031093122040634488 0.008693844705466228 0 -0.026318651852232838 0.010524862553807831 0 -0.02926405688736268 0.012112872227280349 0 -0.027095170864217685 0.013659343060392031 0 -0.02926405688736268 0.012112872227280349 0 -0.027095170864217685 0.013659343060392031 0 -0.029459019361315935 0.015595080408845139 0 -0.025574357656753571 0.015616258287223919 0 -0.027049509444178253 0.015859302090228695 0 -0.026056658802175409 0.018562790745002472 0 -0.029459019361315935 0.015595080408845139 0 -0.027049509444178253 0.015859302090228695 0 -0.026056658802175409 0.018562790745002472 0 -0.025574357656753571 0.015616258287223919 0 -0.027095170864217685 0.013659343060392031 0 -0.027049509444178253 0.015859302090228695 0 -0.027095170864217685 0.013659343060392031 0 -0.029459019361315935 0.015595080408845139 0 -0.027049509444178253 0.015859302090228695 0 -0.029459019361315935 0.015595080408845139 0 -0.032279097059878886 0.017879501883351707 0 -0.026056658802175409 0.018562790745002472 0 -0.014325943963715046 0.014516008100962759 0 -0.020030251103970626 0.016676853725280334 0 -0.017776481542470277 0.020837407827743952 0 -0.017430248562586351 0.021212382365673767 0 -0.018205768214443731 0.020852420875706424 0 -0.018164400025890249 0.02057531991865064 0 -0.017776481542470277 0.020837407827743952 0 -0.018205768214443731 0.020852420875706424 0 -0.017776481542470277 0.020837407827743952 0 -0.018037731419640695 0.020643505670728198 0 -0.017838696681443524 0.020668267479308014 0 -0.018164400025890249 0.02057531991865064 0 -0.018037731419640695 0.020643505670728198 0 -0.018198854504095849 0.020550306367223627 0 -0.018164400025890249 0.02057531991865064 0 -0.017776481542470277 0.020837407827743952 0 -0.018037731419640695 0.020643505670728198 0 -0.017776481542470277 0.020837407827743952 0 -0.016732708329380373 0.021415071663579227 0 -0.017495701470078048 0.02060810998027247 0 -0.016670148545234909 0.021536645564969106 0 -0.016664155168422127 0.02152136506779579 0 -0.017776481542470277 0.020837407827743952 0 -0.017430248562586351 0.021212382365673767 0 -0.016732708329380373 0.021415071663579227 0 -0.017430248562586351 0.021212382365673767 0 -0.017314207363090559 0.021417315731456655 0 -0.018205768214443731 0.020852420875706424 0 -0.017430248562586351 0.021212382365673767 0 -0.017314207363090559 0.021417315731456655 0 -0.016732708329380373 0.021415071663579227 0 -0.016384230955512703 0.022608954051418845 0 -0.015538231444327547 0.022696239163925717 0 -0.015468100247154261 0.022200383891777482 0 -0.0040803577639577432 0.0093626165288436414 0 -0.0036801231745880549 0.010000216230392848 0 -0.00504529054086068 0.010065701258970567 0 -0.014325943963715046 0.014516008100962759 0 -0.0073616432999397277 0.012511727657351403 0 -0.0073616432999397277 0.012511727657351403 0 -0.0037239510283949328 0.011727638380065811 0 -0.0014696902792512732 0.0075216971846832799 0 1.9731435930686234e-05 0.0075336017528913604 0 0.00010968981402941373 0.0066288066081045703 0 -0.015538231444327547 0.022696239163925717 0 -0.015468100247154261 0.022200383891777482 0 -0.014490597258546708 0.022325436821835843 0 -0.0073616432999397277 0.012511727657351403 0 -0.0070909835794259191 0.013980843662513275 0 -0.015468100247154261 0.022200383891777482 0 -0.014906316100847061 0.021862306517914668 0 -0.014490597258546708 0.022325436821835843 0 -0.015468100247154261 0.022200383891777482 0 -0.016016021909303495 0.021541871217575118 0 -0.014906316100847061 0.021862306517914668 0 -0.014325943963715046 0.014516008100962759 0 -0.016270100593624812 0.018916581776040855 0 -0.017314207363090559 0.021417315731456655 0 -0.016732708329380373 0.021415071663579227 0 -0.016016021909303495 0.021541871217575118 0 -0.016732708329380373 0.021415071663579227 0 -0.016016021909303495 0.021541871217575118 0 -0.016354702384915355 0.021345516404359013 0 -0.016384230955512703 0.022608954051418845 0 -0.015468100247154261 0.022200383891777482 0 -0.016016021909303495 0.021541871217575118 0 -0.016016021909303495 0.021541871217575118 0 -0.016081230835698727 0.021181043219817508 0 -0.016354702384915355 0.021345516404359013 0 -0.016016021909303495 0.021541871217575118 0 -0.016081230835698727 0.021181043219817508 0 -0.015531505517869588 0.021371392750317401 0 -0.016081230835698727 0.021181043219817508 0 -0.015531505517869588 0.021371392750317401 0 -0.015894856361438711 0.020841587689729778 0 -0.016016021909303495 0.021541871217575118 0 -0.014906316100847061 0.021862306517914668 0 -0.015531505517869588 0.021371392750317401 0 -0.015531505517869588 0.021371392750317401 0 -0.014991257273238258 0.02111007806313699 0 -0.015894856361438711 0.020841587689729778 0 -0.014906316100847061 0.021862306517914668 0 -0.015531505517869588 0.021371392750317401 0 -0.014991257273238258 0.02111007806313699 0 -0.014906316100847061 0.021862306517914668 0 -0.014991257273238258 0.02111007806313699 0 -0.014104904665698163 0.021981886122619195 0 -0.015085601278380106 0.022503887146136735 0 -0.015808742991229818 0.022178163619962877 0 -0.013322783079021313 0.022714794933639655 0 -0.013461826610980764 0.023590147642936408 0 -0.012355031243834263 0.023611849919159537 0 -0.013461826610980764 0.023590147642936408 0 -0.012355031243834263 0.023611849919159537 0 -0.013256465314474412 0.024491631886470654 0 -0.015085601278380106 0.022503887146136735 0 -0.014948279979033141 0.022926122482568909 0 -0.013322783079021313 0.022714794933639655 0 -0.013461826610980764 0.023590147642936408 0 -0.013955337075995207 0.022785025478007204 0 -0.015672406918472291 0.022408760753748994 0 -0.015633557950430726 0.022563014275286626 0 -0.016165643496080531 0.022442184634185531 0 -0.015808742991229818 0.022178163619962877 0 -0.016496643835836888 0.02198929277932319 0 -0.016081230835698727 0.021181043219817508 0 -0.015894856361438711 0.020841587689729778 0 -0.016527841732295011 0.020723819991133909 0 -0.015098610900623907 0.02267356713211632 0 -0.015672406918472291 0.022408760753748994 0 -0.015633557950430726 0.022563014275286626 0 -0.014948279979033141 0.022926122482568909 0 -0.016089704345192475 0.0228371310876468 0 -0.015672406918472291 0.022408760753748994 0 -0.016165643496080531 0.022442184634185531 0 -0.016243784522083554 0.022135225338765555 0 -0.017894039718498171 0.020662639903050863 0 -0.017983119741151653 0.020793784192309237 0 -0.017857806650724388 0.020664797127718217 0 -0.016496643835836888 0.02198929277932319 0 -0.016089704345192475 0.0228371310876468 0 -0.017894039718498171 0.020662639903050863 0 -0.018026447435716131 0.021096330500555784 0 -0.017983119741151653 0.020793784192309237 0 -0.018122872437129074 0.021697940760517592 0 -0.017805636929828728 0.021754298101121266 0 -0.01809718340943315 0.021852926113172917 0 -0.016496643835836888 0.02198929277932319 0 -0.017351322833775887 0.021699167286765002 0 -0.018026447435716131 0.021096330500555784 0 -0.017983119741151653 0.020793784192309237 0 -0.017954262574528274 0.020892584999425343 0 -0.017983119741151653 0.020793784192309237 0 -0.018027379680977139 0.020683825667685864 0 -0.017857806650724388 0.020664797127718217 0 -0.018027379680977139 0.020683825667685864 0 -0.017838696681443524 0.020668267479308014 0 -0.017857806650724388 0.020664797127718217 0 -0.017983119741151653 0.020793784192309237 0 -0.018027379680977139 0.020683825667685864 0 -0.017954262574528274 0.020892584999425343 0 -0.018037731419640695 0.020643505670728198 0 -0.018027379680977139 0.020683825667685864 0 -0.018198854504095849 0.020550306367223627 0 -0.018037731419640695 0.020643505670728198 0 -0.018027379680977139 0.020683825667685864 0 -0.017838696681443524 0.020668267479308014 0 -0.016496643835836888 0.02198929277932319 0 -0.016664155168422127 0.02152136506779579 0 -0.016081230835698727 0.021181043219817508 0 -0.016527841732295011 0.020723819991133909 0 -0.016354702384915355 0.021345516404359013 0 -0.017776481542470277 0.020837407827743952 0 -0.017838696681443524 0.020668267479308014 0 -0.017495701470078048 0.02060810998027247 0 -0.017838696681443524 0.020668267479308014 0 -0.017495701470078048 0.02060810998027247 0 -0.017857806650724388 0.020664797127718217 0 -0.017894039718498171 0.020662639903050863 0 -0.017495701470078048 0.02060810998027247 0 -0.017857806650724388 0.020664797127718217 0 0.0029897888681546217 0.0069655218789951012 0 0.0027406234218542219 0.0066178750783601669 0 0.0021604260162586581 0.0066435344309715471 0 0.0029897888681546217 0.0069655218789951012 0 0.0018871039215848512 0.0072761387506554186 0 0.0021604260162586581 0.0066435344309715471 0 0.0029897888681546217 0.0069655218789951012 0 0.002464590738362373 0.0079019073255402004 0 0.0018871039215848512 0.0072761387506554186 0 0.0018871039215848512 0.0072761387506554186 0 0.0021604260162586581 0.0066435344309715471 0 0.0012171045112349518 0.0068157313367888687 0 0.0021604260162586581 0.0066435344309715471 0 0.0012171045112349518 0.0068157313367888687 0 0.0015916723521189012 0.006259785509429793 0 0.0012171045112349518 0.0068157313367888687 0 0.00010968981402941373 0.0066288066081045703 0 0.0015916723521189012 0.006259785509429793 0 -0.014490597258546708 0.022325436821835843 0 -0.014280300836441237 0.022026693199596176 0 -0.013122213679701643 0.022050923282839197 0 -0.0070909835794259191 0.013980843662513275 0 -0.0055886881707992338 0.014239813361731392 0 0.0012171045112349518 0.0068157313367888687 0 0.00086252339320988568 0.0073590526507104053 0 0.00010968981402941373 0.0066288066081045703 0 0.0018871039215848512 0.0072761387506554186 0 0.0012171045112349518 0.0068157313367888687 0 0.00086252339320988568 0.0073590526507104053 0 0.00086252339320988568 0.0073590526507104053 0 1.9731435930686234e-05 0.0075336017528913604 0 0.00010968981402941373 0.0066288066081045703 0 -0.014906316100847061 0.021862306517914668 0 -0.014490597258546708 0.022325436821835843 0 -0.014280300836441237 0.022026693199596176 0 -0.014906316100847061 0.021862306517914668 0 -0.014280300836441237 0.022026693199596176 0 -0.014104904665698163 0.021981886122619195 0 -0.014280300836441237 0.022026693199596176 0 -0.014104904665698163 0.021981886122619195 0 -0.014051227523091714 0.021876302028818947 0 -0.014104904665698163 0.021981886122619195 0 -0.013955337075995207 0.022785025478007204 0 -0.014051227523091714 0.021876302028818947 0 -0.015085601278380106 0.022503887146136735 0 -0.014980634763453786 0.022479530350913577 0 -0.013322783079021313 0.022714794933639655 0 -0.014104904665698163 0.021981886122619195 0 -0.013955337075995207 0.022785025478007204 0 -0.013955337075995207 0.022785025478007204 0 -0.014332434229660867 0.023419702254982282 0 -0.014051227523091714 0.021876302028818947 0 -0.013461826610980764 0.023590147642936408 0 -0.013955337075995207 0.022785025478007204 0 -0.014332434229660867 0.023419702254982282 0 -0.013461826610980764 0.023590147642936408 0 -0.014332434229660867 0.023419702254982282 0 -0.01398072859824012 0.024227048053916567 0 -0.011802481689240233 0.023323269702516948 0 -0.011040506722604005 0.024007864657150397 0 -0.014332434229660867 0.023419702254982282 0 -0.014051227523091714 0.021876302028818947 0 -0.015676778131106028 0.02391492198153488 0 -0.014280300836441237 0.022026693199596176 0 -0.013122213679701643 0.022050923282839197 0 -0.014051227523091714 0.021876302028818947 0 -0.013122213679701643 0.022050923282839197 0 -0.014051227523091714 0.021876302028818947 0 -0.012730248513146518 0.020316140668693587 0 -0.0055886881707992338 0.014239813361731392 0 -0.0037894361858864839 0.014438888138469825 0 0.0021604260162586581 0.0066435344309715471 0 0.0015916723521189012 0.006259785509429793 0 0.0026346691523851822 0.006323656481503296 0 -0.013122213679701643 0.022050923282839197 0 -0.010786399845604425 0.021118048491642068 0 -0.012730248513146518 0.020316140668693587 0 0.0028853286802902741 0.0065436726617136365 0 0.0027406234218542219 0.0066178750783601669 0 0.0026346691523851822 0.006323656481503296 0 0.0027406234218542219 0.0066178750783601669 0 0.0021604260162586581 0.0066435344309715471 0 0.0026346691523851822 0.006323656481503296 0 -0.010184791934374202 0.018981169597748631 0 -0.01089950090310652 0.019107643235887126 0 -0.010529896517106592 0.01851007920783233 0 -0.01089950090310652 0.019107643235887126 0 -0.011034233770406587 0.018682085334053682 0 -0.010529896517106592 0.01851007920783233 0 -0.010184791934374202 0.018981169597748631 0 -0.01089950090310652 0.019107643235887126 0 -0.010843731792859119 0.019812347146274851 0 -0.0099037292879314183 0.01974362341264907 0 -0.010184791934374202 0.018981169597748631 0 -0.010843731792859119 0.019812347146274851 0 -0.0099037292879314183 0.01974362341264907 0 -0.010786399845604425 0.021118048491642068 0 -0.010843731792859119 0.019812347146274851 0 -0.010786399845604425 0.021118048491642068 0 -0.010843731792859119 0.019812347146274851 0 -0.012730248513146518 0.020316140668693587 0 -0.01089950090310652 0.019107643235887126 0 -0.010843731792859119 0.019812347146274851 0 -0.012730248513146518 0.020316140668693587 0 -0.0085483241554985805 0.027509922180254723 0 -0.011040506722604005 0.024007864657150397 0 -0.01089950090310652 0.019107643235887126 0 -0.011651200135040162 0.01887396395237699 0 -0.012730248513146518 0.020316140668693587 0 -0.016609192187734326 0.026316206821129999 0 -0.015952667641668798 0.025733247884914153 0 -0.015676778131106028 0.02391492198153488 0 -0.01089950090310652 0.019107643235887126 0 -0.011651200135040162 0.01887396395237699 0 -0.011034233770406587 0.018682085334053682 0 -0.016609192187734326 0.026316206821129999 0 -0.016339882857214823 0.026362250098686344 0 -0.016221361101376178 0.02616235421402912 0 -0.016609192187734326 0.026316206821129999 0 -0.016339882857214823 0.026362250098686344 0 -0.016164508254974189 0.026741976252543893 0 -0.016339882857214823 0.026362250098686344 0 -0.016020360434007442 0.026288875901854847 0 -0.016164508254974189 0.026741976252543893 0 -0.016339882857214823 0.026362250098686344 0 -0.016020360434007442 0.026288875901854847 0 -0.016221361101376178 0.02616235421402912 0 -0.016609192187734326 0.026316206821129999 0 -0.016221361101376178 0.02616235421402912 0 -0.015952667641668798 0.025733247884914153 0 -0.016020360434007442 0.026288875901854847 0 -0.016221361101376178 0.02616235421402912 0 -0.015952667641668798 0.025733247884914153 0 -0.015660370973843367 0.026082218841682853 0 -0.015658369591820671 0.026554318946444923 0 -0.014925415307193681 0.026417179513005526 0 -0.016020360434007442 0.026288875901854847 0 -0.015660370973843367 0.026082218841682853 0 -0.015952667641668798 0.025733247884914153 0 -0.016020360434007442 0.026288875901854847 0 -0.015660370973843367 0.026082218841682853 0 -0.015658369591820671 0.026554318946444923 0 -0.016020360434007442 0.026288875901854847 0 -0.015658369591820671 0.026554318946444923 0 -0.016164508254974189 0.026741976252543893 0 -0.014925415307193681 0.026417179513005526 0 -0.015193109234988138 0.025728061946463984 0 -0.014466693783788578 0.025724100426906572 0 -0.015660370973843367 0.026082218841682853 0 -0.014925415307193681 0.026417179513005526 0 -0.015193109234988138 0.025728061946463984 0 -0.015193109234988138 0.025728061946463984 0 -0.014917583010574855 0.024633678622847259 0 -0.014466693783788578 0.025724100426906572 0 -0.015660370973843367 0.026082218841682853 0 -0.015193109234988138 0.025728061946463984 0 -0.015952667641668798 0.025733247884914153 0 -0.015193109234988138 0.025728061946463984 0 -0.015952667641668798 0.025733247884914153 0 -0.014917583010574855 0.024633678622847259 0 -0.014332434229660867 0.023419702254982282 0 -0.015676778131106028 0.02391492198153488 0 -0.014917583010574855 0.024633678622847259 0 -0.015952667641668798 0.025733247884914153 0 -0.015676778131106028 0.02391492198153488 0 -0.014917583010574855 0.024633678622847259 0 -0.014917583010574855 0.024633678622847259 0 -0.014083373276754178 0.025075040552929095 0 -0.014466693783788578 0.025724100426906572 0 -0.014917583010574855 0.024633678622847259 0 -0.01398072859824012 0.024227048053916567 0 -0.014083373276754178 0.025075040552929095 0 -0.014332434229660867 0.023419702254982282 0 -0.014917583010574855 0.024633678622847259 0 -0.01398072859824012 0.024227048053916567 0 -0.01398072859824012 0.024227048053916567 0 -0.014083373276754178 0.025075040552929095 0 -0.013256465314474412 0.024491631886470654 0 -0.013843440874190019 0.026390718109074326 0 -0.013522765268509835 0.027283183825166687 0 -0.014083373276754178 0.025075040552929095 0 -0.013937997291274309 0.026313593927434355 0 -0.013190244995674789 0.027250037356724242 0 -0.014083373276754178 0.025075040552929095 0 -0.014466693783788578 0.025724100426906572 0 -0.013937997291274309 0.026313593927434355 0 -0.014925415307193681 0.026417179513005526 0 -0.014466693783788578 0.025724100426906572 0 -0.013937997291274309 0.026313593927434355 0 -0.013937997291274309 0.026313593927434355 0 -0.013651708648069208 0.027984383114202569 0 -0.013190244995674789 0.027250037356724242 0 -0.013937997291274309 0.026313593927434355 0 -0.014443113691532405 0.027310886907247266 0 -0.013212287272967508 0.028317866655473926 0 -0.013304850938335501 0.027793039602315359 0 -0.013068023604860543 0.028609836845066849 0 -0.014925415307193681 0.026417179513005526 0 -0.013937997291274309 0.026313593927434355 0 -0.014443113691532405 0.027310886907247266 0 -0.014443113691532405 0.027310886907247266 0 -0.013212287272967508 0.028317866655473926 0 -0.014673837569121058 0.02834561449518223 0 -0.012647364674583769 0.030478750599653347 0 -0.013212287272967508 0.028317866655473926 0 -0.014008118683524029 0.029504368359670085 0 -0.013212287272967508 0.028317866655473926 0 -0.014008118683524029 0.029504368359670085 0 -0.014673837569121058 0.02834561449518223 0 -0.014008118683524029 0.029504368359670085 0 -0.014673837569121058 0.02834561449518223 0 -0.015603759344115398 0.029330274436040096 0 -0.014673837569121058 0.02834561449518223 0 -0.015603759344115398 0.029330274436040096 0 -0.015826946349665704 0.027997403821229564 0 -0.015826946349665704 0.027997403821229564 0 -0.015391910512892876 0.027268967620625504 0 -0.016325928549260234 0.027254994884793559 0 -0.014443113691532405 0.027310886907247266 0 -0.014673837569121058 0.02834561449518223 0 -0.015391910512892876 0.027268967620625504 0 -0.014673837569121058 0.02834561449518223 0 -0.015826946349665704 0.027997403821229564 0 -0.015391910512892876 0.027268967620625504 0 -0.015658369591820671 0.026554318946444923 0 -0.014925415307193681 0.026417179513005526 0 -0.015391910512892876 0.027268967620625504 0 -0.014925415307193681 0.026417179513005526 0 -0.014443113691532405 0.027310886907247266 0 -0.015391910512892876 0.027268967620625504 0 -0.015658369591820671 0.026554318946444923 0 -0.015391910512892876 0.027268967620625504 0 -0.016164508254974189 0.026741976252543893 0 -0.015391910512892876 0.027268967620625504 0 -0.016325928549260234 0.027254994884793559 0 -0.016164508254974189 0.026741976252543893 0 -0.0088205025482003974 0.028715494277850924 0 -0.008504214274950737 0.027896183649278875 0 -0.0083304803515220228 0.028053001751792869 0 -0.0085483241554985805 0.027509922180254723 0 -0.0075211250193481039 0.030864162954824428 0 -0.016609192187734326 0.026316206821129999 0 -0.016325928549260234 0.027254994884793559 0 -0.017104364224019036 0.027799409446974375 0 -0.016609192187734326 0.026316206821129999 0 -0.016325928549260234 0.027254994884793559 0 -0.016164508254974189 0.026741976252543893 0 -0.0085483241554985805 0.027509922180254723 0 -0.0076672592208272697 0.029141096718632957 0 -0.011651200135040162 0.01887396395237699 0 -0.011034233770406587 0.018682085334053682 0 -0.010958532709161931 0.018152815881603779 0 -0.0075211250193481039 0.030864162954824428 0 -0.0076672592208272697 0.029141096718632957 0 -0.015826946349665704 0.027997403821229564 0 -0.016325928549260234 0.027254994884793559 0 -0.017104364224019036 0.027799409446974375 0 -0.0017375365797836749 0.042664444927823043 0 -0.0027718579531636374 0.045306868344903779 0 -0.0030819211935157981 0.043543634875425022 0 -0.0046831345627505027 0.043783324244091121 0 -0.0027718579531636374 0.045306868344903779 0 -0.0030819211935157981 0.043543634875425022 0 -0.015603759344115398 0.029330274436040096 0 -0.015826946349665704 0.027997403821229564 0 -0.017104364224019036 0.027799409446974375 0 -0.008545774342272907 0.033787030028709593 0 -0.0075211250193481039 0.030864162954824428 0 -0.0017375365797836749 0.042664444927823043 0 -0.0012701670319188944 0.041435447418815857 0 -0.0017979272313184142 0.042038503948954538 0 -0.0075060125856704022 0.036918262616900122 0 -0.0075211250193481039 0.030864162954824428 0 -0.005024495504967059 0.02995438457906114 0 -0.0076672592208272697 0.029141096718632957 0 -0.0015623408105471725 0.042472400360315264 0 -0.0015683017262142385 0.042494955931342684 0 -0.0017979272313184142 0.042038503948954538 0 -0.0020391373343148743 0.030569891596501135 0 -0.005024495504967059 0.02995438457906114 0 -0.0097500733118118209 0.018206643141597052 0 -0.010203719786315922 0.01777041964442656 0 -0.010281569703455824 0.018156022948058046 0 -0.0097500733118118209 0.018206643141597052 0 -0.010281569703455824 0.018156022948058046 0 -0.010529896517106592 0.01851007920783233 0 -0.0097500733118118209 0.018206643141597052 0 -0.010184791934374202 0.018981169597748631 0 -0.010529896517106592 0.01851007920783233 0 -0.010281569703455824 0.018156022948058046 0 -0.010690657512384315 0.018335477845673343 0 -0.010529896517106592 0.01851007920783233 0 -0.0012701670319188944 0.041435447418815857 0 -0.0017979272313184142 0.042038503948954538 0 -0.0014506521235572913 0.041253521410972743 0 -0.010203719786315922 0.01777041964442656 0 -0.010281569703455824 0.018156022948058046 0 -0.010690657512384315 0.018335477845673343 0 -0.011034233770406587 0.018682085334053682 0 -0.010958532709161931 0.018152815881603779 0 -0.010529896517106592 0.01851007920783233 0 -0.0076672592208272697 0.029141096718632957 0 -0.0082435540290360741 0.028406612776947091 0 -0.011995329525329527 0.024866994173254053 0 -0.011615072862163945 0.02518929892090347 0 -0.011934036605218454 0.025521039561518973 0 -0.015107827692732362 0.02431953277081168 0 -0.016089704345192475 0.0228371310876468 0 -0.011995329525329527 0.024866994173254053 0 -0.012481895345091587 0.025006976880109655 0 -0.011934036605218454 0.025521039561518973 0 -0.011995329525329527 0.024866994173254053 0 -0.011615072862163945 0.02518929892090347 0 -0.011716837676484251 0.02418261516866772 0 -0.019189471159837188 0.022958366144895312 0 -0.01826701465464519 0.022668936567219401 0 -0.018448397726299966 0.021924259246815823 0 -0.019189471159837188 0.022958366144895312 0 -0.01826701465464519 0.022668936567219401 0 -0.018070715262888552 0.023397579481468898 0 -0.017805636929828728 0.021754298101121266 0 -0.017861199440693157 0.022023050089289363 0 -0.01809718340943315 0.021852926113172917 0 -0.019189471159837188 0.022958366144895312 0 -0.018448397726299966 0.021924259246815823 0 -0.019449909067334684 0.021402776177551971 0 -0.017339574232524135 0.022258300542855394 0 -0.016089704345192475 0.0228371310876468 0 -0.011995329525329527 0.024866994173254053 0 -0.011716837676484251 0.02418261516866772 0 -0.012275599986449802 0.024394055952321473 0 -0.012355031243834263 0.023611849919159537 0 -0.011716837676484251 0.02418261516866772 0 -0.012275599986449802 0.024394055952321473 0 -0.012275599986449802 0.024394055952321473 0 -0.013256465314474412 0.024491631886470654 0 -0.012481895345091587 0.025006976880109655 0 -0.012355031243834263 0.023611849919159537 0 -0.012275599986449802 0.024394055952321473 0 -0.013256465314474412 0.024491631886470654 0 -0.014083373276754178 0.025075040552929095 0 -0.013256465314474412 0.024491631886470654 0 -0.013346969158683863 0.025991900968367523 0 -0.013461826610980764 0.023590147642936408 0 -0.01398072859824012 0.024227048053916567 0 -0.013256465314474412 0.024491631886470654 0 -0.013333697443941979 0.025419700940226983 0 -0.013091015862167382 0.025861479776291788 0 -0.014083373276754178 0.025075040552929095 0 -0.013346969158683863 0.025991900968367523 0 -0.013775743151070864 0.027177323072107774 0 -0.013256465314474412 0.024491631886470654 0 -0.013346969158683863 0.025991900968367523 0 -0.012595121964672667 0.026156517198528732 0 -0.011995329525329527 0.024866994173254053 0 -0.012275599986449802 0.024394055952321473 0 -0.012481895345091587 0.025006976880109655 0 -0.013346969158683863 0.025991900968367523 0 -0.012595121964672667 0.026156517198528732 0 -0.013020976924400915 0.026931335260148619 0 -0.013091015862167382 0.025861479776291788 0 -0.012945803577785235 0.026577113858677823 0 -0.013020976924400915 0.026931335260148619 0 -0.012907413859371521 0.027754463377904538 0 -0.012078648685557202 0.027475123754025915 0 -0.012595121964672667 0.026156517198528732 0 -0.013020976924400915 0.026931335260148619 0 -0.012078648685557202 0.027475123754025915 0 -0.013020976924400915 0.026931335260148619 0 -0.013775743151070864 0.027177323072107774 0 -0.012907413859371521 0.027754463377904538 0 -0.013346969158683863 0.025991900968367523 0 -0.013020976924400915 0.026931335260148619 0 -0.013775743151070864 0.027177323072107774 0 -0.012863575026237936 0.028935766691551769 0 -0.013473506748551035 0.029216343420802628 0 -0.013651708648069208 0.027984383114202569 0 -0.013084719765986637 0.028551109819725098 0 -0.013522765268509835 0.027283183825166687 0 -0.013286840199735772 0.028826256660459938 0 -0.013775743151070864 0.027177323072107774 0 -0.012907413859371521 0.027754463377904538 0 -0.012863575026237936 0.028935766691551769 0 -0.013651708648069208 0.027984383114202569 0 -0.013190244995674789 0.027250037356724242 0 -0.012515052338467014 0.030341010354628994 0 -0.013068023604860543 0.028609836845066849 0 -0.013286840199735772 0.028826256660459938 0 -0.012907413859371521 0.027754463377904538 0 -0.01284196633860709 0.02849115595121594 0 -0.012907413859371521 0.027754463377904538 0 -0.012401997679676141 0.028356792165477266 0 -0.012078648685557202 0.027475123754025915 0 -0.012907413859371521 0.027754463377904538 0 -0.01284196633860709 0.02849115595121594 0 -0.012401997679676141 0.028356792165477266 0 -0.012708516883759293 0.02887759081413907 0 -0.01284196633860709 0.02849115595121594 0 -0.012401997679676141 0.028356792165477266 0 -0.012945803577785235 0.026577113858677823 0 -0.01372941492209759 0.026812788976114131 0 -0.012401997679676141 0.028356792165477266 0 -0.012078648685557202 0.027475123754025915 0 -0.011708684289297833 0.028558683309984168 0 -0.01241664551482969 0.029152647495277698 0 -0.012401997679676141 0.028356792165477266 0 -0.011708684289297833 0.028558683309984168 0 -0.011615072862163945 0.02518929892090347 0 -0.011934036605218454 0.025521039561518973 0 -0.011505044226095726 0.026029063078613513 0 -0.019189471159837188 0.022958366144895312 0 -0.018929054456215434 0.024916408257528236 0 -0.018070715262888552 0.023397579481468898 0 -0.015107827692732362 0.02431953277081168 0 -0.01372941492209759 0.026812788976114131 0 -0.018929054456215434 0.024916408257528236 0 -0.017195146103914948 0.024223488940695929 0 -0.016667288198996721 0.025463135174456804 0 -0.017195146103914948 0.024223488940695929 0 -0.016667288198996721 0.025463135174456804 0 -0.015970541017961193 0.024332521066022031 0 -0.015173097907574307 0.026060412202622049 0 -0.016667288198996721 0.025463135174456804 0 -0.015970541017961193 0.024332521066022031 0 -0.017195146103914948 0.024223488940695929 0 -0.016824342629432748 0.023154619279695424 0 -0.015970541017961193 0.024332521066022031 0 -0.018929054456215434 0.024916408257528236 0 -0.017195146103914948 0.024223488940695929 0 -0.018070715262888552 0.023397579481468898 0 -0.017195146103914948 0.024223488940695929 0 -0.016824342629432748 0.023154619279695424 0 -0.018070715262888552 0.023397579481468898 0 -0.017339574232524135 0.022258300542855394 0 -0.017427739325782211 0.022235770417138215 0 -0.016824342629432748 0.023154619279695424 0 -0.018070715262888552 0.023397579481468898 0 -0.017368920982064221 0.022414481834606113 0 -0.01826701465464519 0.022668936567219401 0 -0.018448397726299966 0.021924259246815823 0 -0.017368920982064221 0.022414481834606113 0 -0.01826701465464519 0.022668936567219401 0 -0.018070715262888552 0.023397579481468898 0 -0.017368920982064221 0.022414481834606113 0 -0.016824342629432748 0.023154619279695424 0 -0.017368920982064221 0.022414481834606113 0 -0.016697949809915055 0.02228797540403693 0 -0.017368920982064221 0.022414481834606113 0 -0.016697949809915055 0.02228797540403693 0 -0.017280528613016537 0.021728454859730149 0 -0.016697949809915055 0.02228797540403693 0 -0.017280528613016537 0.021728454859730149 0 -0.016605463072036211 0.021844174039398163 0 -0.017805636929828728 0.021754298101121266 0 -0.017280528613016537 0.021728454859730149 0 -0.017582550442826507 0.021958093909448081 0 -0.017861199440693157 0.022023050089289363 0 -0.017368920982064221 0.022414481834606113 0 -0.017582550442826507 0.021958093909448081 0 -0.017368920982064221 0.022414481834606113 0 -0.017280528613016537 0.021728454859730149 0 -0.017582550442826507 0.021958093909448081 0 -0.017351322833775887 0.021699167286765002 0 -0.017347743943281192 0.02169343179517336 0 -0.017805636929828728 0.021754298101121266 0 -0.017861199440693157 0.022023050089289363 0 -0.017582550442826507 0.021958093909448081 0 -0.016260425504786191 0.021999494285550224 0 -0.016605463072036211 0.021844174039398163 0 -0.016479564027387952 0.021569671392244038 0 -0.016260425504786191 0.021999494285550224 0 -0.016605463072036211 0.021844174039398163 0 -0.015741601209272871 0.022646530386971675 0 -0.016697949809915055 0.02228797540403693 0 -0.016605463072036211 0.021844174039398163 0 -0.015741601209272871 0.022646530386971675 0 -0.016824342629432748 0.023154619279695424 0 -0.016697949809915055 0.02228797540403693 0 -0.015741601209272871 0.022646530386971675 0 -0.016260425504786191 0.021999494285550224 0 -0.015741601209272871 0.022646530386971675 0 -0.016175682936772778 0.022228094996284604 0 -0.015605823214316632 0.023000207391194388 0 -0.015450036408533444 0.023263140441642641 0 -0.015741601209272871 0.022646530386971675 0 -0.016012113491179574 0.021569436944819002 0 -0.016175682936772778 0.022228094996284604 0 -0.015741601209272871 0.022646530386971675 0 -0.015970541017961193 0.024332521066022031 0 -0.013937899205712994 0.024898400294765193 0 -0.016824342629432748 0.023154619279695424 0 -0.015741601209272871 0.022646530386971675 0 -0.015970541017961193 0.024332521066022031 0 -0.015173097907574307 0.026060412202622049 0 -0.015970541017961193 0.024332521066022031 0 -0.013937899205712994 0.024898400294765193 0 -0.015448280974130313 0.023623514770239676 0 -0.015450036408533444 0.023263140441642641 0 -0.016529883364541243 0.02068184373947167 0 -0.016012113491179574 0.021569436944819002 0 -0.016905476357827989 0.021375252811131777 0 -0.016905476357827989 0.021375252811131777 0 -0.016486377892826639 0.021898772525619909 0 -0.016931566611775375 0.022023969956001352 0 -0.016012113491179574 0.021569436944819002 0 -0.016486377892826639 0.021898772525619909 0 -0.016175682936772778 0.022228094996284604 0 -0.016012113491179574 0.021569436944819002 0 -0.016905476357827989 0.021375252811131777 0 -0.016486377892826639 0.021898772525619909 0 -0.018259995146775513 0.020827404577309777 0 -0.017783141117532205 0.021475445929268956 0 -0.018602669211266146 0.021435882063090203 0 -0.017421439865501216 0.020665152914265517 0 -0.016905476357827989 0.021375252811131777 0 -0.017594712331225497 0.021088931288711338 0 -0.018259995146775513 0.020827404577309777 0 -0.017594712331225497 0.021088931288711338 0 -0.017783141117532205 0.021475445929268956 0 -0.016905476357827989 0.021375252811131777 0 -0.017594712331225497 0.021088931288711338 0 -0.017783141117532205 0.021475445929268956 0 -0.016905476357827989 0.021375252811131777 0 -0.017783141117532205 0.021475445929268956 0 -0.016931566611775375 0.022023969956001352 0 -0.017783141117532205 0.021475445929268956 0 -0.01792923712766957 0.021938201005121859 0 -0.016931566611775375 0.022023969956001352 0 -0.017783141117532205 0.021475445929268956 0 -0.018262106956811967 0.021759929348101757 0 -0.018602669211266146 0.021435882063090203 0 -0.01792923712766957 0.021938201005121859 0 -0.018262106956811967 0.021759929348101757 0 -0.01834679144972903 0.02212844466155232 0 -0.017783141117532205 0.021475445929268956 0 -0.01792923712766957 0.021938201005121859 0 -0.018262106956811967 0.021759929348101757 0 -0.01877782851259165 0.021879448921027993 0 -0.018262106956811967 0.021759929348101757 0 -0.01834679144972903 0.02212844466155232 0 -0.01877782851259165 0.021879448921027993 0 -0.018262106956811967 0.021759929348101757 0 -0.018602669211266146 0.021435882063090203 0 -0.019750972869614834 0.022372897149600876 0 -0.018404113240244727 0.022524883265116567 0 -0.018829890815310342 0.022109547128283273 0 -0.02022452864322322 0.018456051839732129 0 -0.02005719107505749 0.018690022779843187 0 -0.018332423784685439 0.022593247191662204 0 -0.018829890815310342 0.022109547128283273 0 -0.01834679144972903 0.02212844466155232 0 -0.01792923712766957 0.021938201005121859 0 -0.018332423784685439 0.022593247191662204 0 -0.01834679144972903 0.02212844466155232 0 -0.016931566611775375 0.022023969956001352 0 -0.016624534236137859 0.021942773233440738 0 -0.016436438200735128 0.021961618362360769 0 -0.02022452864322322 0.018456051839732129 0 -0.019293889997873383 0.018882615806940506 0 -0.01792923712766957 0.021938201005121859 0 -0.018332423784685439 0.022593247191662204 0 -0.016931566611775375 0.022023969956001352 0 -0.016650718975219608 0.021943618088615054 0 -0.016931566611775375 0.022023969956001352 0 -0.016624534236137859 0.021942773233440738 0 -0.02022452864322322 0.018456051839732129 0 -0.019297399390460025 0.017178079842303084 0 -0.016650718975219608 0.021943618088615054 0 -0.016624534236137859 0.021942773233440738 0 -0.016410943610981263 0.021871859221359913 0 -0.016624534236137859 0.021942773233440738 0 -0.016436438200735128 0.021961618362360769 0 -0.016410943610981263 0.021871859221359913 0 -0.021150147231725962 0.011295646482047504 0 -0.021258851075988759 0.01145610299741249 0 -0.021106842811972327 0.011514353729578182 0 -0.021150147231725962 0.011295646482047504 0 -0.021106842811972327 0.011514353729578182 0 -0.020875367270025688 0.011503079739706309 0 -0.021258851075988759 0.01145610299741249 0 -0.02126543405545251 0.011552072307527649 0 -0.021106842811972327 0.011514353729578182 0 -0.016175682936772778 0.022228094996284604 0 -0.016408648720790883 0.022059185296848721 0 -0.016276114757021211 0.021937762679515277 0 -0.016486377892826639 0.021898772525619909 0 -0.016175682936772778 0.022228094996284604 0 -0.016408648720790883 0.022059185296848721 0 -0.016486377892826639 0.021898772525619909 0 -0.016931566611775375 0.022023969956001352 0 -0.016408648720790883 0.022059185296848721 0 -0.016931566611775375 0.022023969956001352 0 -0.016408648720790883 0.022059185296848721 0 -0.016436438200735128 0.021961618362360769 0 -0.016436438200735128 0.021961618362360769 0 -0.016276114757021211 0.021937762679515277 0 -0.016205317202864597 0.021713296692604658 0 -0.016408648720790883 0.022059185296848721 0 -0.016436438200735128 0.021961618362360769 0 -0.016276114757021211 0.021937762679515277 0 -0.016436438200735128 0.021961618362360769 0 -0.016205317202864597 0.021713296692604658 0 -0.016410943610981263 0.021871859221359913 0 -0.016260425504786191 0.021999494285550224 0 -0.016276114757021211 0.021937762679515277 0 -0.016274191657560725 0.021711611587448852 0 -0.016260425504786191 0.021999494285550224 0 -0.016175682936772778 0.022228094996284604 0 -0.016276114757021211 0.021937762679515277 0 -0.016276114757021211 0.021937762679515277 0 -0.016274191657560725 0.021711611587448852 0 -0.016205317202864597 0.021713296692604658 0 -0.016274191657560725 0.021711611587448852 0 -0.016205317202864597 0.021713296692604658 0 -0.016226333487946679 0.021228526986780873 0 -0.016211302376522851 0.021225577140599576 0 -0.016483814899113838 0.020880582065288301 0 -0.016205317202864597 0.021713296692604658 0 -0.01594777109775292 0.021183606670065799 0 -0.016410943610981263 0.021871859221359913 0 -0.018659539295074103 0.016464764965486312 0 -0.019297399390460025 0.017178079842303084 0 -0.020492347110286489 0.011682920657295792 0 -0.020875367270025688 0.011503079739706309 0 -0.020792946848469405 0.011680403985548992 0 -0.020492347110286489 0.011682920657295792 0 -0.020686152511818254 0.011834379519501724 0 -0.020433036691378463 0.011929407788532928 0 -0.020492347110286489 0.011682920657295792 0 -0.020686152511818254 0.011834379519501724 0 -0.020792946848469405 0.011680403985548992 0 -0.016205317202864597 0.021713296692604658 0 -0.01594777109775292 0.021183606670065799 0 -0.01622683762884853 0.020937759612467337 0 -0.01594777109775292 0.021183606670065799 0 -0.01622683762884853 0.020937759612467337 0 -0.01590845593747103 0.019833324755600269 0 -0.021207670158274152 0.011635809452173263 0 -0.02126543405545251 0.011552072307527649 0 -0.021106842811972327 0.011514353729578182 0 -0.021207670158274152 0.011635809452173263 0 -0.020989906692286502 0.0116377542302359 0 -0.02114144160695974 0.011749214658959731 0 -0.021207670158274152 0.011635809452173263 0 -0.021106842811972327 0.011514353729578182 0 -0.020989906692286502 0.0116377542302359 0 -0.020989906692286502 0.0116377542302359 0 -0.020875367270025688 0.011503079739706309 0 -0.020792946848469405 0.011680403985548992 0 -0.021106842811972327 0.011514353729578182 0 -0.020989906692286502 0.0116377542302359 0 -0.020875367270025688 0.011503079739706309 0 -0.020686152511818254 0.011834379519501724 0 -0.020913230242292399 0.011777792222145851 0 -0.020882221801519465 0.011935889959895881 0 -0.020686152511818254 0.011834379519501724 0 -0.020792946848469405 0.011680403985548992 0 -0.020913230242292399 0.011777792222145851 0 -0.020989906692286502 0.0116377542302359 0 -0.020913230242292399 0.011777792222145851 0 -0.02114144160695974 0.011749214658959731 0 -0.020989906692286502 0.0116377542302359 0 -0.020792946848469405 0.011680403985548992 0 -0.020913230242292399 0.011777792222145851 0 -0.020913230242292399 0.011777792222145851 0 -0.02114144160695974 0.011749214658959731 0 -0.021102391372855869 0.011917302547721548 0 -0.021315108445691004 0.011836550736027599 0 -0.02114144160695974 0.011749214658959731 0 -0.021102391372855869 0.011917302547721548 0 -0.021295552002749654 0.011717007505796812 0 -0.021207670158274152 0.011635809452173263 0 -0.02114144160695974 0.011749214658959731 0 -0.021315108445691004 0.011836550736027599 0 -0.021295552002749654 0.011717007505796812 0 -0.02114144160695974 0.011749214658959731 0 -0.021329886302728883 0.012048959552836708 0 -0.021315108445691004 0.011836550736027599 0 -0.021102391372855869 0.011917302547721548 0 -0.021329886302728883 0.012048959552836708 0 -0.021102391372855869 0.011917302547721548 0 -0.020987740113171564 0.01211564937868276 0 -0.021102391372855869 0.011917302547721548 0 -0.020882221801519465 0.011935889959895881 0 -0.020987740113171564 0.01211564937868276 0 -0.020913230242292399 0.011777792222145851 0 -0.021102391372855869 0.011917302547721548 0 -0.020882221801519465 0.011935889959895881 0 -0.020686152511818254 0.011834379519501724 0 -0.020882221801519465 0.011935889959895881 0 -0.020707428144326506 0.012056817636777696 0 -0.020882221801519465 0.011935889959895881 0 -0.020987740113171564 0.01211564937868276 0 -0.020707428144326506 0.012056817636777696 0 -0.021065633859628181 0.012472632878716139 0 -0.020785848828468474 0.012320627350249896 0 -0.020987740113171564 0.01211564937868276 0 -0.020785848828468474 0.012320627350249896 0 -0.020987740113171564 0.01211564937868276 0 -0.020707428144326506 0.012056817636777696 0 -0.02662220232537367 0.008600500068140806 0 -0.026879308291741313 0.0071935007596429746 0 -0.021329886302728883 0.012048959552836708 0 -0.021065633859628181 0.012472632878716139 0 -0.020987740113171564 0.01211564937868276 0 -0.031440361691367928 0.0033919891108682284 0 -0.031962536669590362 0.0047653422718015124 0 -0.03381663607317506 0.0017117929309518893 0 -0.018659539295074103 0.016464764965486312 0 -0.018386470785044549 0.015708981518023919 0 -0.020492347110286489 0.011682920657295792 0 -0.01993367066452487 0.011927072189097568 0 -0.020433036691378463 0.011929407788532928 0 -0.01993367066452487 0.011927072189097568 0 -0.020433036691378463 0.011929407788532928 0 -0.02032643984712755 0.012203571239101117 0 -0.020686152511818254 0.011834379519501724 0 -0.020433036691378463 0.011929407788532928 0 -0.020707428144326506 0.012056817636777696 0 -0.020433036691378463 0.011929407788532928 0 -0.020707428144326506 0.012056817636777696 0 -0.02032643984712755 0.012203571239101117 0 -0.02044928604045097 0.012577853375120551 0 -0.020785848828468474 0.012320627350249896 0 -0.02032643984712755 0.012203571239101117 0 -0.020785848828468474 0.012320627350249896 0 -0.020707428144326506 0.012056817636777696 0 -0.02032643984712755 0.012203571239101117 0 -0.01993367066452487 0.011927072189097568 0 -0.02032643984712755 0.012203571239101117 0 -0.019829838213469633 0.012284274123334049 0 -0.020082867146489734 0.012453931555218097 0 -0.02044928604045097 0.012577853375120551 0 -0.02032643984712755 0.012203571239101117 0 -0.020082867146489734 0.012453931555218097 0 -0.02032643984712755 0.012203571239101117 0 -0.019829838213469633 0.012284274123334049 0 -0.020082867146489734 0.012453931555218097 0 -0.019580280170130578 0.012473951812823221 0 -0.019829838213469633 0.012284274123334049 0 -0.0186836204077824 0.014563120416857497 0 -0.018386470785044549 0.015708981518023919 0 -0.0191529610721844 0.012512497321779639 0 -0.019580280170130578 0.012473951812823221 0 -0.019829838213469633 0.012284274123334049 0 -0.0191529610721844 0.012512497321779639 0 -0.01993367066452487 0.011927072189097568 0 -0.019829838213469633 0.012284274123334049 0 -0.016454590317394869 0.017251447464845377 0 -0.01590845593747103 0.019833324755600269 0 -0.017058288433842699 0.018580722146991198 0 -0.01590845593747103 0.019833324755600269 0 -0.017115369694215257 0.019790917266509982 0 -0.017058288433842699 0.018580722146991198 0 -0.016483814899113838 0.020880582065288301 0 -0.017350382689616164 0.019974988191872916 0 -0.01622683762884853 0.020937759612467337 0 -0.01590845593747103 0.019833324755600269 0 -0.017115369694215257 0.019790917266509982 0 -0.016592760406983886 0.020424363469653411 0 -0.019060956085442116 0.018937580907191255 0 -0.018021016067454303 0.020350378234632555 0 -0.016592760406983886 0.020424363469653411 0 -0.018021016067454303 0.020350378234632555 0 -0.017347994327104099 0.020938707720922888 0 -0.016592760406983886 0.020424363469653411 0 -0.019060956085442116 0.018937580907191255 0 -0.019806853008786509 0.017943660123356506 0 -0.017350382689616164 0.019974988191872916 0 -0.01829377387566258 0.019101806496450772 0 -0.017115369694215257 0.019790917266509982 0 -0.017058288433842699 0.018580722146991198 0 -0.018104060745662866 0.017806043490978717 0 -0.017115369694215257 0.019790917266509982 0 -0.018104060745662866 0.017806043490978717 0 -0.019806853008786509 0.017943660123356506 0 -0.017058288433842699 0.018580722146991198 0 -0.017337342837915715 0.017525779069229329 0 -0.018104060745662866 0.017806043490978717 0 -0.016454590317394869 0.017251447464845377 0 -0.017058288433842699 0.018580722146991198 0 -0.017337342837915715 0.017525779069229329 0 -0.018050066816307504 0.016207325487663068 0 -0.017337342837915715 0.017525779069229329 0 -0.018104060745662866 0.017806043490978717 0 -0.019171573089106605 0.016677973411603174 0 -0.0185403036829641 0.016558216548743947 0 -0.018104060745662866 0.017806043490978717 0 -0.019060956085442116 0.018937580907191255 0 -0.019806853008786509 0.017943660123356506 0 -0.02322461249536166 0.017013446236034315 0 -0.019171573089106605 0.016677973411603174 0 -0.018104060745662866 0.017806043490978717 0 -0.019806853008786509 0.017943660123356506 0 -0.020440493483646977 0.016219971079005854 0 -0.019806853008786509 0.017943660123356506 0 -0.02322461249536166 0.017013446236034315 0 -0.019731333698506315 0.017316025198145568 0 -0.020030251103970626 0.016676853725280334 0 -0.019060956085442116 0.018937580907191255 0 -0.018205768214443731 0.020852420875706424 0 -0.018504090377025838 0.020161688016573823 0 -0.019060956085442116 0.018937580907191255 0 -0.026056658802175409 0.018562790745002472 0 -0.02322461249536166 0.017013446236034315 0 -0.025574357656753571 0.015616258287223919 0 -0.026056658802175409 0.018562790745002472 0 -0.02322461249536166 0.017013446236034315 0 -0.018504090377025838 0.020161688016573823 0 -0.018198854504095849 0.020550306367223627 0 -0.017948810451593338 0.020741995718615694 0 -0.018164400025890249 0.02057531991865064 0 -0.018205768214443731 0.020852420875706424 0 -0.018504090377025838 0.020161688016573823 0 -0.018164400025890249 0.02057531991865064 0 -0.018504090377025838 0.020161688016573823 0 -0.018198854504095849 0.020550306367223627 0 -0.019060956085442116 0.018937580907191255 0 -0.018504090377025838 0.020161688016573823 0 -0.018021016067454303 0.020350378234632555 0 -0.018504090377025838 0.020161688016573823 0 -0.018021016067454303 0.020350378234632555 0 -0.017948810451593338 0.020741995718615694 0 -0.017948810451593338 0.020741995718615694 0 -0.017954262574528274 0.020892584999425343 0 -0.017426732775426449 0.021233766588066569 0 -0.018021016067454303 0.020350378234632555 0 -0.017948810451593338 0.020741995718615694 0 -0.017347994327104099 0.020938707720922888 0 -0.017948810451593338 0.020741995718615694 0 -0.017426732775426449 0.021233766588066569 0 -0.017347994327104099 0.020938707720922888 0 -0.018027379680977139 0.020683825667685864 0 -0.018198854504095849 0.020550306367223627 0 -0.018056291003236725 0.020720957630680444 0 -0.018198854504095849 0.020550306367223627 0 -0.017948810451593338 0.020741995718615694 0 -0.018056291003236725 0.020720957630680444 0 -0.017948810451593338 0.020741995718615694 0 -0.018056291003236725 0.020720957630680444 0 -0.017954262574528274 0.020892584999425343 0 -0.018027379680977139 0.020683825667685864 0 -0.018056291003236725 0.020720957630680444 0 -0.017954262574528274 0.020892584999425343 0 -0.018026447435716131 0.021096330500555784 0 -0.017280528613016537 0.021728454859730149 0 -0.017954262574528274 0.020892584999425343 0 -0.017280528613016537 0.021728454859730149 0 -0.017954262574528274 0.020892584999425343 0 -0.017426732775426449 0.021233766588066569 0 -0.017280528613016537 0.021728454859730149 0 -0.016605463072036211 0.021844174039398163 0 -0.017426732775426449 0.021233766588066569 0 -0.016605463072036211 0.021844174039398163 0 -0.016915047086390578 0.021352775244418067 0 -0.016479564027387952 0.021569671392244038 0 -0.016605463072036211 0.021844174039398163 0 -0.017426732775426449 0.021233766588066569 0 -0.016915047086390578 0.021352775244418067 0 -0.016915047086390578 0.021352775244418067 0 -0.016479564027387952 0.021569671392244038 0 -0.016681206008148455 0.021148417493884616 0 -0.016274191657560725 0.021711611587448852 0 -0.016226333487946679 0.021228526986780873 0 -0.016479564027387952 0.021569671392244038 0 -0.016260425504786191 0.021999494285550224 0 -0.016274191657560725 0.021711611587448852 0 -0.016479564027387952 0.021569671392244038 0 -0.016226333487946679 0.021228526986780873 0 -0.016592760406983886 0.020424363469653411 0 -0.016681206008148455 0.021148417493884616 0 -0.016226333487946679 0.021228526986780873 0 -0.016479564027387952 0.021569671392244038 0 -0.016681206008148455 0.021148417493884616 0 -0.016592760406983886 0.020424363469653411 0 -0.017347994327104099 0.020938707720922888 0 -0.016681206008148455 0.021148417493884616 0 -0.016915047086390578 0.021352775244418067 0 -0.017347994327104099 0.020938707720922888 0 -0.016681206008148455 0.021148417493884616 0 -0.017426732775426449 0.021233766588066569 0 -0.016915047086390578 0.021352775244418067 0 -0.017347994327104099 0.020938707720922888 0 
</DataArray>
</PointData>
<CellData Scalars="region_id,cross_section_updated," Vectors="" Tensors="stress,">
<DataArray type="Float64" Name="region_id" format="ascii">
5 5 5 5 5 6 5 5 5 5 5 5 5 6 5 5 5 5 6 5 5 6 5 5 5 5 6 5 5 5 5 6 5 5 5 5 5 5 5 5 5 5 5 5 5 6 5 5 6 5 5 5 5 5 6 5 5 5 5 5 5 5 6 5 5 5 5 6 5 5 5 5 5 5 5 5 5 6 5 5 6 5 5 6 5 5 5 5 6 5 5 5 5 5 5 5 6 6 6 5 5 6 5 5 5 5 5 6 5 5 5 5 5 5 5 5 5 5 5 5 5 6 5 5 5 6 5 5 5 5 5 5 6 5 5 5 5 5 5 5 5 5 5 5 5 5 5 5 5 5 5 5 5 5 5 5 5 5 6 5 5 5 6 5 5 6 5 5 5 5 5 5 5 5 5 5 5 6 5 5 5 5 5 5 5 5 6 5 5 5 5 5 5 5 5 6 5 5 5 5 5 5 5 5 5 6 5 5 5 5 5 5 5 5 5 5 5 5 5 5 5 5 5 5 5 5 5 5 5 6 5 5 5 6 5 6 5 6 5 5 6 5 5 5 6 5 6 5 6 5 6 6 5 6 5 5 6 5 6 5 5 5 6 5 6 6 5 5 6 5 5 5 6 5 6 6 6 5 6 5 5 5 6 5 6 6 6 5 5 6 6 5 5 5 5 6 5 6 5 5 6 5 5 5 6 5 6 6 6 5 5 5 6 5 6 6 6 6 5 5 5 6 6 5 5 6 6 6 5 6 5 5 5 5 6 5 5 5 5 5 5 5 6 5 5 5 5 5 5 6 6 5 5 5 6 5 5 5 6 5 6 5 6 6 5 5 5 5 6 5 5 6 5 5 5 5 6 5 6 5 5 5 5 5 6 6 5 5 5 5 5 5 5 5 6 5 5 5 6 5 5 6 5 6 5 5 5 5 5 5 5 5 5 5 5 6 5 6 5 6 5 5 5 6 5 6 5 6 5 5 5 5 5 5 6 5 6 5 5 5 6 5 5 5 6 5 6 6 5 5 5 5 6 5 5 5 5 6 6 5 5 6 5 6 5 6 6 5 5 5 6 5 5 5 5 6 5 5 5 5 5 5 5 5 5 5 5 6 5 5 5 5 6 5 5 5 6 5 6 6 6 5 5 5 6 6 5 6 5 5 6 5 5 5 5 6 5 5 5 5 5 5 5 5 5 5 5 6 6 5 5 6 5 5 5 6 5 5 5 5 5 5 6 5 5 5 6 5 5 5 6 5 5 5 5 5 5 5 5 5 5 5 6 5 5 5 6 5 5 5 5 5 5 5 6 5 5 5 5 5 6 5 5 5 5 5 5 5 5 5 5 5 5 5 5 5 5 5 5 5 6 5 5 5 5 6 5 5 6 5 5 5 5 5 5 5 6 5 5 5 5 5 5 5 5 6 5 6 5 5 6 5 5 5 6 5 5 6 5 5 5 6 5 6 5 5 6 5 6 5 5 5 5 5 5 5 5 5 5 5 5 5 5 5 5 5 5 5 5 5 5 6 5 6 5 6 5 5 5 5 5 5 5 5 5 5 5 5 5 5 5 6 5 5 5 5 5 5 5 5 5 6 5 5 5 5 5 5 5 5 5 5 5 5 5 5 5 5 5 5 5 5 5 5 5 5 5 5 5 5 5 6 5 5 6 5 5 5 6 6 5 6 5 5 5 5 5 6 5 5 5 5 5 6 5 5 5 5 5 5 5 5 5 5 5 5 5 5 5 5 5 5 5 5 5 5 5 5 5 5 5 5 5 5 5 5 5 5 5 5 5 5 5 5 5 5 5 5 5 5 5 5 5 6 5 5 5 5 5 5 5 5 5 5 5 5 5 5 5 6 5 5 5 5 6 5 5 5 5 5 5 5 5 5 5 5 5 5 5 5 5 5 5 5 5 5 5 5 5 5 5 5 6 5 5 6 5 6 6 6 6 5 5 6 5 5 5 5 5 5 5 5 5 5 5 5 5 5 5 5 5 6 5 5 6 5 6 5 5 5 5 6 5 6 5 5 5 5 6 5 5 5 6 5 5 5 5 5 6 5 6 5 5 6 6 5 6 5 5 5 5 5 5 5 5 5 5 5 6 5 5 5 6 5 5 5 6 5 5 6 6 6 5 5 5 5 5 5 5 5 5 5 5 6 5 5 5 5 5 5 5 5 6 6 6 5 5 5 5 5 5 5 5 6 6 5 5 5 6 5 5 6 5 5 5 5 5 5 5 5 5 5 5 6 5 5 5 5 5 5 5 5 6 5 5 5 5 5 5 5 5 5 5 6 5 6 6 6 5 5 5 5 5 5 5 6 6 5 6 5 5 5 5 5 6 5 6 6 5 5 5 6 5 6 5 5 5 5 6 5 5 5 5 5 5 5 5 5 5 5 5 5 5 5 5 5 6 5 5 5 6 5 5 5 5 5 6 5 5 5 5 5 5 6 5 6 5 5 5 5 5 5 5 5 6 5 5 5 6 5 5 5 5 5 5 5 5 5 5 5 5 5 5 5 5 5 5 5 5 5 5 5 5 5 6 6 6 5 5 5 5 6 5 5 5 5 6 5 5 5 5 5 5 5 6 5 5 5 5 5 5 5 5 6 5 5 5 5 5 5 5 5 5 5 5 5 6 5 5 5 5 5 5 6 5 5 5 5 5 5 5 5 6 5 5 5 6 5 5 5 5 5 5 5 5 5 5 5 5 6 5 5 5 5 5 5 5 5 5 5 5 5 5 5 5 5 5 5 5 5 5 5 5 5 5 5 5 5 5 5 5 5 5 5 5 5 5 5 5 5 5 5 5 5 5 5 5 6 5 5 5 5 5 5 5 5 5 5 5 5 5 5 5 5 5 5 5 5 5 5 5 5 6 5 5 5 5 5 5 5 5 5 5 6 5 5 6 5 5 5 5 5 5 5 5 5 6 5 6 5 5 5 5 6 5 5 6 5 6 5 5 5 5 5 6 5 5 5 5 5 5 5 5 6 5 5 5 5 5 5 5 5 5 5 5 5 5 5 6 5 6 6 5 5 5 5 5 6 5 5 5 5 5 5 5 5 5 5 5 5 5 5 5 6 5 5 5 5 5 5 5 5 5 5 5 5 5 5 5 5 6 5 5 5 5 5 6 6 5 5 6 5 5 5 5 5 5 5 5 5 5 6 5 5 5 5 5 5 5 5 5 6 5 6 5 5 5 5 5 6 5 5 5 5 6 5 5 5 6 5 5 5 6 5 5 6 5 5 5 5 5 5 5 5 5 5 5 5 5 5 5 5 6 5 5 5 5 5 5 5 6 5 5 5 5 5 5 5 5 5 5 5 5 5 5 5 5 5 5 5 5 5 5 5 5 5 5 5 6 5 5 5 5 6 5 5 5 6 5 5 5 5 5 5 5 5 5 6 5 6 5 5 5 5 5 5 5 5 5 5 5 5 5 5 5 5 5 5 6 6 5 5 5 6 5 5 6 5 5 6 5 5 5 6 5 5 6 5 5 5 5 5 5 5 5 5 5 5 5 5 5 5 5 5 5 5 5 6 5 6 5 5 5 5 5 5 5 5 5 5 5 6 5 6 5 5 5 6 5 5 5 5 5 6 5 5 5 5 5 5 6 5 5 5 5 5 5 5 5 5 5 5 6 5 5 5 5 5 5 5 5 6 5 5 5 6 5 5 6 5 5 5 5 5 6 5 5 5 5 5 5 5 5 5 6 5 5 6 5 6 5 6 6 6 5 6 5 5 5 5 5 5 6 5 5 5 5 5 5 6 5 5 5 5 5 5 5 6 5 5 5 5 6 5 5 5 5 5 6 5 6 5 5 5 5 5 5 5 5 5 5 6 5 5 5 5 5 5 5 6 5 5 5 5 5 5 5 6 5 6 5 5 5 5 5 5 5 5 6 5 5 5 6 6 5 5 5 5 5 6 6 5 6 5 5 6 5 5 6 5 5 5 5 5 5 5 5 6 5 5 5 5 5 6 5 5 5 5 6 5 5 6 5 5 5 5 5 5 5 5 5 5 5 5 5 5 5 5 5 5 5 5 5 5 5 5 5 5 5 5 5 5 5 5 5 5 5 5 5 5 5 5 5 6 5 5 6 5 5 5 5 5 6 5 5 5 5 6 5 5 5 5 5 5 5 5 5 5 5 5 5 5 5 5 5 5 5 5 5 5 5 5 6 5 5 5 6 5 5 5 5 5 5 6 5 5 5 5 5 5 5 5 5 5 5 6 5 6 6 5 5 6 5 5 5 5 5 5 5 5 5 5 5 6 5 5 6 5 5 5 5 5 5 5 5 5 5 5 5 5 5 5 6 5 5 5 5 5 5 5 6 5 6 5 5 5 5 6 5 6 5 5 5 5 5 5 5 5 5 6 5 5 5 5 5 5 5 5 5 5 5 5 5 5 5 5 5 6 5 5 5 5 5 5 5 5 5 5 5 5 5 5 5 5 5 5 5 5 5 5 5 5 5 6 6 5 5 5 5 5 5 5 5 5 5 5 6 5 5 5 5 6 5 5 5 5 6 5 5 5 5 5 5 5 5 6 5 5 5 5 5 5 5 5 5 6 5 5 5 5 5 5 5 5 5 5 5 5 5 5 5 5 5 5 5 5 6 5 5 5 5 5 5 5 5 5 5 5 5 5 5 6 5 6 5 5 5 5 5 5 5 5 6 5 5 6 5 5 5 5 5 5 5 5 5 5 5 5 5 5 5 5 5 5 5 5 5 5 5 5 5 5 5 5 5 5 5 5 5 5 5 5 6 5 5 6 5 5 5 5 6 5 6 5 5 6 5 6 5 5 5 5 5 6 5 5 5 5 5 5 5 5 5 5 5 5 6 5 5 5 6 5 5 5 5 5 5 5 5 5 6 5 5 5 5 6 6 5 5 5 5 5 5 5 5 6 5 5 5 5 5 6 5 5 5 6 5 5 5 6 5 5 5 5 6 5 5 5 5 5 5 5 5 5 5 5 5 5 5 6 5 5 5 5 5 5 6 5 6 6 5 6 5 6 5 5 5 5 6 5 5 5 5 6 5 5 5 5 5 5 5 5 5 6 5 5 5 5 5 5 5 5 5 5 5 5 5 5 6 5 5 5 6 5 5 5 6 5 6 5 5 5 5 5 5 5 5 5 5 5 5 5 5 5 5 6 5 5 5 5 5 5 6 5 5 5 5 5 5 5 5 5 5 5 5 5 5 5 5 5 5 6 5 5 5 5 5 5 5 5 5 5 5 5 5 5 5 5 5 5 5 5 5 5 5 5 5 5 5 5 5 5 5 5 5 5 6 5 5 5 5 6 5 5 5 5 5 5 5 6 5 5 5 5 5 5 5 5 5 6 5 5 6 5 5 5 5 5 6 5 5 5 6 5 5 6 5 5 5 5 5 5 5 5 5 5 5 5 5 5 5 5 5 5 5 5 6 5 5 5 5 5 5 5 5 5 5 6 6 5 6 5 5 5 5 5 6 5 5 5 5 6 5 5 5 5 5 6 5 6 5 5 6 5 5 5 5 5 5 5 5 6 5 5 5 5 5 5 6 5 5 5 5 5 5 6 5 5 5 5 6 5 5 6 5 6 5 5 6 5 5 5 5 5 5 6 5 5 5 5 6 5 5 5 5 5 5 5 5 6 6 5 5 5 5 5 5 5 5 6 5 5 5 5 5 5 6 5 5 5 5 5 5 5 6 5 5 5 6 5 5 5 5 5 5 5 5 5 5 5 5 6 5 5 5 5 6 5 5 6 5 5 5 5 6 5 5 5 6 6 5 5 5 6 5 5 5 6 5 5 5 5 5 5 5 5 5 6 5 5 5 6 5 5 5 5 5 5 5 5 5 5 5 5 6 5 6 5 5 6 5 5 6 5 5 5 5 5 5 5 6 5 5 5 5 5 6 5 6 5 5 5 6 6 5 6 6 5 6 5 5 5 5 5 5 6 5 6 5 5 5 5 5 5 5 5 5 5 5 5 5 6 5 5 6 5 6 5 5 6 5 5 5 6 6 5 5 6 5 5 5 5 5 5 5 5 5 5 5 5 5 5 5 5 5 5 5 5 5 5 5 6 6 5 6 5 6 5 5 6 6 5 5 6 5 5 6 5 5 6 5 6 5 5 5 5 6 5 5 5 5 6 5 6 6 5 6 5 5 6 6 5 5 5 6 5 5 5 5 6 6 5 5 5 5 5 6 5 5 5 5 5 5 5 5 5 5 5 6 5 6 5 6 5 5 6 5 6 5 5 5 5 5 5 5 5 6 5 5 6 5 5 5 5 6 5 5 5 5 5 5 5 5 5 5 5 5 6 5 5 5 5 5 5 5 5 5 5 5 6 5 5 5 5 5 5 6 5 6 5 5 6 5 5 5 5 5 5 5 5 5 5 5 5 5 5 5 5 5 6 6 5 5 5 6 5 5 6 5 5 5 5 5 5 5 5 5 5 5 5 5 5 5 5 5 5 5 5 5 5 5 5 5 6 6 5 5 5 5 5 5 5 5 5 5 5 6 5 5 5 5 5 5 5 5 5 5 5 5 5 5 5 5 5 5 5 5 5 5 5 5 5 5 5 5 5 5 5 5 5 6 5 5 5 5 5 6 5 5 6 5 5 6 6 5 5 5 5 5 5 5 5 5 5 5 5 5 6 5 5 6 5 5 5 5 5 5 6 5 5 6 5 5 5 5 5 5 5 5 5 5 5 5 5 6 5 5 5 5 5 5 5 6 5 5 5 5 5 5 5 5 5 5 5 5 6 5 5 6 5 5 5 5 5 5 5 5 5 5 5 5 5 5 5 5 5 5 5 5 6 5 5 6 5 6 5 5 5 6 5 5 6 5 6 5 5 5 6 5 5 5 5 6 5 5 5 5 5 5 5 6 5 5 5 6 5 5 5 5 5 5 5 5 5 5 5 5 6 5 5 5 5 5 5 5 5 6 5 5 5 5 5 5 5 5 5 5 5 6 5 5 5 5 5 5 5 5 5 5 5 5 5 5 5 5 5 5 5 6 6 5 5 5 6 5 5 5 5 5 5 5 5 5 5 5 5 6 5 5 5 5 5 5 5 5 5 6 5 5 5 5 5 5 5 5 5 5 5 5 5 5 5 5 6 5 6 5 5 5 5 5 6 5 5 5 5 6 5 5 5 6 5 5 5 6 5 5 5 5 5 5 5 5 5 6 5 5 5 6 5 5 6 5 5 5 5 5 5 6 5 5 5 5 5 5 5 5 6 5 5 5 6 5 5 5 5 5 5 5 5 5 5 5 5 5 5 5 5 5 5 5 5 5 5 5 5 5 5 5 6 5 5 5 5 5 5 5 6 5 5 5 5 5 5 5 5 5 5 5 5 5 5 5 5 5 5 5 5 5 5 5 5 5 6 5 6 5 5 5 5 5 5 6 5 5 5 6 5 5 6 5 5 5 5 5 5 5 5 5 5 5 5 6 5 5 5 5 5 6 5 5 5 5 5 5 5 5 5 5 5 5 5 6 5 5 5 6 5 5 5 5 5 5 5 5 5 5 5 5 6 6 5 5 5 5 6 5 5 5 5 5 5 5 5 5 6 6 5 5 5 5 5 6 5 5 5 5 5 6 5 5 5 5 5 6 5 6 5 5 5 5 6 5 6 5 6 6 5 5 5 5 5 5 5 6 6 5 5 5 5 5 5 6 6 6 5 6 6 5 5 5 6 5 5 5 5 5 6 6 6 5 6 5 5 5 6 5 6 6 5 5 5 5 5 5 5 6 6 5 5 6 6 6 5 5 5 5 5 5 5 5 5 5 5 5 5 5 5 5 5 5 5 5 5 5 5 5 5 5 5 5 5 5 5 5 5 5 5 5 5 5 5 5 6 5 5 5 5 5 5 5 5 5 5 6 5 5 5 5 5 5 6 5 5 6 5 5 5 5 5 5 5 5 5 5 5 5 5 6 5 6 5 5 5 5 6 5 5 5 6 5 5 6 5 5 5 6 5 5 6 5 5 5 5 5 6 5 5 5 5 5 5 5 6 5 5 5 5 5 5 5 6 5 5 6 5 5 5 5 6 5 6 5 5 5 5 5 6 5 5 5 5 6 5 5 5 5 5 5 6 6 5 5 5 5 5 6 5 5 6 5 5 5 5 5 5 5 5 5 5 6 5 5 5 5 5 5 5 5 5 5 5 5 5 5 5 5 5 5 6 5 5 5 5 5 5 6 5 5 5 5 5 5 5 6 6 5 5 5 5 6 5 5 5 5 5 5 5 6 5 5 6 5 6 6 6 5 5 5 5 5 5 6 5 5 5 5 5 6 5 5 5 5 6 5 5 5 6 5 5 5 6 5 5 5 5 5 5 5 5 5 5 5 5 5 5 5 5 5 5 5 5 5 5 5 5 5 6 5 5 5 5 5 5 5 6 5 6 5 5 5 5 5 5 6 5 5 6 5 5 5 6 5 5 6 5 5 5 5 5 6 5 5 5 6 6 5 5 5 5 5 5 5 5 5 5 5 5 6 5 5 5 5 5 5 5 5 5 6 5 5 5 5 5 6 6 5 5 5 5 5 5 5 5 5 6 5 5 5 5 5 5 5 5 6 5 5 5 5 5 5 5 5 5 5 5 5 5 5 5 5 5 5 6 5 5 5 5 6 5 6 5 6 5 5 5 5 5 5 5 5 5 5 5 5 5 5 5 5 5 6 5 5 5 5 5 6 5 5 5 6 6 5 5 5 5 5 6 5 5 5 5 6 5 5 5 5 5 5 5 5 6 5 5 5 5 5 5 5 6 5 5 5 5 5 5 5 5 5 6 5 5 5 5 5 5 5 5 5 5 5 5 5 5 5 5 5 5 6 5 5 5 5 5 5 5 5 5 5 5 5 5 6 5 5 5 5 5 5 6 5 5 6 5 5 6 5 5 5 5 5 5 5 5 5 5 5 5 5 5 5 5 5 5 5 5 5 5 5 5 5 5 6 5 6 5 6 6 5 5 5 6 5 5 5 5 5 5 5 5 5 6 6 5 6 5 5 5 5 5 5 5 5 5 5 5 5 5 5 6 5 6 6 5 6 5 5 5 5 5 5 5 5 5 6 6 5 5 5 5 5 5 5 5 5 5 5 5 5 5 5 5 5 5 5 5 5 5 6 5 5 5 5 5 6 5 5 5 5 5 6 5 5 5 6 5 5 5 5 5 5 5 5 5 6 5 5 5 5 6 5 5 5 5 5 5 6 5 5 5 5 5 5 5 6 5 5 5 5 6 5 5 5 5 5 5 5 5 5 5 6 5 5 5 5 6 5 5 5 6 5 5 5 5 5 6 5 5 5 5 5 5 5 5 5 5 5 5 5 5 6 6 5 5 6 5 5 5 5 5 5 5 6 5 5 5 5 5 5 6 5 5 5 5 5 5 5 5 5 5 5 5 5 5 5 5 5 5 5 5 5 5 5 6 5 5 5 5 5 5 5 5 6 5 5 5 5 6 5 5 5 5 5 6 5 6 5 6 5 5 5 5 5 5 5 6 5 5 5 6 5 5 5 5 5 6 5 5 5 5 5 6 5 6 5 5 6 5 6 5 5 5 5 5 6 5 5 5 6 5 5 5 5 5 5 5 5 5 5 6 5 5 5 5 5 5 5 5 5 5 5 5 5 5 5 5 5 5 5 5 5 5 6 5 5 5 5 5 5 5 5 5 5 5 5 5 5 5 5 5 5 6 5 5 5 6 5 5 5 5 5 5 6 5 5 5 6 6 5 6 5 6 6 5 6 5 5 6 5 5 6 6 5 5 5 5 5 5 5 5 6 5 6 5 5 5 5 5 5 5 5 5 5 5 5 5 5 5 5 5 5 5 5 5 5 6 5 5 5 5 5 5 5 5 6 5 5 6 5 5 6 6 5 5 6 5 5 5 5 5 5 5 5 5 5 5 5 5 5 5 5 5 5 5 5 5 5 5 5 5 5 5 5 5 5 5 5 5 5 5 5 5 5 5 6 5 6 5 5 5 5 5 5 5 5 5 5 5 5 5 5 5 5 5 5 5 5 5 5 5 5 5 5 5 5 5 5 5 5 5 5 5 5 5 5 5 5 6 5 5 6 5 5 5 5 5 6 5 6 5 5 6 5 5 5 5 5 5 6 5 5 5 5 5 5 5 5 5 5 5 6 5 5 6 6 5 6 5 5 6 5 5 5 5 6 5 5 5 5 5 5 5 5 5 6 5 6 5 5 5 5 5 5 5 6 5 6 5 5 5 5 5 5 5 5 5 6 5 6 5 5 5 5 5 5 5 5 5 5 6 5 5 5 6 5 5 6 5 5 6 5 5 5 5 6 5 5 5 6 5 5 5 5 5 5 5 5 5 5 5 5 5 5 6 5 5 5 5 5 5 6 5 6 5 6 5 5 5 6 5 5 5 5 5 5 5 5 6 5 5 5 5 5 6 5 5 6 5 5 5 5 5 5 5 5 5 6 5 5 5 6 5 5 5 5 5 5 6 5 5 5 5 5 5 5 5 5 5 5 5 5 5 5 5 5 5 5 5 5 5 5 5 5 5 5 5 5 5 5 6 5 5 5 5 5 6 5 5 6 6 5 5 5 5 6 5 5 5 5 5 6 5 5 5 5 5 5 5 5 5 5 5 5 5 5 5 5 6 5 5 5 5 5 5 5 5 6 6 5 5 5 5 5 5 6 5 5 5 5 6 5 5 5 5 5 5 5 5 5 5 5 5 5 5 5 5 5 5 5 5 5 5 5 5 6 5 5 6 5 5 5 5 5 5 5 5 5 5 5 5 5 5 5 5 5 5 5 5 5 5 5 5 5 5 5 6 5 6 5 5 5 5 5 6 5 5 5 5 5 5 5 5 5 5 5 5 5 5 5 5 5 5 5 5 6 6 5 6 5 5 5 5 5 5 5 5 5 5 5 5 5 5 5 5 6 5 5 5 6 5 5 5 5 5 5 5 5 5 5 5 5 5 6 5 5 5 5 5 5 5 5 5 5 5 5 5 5 5 5 5 5 5 5 5 5 6 5 5 5 5 5 5 5 5 5 5 5 5 5 6 5 6 5 5 6 6 5 5 5 5 5 5 5 5 5 5 5 5 5 5 5 5 5 5 5 5 6 5 5 6 5 5 5 6 5 5 5 5 5 5 6 5 5 5 6 5 5 5 5 5 5 5 5 6 5 5 6 5 5 6 5 6 5 5 5 5 6 6 5 5 6 6 5 5 6 5 5 5 5 6 5 5 6 6 5 6 5 5 5 5 5 5 5 5 5 5 5 5 5 5 5 5 5 5 5 5 6 5 5 5 5 6 5 5 5 5 6 6 5 5 5 5 5 5 5 5 5 5 5 5 6 5 5 5 6 5 5 5 5 5 5 5 6 5 5 5 6 5 5 6 6 5 5 5 6 5 5 5 6 5 5 5 5 5 5 5 5 5 5 5 5 5 5 5 5 5 5 6 5 5 5 5 5 5 5 5 5 5 5 5 5 5 5 5 5 5 6 6 5 5 5 5 5 6 6 5 6 5 5 5 5 5 5 5 5 5 6 5 5 5 6 5 5 5 5 5 5 5 5 5 5 5 5 5 5 6 5 5 5 5 5 5 5 6 5 5 6 5 5 5 5 5 5 6 5 5 5 5 6 5 5 5 5 5 5 6 5 5 5 5 5 5 5 5 6 6 5 5 5 6 6 5 5 5 5 5 6 5 5 5 5 5 5 6 5 5 5 5 6 5 5 5 5 5 6 5 5 5 5 6 5 5 5 5 5 5 5 5 5 5 5 5 5 5 5 5 5 5 5 5 5 5 5 5 5 6 5 5 5 5 6 5 6 5 6 5 5 6 5 5 6 5 5 6 5 5 5 5 5 5 6 5 5 6 5 6 6 6 5 5 6 5 6 6 5 5 5 6 5 6 5 5 5 5 5 5 6 5 5 5 6 5 5 5 5 5 5 5 6 5 5 5 6 5 6 6 5 5 5 5 5 5 5 6 5 5 5 5 5 5 5 5 6 6 5 5 5 5 6 5 5 6 5 5 5 6 5 5 5 6 6 5 5 5 5 6 5 5 5 5 5 6 6 5 5 5 5 5 5 5 5 5 5 5 5 5 5 5 5 5 5 5 5 5 5 5 5 5 5 5 5 5 5 5 6 5 5 5 6 5 5 5 5 5 5 5 5 5 5 5 5 5 5 5 6 5 6 6 5 5 6 5 5 5 5 5 5 5 5 5 5 5 5 5 5 5 5 5 5 5 5 5 5 5 6 5 5 6 6 5 5 5 5 5 5 5 6 5 5 5 6 5 5 5 5 6 6 5 5 5 5 5 5 5 6 5 5 5 5 6 5 5 5 5 6 5 5 5 5 5 5 5 5 5 5 5 5 5 5 5 5 5 5 5 6 5 5 5 5 5 5 5 5 5 5 5 5 5 5 5 5 6 5 5 5 6 5 5 5 5 5 5 5 5 5 6 5 5 5 5 5 5 5 5 5 5 5 5 5 5 5 5 5 5 5 5 5 6 5 5 5 5 5 5 5 5 5 5 5 5 5 5 5 5 5 6 5 5 5 5 5 6 5 5 5 5 5 5 5 5 5 5 5 5 5 5 5 5 5 5 5 5 5 5 5 5 5 5 5 6 5 5 6 5 5 5 6 5 5 5 5 5 5 5 5 5 5 5 5 5 5 5 6 5 6 5 5 5 5 5 5 5 5 5 6 5 5 5 5 5 5 5 5 5 6 6 5 5 5 5 5 5 5 5 5 5 5 5 5 5 5 5 5 5 5 5 5 5 5 5 5 5 5 5 5 5 5 5 5 5 5 5 5 5 5 5 5 5 5 5 5 5 5 5 5 5 5 5 5 5 5 5 5 5 5 5 5 5 5 5 5 5 5 5 5 5 5 6 5 5 5 5 5 5 6 5 5 5 5 5 5 5 5 5 6 5 6 5 5 5 5 5 5 5 5 5 5 5 5 5 5 5 5 5 5 5 5 5 5 5 5 5 5 5 5 5 5 5 5 5 5 6 5 5 5 6 6 5 5 5 5 5 5 5 5 5 5 5 5 5 5 5 5 5 5 5 5 5 5 6 6 5 5 5 5 5 5 5 5 6 5 5 5 5 5 5 6 5 5 5 5 5 6 5 5 5 5 6 5 5 5 6 5 5 5 6 5 5 6 5 5 5 5 5 5 5 5 5 5 5 5 5 6 5 5 5 5 5 5 5 5 6 5 5 5 5 5 5 5 5 5 5 5 6 5 5 5 6 5 5 5 5 6 5 5 5 5 5 5 5 5 6 5 6 5 5 6 5 5 5 5 5 6 5 5 5 5 5 5 5 5 5 5 5 5 6 5 5 5 5 5 5 5 5 5 6 5 5 5 5 5 5 6 5 5 5 5 5 5 5 6 5 5 5 5 5 6 5 5 5 5 5 5 5 5 5 5 5 5 5 5 5 5 5 5 5 5 5 5 5 5 5 5 5 5 5 5 5 5 5 5 5 5 5 5 5 5 5 5 5 5 5 5 5 6 5 6 5 5 5 5 5 5 5 5 5 5 5 5 5 5 6 5 5 5 5 5 5 5 5 5 5 5 5 5 5 5 6 5 5 6 5 6 5 5 5 5 5 6 5 5 5 5 5 5 5 5 5 5 5 5 5 5 5 5 5 5 5 5 6 5 5 5 5 5 5 5 5 5 5 5 6 5 6 5 5 6 5 6 5 5 5 5 5 5 5 6 5 6 5 5 5 5 6 5 5 5 5 6 6 5 5 6 5 5 5 5 5 5 5 5 5 5 5 5 5 5 5 5 6 5 5 5 5 5 5 5 5 5 5 5 5 5 5 6 5 6 5 5 5 5 5 5 5 6 5 6 5 5 5 5 5 5 5 5 5 6 6 5 5 5 6 5 5 5 5 6 5 6 5 5 6 5 6 6 6 5 5 6 5 5 5 6 6 6 5 5 5 5 5 5 5 5 5 5 5 6 5 5 5 5 5 5 6 5 5 5 6 5 5 5 5 5 5 5 5 6 5 5 5 6 5 5 5 5 5 5 5 5 5 5 5 5 5 5 5 5 5 5 5 5 5 5 5 5 5 5 5 5 5 5 5 5 5 5 5 5 5 5 5 5 5 5 5 5 5 5 5 5 5 5 5 5 5 5 5 5 5 5 5 5 6 5 5 5 5 5 6 5 5 5 5 6 5 5 5 6 5 5 5 5 5 5 5 5 5 5 5 5 5 5 5 5 5 5 5 5 5 5 5 5 5 5 5 5 5 5 5 5 5 5 5 5 5 5 5 5 6 5 5 6 5 5 5 5 5 5 5 6 5 5 5 5 5 5 5 5 5 5 5 6 5 5 6 5 6 5 5 5 6 5 5 5 5 5 5 5 5 6 5 5 5 5 6 5 5 5 5 6 5 6 5 5 5 5 5 5 5 5 5 5 5 5 6 5 6 5 5 5 5 5 5 5 5 5 5 5 5 5 6 5 5 5 5 5 5 5 5 5 6 5 5 5 6 5 5 5 5 5 5 5 5 5 5 5 5 5 5 5 5 5 5 5 5 5 5 5 5 5 5 5 5 5 5 5 5 5 5 5 6 5 5 6 5 5 5 5 6 5 5 5 5 5 5 5 5 5 5 5 5 5 5 5 6 5 5 5 5 5 5 5 5 5 6 5 6 5 5 5 5 5 5 5 6 5 5 5 5 5 5 5 5 5 5 5 5 5 5 6 5 5 5 5 5 5 5 5 5 5 5 6 5 5 5 5 5 5 5 5 5 5 5 5 5 5 5 5 5 5 5 5 5 5 5 6 5 6 5 5 5 5 5 5 6 5 6 5 5 5 6 5 5 5 6 5 5 5 6 5 5 6 5 5 5 5 5 5 5 6 5 5 5 5 5 5 5 6 5 5 5 5 5 5 5 5 5 5 5 5 5 6 5 5 5 5 5 5 5 5 6 5 5 5 5 5 5 5 5 5 5 5 5 5 5 5 5 5 5 5 5 6 5 5 5 5 5 5 5 5 5 5 5 5 5 5 5 5 5 5 5 5 5 5 5 5 5 5 5 5 5 5 5 5 5 5 5 5 5 5 5 5 5 5 5 5 5 5 5 5 5 5 6 5 6 5 5 5 6 5 5 6 6 5 6 5 5 5 5 5 5 5 5 5 5 5 5 5 5 5 5 5 5 5 5 5 5 5 5 5 5 5 5 5 5 5 5 5 5 5 6 5 5 5 5 6 5 5 6 5 5 5 6 5 5 5 5 6 5 6 6 5 5 5 5 6 5 5 5 6 5 5 5 6 5 5 5 5 5 5 6 5 5 5 5 5 5 5 5 5 5 5 5 5 5 5 5 5 5 5 5 6 5 5 5 5 5 5 5 5 5 5 5 5 5 5 5 5 5 5 6 5 5 6 5 5 6 5 5 5 5 5 5 5 5 5 5 5 6 5 5 5 5 6 5 5 5 5 6 5 5 5 6 5 5 5 5 5 5 5 5 5 5 5 5 5 5 5 5 5 5 5 5 5 5 5 5 5 6 5 5 5 5 5 5 5 5 6 5 5 5 6 5 5 5 5 5 5 5 5 5 5 5 5 5 5 5 5 5 5 5 5 5 5 5 5 6 5 5 5 6 5 5 5 5 5 5 5 5 6 5 5 6 5 5 5 5 6 5 5 5 5 5 5 5 6 5 6 5 5 6 5 5 6 6 5 5 5 5 5 5 5 5 5 5 5 5 5 5 5 5 5 5 5 5 5 6 5 5 5 5 6 5 5 5 5 5 5 5 5 5 5 5 5 5 6 5 5 6 5 5 5 5 5 5 5 5 5 5 5 5 5 5 5 5 5 5 5 5 5 5 5 5 5 5 5 5 5 5 5 5 5 5 5 5 5 5 5 5 5 5 5 5 5 5 5 5 5 5 5 5 5 5 5 5 5 5 5 5 5 5 5 5 5 5 5 5 5 5 5 5 5 5 5 5 5 5 5 5 5 5 5 5 5 5 5 5 5 5 5 5 5 5 5 5 5 5 5 5 5 5 5 5 5 5 5 5 5 5 5 5 5 5 5 5 5 5 5 5 5 5 5 5 5 5 5 5 6 5 5 5 5 5 5 5 6 5 5 5 5 5 5 5 5 5 6 5 6 5 5 5 6 5 5 6 5 5 5 5 5 5 5 5 5 5 5 5 5 5 5 5 5 5 5 5 5 5 5 5 5 5 5 5 5 5 5 5 5 5 5 5 5 6 5 5 6 6 5 5 6 5 5 6 5 5 5 6 5 5 5 5 5 5 5 5 5 6 5 5 5 5 5 5 6 5 5 5 5 5 5 5 5 5 5 5 5 5 5 5 5 5 5 5 5 5 5 5 5 5 5 5 5 5 5 5 6 5 5 5 5 5 5 5 5 5 5 5 5 5 5 5 5 5 5 5 5 5 5 5 5 5 5 5 5 5 5 5 5 5 5 5 5 5 5 5 5 5 5 5 5 5 5 6 5 6 5 5 5 5 6 5 5 5 5 6 5 5 5 5 6 5 5 5 5 5 5 5 5 6 5 5 6 5 6 5 5 5 5 6 5 5 6 6 5 5 5 5 5 5 6 5 5 5 5 5 5 5 5 5 5 6 6 5 5 5 5 5 6 5 5 6 5 5 5 5 6 5 5 6 5 5 5 5 5 5 5 5 5 5 5 5 5 5 5 5 5 5 5 5 5 5 5 5 5 5 5 5 5 6 5 6 5 5 5 5 5 5 5 5 5 5 5 5 5 6 5 5 5 5 6 6 5 5 5 5 5 5 5 5 5 5 5 5 5 5 5 5 5 5 5 5 5 5 5 5 5 5 5 5 5 5 5 5 5 5 5 5 5 5 5 5 5 5 6 5 5 5 6 5 5 5 5 5 5 5 5 5 5 5 5 5 5 5 5 5 5 5 5 6 5 5 6 5 5 5 5 5 5 5 5 5 6 5 5 5 5 5 6 5 5 5 5 5 6 5 6 5 5 5 5 5 5 5 5 5 5 5 5 5 6 5 5 5 6 6 5 5 5 5 5 5 5 5 6 5 5 6 5 5 6 6 5 5 5 5 5 6 5 5 5 5 5 5 5 6 5 5 6 6 5 5 5 5 5 5 6 6 5 5 5 6 5 5 5 5 5 5 5 6 5 5 5 5 5 5 5 5 5 5 5 5 5 5 5 5 5 5 5 5 5 5 5 5 5 5 6 5 5 5 5 5 5 5 6 5 5 5 5 5 5 5 5 5 5 5 6 5 5 5 5 5 5 5 5 6 5 5 5 5 5 5 5 5 5 5 5 5 5 5 5 5 6 5 5 5 6 5 5 5 5 5 6 5 5 5 5 5 5 5 5 5 5 5 5 5 5 6 5 5 5 5 6 5 5 6 5 5 5 5 5 6 5 5 5 5 5 5 5 5 5 5 5 5 5 5 6 5 6 5 5 5 6 5 6 5 6 5 5 5 5 5 5 6 6 5 5 5 5 5 5 6 5 6 5 5 5 5 5 5 5 5 5 5 5 5 5 5 5 5 5 6 5 5 5 6 6 5 5 5 5 5 6 5 5 6 6 5 5 5 5 5 5 5 5 5 5 5 5 5 5 5 5 5 5 5 5 5 5 5 5 5 5 5 5 5 5 5 5 5 5 5 5 5 5 5 5 5 5 5 5 6 5 5 6 6 6 5 5 5 5 5 5 6 5 5 5 5 5 5 5 5 5 6 5 5 5 6 5 5 5 5 5 5 5 5 5 5 5 5 5 5 5 5 5 5 5 5 6 5 5 5 5 6 5 5 5 5 5 5 5 5 5 5 5 5 5 5 5 5 5 5 5 5 5 5 5 5 5 5 5 5 5 5 5 5 5 5 6 5 6 5 5 5 5 5 5 5 5 6 5 5 5 6 5 6 5 5 5 5 5 5 5 5 6 5 5 5 5 6 5 5 5 5 6 5 5 5 5 5 5 5 6 5 5 5 5 6 5 5 5 5 5 5 5 5 5 5 5 5 5 5 5 5 5 5 5 5 5 5 5 5 5 5 5 5 5 5 5 5 5 5 5 5 5 5 5 5 5 5 5 5 5 5 6 5 5 5 5 6 6 5 5 6 6 5 5 5 5 5 5 5 5 5 5 5 5 5 5 5 5 5 5 5 6 5 5 5 6 6 5 5 5 5 5 5 5 5 5 5 5 5 5 5 5 5 5 5 5 5 5 5 5 5 5 5 5 6 5 5 5 5 5 5 5 6 5 5 5 5 5 5 5 5 5 5 5 5 5 5 5 6 5 5 5 5 5 5 5 5 6 5 6 6 5 5 5 5 5 5 5 5 5 5 5 5 6 5 5 5 5 5 5 5 5 5 5 5 5 5 5 5 5 5 5 6 5 5 5 6 5 5 5 5 5 5 5 5 6 5 5 5 5 5 5 5 5 5 5 5 5 5 5 5 6 5 5 5 6 5 5 5 5 5 5 5 5 5 5 5 5 5 5 5 5 5 5 5 5 5 5 5 5 5 5 5 5 5 5 5 5 5 6 5 6 5 5 5 5 5 5 5 5 6 5 5 5 5 5 5 5 5 5 6 5 5 6 5 5 5 5 5 6 5 5 5 5 6 5 5 5 5 6 5 5 5 6 5 6 5 5 6 5 5 5 5 5 5 5 5 5 5 5 5 5 5 6 5 5 6 5 6 5 5 5 6 5 5 6 5 5 5 5 6 5 6 5 5 5 5 5 5 6 5 6 5 5 5 5 5 6 5 5 5 5 6 5 5 5 5 5 5 6 5 5 5 5 5 5 5 5 5 5 5 5 5 5 5 5 5 5 5 5 5 5 5 5 5 5 5 5 5 5 5 5 5 6 6 5 5 5 5 5 5 5 5 5 5 6 5 5 6 6 5 6 5 5 5 5 5 5 5 6 5 5 5 5 5 5 5 5 5 5 5 5 6 5 5 5 5 6 5 5 5 5 5 5 5 5 5 5 5 5 6 5 5 5 5 5 5 5 5 5 5 5 5 5 5 5 5 5 6 5 5 5 5 5 6 5 5 5 6 5 5 5 5 5 5 6 5 6 5 5 5 6 5 5 5 5 5 5 5 5 5 6 5 5 6 5 5 5 5 5 5 5 6 5 5 5 5 5 5 5 5 5 5 5 5 5 6 5 5 6 5 5 5 5 5 5 6 5 5 5 5 5 5 6 5 5 5 5 5 5 5 6 5 5 5 5 5 5 5 5 5 5 5 5 5 5 5 5 5 5 5 5 5 5 6 5 5 5 5 5 5 5 5 5 5 6 5 5 5 5 6 6 5 5 5 5 6 5 5 5 5 5 5 5 5 5 6 5 5 5 5 5 5 5 5 5 5 5 6 5 5 5 6 5 5 5 6 5 5 5 5 5 5 5 5 5 5 5 5 6 5 5 5 5 5 6 5 5 6 5 5 5 5 5 5 5 5 5 5 5 5 5 5 6 5 5 5 5 5 5 5 6 5 5 5 6 5 5 5 5 5 6 5 5 5 5 5 5 5 5 5 6 5 5 5 5 5 5 5 5 6 5 5 5 5 5 6 5 5 5 5 5 5 5 6 5 5 5 5 5 5 5 5 5 5 5 5 5 5 5 5 5 5 5 5 5 5 5 5 5 5 5 5 5 5 5 5 5 5 5 5 5 5 5 5 5 5 5 5 5 5 5 5 6 5 5 5 5 5 5 5 6 5 5 5 5 5 5 5 5 5 5 5 5 5 5 5 5 5 5 5 5 5 5 6 6 5 5 6 6 5 5 5 5 5 5 5 6 5 5 5 5 5 5 5 5 5 5 5 5 5 5 6 5 5 5 5 5 5 5 5 6 5 5 6 5 5 5 6 5 5 5 5 5 5 5 5 5 5 5 5 5 5 5 5 5 5 5 5 5 5 5 5 5 5 5 5 6 5 5 5 5 5 5 5 5 6 5 5 5 5 5 5 6 6 5 5 5 5 6 5 5 6 5 5 6 5 5 5 5 5 5 6 5 5 5 5 5 5 5 5 6 5 5 5 5 5 5 5 5 5 5 5 6 5 5 6 5 5 5 5 5 5 5 6 5 5 5 6 5 6 5 6 5 5 5 5 5 5 5 5 5 5 5 5 5 5 5 5 5 6 5 6 5 5 5 5 5 5 5 5 5 5 6 5 5 5 5 5 5 5 6 5 5 5 6 5 6 6 5 5 6 5 5 5 5 6 5 5 5 6 5 5 5 6 5 6 6 5 5 5 5 5 5 6 5 5 5 5 5 5 5 5 6 6 6 5 6 5 5 6 6 5 5 6 5 5 5 5 5 5 5 5 5 5 5 6 5 5 5 5 5 5 5 5 5 5 5 5 5 6 6 5 5 5 5 6 5 5 5 6 5 5 5 5 5 6 6 5 5 5 6 5 5 5 5 5 5 5 5 5 5 5 5 5 5 5 6 5 5 5 6 5 5 5 6 5 5 5 5 5 5 6 5 5 5 5 5 6 5 5 5 5 5 5 5 5 6 5 5 5 5 5 5 5 5 5 6 5 5 5 5 6 5 6 5 5 6 5 6 5 5 5 5 5 5 6 5 6 6 5 5 5 5 5 5 5 5 6 5 6 5 6 5 6 5 5 5 5 5 5 5 5 5 5 5 6 5 5 5 6 5 5 5 5 5 5 5 5 6 5 5 5 5 5 5 5 5 5 6 5 5 5 5 6 5 5 6 5 5 5 5 5 5 5 5 5 6 5 5 5 6 5 5 5 5 5 5 5 5 5 5 5 5 5 5 5 5 5 5 5 6 5 5 5 5 5 5 5 5 5 5 6 5 5 5 5 5 5 5 5 5 5 5 5 5 5 5 5 5 5 5 5 5 5 5 5 5 5 5 5 5 5 5 5 5 5 5 5 5 5 5 5 5 5 5 5 5 6 6 5 5 5 5 5 5 5 5 5 5 5 5 5 6 6 5 5 5 6 5 5 6 5 5 5 6 5 5 5 6 5 5 5 5 5 5 5 5 6 5 5 6 5 6 6 5 5 5 5 5 5 6 5 6 6 6 5 5 6 5 5 6 6 5 5 5 5 5 5 5 5 5 5 5 5 5 5 5 5 5 5 5 5 5 6 5 5 5 5 5 5 5 5 5 6 5 5 5 5 5 5 5 6 6 5 5 5 5 5 5 5 5 5 5 5 5 5 5 5 5 5 5 5 5 5 5 5 6 5 6 5 5 5 5 5 5 5 6 5 5 5 6 6 5 5 6 5 5 5 5 6 5 5 5 6 5 5 5 6 5 5 5 5 5 5 5 5 5 6 6 5 5 5 5 5 6 5 5 6 6 6 5 5 5 5 5 6 5 5 5 5 5 5 5 5 5 6 5 6 5 5 5 5 5 5 5 5 5 5 5 5 5 5 5 5 5 5 5 5 5 5 5 5 6 5 5 5 5 6 6 5 5 5 6 5 5 5 5 5 5 5 5 5 5 5 5 5 5 5 5 6 5 5 5 6 5 5 6 5 5 5 5 5 5 5 5 5 5 5 5 5 6 5 5 6 5 5 5 6 5 6 5 6 5 6 6 6 5 5 5 5 5 5 5 5 6 5 5 5 5 5 5 5 5 6 5 5 6 5 5 5 5 5 5 5 5 5 5 5 5 5 5 5 5 5 5 5 5 5 6 5 5 5 5 5 5 5 5 5 5 6 5 6 5 5 6 5 6 5 6 5 5 6 5 6 5 5 6 5 5 5 6 5 5 5 5 5 5 5 5 5 5 5 5 5 5 5 5 5 5 5 5 5 5 5 5 5 5 5 5 5 5 5 5 5 5 5 5 5 5 5 5 5 5 5 5 5 5 5 5 5 5 5 5 5 5 5 5 5 5 5 5 5 6 5 5 6 5 5 5 5 5 5 6 6 5 5 5 5 5 5 5 5 5 5 5 5 5 5 5 5 5 5 6 5 5 5 6 5 5 5 5 5 5 5 5 5 5 5 5 5 5 5 5 6 5 5 5 5 5 5 5 6 5 5 5 5 5 5 5 5 6 5 6 5 5 5 5 5 5 5 5 5 5 5 5 5 5 5 5 6 5 5 5 5 5 5 5 6 5 5 5 5 6 5 5 5 5 5 5 5 6 5 5 6 6 5 5 6 5 5 5 5 5 5 6 5 5 5 5 5 5 5 5 5 6 5 5 6 5 5 6 5 5 6 5 5 5 5 5 6 5 5 5 5 5 5 5 5 6 5 5 5 5 5 5 5 6 5 5 5 5 5 5 5 5 5 5 5 5 6 5 5 5 5 5 5 5 6 6 5 6 5 6 5 5 5 5 5 5 5 5 5 5 5 5 5 5 5 6 5 6 5 5 5 5 5 5 5 5 6 5 6 5 6 5 6 5 6 5 5 6 5 5 5 5 5 6 5 5 5 5 5 5 5 5 6 5 5 5 5 5 6 5 5 6 5 6 6 5 5 5 5 5 5 5 5 6 5 5 5 5 5 5 5 5 5 5 5 5 5 6 5 5 5 5 5 5 5 6 5 5 5 6 5 5 5 5 5 5 5 5 5 5 5 5 5 5 5 5 5 6 5 5 5 5 5 5 5 6 5 5 6 5 5 5 5 5 5 5 5 5 5 5 5 5 5 5 6 5 5 5 5 6 5 5 5 5 5 5 5 5 5 5 5 5 5 5 5 5 5 5 5 5 5 5 5 5 5 6 5 5 5 5 5 5 6 5 5 5 5 5 5 5 5 5 6 6 5 5 5 6 5 6 5 5 5 5 5 5 5 5 5 5 5 5 5 5 5 6 5 5 5 5 5 5 5 5 5 5 5 5 6 6 5 5 5 5 5 5 5 5 6 5 5 6 5 5 6 6 5 5 5 5 5 5 5 6 5 5 5 5 5 5 5 5 5 6 5 5 5 6 5 5 5 5 5 6 5 5 5 5 5 5 5 5 5 5 5 5 6 5 5 5 6 5 5 5 6 5 5 5 5 5 5 5 5 5 5 5 5 5 5 5 5 5 5 5 5 5 5 5 5 5 5 5 5 5 5 5 5 6 5 5 5 5 5 5 5 5 5 5 5 5 5 5 5 5 5 5 5 5 5 5 5 5 6 5 6 5 5 6 5 5 5 5 5 5 5 5 5 6 5 5 5 5 5 5 5 5 5 5 5 5 5 5 6 5 5 5 5 6 5 5 5 6 5 5 5 5 5 5 5 5 5 5 5 5 5 5 5 5 5 5 5 5 5 5 5 5 5 5 5 5 5 5 5 5 5 5 5 5 5 5 5 5 5 5 5 5 5 5 5 5 5 5 5 5 5 5 5 5 5 5 5 5 5 5 5 5 5 5 5 5 5 5 5 5 5 5 5 5 5 5 5 5 5 5 5 5 5 5 5 5 5 5 5 5 5 5 5 5 5 5 5 5 5 5 5 5 5 5 5 5 5 5 5 5 5 5 5 5 5 5 5 5 5 5 5 5 5 5 5 5 5 5 5 5 5 5 5 5 5 5 5 5 5 5 5 5 5 5 5 5 5 5 5 5 5 5 5 5 5 5 5 5 5 5 5 5 5 5 5 5 5 5 5 5 5 5 5 5 5 5 5 5 5 5 5 5 5 5 5 5 5 6 5 5 5 5 5 5 5 5 5 5 5 5 5 5 5 5 6 5 5 5 5 5 5 5 5 6 5 5 5 5 6 5 5 5 5 5 5 5 5 5 5 5 5 5 5 5 5 5 5 5 5 5 5 6 5 5 5 5 5 5 5 5 5 5 5 5 5 6 6 5 5 5 5 5 6 5 6 5 5 5 5 5 5 5 5 5 5 5 6 5 5 5 5 5 5 5 6 5 5 5 5 5 5 5 5 5 5 5 5 5 5 5 6 6 5 5 5 5 5 5 5 5 5 5 5 5 6 5 5 5 5 5 5 5 5 5 5 5 5 5 5 5 5 6 5 5 5 5 5 5 5 6 5 5 5 5 5 5 5 5 5 5 6 6 5 5 5 5 5 5 5 5 5 5 5 5 5 5 5 5 5 5 5 5 5 5 5 5 5 5 5 5 5 5 6 5 5 5 5 5 6 5 5 5 5 5 5 5 5 5 5 6 5 5 5 5 6 5 5 5 5 5 5 5 5 5 5 6 5 6 5 5 5 5 5 5 5 5 5 5 5 5 5 5 5 5 5 5 5 5 5 5 5 5 5 5 5 5 5 5 5 6 5 5 5 5 5 6 5 5 5 5 5 5 5 5 5 5 5 5 5 5 5 5 5 5 6 5 5 6 5 5 5 6 5 5 5 5 5 6 5 5 5 5 5 5 5 5 5 5 6 5 5 5 5 5 5 6 5 5 5 5 5 6 6 5 5 6 5 5 6 5 5 5 5 5 5 5 5 5 5 6 5 5 6 5 5 6 5 5 6 5 5 6 5 5 6 5 5 5 5 5 5 6 5 5 5 5 5 5 5 5 5 5 5 6 5 5 5 5 5 5 5 6 5 5 5 5 6 5 5 5 6 5 5 5 5 5 5 5 5 5 5 5 6 5 5 5 5 5 5 5 5 5 5 5 5 5 5 5 5 5 5 5 5 5 5 5 5 6 5 5 5 5 5 6 5 5 5 5 5 5 5 5 5 5 5 5 5 5 6 5 5 6 5 6 5 5 5 5 6 5 6 6 5 6 5 5 5 5 5 5 5 6 5 6 5 5 5 5 5 5 6 5 5 5 5 5 5 6 5 5 5 5 6 5 5 5 5 5 6 5 5 6 5 5 5 5 6 5 5 5 5 6 5 5 5 5 5 5 6 5 5 5 5 5 5 5 5 5 6 5 5 5 5 5 5 6 5 5 5 5 6 5 5 5 5 5 5 5 5 5 5 5 5 5 5 5 5 6 5 5 5 6 5 5 6 5 5 5 5 5 5 5 5 5 5 5 5 5 5 5 5 6 5 6 5 5 5 5 5 5 5 5 5 5 5 5 5 5 5 5 5 5 5 5 5 5 5 5 5 5 6 5 5 6 5 5 5 5 5 5 5 5 5 5 6 5 5 5 5 6 5 5 5 5 6 5 5 5 5 5 5 5 5 5 6 5 5 5 5 5 5 5 5 5 5 5 5 5 5 5 5 5 5 5 5 5 5 5 5 5 5 5 5 
</DataArray>
<DataArray type="Float64" Name="stress" NumberOfComponents="9" format="ascii">
-1422419589.2358665 1571281994.1134186 0 1571281994.1134186 1107380.7697734833 0 0 0 0 -599360842.52865601 1813696813.7182064 0 1813696813.7182064 -413370846.64519501 0 0 0 0 -452049.64365768433 1593920631.255106 0 1593920631.255106 -942142190.87308121 0 0 0 0 -495600686.29916763 1253526851.9846191 0 1253526851.9846191 -1085731313.5173874 0 0 0 0 -481203971.68522644 1351938676.0418472 0 1351938676.0418472 -1083481803.4064183 0 0 0 0 -13755938.304094613 4537428.6244667619 0 4537428.6244667619 -828149.01879286766 0 0 0 0 -118444452.56437683 -304150579.30184555 0 -304150579.30184555 870462527.66393661 0 0 0 0 -653450005.45342255 360042935.66506195 0 360042935.66506195 485360641.47573471 0 0 0 0 -1636344690.2684288 1569047532.4880676 0 1569047532.4880676 -464390206.62244415 0 0 0 0 -1390380297.2575226 1762992007.2809286 0 1762992007.2809286 -1769507297.4410095 0 0 0 0 -580990781.27700043 598095241.20808029 0 598095241.20808029 -248850457.87923336 0 0 0 0 -2364426893.8871536 1121104391.205761 0 1121104391.205761 -93378430.253269196 0 0 0 0 15814645.04725647 37047711.59116745 0 37047711.59116745 8482.0751495361328 0 0 0 0 -4320425.5936930776 3431309.676901713 0 3431309.676901713 -4650789.6975509822 0 0 0 0 -10866328.347349167 35991328.103628159 0 35991328.103628159 -4397381.5475463867 0 0 0 0 -16838291.06337738 34927638.852722168 0 34927638.852722168 822.10786034337639 0 0 0 0 -6771772.8267555237 24760612.305988312 0 24760612.305988312 1059933.407081604 0 0 0 0 -16069769.139778137 39759003.910484314 0 39759003.910484314 -2351045.6211709976 0 0 0 0 -12085261.480688378 11979621.32804076 0 11979621.32804076 -6788243.5397245586 0 0 0 0 -8277011.5958938599 39165463.312702179 0 39165463.312702179 -24331271.378913879 0 0 0 0 -15674396.381004333 31898350.696475983 0 31898350.696475983 -6459713.5969314575 0 0 0 0 9347356.5067352355 31564763.050481156 0 31564763.050481156 -10167886.28908959 0 0 0 0 146424727.95436859 3583365.6228370667 0 3583365.6228370667 -1550819.6774597168 0 0 0 0 249470710.83049011 15402419.118247986 0 15402419.118247986 -99675882.38633728 0 0 0 0 126548015.79413605 54779101.445243835 0 54779101.445243835 -40062132.545894623 0 0 0 0 144545739.15556335 230935662.87650871 0 230935662.87650871 182819158.40848541 0 0 0 0 -35625525.129729375 46698442.209626906 0 46698442.209626906 -17764309.91340971 0 0 0 0 -24443913.241287231 306296316.15184784 0 306296316.15184784 158134998.95707703 0 0 0 0 11309224.430580139 142740764.20261383 0 142740764.20261383 5701496.7249832153 0 0 0 0 151327652.73252869 108118707.93760681 0 108118707.93760681 -133805348.48893738 0 0 0 0 -238135835.80712891 121476961.66458893 0 121476961.66458893 589103457.3687706 0 0 0 0 -38211845.839574814 19793201.830399707 0 19793201.830399707 585387.45728750527 0 0 0 0 -683099645.103405 496931511.45086861 0 496931511.45086861 -333558931.26370239 0 0 0 0 -205145716.17481995 142699162.0198822 0 142699162.0198822 74812740.580924988 0 0 0 0 -34372664.649223328 378378706.58427238 0 378378706.58427238 -72650964.422988892 0 0 0 0 -274672244.36701965 387374123.23685455 0 387374123.23685455 354544460.05500412 0 0 0 0 88293190.854510665 164330101.80804697 0 164330101.80804697 -291853003.05715179 0 0 0 0 -23288593.699272156 194692511.40041256 0 194692511.40041256 -289858762.72213745 0 0 0 0 -91944301.071960449 348389525.47427368 0 348389525.47427368 -340895630.54913521 0 0 0 0 -97486467.420837402 246298969.35852051 0 246298969.35852051 -322130153.64056396 0 0 0 0 88877025.509474874 302972247.19294894 0 302972247.19294894 -315472040.66148376 0 0 0 0 -225183713.25775146 289763643.78503418 0 289763643.78503418 31217172.528331757 0 0 0 0 -274683860.86006165 100930235.52822876 0 100930235.52822876 -333888858.44929504 0 0 0 0 -382382149.98612976 398459149.48200321 0 398459149.48200321 -67521384.166549683 0 0 0 0 130344837.42274475 248957737.90516663 0 248957737.90516663 -466671081.17713928 0 0 0 0 852488.26126432419 3355426.7711282969 0 3355426.7711282969 -1051769.9154314101 0 0 0 0 -514874257.17985535 493876568.72506714 0 493876568.72506714 -342986391.75898743 0 0 0 0 114500953.31736755 -36705307.91806221 0 -36705307.91806221 -177584411.40621948 0 0 0 0 435668.4157602787 1399155.6493462622 0 1399155.6493462622 771392.16255539656 0 0 0 0 -592708352.65931702 355626033.66397858 0 355626033.66397858 -33252397.006820679 0 0 0 0 -90471632.090644836 238002233.11559296 0 238002233.11559296 -460903259.51022339 0 0 0 0 -429295145.22003174 462458745.42529297 0 462458745.42529297 -534719499.0750885 0 0 0 0 -89359910.370758057 354565202.65327454 0 354565202.65327454 -456319863.059659 0 0 0 0 -104896374.31175232 61301313.218910217 0 61301313.218910217 15016022.39663887 0 0 0 0 -6686298.8551656306 13415449.542849869 0 13415449.542849869 11886810.662499785 0 0 0 0 -22409085.17993927 80463323.756469727 0 80463323.756469727 -59412990.826049805 0 0 0 0 -23025353.109848022 79932894.28471756 0 79932894.28471756 -73495312.638214111 0 0 0 0 -30163641.105841637 153973929.9000833 0 153973929.9000833 -211506023.90567017 0 0 0 0 -141480996.09003448 221776014.05578136 0 221776014.05578136 -194296178.20315552 0 0 0 0 -3200111.7165985107 245563343.27212143 0 245563343.27212143 -222813603.78985596 0 0 0 0 353543703.2762146 281298190.31228256 0 281298190.31228256 -17218256.777023315 0 0 0 0 58556051.385974884 175998990.26276016 0 175998990.26276016 2554352.9604644775 0 0 0 0 -33169161.471763283 45798481.793050259 0 45798481.793050259 -15126914.740921587 0 0 0 0 221941455.34379578 129929850.15753174 0 129929850.15753174 42848403.797729492 0 0 0 0 287331841.85802841 149136031.80283546 0 149136031.80283546 -89586558.485733032 0 0 0 0 130027078.53581238 191166895.47201538 0 191166895.47201538 -48014155.885772705 0 0 0 0 61722931.467407227 35472818.809066772 0 35472818.809066772 32082636.183273315 0 0 0 0 10503858.445525229 6299710.5744486526 0 6299710.5744486526 -11464721.836326659 0 0 0 0 136691896.03681946 48823032.922592163 0 48823032.922592163 -84280669.144643784 0 0 0 0 81320697.49597168 83385618.435367584 0 83385618.435367584 -19649528.586112976 0 0 0 0 197444409.67128754 155044819.23301697 0 155044819.23301697 25327113.634384155 0 0 0 0 241855098.26164246 137978339.93296814 0 137978339.93296814 9564658.7929573059 0 0 0 0 246902882.13438797 86633700.849532127 0 86633700.849532127 -17103782.26171875 0 0 0 0 257246253.26450348 121714145.86413193 0 121714145.86413193 15162268.663444519 0 0 0 0 144418529.04007339 9269985.2725219727 0 9269985.2725219727 -9629803.365447998 0 0 0 0 209255257.16778183 108273237.13056946 0 108273237.13056946 4311770.7194061279 0 0 0 0 72604920.594085693 121219523.00457764 0 121219523.00457764 79183132.848190308 0 0 0 0 10126262.660976276 18676740.776047036 0 18676740.776047036 -11326503.63087669 0 0 0 0 13675073.744413376 29500093.476522446 0 29500093.476522446 5830720.4325408936 0 0 0 0 5747234.9127883911 15601817.10068512 0 15601817.10068512 9144888.0030670166 0 0 0 0 2398769.9632080495 22422786.509494931 0 22422786.509494931 -5266267.64300685 0 0 0 0 80651717.542564392 75178225.668201447 0 75178225.668201447 -49045168.854446411 0 0 0 0 55938258.315349579 83734919.001106739 0 83734919.001106739 13819026.250076294 0 0 0 0 18718708.383191317 35715481.641342118 0 35715481.641342118 -12319935.600714905 0 0 0 0 45268554.757164001 -2265400.3476486206 0 -2265400.3476486206 17854922.046535492 0 0 0 0 21517115.158683777 26203080.261539459 0 26203080.261539459 9448593.8857269287 0 0 0 0 -71300622.288513184 70146684.110790253 0 70146684.110790253 18691132.780082703 0 0 0 0 18816325.609237671 14800654.610500336 0 14800654.610500336 9078338.652923584 0 0 0 0 -6025628.9731029719 19156480.624876097 0 19156480.624876097 14547453.515087605 0 0 0 0 -24716513.108634949 22106925.182621002 0 22106925.182621002 30058566.507572174 0 0 0 0 -1305695.9626998901 47965051.873268127 0 47965051.873268127 -46057172.912473679 0 0 0 0 7226544.1684417725 31816917.875925064 0 31816917.875925064 -15998349.040962219 0 0 0 0 51739906.871826172 35692565.411491394 0 35692565.411491394 -51509897.413618088 0 0 0 0 39459010.882751465 657669.48872756958 0 657669.48872756958 -37269830.575218201 0 0 0 0 -426234674.94802856 719865979.78879547 0 719865979.78879547 -974025202.95127869 0 0 0 0 -25127582.466245651 -1629450.5045881271 0 -1629450.5045881271 32240552.289962769 0 0 0 0 -4155907.2527171075 17561.402071893215 0 17561.402071893215 -3145092.8440072685 0 0 0 0 134967.27928969264 890907.65651836991 0 890907.65651836991 -647913.01422744989 0 0 0 0 5611888.358319521 9621059.9011732936 0 9621059.9011732936 -15830175.761818349 0 0 0 0 1520404.014503479 16404797.516429901 0 16404797.516429901 -30933278.15788269 0 0 0 0 -7091934.7279205322 17862755.7304039 0 17862755.7304039 -29596071.043386459 0 0 0 0 7768061.4505541921 14167443.73851864 0 14167443.73851864 -20845549.904101074 0 0 0 0 -13701757.267120361 30164311.583457947 0 30164311.583457947 -9876340.711151123 0 0 0 0 -20507895.14402771 51400871.81205368 0 51400871.81205368 -11550122.806755066 0 0 0 0 -8568401.2414245605 -25262565.232765198 0 -25262565.232765198 -14561000.767608643 0 0 0 0 -10427700.036727905 44516367.61088562 0 44516367.61088562 -63335869.728057861 0 0 0 0 -31155192.691589355 47496572.587638855 0 47496572.587638855 13460044.074180603 0 0 0 0 1686163.1471836269 -686760.95085114241 0 -686760.95085114241 -7405724.1930577159 0 0 0 0 -26357991.525588989 -199461.01554489136 0 -199461.01554489136 136165359.61967087 0 0 0 0 -795279.86571502686 746287039.19644928 0 746287039.19644928 -1275815778.0361729 0 0 0 0 -398831046.04384613 742060512.49526691 0 742060512.49526691 -997982539.36594391 0 0 0 0 -464356705.72666931 942436748.71076965 0 942436748.71076965 -970409500.56268454 0 0 0 0 -899380.65841097524 1105992947.7317972 0 1105992947.7317972 -1026838399.7859421 0 0 0 0 -568975802.41676331 928850186.36876678 0 928850186.36876678 -525234618.90637207 0 0 0 0 -1017448323.6315536 1297693881.8329086 0 1297693881.8329086 -622895066.08315277 0 0 0 0 -1097614108.950222 890645831.80461645 0 890645831.80461645 -115569759.23581696 0 0 0 0 -510568182.92175293 403323570.44044495 0 403323570.44044495 -118779964.13363314 0 0 0 0 -68750465.191815376 358659340.31825757 0 358659340.31825757 -523912894.54779053 0 0 0 0 -87375798.781723022 169152869.89820099 0 169152869.89820099 -198898201.24942017 0 0 0 0 -121792984.05303955 311671514.86865234 0 311671514.86865234 -772899961.40118408 0 0 0 0 -404138650.55516052 503410951.06717682 0 503410951.06717682 -586031950.76126099 0 0 0 0 770802.64113366604 1231224.0578176379 0 1231224.0578176379 -4191575.6475973427 0 0 0 0 -399796791.64312744 494550286.7231369 0 494550286.7231369 -707132001.13422394 0 0 0 0 -524960610.96765137 635958066.16116333 0 635958066.16116333 -809367513.52914429 0 0 0 0 -792093034.94037628 751092334.39953613 0 751092334.39953613 -520754002.38272095 0 0 0 0 13829699.821815673 14867409.206153363 0 14867409.206153363 7125542.6533607841 0 0 0 0 18766310.343844891 94338838.950105667 0 94338838.950105667 341427652.7532959 0 0 0 0 -44665602.619064331 111775243.51408005 0 111775243.51408005 -22574754.438182831 0 0 0 0 11800542.722589493 74844271.355113506 0 74844271.355113506 1088468.4770812988 0 0 0 0 8562575.6725082397 108951939.36965942 0 108951939.36965942 -96696901.764690399 0 0 0 0 -3301460.0280056 212446345.72820473 0 212446345.72820473 7477356.7777862549 0 0 0 0 -93674899.575508118 96904219.900453568 0 96904219.900453568 -26986222.588623047 0 0 0 0 4636775.5805474091 1367908.3155169189 0 1367908.3155169189 2492821.6358882785 0 0 0 0 -444415568.90045166 143910914.04128647 0 143910914.04128647 160403808.57572937 0 0 0 0 711794169.72579098 596771945.60534096 0 596771945.60534096 269850215.0741272 0 0 0 0 396996007.73343182 534022428.83659983 0 534022428.83659983 136602966.1902771 0 0 0 0 374866163.04057264 392209009.01151896 0 392209009.01151896 140236986.1559906 0 0 0 0 164393670.7224884 352533914.9489212 0 352533914.9489212 394336.6483001709 0 0 0 0 -150225480.29117966 369201880.30313492 0 369201880.30313492 287064894.53492737 0 0 0 0 1509225.9155330658 201116765.45974731 0 201116765.45974731 10536293.244140625 0 0 0 0 111493415.73735809 242140583.49045563 0 242140583.49045563 -35053686.867095947 0 0 0 0 36513161.117870331 268704749.39760971 0 268704749.39760971 137724103.43279266 0 0 0 0 175243693.71384621 279967403.41532707 0 279967403.41532707 39854.215660095215 0 0 0 0 170311981.3087883 309949917.07927322 0 309949917.07927322 125438496.70245361 0 0 0 0 293135637.96756744 184735810.21344757 0 184735810.21344757 76112990.223327637 0 0 0 0 285397591.24181747 262505792.28697968 0 262505792.28697968 -171420268.07781982 0 0 0 0 118763735.97184753 287421592.31345367 0 287421592.31345367 124623937.21873474 0 0 0 0 121053987.02293015 132465747.57333755 0 132465747.57333755 -165178383.1919632 0 0 0 0 116727001.83177376 74283063.552984238 0 74283063.552984238 -226648289.4871521 0 0 0 0 102859250.69604492 95695439.834358215 0 95695439.834358215 -136627598.60498047 0 0 0 0 167839738.7641716 156866817.56751251 0 156866817.56751251 -179251876.9395752 0 0 0 0 55691958.877304077 157689053.71380806 0 157689053.71380806 -88316511.665145874 0 0 0 0 105565382.71681213 213876801.66059875 0 213876801.66059875 -25568360.248126984 0 0 0 0 64240635.989982605 142110921.33731079 0 142110921.33731079 -77517800.333553314 0 0 0 0 65345388.42400527 82979998.322995663 0 82979998.322995663 -130190847.78933716 0 0 0 0 40035814.211593628 60166588.369186401 0 60166588.369186401 -97254971.003295898 0 0 0 0 38700690.42881012 50347259.186706543 0 50347259.186706543 -32085843.81552887 0 0 0 0 55494196.810722351 -31474756.523849487 0 -31474756.523849487 -114453983.84820557 0 0 0 0 2038429.2110949755 4064422.0638585053 0 4064422.0638585053 807119.2023461163 0 0 0 0 5136662.9823455811 -47215043.015235901 0 -47215043.015235901 96299258.741215229 0 0 0 0 38209119.437244415 -88051576.562677383 0 -88051576.562677383 -294378839.23579407 0 0 0 0 -139672889.84151459 157594922.20591354 0 157594922.20591354 -91095713.929931641 0 0 0 0 -3954026.993238464 13176216.552658089 0 13176216.552658089 -969997.36207419634 0 0 0 0 -119814284.50914001 114316976.46680641 0 114316976.46680641 -36832738.760772705 0 0 0 0 -64993407.144348145 203769188.50894165 0 203769188.50894165 -195075055.79928589 0 0 0 0 1685070.1063934416 7450916.6949090958 0 7450916.6949090958 -2880385.5891218781 0 0 0 0 176930662.13378143 -23309249.346424103 0 -23309249.346424103 -431004996.59622192 0 0 0 0 -55410653.121212006 103200113.80469894 0 103200113.80469894 -214454902.77630615 0 0 0 0 -79592471.221477509 163702883.1289711 0 163702883.1289711 -189360768.71008301 0 0 0 0 90578243.620040894 97171047.720939636 0 97171047.720939636 -230614689.92224121 0 0 0 0 17267242.798492432 199662127.21963882 0 199662127.21963882 -244056000.09140015 0 0 0 0 72151987.006378174 131577451.73288727 0 131577451.73288727 -128683833.21560669 0 0 0 0 77991286.631269455 220300171.92766571 0 220300171.92766571 -241605042.97831726 0 0 0 0 119941152.02297211 82586158.207122803 0 82586158.207122803 -211732507.09635925 0 0 0 0 143640499.77134705 98295072.312011719 0 98295072.312011719 -438900614.31948853 0 0 0 0 104930390.1444931 166611609.2954483 0 166611609.2954483 -228033442.22887611 0 0 0 0 139085755.86910248 125078662.18053436 0 125078662.18053436 -289385458.11827087 0 0 0 0 -264713.17830994725 5476077.507637009 0 5476077.507637009 832564.33161327988 0 0 0 0 54964475.390037537 134921123.15422058 0 134921123.15422058 308888765.58697891 0 0 0 0 -44057699.779510498 19325714.527885437 0 19325714.527885437 -178592935.6320076 0 0 0 0 77796956.781478882 98252740.535461426 0 98252740.535461426 149618.15496792158 0 0 0 0 174052750.15884399 195101479.48184204 0 195101479.48184204 75560778.092025757 0 0 0 0 225491378.11276627 273038020.98675728 0 273038020.98675728 193633168.021698 0 0 0 0 -22759608.728019714 34722474.240867615 0 34722474.240867615 185800673.45698166 0 0 0 0 -23005553.161061347 939523.63276778162 0 939523.63276778162 38042370.625305176 0 0 0 0 27802152.094055176 89448806.953266144 0 89448806.953266144 69092294.993591309 0 0 0 0 451438.75668269396 11236640.124390438 0 11236640.124390438 -484680.06657519192 0 0 0 0 -1303943.3836288452 31355504.089881897 0 31355504.089881897 1213937.333656311 0 0 0 0 13222329.454566956 187460866.40274811 0 187460866.40274811 -131687708.11967468 0 0 0 0 -51146910.276947021 65046932.907676697 0 65046932.907676697 -383425618.38500977 0 0 0 0 -35925043.768791199 118315314.34280396 0 118315314.34280396 -221649542.99670601 0 0 0 0 -9922167.1834526062 19149068.289535522 0 19149068.289535522 1103319.8859100342 0 0 0 0 -7487436.5243453979 40055987.951042175 0 40055987.951042175 25984.141998291016 0 0 0 0 -15186296.384185791 38523685.279304504 0 38523685.279304504 5925085.1591415405 0 0 0 0 -11678689.578094482 36160174.739349365 0 36160174.739349365 -20148582.303611755 0 0 0 0 4288975.608269453 15513258.310319752 0 15513258.310319752 -4977345.3993876874 0 0 0 0 165156007.81813049 308416620.17540741 0 308416620.17540741 -356804182.40997314 0 0 0 0 -686777866.69274902 -155079220.18196106 0 -155079220.18196106 85042551.603382111 0 0 0 0 -396572441.29592896 326777071.79986572 0 326777071.79986572 -59918673.23626709 0 0 0 0 318229179.85777283 60509768.306243896 0 60509768.306243896 -605615559.06707764 0 0 0 0 246087232.89125061 236325449.26630402 0 236325449.26630402 -323243977.3616333 0 0 0 0 104427302.61569214 73646475.804931641 0 73646475.804931641 -428862397.61938477 0 0 0 0 43230696.570892334 -6339743.993270874 0 -6339743.993270874 -276675764.14169312 0 0 0 0 -440619849.36485291 -1014069.8328323364 0 -1014069.8328323364 38204950.208358765 0 0 0 0 115068664.38172913 -166257842.01849365 0 -166257842.01849365 -566516511.03372574 0 0 0 0 -1513200.210017249 4413301.9795581698 0 4413301.9795581698 -915626.01179128885 0 0 0 0 -118052797.9823761 -8728802.5649032593 0 -8728802.5649032593 37920608.528762817 0 0 0 0 -37638741.032012939 -1316640.64503479 0 -1316640.64503479 -13470292.396377563 0 0 0 0 6357805.2275009155 30094819.408683777 0 30094819.408683777 34351351.415588379 0 0 0 0 -3854965.5737609863 49856446.033309937 0 49856446.033309937 37621618.179595947 0 0 0 0 -74045162.843811035 16810844.903327942 0 16810844.903327942 35585380.754882812 0 0 0 0 -102631042.53266907 6422397.4474105835 0 6422397.4474105835 39683496.125701904 0 0 0 0 -141416037.16744995 33797353.680503845 0 33797353.680503845 61796233.906768799 0 0 0 0 -89125969.433242798 101932151.99732208 0 101932151.99732208 68924271.0362854 0 0 0 0 -40656085.857048035 234644135.8549881 0 234644135.8549881 -36974617.333374023 0 0 0 0 -319353821.61802673 91864238.515380859 0 91864238.515380859 78544054.378479004 0 0 0 0 -26245758.239086151 78570533.703346252 0 78570533.703346252 42814238.669342041 0 0 0 0 -47613974.208847046 80109485.704444885 0 80109485.704444885 52412644.866615295 0 0 0 0 -51493489.80708313 60306554.362754822 0 60306554.362754822 45959609.210235596 0 0 0 0 -74382331.269523621 16209709.448135376 0 16209709.448135376 36291808.455932617 0 0 0 0 -104068964.56263733 44742708.793022156 0 44742708.793022156 59917615.322647095 0 0 0 0 -71494863.583999634 41439121.655040741 0 41439121.655040741 40303122.580078125 0 0 0 0 -49483041.228050232 23769641.012145996 0 23769641.012145996 19473441.397598267 0 0 0 0 -57022103.944213867 60498965.006362915 0 60498965.006362915 55283288.938163757 0 0 0 0 -45749051.889635086 65014602.582580566 0 65014602.582580566 48668491.38772583 0 0 0 0 -28929714.344512939 55993339.967765808 0 55993339.967765808 16516812.688728333 0 0 0 0 -48495092.594894409 55727226.642578125 0 55727226.642578125 46842761.381942749 0 0 0 0 -40764106.841766357 56210098.016082764 0 56210098.016082764 42149619.163164139 0 0 0 0 -41537330.362514496 49695335.777744293 0 49695335.777744293 1705932.9729309082 0 0 0 0 -1082853.4939740002 2636284.4035492837 0 2636284.4035492837 2721983.9288402945 0 0 0 0 -39761740.642715454 47965047.421325684 0 47965047.421325684 35301025.228927612 0 0 0 0 -31138021.554134369 30598942.998451233 0 30598942.998451233 47357335.694885254 0 0 0 0 -13721351.620620728 90548043.221824646 0 90548043.221824646 42676109.346576691 0 0 0 0 -30727721.871674538 46913939.321926937 0 46913939.321926937 -6875929.619164139 0 0 0 0 -23755812.752487183 67224434.182468414 0 67224434.182468414 30943902.190093994 0 0 0 0 1995001.3756839037 19704793.564696416 0 19704793.564696416 -154815.29194935039 0 0 0 0 79096294.673599243 196721819.412117 0 196721819.412117 191494451.04337502 0 0 0 0 -22047113.616268724 34788533.37530528 0 34788533.37530528 20517609.391874313 0 0 0 0 16724434.79927063 107599235.90940857 0 107599235.90940857 72839587.188644409 0 0 0 0 42268671.783355713 102962448.01461792 0 102962448.01461792 73197823.638647079 0 0 0 0 26955137.033238262 52719838.796573848 0 52719838.796573848 -4010310.4637968773 0 0 0 0 60946902.299446106 105191962.64705658 0 105191962.64705658 38641409.243690491 0 0 0 0 -14901069.715904236 33971151.170200348 0 33971151.170200348 15146376.601982117 0 0 0 0 -21868657.070655823 39249060.151823044 0 39249060.151823044 6557843.9143829346 0 0 0 0 -23991051.631834999 30553665.184284851 0 30553665.184284851 5268711.5818370581 0 0 0 0 -16109438.87713623 38666978.844055176 0 38666978.844055176 -15897237.387682915 0 0 0 0 -19671384.877212375 35603351.637681283 0 35603351.637681283 25330166.176197838 0 0 0 0 2473436.4105224609 23599626.766937256 0 23599626.766937256 5092858.9697504044 0 0 0 0 -1655955.0603924394 40816419.890660822 0 40816419.890660822 15281132.095248818 0 0 0 0 2304036.6211547852 26871505.753662109 0 26871505.753662109 -1434057.9404296875 0 0 0 0 -11819129.549735606 36775109.89859958 0 36775109.89859958 29181535.734677583 0 0 0 0 -16271331.654678434 36091056.200423539 0 36091056.200423539 6713045.5335826036 0 0 0 0 3933156.1378974915 35650448.12587738 0 35650448.12587738 4558581.3497161865 0 0 0 0 -6862723.2585227489 30714692.612775713 0 30714692.612775713 9706061.227270972 0 0 0 0 -9201190.2308158875 42036838.200183868 0 42036838.200183868 5612680.934211731 0 0 0 0 -18501922.395103455 34759440.45426178 0 34759440.45426178 9581419.6278643608 0 0 0 0 -14642345.646300852 42448778.511698678 0 42448778.511698678 17759807.321259223 0 0 0 0 -17642370.016319275 40578175.545984268 0 40578175.545984268 6904052.8551101685 0 0 0 0 -12671440.442278296 34123046.372485846 0 34123046.372485846 -33600.960899308324 0 0 0 0 -21550704.468109131 32696184.070549011 0 32696184.070549011 -6585496.2732086182 0 0 0 0 -11118754.605773926 31858240.057121277 0 31858240.057121277 17562668.492238283 0 0 0 0 -4637549.1735858917 41110729.527503967 0 41110729.527503967 -3081214.2560958862 0 0 0 0 6276378.5265138373 36001341.271469131 0 36001341.271469131 19359978.248198003 0 0 0 0 -5838568.0014038086 31300076.803827286 0 31300076.803827286 12169522.703639984 0 0 0 0 3210117.2140173689 32898364.003604606 0 32898364.003604606 9960813.3807290494 0 0 0 0 -339519.71388222277 27583607.748821959 0 27583607.748821959 130783.97980888933 0 0 0 0 2025720.3827133179 33532443.252784729 0 33532443.252784729 18840620.580371857 0 0 0 0 221609.19596099854 31419281.402618408 0 31419281.402618408 17479809.706283569 0 0 0 0 -24228.731610149145 26073343.942501873 0 26073343.942501873 -7689448.9751626104 0 0 0 0 153753.15386009216 31070207.480218887 0 31070207.480218887 15694045.973602295 0 0 0 0 -9886005.2802581787 25119277.151069641 0 25119277.151069641 7727961.6730957031 0 0 0 0 -5341005.4631729126 30027062.829345703 0 30027062.829345703 6891404.4022405148 0 0 0 0 -1083825.5854334086 26198738.132430967 0 26198738.132430967 12076236.470269501 0 0 0 0 -3823324.824054718 30814355.058246613 0 30814355.058246613 18461757.386634827 0 0 0 0 -27563084.22714787 30328070.948765025 0 30328070.948765025 14459033.775723636 0 0 0 0 -13055995.367673114 22633331.990689248 0 22633331.990689248 9813493.1721691489 0 0 0 0 6032631.61970447 19811739.584249482 0 19811739.584249482 6017892.8049048483 0 0 0 0 -6481257.8453216553 15849772.468231201 0 15849772.468231201 3205473.8898963928 0 0 0 0 -7480033.2887630463 21857870.466703087 0 21857870.466703087 5258308.3767386973 0 0 0 0 67526513.213348389 54201838.402606964 0 54201838.402606964 22570868.635215759 0 0 0 0 3969540.3549966812 22985802.170408249 0 22985802.170408249 4548787.3235855103 0 0 0 0 -1463812.2559070587 19285259.182796478 0 19285259.182796478 5031481.0062866211 0 0 0 0 1326336.0174024478 5428926.3188365921 0 5428926.3188365921 4479108.0458553433 0 0 0 0 5261749.3391571045 23224762.622116089 0 23224762.622116089 16160898.082595825 0 0 0 0 -8744949.8653863743 25902537.730462745 0 25902537.730462745 4551625.42829898 0 0 0 0 13502960.236865282 26166629.776895002 0 26166629.776895002 -4106232.6050673127 0 0 0 0 505639.58635379374 18356007.341151349 0 18356007.341151349 9481353.588696301 0 0 0 0 9680548.6637802124 106044393.69415283 0 106044393.69415283 113436612.49566031 0 0 0 0 33583388.848831177 30274972.46005249 0 30274972.46005249 60764092.707122803 0 0 0 0 7575465.5265247822 36483967.845597878 0 36483967.845597878 -13748478.938133478 0 0 0 0 7177584.4618034214 30559498.940804839 0 30559498.940804839 -772813.34130872786 0 0 0 0 47811754.220241547 64275961.518203735 0 64275961.518203735 -42941004.691299438 0 0 0 0 7069365.6327514648 22869673.769325256 0 22869673.769325256 459167.83156967163 0 0 0 0 9890299.5799636841 49060922.853931427 0 49060922.853931427 15658234.798355103 0 0 0 0 -47224306.793807983 100844498.02124023 0 100844498.02124023 -30610844.653053284 0 0 0 0 15365846.028973639 39388667.678187013 0 39388667.678187013 5602977.1102287322 0 0 0 0 -116635.0185546875 48653417.416625977 0 48653417.416625977 1671946.0889587402 0 0 0 0 4048650.9256981052 12516661.983710095 0 12516661.983710095 -2664939.1630861759 0 0 0 0 56816907.685918331 59345114.982104778 0 59345114.982104778 -55646706.951309204 0 0 0 0 -5568059.3640785217 51445533.448993683 0 51445533.448993683 1354855.2217330933 0 0 0 0 1262957.0074406751 26220293.462538175 0 26220293.462538175 6314388.0329084098 0 0 0 0 -2112629.3426780701 52490349.103556633 0 52490349.103556633 657058.12208557129 0 0 0 0 19634371.353858948 34258992.070610046 0 34258992.070610046 21274214.809906006 0 0 0 0 3559283.1670303345 25048322.708408356 0 25048322.708408356 7271389.7092132568 0 0 0 0 11339901.046983898 20059009.794549756 0 20059009.794549756 8475268.2116085291 0 0 0 0 9154624.0587997437 33412218.968902588 0 33412218.968902588 16301645.167392731 0 0 0 0 7390132.3486207128 26703711.893355846 0 26703711.893355846 19009203.223062903 0 0 0 0 8693771.4822114408 24498630.875450648 0 24498630.875450648 11872508.402303934 0 0 0 0 6947882.4695303738 23387629.889277149 0 23387629.889277149 15932547.25532195 0 0 0 0 8987651.0114593506 21715907.681251526 0 21715907.681251526 18054611.442573547 0 0 0 0 -4303678.7072067261 28331389.75365448 0 28331389.75365448 6155638.5573120117 0 0 0 0 24715866.181381226 30036165.20904541 0 30036165.20904541 8794800.5149593353 0 0 0 0 5867407.441335693 27754234.121890888 0 27754234.121890888 -1086120.1823223596 0 0 0 0 5388056.5398864746 29179406.452896118 0 29179406.452896118 7854098.0014648438 0 0 0 0 9894788.4210687354 32799099.791138191 0 32799099.791138191 14854634.5024198 0 0 0 0 -8657871.1638838574 39013283.720099881 0 39013283.720099881 18051147.728336036 0 0 0 0 1094725.9352716655 40589553.893234789 0 40589553.893234789 9086921.0819475874 0 0 0 0 -4844409.2096292078 33725794.102090865 0 33725794.102090865 -6960244.9866131842 0 0 0 0 -307034.56423187256 46143932.262153625 0 46143932.262153625 -3198473.4209365845 0 0 0 0 -13900971.800369263 53916105.491836548 0 53916105.491836548 10438272.058181763 0 0 0 0 12265426.8175354 59532629.958175659 0 59532629.958175659 -23032065.939910889 0 0 0 0 35233849.144356869 40625228.685893171 0 40625228.685893171 -12394767.88661164 0 0 0 0 593727.72218634188 802273.62740411982 0 802273.62740411982 595737.29674005508 0 0 0 0 6718028.9717407227 16285023.65826416 0 16285023.65826416 18491547.686035156 0 0 0 0 9391031.1497802734 19790421.559860229 0 19790421.559860229 3300071.8547363281 0 0 0 0 29502817.364835702 31263656.458459433 0 31263656.458459433 -5390136.73513183 0 0 0 0 -6175207.5628803559 21309756.803902254 0 21309756.803902254 11872413.746836811 0 0 0 0 11911443.274289906 42434183.218101159 0 42434183.218101159 1719842.1872280603 0 0 0 0 1649987.5790252686 57751904.42401886 0 57751904.42401886 13487417.373016357 0 0 0 0 6364443.3927431256 41981192.83859317 0 41981192.83859317 5955966.7896300182 0 0 0 0 -25268240.50567627 63136373.117599487 0 63136373.117599487 25312901.377883911 0 0 0 0 22584973.019023895 57282267.874725342 0 57282267.874725342 11528276.176727295 0 0 0 0 31084914.195762634 57237953.488845825 0 57237953.488845825 -12520769.639862061 0 0 0 0 101154989.86138535 68008131.219435692 0 68008131.219435692 -32796458.06036377 0 0 0 0 3509982.4407093897 2103744.9877273291 0 2103744.9877273291 979855.05372992158 0 0 0 0 -21984432.288223267 70943261.005542755 0 70943261.005542755 16679339.589477539 0 0 0 0 -11071913.616149902 81332469.646995544 0 81332469.646995544 2893147.9955482483 0 0 0 0 -11601288.804672241 80783937.106063843 0 80783937.106063843 9501758.2288513184 0 0 0 0 -37704751.327064514 87937376.064201355 0 87937376.064201355 13626707.891403198 0 0 0 0 -21680151.088607788 73744931.986488342 0 73744931.986488342 8097838.3898162842 0 0 0 0 -2797951.5402297974 66146363.15297699 0 66146363.15297699 22589619.748703003 0 0 0 0 -14357187.420192719 85555360.051509857 0 85555360.051509857 266392.3469543457 0 0 0 0 9151418.5014731735 45881577.836522475 0 45881577.836522475 9665736.8199137934 0 0 0 0 -45810520.234008789 45431809.538017273 0 45431809.538017273 -12306879.63066864 0 0 0 0 -5508801.6365356445 65629472.239406586 0 65629472.239406586 17866244.963012695 0 0 0 0 3021836.86668396 69316384.820579529 0 69316384.820579529 17835274.097053528 0 0 0 0 41108704.721229553 38439108.548477173 0 38439108.548477173 30554232.265155792 0 0 0 0 -72860038.904998779 65772684.305236816 0 65772684.305236816 2588722.9988555908 0 0 0 0 90249482.919372559 -4329774.115524292 0 -4329774.115524292 -69189550.396377563 0 0 0 0 18793717.006474417 49228281.594744846 0 49228281.594744846 -11803583.502785325 0 0 0 0 2355507.0993894488 658582.73150639236 0 658582.73150639236 -2030053.0202683359 0 0 0 0 6392654.3359298706 61985838.286819458 0 61985838.286819458 -17730757.306045532 0 0 0 0 40603137.394041061 62858073.610258102 0 62858073.610258102 -27818184.519622803 0 0 0 0 18544202.42745018 49134613.067760706 0 49134613.067760706 -34646437.554260254 0 0 0 0 10614696.512432128 46572377.575301364 0 46572377.575301364 8730565.3502832893 0 0 0 0 12439962.656021118 48879453.539718628 0 48879453.539718628 9269661.3475584984 0 0 0 0 19998202.31489563 64638645.585021973 0 64638645.585021973 8658877.7454376221 0 0 0 0 78841574.085014343 19330669.312469482 0 19330669.312469482 -30075992.116455078 0 0 0 0 3557053.4423853531 6921254.195641432 0 6921254.195641432 2320284.2395652235 0 0 0 0 -44493736.086242676 77299775.714710236 0 77299775.714710236 21565315.186859131 0 0 0 0 15799350.749517232 33060537.086424634 0 33060537.086424634 -2243901.2973888721 0 0 0 0 -22535835.715770721 103103332.61004639 0 103103332.61004639 73313044.96685791 0 0 0 0 -13808865.318932369 15231710.822928801 0 15231710.822928801 7466888.7101944964 0 0 0 0 30182220.184921082 47336606.496024035 0 47336606.496024035 -14887448.951323301 0 0 0 0 -65131563.443889618 154230322.19176483 0 154230322.19176483 157220899.05019379 0 0 0 0 -7019210.8631439209 189708410.85110474 0 189708410.85110474 92857121.897369385 0 0 0 0 -16205028.454147339 76098152.652984619 0 76098152.652984619 -139750693.59777069 0 0 0 0 -185451948.50273895 97990568.2472229 0 97990568.2472229 137635585.46691132 0 0 0 0 -2614858.2819780782 18050932.343990147 0 18050932.343990147 3075431.7939153155 0 0 0 0 74495765.783695221 185222362.82102966 0 185222362.82102966 -355408006.8782196 0 0 0 0 186801104.75738525 4054424.6041030884 0 4054424.6041030884 53193591.342857361 0 0 0 0 30490527.494536892 49425035.443703882 0 49425035.443703882 -9812279.9185295105 0 0 0 0 32221656.297241211 43615568.331577301 0 43615568.331577301 -4143599.4175643921 0 0 0 0 9395845.7149505615 44471337.525741577 0 44471337.525741577 -4086641.3649840355 0 0 0 0 -9534683.100361824 84472992.282672882 0 84472992.282672882 4617623.8213806152 0 0 0 0 -382285632.05409765 112680237.8988533 0 112680237.8988533 168177765.81845093 0 0 0 0 7765440.6517569423 2619615.8999417573 0 2619615.8999417573 -423975.0609716177 0 0 0 0 -169133133.8490448 209407277.16196442 0 209407277.16196442 21700674.930755615 0 0 0 0 -3213724.4665024914 -123446.05350729078 0 -123446.05350729078 878185.89061248302 0 0 0 0 7560579.1542358398 52877895.410865784 0 52877895.410865784 -3209635.5777397156 0 0 0 0 23758864.707180023 51548735.055633545 0 51548735.055633545 -12473547.639480591 0 0 0 0 -1439444.7300114632 55166236.129760265 0 55166236.129760265 -3790694.1531066895 0 0 0 0 12688875.820684433 42523131.659330368 0 42523131.659330368 -14769370.912811279 0 0 0 0 15105098.311302185 47224468.967067719 0 47224468.967067719 -22261114.211990356 0 0 0 0 33626502.68619626 52944180.761224881 0 52944180.761224881 -10729419.21506384 0 0 0 0 11703030.609169453 43876567.86137858 0 43876567.86137858 10208683.810297988 0 0 0 0 11597732.737018585 48375421.614612579 0 48375421.614612579 -13014764.089584351 0 0 0 0 -20682816.337890625 120624745.96759796 0 120624745.96759796 -44568508.025512695 0 0 0 0 -920469514.13856697 -54669265.561185837 0 -54669265.561185837 340816837.82879639 0 0 0 0 -409542641.30129242 77050368.206998825 0 77050368.206998825 216607376.11342621 0 0 0 0 -680564839.12308311 94128754.870010376 0 94128754.870010376 251828296.15688324 0 0 0 0 -364763343.14995956 48937899.895151138 0 48937899.895151138 151694920.89027405 0 0 0 0 -857504037.10854912 253992614.89234352 0 253992614.89234352 283623837.57870483 0 0 0 0 88630676.653039932 49297269.708574295 0 49297269.708574295 28732211.092071533 0 0 0 0 2390062.7282204255 8736659.8159829676 0 8736659.8159829676 4235934.2511897981 0 0 0 0 -224510426.85591125 315804425.80478668 0 315804425.80478668 554411082.64282227 0 0 0 0 88429584.402451411 72585163.37784864 0 72585163.37784864 5902419.6824951172 0 0 0 0 288314915.2482605 117222531.54413414 0 117222531.54413414 -79370755.60774231 0 0 0 0 8265260.0267087966 10474773.39599378 0 10474773.39599378 2252120.2787967473 0 0 0 0 313913458.10246658 98229319.341753006 0 98229319.341753006 -98222627.23948288 0 0 0 0 54543621.502065659 4192240.6367015839 0 4192240.6367015839 94194913.564697266 0 0 0 0 -10894514.403678939 38024223.252099127 0 38024223.252099127 23441735.963982612 0 0 0 0 246049804.13314819 49887744.389984131 0 49887744.389984131 -80571901.936489105 0 0 0 0 -907366.36333566904 2238352.8057047054 0 2238352.8057047054 1078575.9939799234 0 0 0 0 -447354273.97360992 -88668881.463012695 0 -88668881.463012695 -146762876.0176239 0 0 0 0 -741660077.91832733 -207948394.37273407 0 -207948394.37273407 107227897.10517883 0 0 0 0 -693286990.55752659 -33947516.612139702 0 -33947516.612139702 242316304.42498779 0 0 0 0 -324774061.84808731 125063887.44677353 0 125063887.44677353 54479842.107402802 0 0 0 0 -313800066.94015694 87409678.092628479 0 87409678.092628479 176218218.30669403 0 0 0 0 -258218671.80504608 178710212.4781189 0 178710212.4781189 -10256572.907869339 0 0 0 0 -174021799.20408249 340246670.68789482 0 340246670.68789482 153343572.68071747 0 0 0 0 -279353332.64655876 198199581.24239159 0 198199581.24239159 18422203.951797485 0 0 0 0 -96387526.525850296 196671794.89001656 0 196671794.89001656 -231968962.19778824 0 0 0 0 -129854553.98276901 284276863.93520164 0 284276863.93520164 -118063748.80650711 0 0 0 0 -200377811.38544464 241622195.28755951 0 241622195.28755951 27342454.164772034 0 0 0 0 -7700860.9687034711 35789141.827950664 0 35789141.827950664 9425488.2009739578 0 0 0 0 -645407.09223937988 22271843.229568481 0 22271843.229568481 -5184895.2979054451 0 0 0 0 20280863.031648397 30840416.622013722 0 30840416.622013722 5299947.923974514 0 0 0 0 74368649.954353333 -11040872.296043396 0 -11040872.296043396 -1376366.4546585083 0 0 0 0 4219820.4916407801 36643567.152474567 0 36643567.152474567 712310.14814263582 0 0 0 0 -226490437.65038872 164674477.25902557 0 164674477.25902557 -56279084.517593384 0 0 0 0 -268623351.02843475 166359503.71463203 0 166359503.71463203 -953491.88262176514 0 0 0 0 90846930.494911671 69376811.04100275 0 69376811.04100275 17734545.696739197 0 0 0 0 14520506.540301727 22584630.09089677 0 22584630.09089677 9737180.7962589115 0 0 0 0 66319156.258743286 27637544.472885132 0 27637544.472885132 215266.95309829712 0 0 0 0 -2902621.3296002001 965120.15140207112 0 965120.15140207112 162602.72842277586 0 0 0 0 5817134.5175018311 32909149.411071777 0 32909149.411071777 7095892.8743038177 0 0 0 0 23908352.34665212 26541909.862025462 0 26541909.862025462 1743676.5934732109 0 0 0 0 -7324642.6623840332 31126694.709579468 0 31126694.709579468 8838478.0786881447 0 0 0 0 41763155.534854889 41125161.789011002 0 41125161.789011002 -7182779.194519043 0 0 0 0 34963909.503444672 23718527.655315399 0 23718527.655315399 15231808.874830127 0 0 0 0 11631680.183929443 46277127.345870972 0 46277127.345870972 7964819.0140066147 0 0 0 0 35393713.135215759 43393435.144050598 0 43393435.144050598 1109704.9395141602 0 0 0 0 -9971529.7238235474 36118677.988487244 0 36118677.988487244 17845133.766479492 0 0 0 0 -5376870.1188184172 29318738.970788911 0 29318738.970788911 8203491.8659184873 0 0 0 0 10630189.428981781 18423118.074729919 0 18423118.074729919 7152441.2044372559 0 0 0 0 16938096.596189305 36149052.270339265 0 36149052.270339265 7522711.6217203438 0 0 0 0 59222556.283859253 80887454.06672287 0 80887454.06672287 15441944.425796509 0 0 0 0 1687643.8264813423 69225471.369091034 0 69225471.369091034 24928768.266319275 0 0 0 0 31464090.987594604 41870411.433803558 0 41870411.433803558 7827106.0736782551 0 0 0 0 -6710008.6370935626 29590348.659537241 0 29590348.659537241 4398584.2295317948 0 0 0 0 81215046.135665894 62782600.035957336 0 62782600.035957336 28516266.25894165 0 0 0 0 74684141.333007812 57825242.035224915 0 57825242.035224915 25975764.023403168 0 0 0 0 99739346.0157547 38366128.817581177 0 38366128.817581177 34917135.652542114 0 0 0 0 -5246915.6537036132 38592761.844023228 0 38592761.844023228 18156387.725218102 0 0 0 0 1780540.9850463867 26346587.679702759 0 26346587.679702759 5395816.0864562988 0 0 0 0 26160470.245032877 35841029.66315788 0 35841029.66315788 5866431.3505126983 0 0 0 0 35715241.84401992 43733450.243209362 0 43733450.243209362 -8136289.9096582085 0 0 0 0 46490216.741821289 48327407.401660919 0 48327407.401660919 -17852188.571676254 0 0 0 0 -39930312.389472961 30678096.527587891 0 30678096.527587891 35615186.540328979 0 0 0 0 -37451318.245716095 4286082.1244831085 0 4286082.1244831085 20645997.191650391 0 0 0 0 101426584.10168457 56333143.816745758 0 56333143.816745758 23193360.58523941 0 0 0 0 6874502.9083867967 32363376.834535211 0 32363376.834535211 15980978.070770964 0 0 0 0 108622919.26016617 60051512.813560486 0 60051512.813560486 15539716.091348648 0 0 0 0 127512370.24187851 88232293.709403992 0 88232293.709403992 59860495.764549255 0 0 0 0 139348587.51558447 38009318.266606808 0 38009318.266606808 5221056.9513397217 0 0 0 0 -51061621.051330566 39799643.518245697 0 39799643.518245697 -9455897.4534683228 0 0 0 0 22454861.494860858 55153762.452359542 0 55153762.452359542 8388846.8037830293 0 0 0 0 24904603.780195892 56884383.196537822 0 56884383.196537822 -11853988.248227403 0 0 0 0 14188904.801834106 30010772.933250427 0 30010772.933250427 815290.73277282715 0 0 0 0 41395026.920986176 41124123.54747963 0 41124123.54747963 4888990.7626571655 0 0 0 0 -1322703.5667855442 44870942.955020338 0 44870942.955020338 -311390.67551162839 0 0 0 0 16933079.787124634 30839813.417411804 0 30839813.417411804 16118992.857406616 0 0 0 0 5859073.5162629187 28107057.080532357 0 28107057.080532357 1533990.0470373333 0 0 0 0 -26915971.399303436 60759075.391029358 0 60759075.391029358 706450.75197219849 0 0 0 0 -15469139.759084344 53608792.947664484 0 53608792.947664484 9835022.123122856 0 0 0 0 -11331315.799392879 59030425.066810533 0 59030425.066810533 5378225.7299709804 0 0 0 0 -25655355.058792114 87832307.401323318 0 87832307.401323318 22787239.697662354 0 0 0 0 -31943574.394936562 91727927.46422863 0 91727927.46422863 26587864.589874268 0 0 0 0 87965783.733354568 75782389.050328732 0 75782389.050328732 12303462.393196106 0 0 0 0 11174321.755539238 7875684.1811901294 0 7875684.1811901294 4518063.0201571286 0 0 0 0 -43711295.506534576 64330651.243618011 0 64330651.243618011 67675489.799718857 0 0 0 0 73427552.79309845 87861211.555553436 0 87861211.555553436 3023895.4323425293 0 0 0 0 65676520.403463364 96916678.10692215 0 96916678.10692215 1805033.3521270752 0 0 0 0 -7049522.5999984741 84493666.408744812 0 84493666.408744812 21776770.723678589 0 0 0 0 4445414.9678204954 43871845.410277098 0 43871845.410277098 -1359408.2997886837 0 0 0 0 9900543.1390800476 83147889.77573204 0 83147889.77573204 23450770.706794739 0 0 0 0 -10938637.594238281 88942766.025695801 0 88942766.025695801 22607833.282745361 0 0 0 0 -19078279.066757202 80107620.886322021 0 80107620.886322021 36859663.44720459 0 0 0 0 -18543304.779104233 75827928.216063976 0 75827928.216063976 42955445.217529297 0 0 0 0 -11976097.198455811 86626711.597869873 0 86626711.597869873 19237423.350521088 0 0 0 0 -65030336.809417725 96499684.516807556 0 96499684.516807556 38395341.688474655 0 0 0 0 -18842459.746944427 92470258.597616196 0 92470258.597616196 26626326.698257446 0 0 0 0 -32934409.916534424 85559851.337574005 0 85559851.337574005 25501986.367786407 0 0 0 0 -25364556.793130875 112760168.09591198 0 112760168.09591198 12209742.147460938 0 0 0 0 9278627.9099655151 77493650.902988434 0 77493650.902988434 20331972.601173401 0 0 0 0 -5768929.565322876 86127990.102783203 0 86127990.102783203 15865243.476142883 0 0 0 0 -3288075.1407070309 6172279.8295608014 0 6172279.8295608014 9441965.5935155451 0 0 0 0 32126587.475479126 105522007.25915909 0 105522007.25915909 4936613.2261428833 0 0 0 0 -11702792.472625732 39141444.828155518 0 39141444.828155518 -14340923.495331287 0 0 0 0 33651833.231262207 83573464.087528229 0 83573464.087528229 382175.45477294922 0 0 0 0 -40188227.070163727 10211015.190123558 0 10211015.190123558 88395244.808227539 0 0 0 0 -11654874.392538011 44697304.161564454 0 44697304.161564454 7789902.1467114463 0 0 0 0 -18076023.171630859 38756060.48248291 0 38756060.48248291 -15733815.975860596 0 0 0 0 -13767987.552185059 43326324.806945801 0 43326324.806945801 -5661247.3363037109 0 0 0 0 -74372968.066381454 32836537.540857315 0 32836537.540857315 75422143.398239136 0 0 0 0 23222342.053947538 37458516.306943566 0 37458516.306943566 9271642.1242597103 0 0 0 0 82669989.257263184 81395365.917221069 0 81395365.917221069 -1651251.3534240723 0 0 0 0 -24432743.231420055 22204479.06457901 0 22204479.06457901 1886552.4542960227 0 0 0 0 23056410.774381131 53381010.769425571 0 53381010.769425571 -28725596.47231698 0 0 0 0 1469085.4343047589 2773817.4546461552 0 2773817.4546461552 -1379384.2005582452 0 0 0 0 -915449.01389312744 40823979.649768829 0 40823979.649768829 -15371051.33543396 0 0 0 0 19986305.676513672 73822261.579508781 0 73822261.579508781 16296340.480541229 0 0 0 0 18021913.354379654 64232005.387660027 0 64232005.387660027 10105498.757480621 0 0 0 0 2641036.7855307162 52213336.190964758 0 52213336.190964758 -10569199.087939575 0 0 0 0 -24812978.95992662 47407853.317212999 0 47407853.317212999 4056150.4859549552 0 0 0 0 12946464.844394684 80139757.089788437 0 80139757.089788437 12923371.070854187 0 0 0 0 -26960283.350764424 48442280.990504026 0 48442280.990504026 -3047352.3748572171 0 0 0 0 23820439.498046875 84820439.27816391 0 84820439.27816391 -15472508.106933594 0 0 0 0 -31162166.72070694 78279692.155885696 0 78279692.155885696 23675743.704214096 0 0 0 0 -26312245.779316545 32484892.323877573 0 32484892.323877573 6282393.8093524724 0 0 0 0 -11990103.710845947 79703509.552307129 0 79703509.552307129 -1760092.9637842178 0 0 0 0 -55813534.685417175 43055514.019884109 0 43055514.019884109 74056371.364498138 0 0 0 0 -72383371.553848267 64069872.157463074 0 64069872.157463074 47596688.266692162 0 0 0 0 -82081815.405117035 55085888.287231445 0 55085888.287231445 60278400.16053009 0 0 0 0 -43369266.110326231 51449191.334403723 0 51449191.334403723 18495552.051845431 0 0 0 0 -75781759.227479935 81817336.35276556 0 81817336.35276556 45608651.22190094 0 0 0 0 -75963395.484600067 88689515.241837978 0 88689515.241837978 105321994.52264786 0 0 0 0 -103463151.27521706 124479599.76743937 0 124479599.76743937 31921634.275276184 0 0 0 0 -82256196.825813293 46354195.532763004 0 46354195.532763004 15676020.483909607 0 0 0 0 -198600934.01396179 14926805.546463013 0 14926805.546463013 -10819983.703536987 0 0 0 0 -81637553.965698242 87520425.603694916 0 87520425.603694916 11849963.446174145 0 0 0 0 -129833131.49108887 96999982.602176666 0 96999982.602176666 11022181.532672882 0 0 0 0 -63158324.672134399 161816619.18319321 0 161816619.18319321 -31891286.598072052 0 0 0 0 -59393747.055656433 93371386.483472824 0 93371386.483472824 53520055.062484741 0 0 0 0 7073122.7573890686 83419081.626896858 0 83419081.626896858 52320019.745555878 0 0 0 0 -38952030.715499878 117467441.34362221 0 117467441.34362221 14035628.182870865 0 0 0 0 -26461868.925693572 56714875.605473876 0 56714875.605473876 8982682.317193523 0 0 0 0 3815851.3609939218 56958829.237996981 0 56958829.237996981 12003415.7354296 0 0 0 0 -3976871.8880004883 100248637.53462982 0 100248637.53462982 10030641.422456741 0 0 0 0 21933642.640598297 66342596.329143524 0 66342596.329143524 -12699243.509540558 0 0 0 0 48216591.852788299 29009650.451095775 0 29009650.451095775 -18084313.369891986 0 0 0 0 41571385.287445068 60198563.112098694 0 60198563.112098694 -10260848.049061298 0 0 0 0 21495507.229383945 69636133.056867361 0 69636133.056867361 6590531.965423584 0 0 0 0 149680852.30696106 49093751.263650894 0 49093751.263650894 -13982244.453910828 0 0 0 0 -4491803.6032905579 1469458.8234214932 0 1469458.8234214932 620041.8001678437 0 0 0 0 13271649.847614288 70951772.759868145 0 70951772.759868145 -3862626.3671112061 0 0 0 0 9754416.177541256 94857693.315089226 0 94857693.315089226 29669436.696743011 0 0 0 0 11756611.249786377 53297825.421758652 0 53297825.421758652 -6880101.772977829 0 0 0 0 27404987.84160614 86284520.404178619 0 86284520.404178619 19202163.186576366 0 0 0 0 -13892051.5110569 56848539.493975163 0 56848539.493975163 24717614.592765808 0 0 0 0 -20660492.265160561 29452503.02724123 0 29452503.02724123 -8140356.8146514893 0 0 0 0 -861265.85654386133 59009481.846722864 0 59009481.846722864 20124779.422678545 0 0 0 0 -60394088.649147034 55429210.670921326 0 55429210.670921326 7962456.0439834595 0 0 0 0 122340724.83738899 97239054.178469658 0 97239054.178469658 44963290.559967041 0 0 0 0 119348828.77064419 90345515.517857552 0 90345515.517857552 32108194.200790405 0 0 0 0 51689954.159495249 15076260.604823312 0 15076260.604823312 -17555500.636626393 0 0 0 0 118324541.14839172 98452352.112989426 0 98452352.112989426 54663916.324737549 0 0 0 0 53738850.965415955 31410470.57326889 0 31410470.57326889 11530005.06042099 0 0 0 0 245878336.03974915 115750949.77860641 0 115750949.77860641 4661218.9685325623 0 0 0 0 -6386562.6456028298 29402926.920909755 0 29402926.920909755 16243639.728191227 0 0 0 0 219135724.86458588 29520390.994253159 0 29520390.994253159 -15534584.937286377 0 0 0 0 114881069.64226532 94697798.629333496 0 94697798.629333496 59865294.6590271 0 0 0 0 118421716.35939026 90110434.444953918 0 90110434.444953918 65777912.891403198 0 0 0 0 124729285.98857117 81478946.381965637 0 81478946.381965637 45081817.902114868 0 0 0 0 128815006.29078674 71150341.429832458 0 71150341.429832458 71046398.786520004 0 0 0 0 149863234.27541351 76914532.908123016 0 76914532.908123016 33167175.910991669 0 0 0 0 114389812.93881989 75012906.438232422 0 75012906.438232422 58864982.831741333 0 0 0 0 165084092.35492325 60094786.440738678 0 60094786.440738678 43576497.266281128 0 0 0 0 95257182.859386444 82185092.722953796 0 82185092.722953796 48522873.132061005 0 0 0 0 91593493.147209167 37514803.657432556 0 37514803.657432556 31885326.968132019 0 0 0 0 44534164.615065575 62713386.686939955 0 62713386.686939955 42597614.001342773 0 0 0 0 -8569270.6958329454 48697396.237341948 0 48697396.237341948 19366409.083549887 0 0 0 0 117399310.77475548 62906360.354628325 0 62906360.354628325 16561220.388755798 0 0 0 0 -80466167.94052124 28455257.554199219 0 28455257.554199219 78611683.099121094 0 0 0 0 78350263.233921051 50872838.524690628 0 50872838.524690628 8631775.2165374756 0 0 0 0 -24632701.201334283 45879481.801037051 0 45879481.801037051 15904180.313186288 0 0 0 0 40487272.601161957 67510660.624954224 0 67510660.624954224 1941223.2159557343 0 0 0 0 103792405.94151115 56935441.423440933 0 56935441.423440933 -39073625.361400604 0 0 0 0 70695381.899349213 107286013.18225288 0 107286013.18225288 -75214765.706985474 0 0 0 0 73684847.566375732 77005210.454368591 0 77005210.454368591 35111405.91960144 0 0 0 0 118892797.80244637 69177682.064848423 0 69177682.064848423 21786956.140914917 0 0 0 0 83078058.537353516 61504030.88202858 0 61504030.88202858 43291622.942818642 0 0 0 0 99597286.458574295 122437810.69680309 0 122437810.69680309 79965638.198661804 0 0 0 0 1040785.5780653805 7675451.4090589862 0 7675451.4090589862 114367.21316917241 0 0 0 0 155367302.20634747 122644522.2615242 0 122644522.2615242 -200752031.40426254 0 0 0 0 -623639123.42953873 -26107431.037498474 0 -26107431.037498474 114110821.70634937 0 0 0 0 -274873142.27554131 -16974837.689159393 0 -16974837.689159393 106666811.51075363 0 0 0 0 -138411797.3437767 -4527525.1176300049 0 -4527525.1176300049 7532555.8551712036 0 0 0 0 173205631.05713022 138108136.45699608 0 138108136.45699608 43947957.700962067 0 0 0 0 12653578.018114209 23864214.938420214 0 23864214.938420214 -329819.60368056595 0 0 0 0 -57056402.694854736 176581868.83199406 0 176581868.83199406 2690479.7869567871 0 0 0 0 -67033891.237663269 182954899.09653091 0 182954899.09653091 92443246.286491394 0 0 0 0 -289048487.78662109 151391924.78249359 0 151391924.78249359 72409535.821510315 0 0 0 0 -98129721.58241272 127491225.69529724 0 127491225.69529724 25360812.103553772 0 0 0 0 -38037310.881973267 124429605.92086029 0 124429605.92086029 19904356.558631897 0 0 0 0 -230543715.31850815 242892325.3250351 0 242892325.3250351 -30659103.994644165 0 0 0 0 120440900.38311768 27565288.487327576 0 27565288.487327576 63885850.027580261 0 0 0 0 -24924820.093000412 98006366.699253082 0 98006366.699253082 33181818.659362793 0 0 0 0 141889179.36174393 75496651.108680725 0 75496651.108680725 30947559.227424622 0 0 0 0 98324389.451423645 19236488.071525574 0 19236488.071525574 14345737.09722805 0 0 0 0 70794781.669101715 93136904.773189545 0 93136904.773189545 -43590172.673690796 0 0 0 0 -42360734.188606262 152466106.06999207 0 152466106.06999207 -39695188.350479126 0 0 0 0 -521757083.24254608 276601988.35149002 0 276601988.35149002 131172386.06045532 0 0 0 0 -308688037.66702652 37055393.987308502 0 37055393.987308502 -176010.56554222107 0 0 0 0 -208107993.44366121 425868986.45061231 0 425868986.45061231 -30841366.385009766 0 0 0 0 -378946496.88257217 208166163.6217041 0 208166163.6217041 94746262.270767212 0 0 0 0 -338785643.76226544 -70763100.434771299 0 -70763100.434771299 -267256674.277771 0 0 0 0 -54085473.590560913 13265697.547502518 0 13265697.547502518 -59517705.392883301 0 0 0 0 -22407118.379959106 192078650.31760597 0 192078650.31760597 -230577261.31811714 0 0 0 0 1789175.2863188088 8195193.5681443661 0 8195193.5681443661 -1301439.1568118483 0 0 0 0 -35774214.758843422 78109204.428792 0 78109204.428792 -78981809.080070496 0 0 0 0 53796713.155035019 -17534826.022034645 0 -17534826.022034645 280753967.29278564 0 0 0 0 44595933.124565125 8035753.2692708969 0 8035753.2692708969 232356837.95883942 0 0 0 0 -495870654.74617004 122499300.51968765 0 122499300.51968765 514364849.86548233 0 0 0 0 4374471.1863143146 3771438.7384972125 0 3771438.7384972125 -180314.01672154665 0 0 0 0 -153687848.80611038 -128083402.40111256 0 -128083402.40111256 645040727.20511246 0 0 0 0 82317375.670440674 -245018203.48756409 0 -245018203.48756409 -60867777.651649475 0 0 0 0 4758510.9009573758 -1178920.1671596766 0 -1178920.1671596766 -1885967.7479826808 0 0 0 0 -163597.76567840576 87443297.658750534 0 87443297.658750534 -112312480.0237751 0 0 0 0 106380802.01344299 60187453.764221191 0 60187453.764221191 -407647913.45703506 0 0 0 0 2455447.5702352524 39080448.453707695 0 39080448.453707695 -61742891.753677368 0 0 0 0 21872623.286254883 4088943.1079444885 0 4088943.1079444885 -85690371.892475128 0 0 0 0 128967584.92115021 63458927.293193817 0 63458927.293193817 -25946765.165122986 0 0 0 0 15068924.211687088 122023387.8748908 0 122023387.8748908 73112206.144607544 0 0 0 0 -183801221.77651978 222377479.51517105 0 222377479.51517105 246983101.72636414 0 0 0 0 597207.82113610208 5206243.1307706535 0 5206243.1307706535 760516.19454073906 0 0 0 0 15912649.933563232 47854101.628307343 0 47854101.628307343 -8083989.7703208923 0 0 0 0 21726759.475204468 79820370.161190033 0 79820370.161190033 -3883546.8575515747 0 0 0 0 11203.508071899414 86091828.59794426 0 86091828.59794426 6930432.0300445557 0 0 0 0 88090.299122584154 67274612.832028985 0 67274612.832028985 5326291.6266937256 0 0 0 0 8487323.4044647217 69211999.597560883 0 69211999.597560883 -6954069.1042728424 0 0 0 0 -44346521.659507751 50372337.066978455 0 50372337.066978455 9940555.1951599121 0 0 0 0 -27509108.137775421 18873719.034053802 0 18873719.034053802 -3299380.4834289551 0 0 0 0 -6849450.3915557861 86257855.194108963 0 86257855.194108963 16237645.650512695 0 0 0 0 -410740.18455073237 1844173.7644257843 0 1844173.7644257843 -595051.33853703178 0 0 0 0 4974785.7051506042 811994.82634735107 0 811994.82634735107 7029605.9552192688 0 0 0 0 244346.52740061283 14960419.998286828 0 14960419.998286828 3126736.417574048 0 0 0 0 -47499305.406112671 54612958.315631866 0 54612958.315631866 12636456.078300476 0 0 0 0 -39926100.760925293 17311001.697502136 0 17311001.697502136 32121864.596374512 0 0 0 0 -9221023.2326740921 13505686.941119313 0 13505686.941119313 806506.65842609014 0 0 0 0 -1000750.8029174805 36335414.50230217 0 36335414.50230217 -20456583.882709503 0 0 0 0 -22221866.946746826 33011939.344707489 0 33011939.344707489 3365160.1037926674 0 0 0 0 -7689387.3212280273 28125991.479034424 0 28125991.479034424 -19750658.081691742 0 0 0 0 -5498847.8050837517 18414616.268603295 0 18414616.268603295 -52875.30500475131 0 0 0 0 -9724256.6613769531 44438515.410955429 0 44438515.410955429 -36306785.470726013 0 0 0 0 -10082884.007045746 -6011468.7121465206 0 -6011468.7121465206 115249550.95430756 0 0 0 0 -2375494.5974865258 14800373.283709362 0 14800373.283709362 -5541984.6972997189 0 0 0 0 -22449070.677520752 26002600.600063324 0 26002600.600063324 -24560204.506824493 0 0 0 0 -5461473.6810798645 26801505.896396637 0 26801505.896396637 7732525.4638404846 0 0 0 0 -14927826.262924194 34457165.580055237 0 34457165.580055237 886835.65673112869 0 0 0 0 4530651.1720881462 29355843.003799841 0 29355843.003799841 11016727.194512725 0 0 0 0 -7003474.0789260864 26289960.77630806 0 26289960.77630806 9930109.6203489304 0 0 0 0 -924546.41103582829 24199491.768303797 0 24199491.768303797 -5753471.6098719835 0 0 0 0 -65552390.490478516 57179365.729232788 0 57179365.729232788 46940572.953479767 0 0 0 0 -93375171.450016022 9690968.4921226501 0 9690968.4921226501 168691224.42256165 0 0 0 0 -1213714.1911334544 2562775.5346927345 0 2562775.5346927345 816982.77726191282 0 0 0 0 -34598512.966125488 67649923.182516098 0 67649923.182516098 27734515.073760986 0 0 0 0 -26833677.886065573 25314350.133914366 0 25314350.133914366 6580290.6428508982 0 0 0 0 -53070286.697174072 53774233.808036804 0 53774233.808036804 47868071.52658844 0 0 0 0 -26441334.141044617 67662034.302248001 0 67662034.302248001 26640715.123180389 0 0 0 0 -50449537.608970642 100388058.23559952 0 100388058.23559952 -15296394.005332947 0 0 0 0 -64418020.463294983 71871672.863268852 0 71871672.863268852 58225931.037155151 0 0 0 0 -35611058.115810394 27180297.681109428 0 27180297.681109428 51625202.87739563 0 0 0 0 -62766189.505332947 73333302.106121063 0 73333302.106121063 38305965.87437439 0 0 0 0 -102888489.22842407 126253179.40965271 0 126253179.40965271 -7587110.0443725586 0 0 0 0 -57735005.965454102 83193309.241069794 0 83193309.241069794 57149968.116867065 0 0 0 0 -111096829.68777084 49471395.1726861 0 49471395.1726861 83422785.829444885 0 0 0 0 -40600771.993927002 113604058.84031677 0 113604058.84031677 -38258366.964401245 0 0 0 0 -32964494.52999115 152355539.31827164 0 152355539.31827164 -395450090.75662994 0 0 0 0 -28334189.724952698 117036071.82592964 0 117036071.82592964 -120649398.11587906 0 0 0 0 -12033830.835581601 56398366.172790244 0 56398366.172790244 -7697709.6344604492 0 0 0 0 28849299.428733826 -29816143.393363953 0 -29816143.393363953 80956899.912654877 0 0 0 0 48630182.836349487 27411777.295806885 0 27411777.295806885 234265038.1560955 0 0 0 0 -95010578.014724731 -6829560.2046852112 0 -6829560.2046852112 121833945.16968536 0 0 0 0 -226167068.85479736 111367960.93260193 0 111367960.93260193 254223813.41361427 0 0 0 0 -166117294.76004028 234797087.06674385 0 234797087.06674385 -77713338.365758896 0 0 0 0 261146568.8221283 56169665.827007294 0 56169665.827007294 -73691751.648181915 0 0 0 0 -107980529.27259827 97999995.361057043 0 97999995.361057043 232633285.47512817 0 0 0 0 -134073624.39488697 255106186.38978028 0 255106186.38978028 200863145.13111877 0 0 0 0 129530309.52454376 252509637.33657646 0 252509637.33657646 159605924.85606194 0 0 0 0 -6095986.4042663872 7079233.8475351632 0 7079233.8475351632 5750281.2840818912 0 0 0 0 38624798.869335175 345531877.87513161 0 345531877.87513161 287676944.29079437 0 0 0 0 -10969630.105980873 7001698.5033408701 0 7001698.5033408701 -305985.74674655497 0 0 0 0 -54864244.226791382 59824664.061000824 0 59824664.061000824 157827562.47550297 0 0 0 0 -2984150.2814840376 512282.5274477452 0 512282.5274477452 -714464.24571057409 0 0 0 0 -73121581.593963623 -561051.3673248291 0 -561051.3673248291 356126935.96350288 0 0 0 0 -16542351.880905151 34423631.11402607 0 34423631.11402607 154262540.07603836 0 0 0 0 -26693178.533035278 72314616.373363495 0 72314616.373363495 172138447.50345612 0 0 0 0 -52324054.767242432 119206862.67876053 0 119206862.67876053 127352158.8311739 0 0 0 0 -32358659.444923401 97992011.867799759 0 97992011.867799759 46653638.637744904 0 0 0 0 -31651829.755894184 109087354.71782756 0 109087354.71782756 97305952.457496643 0 0 0 0 -46298385.888061523 88969731.067008972 0 88969731.067008972 41333921.068031311 0 0 0 0 -53429227.95211792 145452721.05560875 0 145452721.05560875 126003897.44690704 0 0 0 0 -24103905.471191406 162548046.97275925 0 162548046.97275925 -1317372.3179702759 0 0 0 0 208283940.06947327 99109411.210325241 0 99109411.210325241 -43090393.621429443 0 0 0 0 67189704.795219421 429104357.51126671 0 429104357.51126671 14952929.735401154 0 0 0 0 70151575.218566895 137338632.17622757 0 137338632.17622757 -25692194.58073616 0 0 0 0 50257795.165176392 38916658.119319916 0 38916658.119319916 -30466686.458023071 0 0 0 0 -34896801.908721924 17836691.043449402 0 17836691.043449402 -6781627.9769439697 0 0 0 0 -24695234.843688965 125522476.98296261 0 125522476.98296261 92838966.634059906 0 0 0 0 -3548047.0544288903 4188831.6991194636 0 4188831.6991194636 3364840.944609493 0 0 0 0 -396825865.15136719 162417436.29016876 0 162417436.29016876 112521292.64868736 0 0 0 0 607232608.76265717 546672379.13311863 0 546672379.13311863 248094681.06986809 0 0 0 0 -37440818.066612244 398595391.48555374 0 398595391.48555374 328544860.21537399 0 0 0 0 -23931860.118003845 375797686.9325943 0 375797686.9325943 359728588.17316437 0 0 0 0 -22774677.667457581 348353334.34847069 0 348353334.34847069 293962228.79077148 0 0 0 0 -261074.45948028564 271554969.36741066 0 271554969.36741066 147311129.43685532 0 0 0 0 -101250767.58058929 272973874.73635864 0 272973874.73635864 330323301.69317102 0 0 0 0 -138791318.56767273 -5454162.470746994 0 -5454162.470746994 279077483.2075882 0 0 0 0 -65515552.579589844 154027654.11819077 0 154027654.11819077 486829103.12940788 0 0 0 0 -3138056.0889074504 3494815.4772146642 0 3494815.4772146642 3054120.6542857736 0 0 0 0 406006064.24517059 417628093.98786736 0 417628093.98786736 284163176.85108626 0 0 0 0 -557049650.19155884 -93439276.257556915 0 -93439276.257556915 412895360.80500793 0 0 0 0 -357264448.40058899 -88594805.417724609 0 -88594805.417724609 262602492.54885483 0 0 0 0 -42826616.793457031 -5478590.8534965515 0 -5478590.8534965515 1307852735.7520409 0 0 0 0 52230028.137042999 78268946.829263687 0 78268946.829263687 438206359.16970444 0 0 0 0 -82593830.203550339 347125501.37779379 0 347125501.37779379 597123399.18559647 0 0 0 0 21233409.098274231 265130323.358675 0 265130323.358675 497917167.5645752 0 0 0 0 419249.84843444824 355186194.93424797 0 355186194.93424797 623608609.94554901 0 0 0 0 -118718.36084747314 371825300.15116119 0 371825300.15116119 343352115.67609406 0 0 0 0 45548699.647285461 368825818.65666389 0 368825818.65666389 370737987.28126526 0 0 0 0 -69253122.335342407 347307977.82869911 0 347307977.82869911 368567692.39563942 0 0 0 0 30681585.81174469 330732777.66486168 0 330732777.66486168 226607149.72333908 0 0 0 0 -2012.2052307128906 350936424.8887291 0 350936424.8887291 21346884.662273407 0 0 0 0 -66689511.085754395 295527331.23614502 0 295527331.23614502 228005774.88611615 0 0 0 0 -25772413.33537674 342629679.02397108 0 342629679.02397108 72823562.237640381 0 0 0 0 -110650356.65349579 289432775.44688797 0 289432775.44688797 56815525.698932648 0 0 0 0 -62650112.811523438 194313486.28885841 0 194313486.28885841 -47880728.675203323 0 0 0 0 66684655.842712402 405520394.51142216 0 405520394.51142216 163467593.83973312 0 0 0 0 -97673840.362121582 310704965.62871742 0 310704965.62871742 310634503.20729971 0 0 0 0 -34255813.595714569 291177492.64350796 0 291177492.64350796 -196136290.88157272 0 0 0 0 -192489827.51419067 329098680.0081625 0 329098680.0081625 187559507.26740265 0 0 0 0 -191008729.07242441 456077506.2012651 0 456077506.2012651 -330756381.33630753 0 0 0 0 -154180836.97809124 185033606.74004436 0 185033606.74004436 -250809157.28404617 0 0 0 0 -103061678.74357605 384134023.07831001 0 384134023.07831001 -467624661.0212965 0 0 0 0 -34329.087104797363 321255867.23407364 0 321255867.23407364 -263758124.60679245 0 0 0 0 -47023464.503627777 216292888.80850315 0 216292888.80850315 -458824374.39794922 0 0 0 0 -57686353.407402039 240217034.0204792 0 240217034.0204792 -313593879.90805054 0 0 0 0 -6333.4202499389648 275121592.42204094 0 275121592.42204094 -487989955.05209732 0 0 0 0 -45473782.313919067 155609264.51428032 0 155609264.51428032 -654306088.8657074 0 0 0 0 -328431.40932202339 6411924.9022910036 0 6411924.9022910036 16922560.019935012 0 0 0 0 -5631.5742340087891 11170873.578275681 0 11170873.578275681 6505643.8094863892 0 0 0 0 7113092.702255249 43632777.598051071 0 43632777.598051071 279317150.69649887 0 0 0 0 137658.73694357276 1200124.9758399576 0 1200124.9758399576 -2792083.2318068445 0 0 0 0 -37733765.27015686 74064763.447593689 0 74064763.447593689 18314068.039371133 0 0 0 0 -18420298.365371704 63105299.292608261 0 63105299.292608261 17917219.569293916 0 0 0 0 3803713.7637553215 74947221.2880193 0 74947221.2880193 199416432.53971481 0 0 0 0 -23110509.606362551 7678324.264954567 0 7678324.264954567 17850556.179675452 0 0 0 0 20568355.0292404 15778009.087498561 0 15778009.087498561 1822018.1605586261 0 0 0 0 -11022751.069210052 244015767.38407564 0 244015767.38407564 -467738081.0908165 0 0 0 0 25517750.012504429 12694373.396594658 0 12694373.396594658 -2007768.9231415242 0 0 0 0 -116430292.34911346 142040178.90639782 0 142040178.90639782 -90235119.68060112 0 0 0 0 -165380342.4510994 71531956.253933907 0 71531956.253933907 81738817.808349609 0 0 0 0 -125374687.03668213 52357291.985439301 0 52357291.985439301 53859359.245204926 0 0 0 0 -15318669.413986206 31764181.06829834 0 31764181.06829834 33976369.777414501 0 0 0 0 -47581319.916332245 44151201.007775545 0 44151201.007775545 34672271.591026306 0 0 0 0 -27131483.195437998 4418934.6703388244 0 4418934.6703388244 18049190.106172666 0 0 0 0 34023127.17980957 176862335.95154572 0 176862335.95154572 135716642.03671169 0 0 0 0 -99153765.800477982 14798105.931003571 0 14798105.931003571 75681229.10210228 0 0 0 0 -104680642.49856567 -40355363.227365494 0 -40355363.227365494 18512472.48838973 0 0 0 0 -93596194.216842651 -5003985.3637759686 0 -5003985.3637759686 97108747.193252563 0 0 0 0 -104603979.07406616 -111514438.66100883 0 -111514438.66100883 6928125.3503460884 0 0 0 0 -25316695.583666325 3079807.304005906 0 3079807.304005906 17764905.215927463 0 0 0 0 -71714818.544555664 -11563127.680269241 0 -11563127.680269241 96401784.108636618 0 0 0 0 34980658.953132629 162142712.76636791 0 162142712.76636791 -19856262.942186356 0 0 0 0 100767689.19898224 -9495100.452627182 0 -9495100.452627182 -226874856.79411221 0 0 0 0 35994865.481781006 147753786.54792404 0 147753786.54792404 157757638.59162712 0 0 0 0 -65693.988141518654 119765196.53500731 0 119765196.53500731 148012320.02531433 0 0 0 0 -516220.56809997559 85746440.975383759 0 85746440.975383759 240856871.85466003 0 0 0 0 -8982191.2492160797 118449811.98106527 0 118449811.98106527 183416062.71268654 0 0 0 0 18574545.031204224 40525121.393503189 0 40525121.393503189 124110386.98717117 0 0 0 0 72770911.224975586 -83593081.744804382 0 -83593081.744804382 353766219.17144632 0 0 0 0 284518805.19832993 -61681313.360873938 0 -61681313.360873938 82413088.192497253 0 0 0 0 69420886.868728638 -27747947.717823029 0 -27747947.717823029 117056655.25569916 0 0 0 0 219243757.96570206 169087201.50094008 0 169087201.50094008 189939297.74472618 0 0 0 0 546313143.72838593 261050.46087741852 0 261050.46087741852 267424737.29679489 0 0 0 0 30975915.584396362 34558695.15668869 0 34558695.15668869 147607754.0400753 0 0 0 0 175429388.86920166 -23764414.168590546 0 -23764414.168590546 -91790602.374305725 0 0 0 0 66079375.502929688 -20402295.703313828 0 -20402295.703313828 75762665.63243103 0 0 0 0 21211501.052436829 -115952098.57461071 0 -115952098.57461071 116687843.58916855 0 0 0 0 106202779.21350098 -77281991.041968822 0 -77281991.041968822 -50940209.49792099 0 0 0 0 26825476.111602783 -47671169.467010498 0 -47671169.467010498 -60944917.090650558 0 0 0 0 -17504622.751525879 -104960596.00198555 0 -104960596.00198555 -28914727.488548189 0 0 0 0 1033896.8920440674 -96969355.333077431 0 -96969355.333077431 -106925069.45585632 0 0 0 0 -51646911.616409302 -57287970.314041138 0 -57287970.314041138 -48651741.185417175 0 0 0 0 -26774323.455657959 -111088828.92421341 0 -111088828.92421341 -55633530.446011066 0 0 0 0 -22144836.989730835 -118726809.32738686 0 -118726809.32738686 57079921.50554657 0 0 0 0 20335566.885971069 -72369393.938545227 0 -72369393.938545227 -29155328.933643922 0 0 0 0 -125385330.01934814 -43335483.089468956 0 -43335483.089468956 -31031492.908437729 0 0 0 0 -83486323.973163605 -106744138.5487113 0 -106744138.5487113 49083403.053649902 0 0 0 0 -110914707.04638672 -35306549.1889925 0 -35306549.1889925 173311952.89338303 0 0 0 0 -50493011.966705322 -81559236.426904678 0 -81559236.426904678 44559698.660735846 0 0 0 0 428662.33741378784 -103358940.85863686 0 -103358940.85863686 183408957.82364273 0 0 0 0 -48189172.885543823 -38847019.976316452 0 -38847019.976316452 102941056.5918951 0 0 0 0 -20456128.194892883 53979044.119101524 0 53979044.119101524 276028721.20269299 0 0 0 0 -42736151.12963295 -18466545.897957087 0 -18466545.897957087 136190322.21693039 0 0 0 0 -130821092.98632812 15076596.405891418 0 15076596.405891418 213732498.26585007 0 0 0 0 -84638158.438472748 63308869.009832382 0 63308869.009832382 -73858072.212743759 0 0 0 0 -54914701.744743347 166639449.36760712 0 166639449.36760712 119262147.72737789 0 0 0 0 16247471.110595703 47873912.99968338 0 47873912.99968338 143850616.3262558 0 0 0 0 343897355.89263916 189854818.13862324 0 189854818.13862324 347653091.15477371 0 0 0 0 291176468.12523651 261405349.7152319 0 261405349.7152319 285847498.38182831 0 0 0 0 596006307.59477234 483531849.42887306 0 483531849.42887306 178863437.8651886 0 0 0 0 54897754.994514465 -19617676.908920288 0 -19617676.908920288 323799118.42218399 0 0 0 0 257216453.8184967 104168532.81695175 0 104168532.81695175 298918110.10914755 0 0 0 0 451292219.12228012 494142381.73827457 0 494142381.73827457 1388362550.4510117 0 0 0 0 539784566.01730347 360006106.90576172 0 360006106.90576172 417603004.11375237 0 0 0 0 194063720.11404419 201191523.28748941 0 201191523.28748941 731250091.84959793 0 0 0 0 970560555.89627075 859938479.42915344 0 859938479.42915344 381619501.61289597 0 0 0 0 471617547.25053406 435925996.74639702 0 435925996.74639702 541556477.12179947 0 0 0 0 1025105375.1726532 398593124.67731285 0 398593124.67731285 250425152.76835251 0 0 0 0 1119642114.7919655 703471856.92815542 0 703471856.92815542 -203017994.02061462 0 0 0 0 -1511893.7437697947 4909451.652749747 0 4909451.652749747 1193316.5616492629 0 0 0 0 -38586478.80947876 199097501.79250526 0 199097501.79250526 475541680.46051025 0 0 0 0 932208532.41666412 298405878.93757534 0 298405878.93757534 -166122494.51966858 0 0 0 0 547287966.6243515 132700745.88067818 0 132700745.88067818 -220926514.29774475 0 0 0 0 692383096.5761261 482985504.04298019 0 482985504.04298019 -58873283.018791199 0 0 0 0 782080254.45462418 645318987.20987272 0 645318987.20987272 99956041.434501648 0 0 0 0 623276647.98983765 373564068.45194626 0 373564068.45194626 376797326.18177032 0 0 0 0 402894482.52915955 325544409.93648529 0 325544409.93648529 49937791.694009781 0 0 0 0 691937156.56060648 491551961.94138163 0 491551961.94138163 -210198275.82825851 0 0 0 0 652699892.46353531 697709058.7363863 0 697709058.7363863 145664570.84476471 0 0 0 0 861438117.46356964 636731748.12575912 0 636731748.12575912 -144364357.30035305 0 0 0 0 432706084.90943909 403494412.68426704 0 403494412.68426704 -39510718.947181702 0 0 0 0 111067053.37268829 193995976.74962139 0 193995976.74962139 17913543.16469574 0 0 0 0 -51584013.662109375 151046469.34495926 0 151046469.34495926 -61053575.616088867 0 0 0 0 435454577.48745728 434721780.11924934 0 434721780.11924934 -142059598.37936401 0 0 0 0 637807893.43032837 548785020.11753082 0 548785020.11753082 -126841026.05495453 0 0 0 0 22715496.970644653 10129999.11992532 0 10129999.11992532 -2111799.4238070399 0 0 0 0 -198289474.60513306 370202362.61557198 0 370202362.61557198 -188190204.50289583 0 0 0 0 -78479391.467643738 10268815.443698883 0 10268815.443698883 -122123255.67121506 0 0 0 0 416340230.81246948 308552502.11661339 0 308552502.11661339 30612428.75949192 0 0 0 0 752042064.13496399 279822201.49816132 0 279822201.49816132 -450160214.37958336 0 0 0 0 10826229.70033294 3794613.8837165534 0 3794613.8837165534 -1826702.6679352969 0 0 0 0 -39754762.833351135 231008567.57293701 0 231008567.57293701 -212771347.35137463 0 0 0 0 -288983630.95475197 403260603.76366282 0 403260603.76366282 519024825.98778915 0 0 0 0 320305216.30308533 704208076.17036629 0 704208076.17036629 322718423.78140831 0 0 0 0 -98722780.728034973 538975568.52403259 0 538975568.52403259 324313434.98077393 0 0 0 0 178940942.77585602 187596838.88746643 0 187596838.88746643 34201436.612968445 0 0 0 0 -13647258.882522583 272138995.17602158 0 272138995.17602158 51032539.386857986 0 0 0 0 -183514900.92880249 144354532.11833572 0 144354532.11833572 107207089.82769394 0 0 0 0 501530339.16011047 29954748.361690044 0 29954748.361690044 110239396.28404236 0 0 0 0 317264301.66057968 520644550.24079609 0 520644550.24079609 425714180.89884567 0 0 0 0 157539974.34739685 132865737.38779831 0 132865737.38779831 414732401.20883858 0 0 0 0 692006201.02939606 421098239.81847572 0 421098239.81847572 -3113792.5849075317 0 0 0 0 181554034.95606995 189291946.3757019 0 189291946.3757019 50441892.580579758 0 0 0 0 144511028.45430183 23305156.444459438 0 23305156.444459438 -31993080.539390564 0 0 0 0 -51631282.101211548 115120663.00075912 0 115120663.00075912 131569433.13490677 0 0 0 0 26900600.797607422 104723520.74620438 0 104723520.74620438 -38140900.95602417 0 0 0 0 -142663611.94577026 144851017.42632294 0 144851017.42632294 -119954143.77219009 0 0 0 0 -78419635.811859131 29841970.483659744 0 29841970.483659744 6090808.6933898926 0 0 0 0 -177120317.40660667 181456420.74983811 0 181456420.74983811 -136515825.04827118 0 0 0 0 -570956586.49316406 276013553.70638275 0 276013553.70638275 -100546280.81175232 0 0 0 0 -278565863.88137817 187767602.09660339 0 187767602.09660339 -164300652.51803589 0 0 0 0 -617519002.81027222 63321194.013832092 0 63321194.013832092 -65762501.65058136 0 0 0 0 -260877453.93062973 70075731.911842346 0 70075731.911842346 -82793067.790985107 0 0 0 0 -346562955.35055542 207812858.57967377 0 207812858.57967377 -44444048.55774498 0 0 0 0 -329809361.12233543 103482261.22895432 0 103482261.22895432 -139611485.52687073 0 0 0 0 -91748002.552993774 204751526.70346069 0 204751526.70346069 -68126963.135122299 0 0 0 0 -406797871.38529205 106381767.21759415 0 106381767.21759415 103973273.0140686 0 0 0 0 -241594385.228302 242643349.50812531 0 242643349.50812531 76858507.144748688 0 0 0 0 -793258.61110605299 20581792.364380166 0 20581792.364380166 4815144.0509037971 0 0 0 0 -161221177.23012543 120423465.38764572 0 120423465.38764572 -44972495.261711121 0 0 0 0 -427288461.33437347 219352341.80151749 0 219352341.80151749 46498997.077575684 0 0 0 0 2203148.447126627 12885868.14623864 0 12885868.14623864 6620753.2784795016 0 0 0 0 -2996386.5705795288 6664364.6496543884 0 6664364.6496543884 -2757758.1505775452 0 0 0 0 4609722.2704690695 32636249.978284374 0 32636249.978284374 -2908005.8385947049 0 0 0 0 -14392124.189075232 14469446.629660845 0 14469446.629660845 -2204630.8733182698 0 0 0 0 36796709.829176724 1539138.3303252757 0 1539138.3303252757 -7411177.4057263136 0 0 0 0 21548306.989938602 50587163.114261135 0 50587163.114261135 -5041515.5386497527 0 0 0 0 125646436.95317078 -5355219.2593841553 0 -5355219.2593841553 -21990406.319541931 0 0 0 0 89453241.853294373 63257282.439152241 0 63257282.439152241 -58752675.922050476 0 0 0 0 7192096.7782459185 5159737.1315380186 0 5159737.1315380186 -2448734.907795921 0 0 0 0 -822558899.47789001 225108041.07820892 0 225108041.07820892 14176010.438751221 0 0 0 0 -31931688.84122467 69177237.948299408 0 69177237.948299408 -2903068.7783622742 0 0 0 0 -20671616.821136475 44406181.566890717 0 44406181.566890717 5880917.603219986 0 0 0 0 65283924.939331055 56888598.3703022 0 56888598.3703022 -5634966.6296310425 0 0 0 0 11100918.13596344 61921167.384932518 0 61921167.384932518 13433311.036102295 0 0 0 0 10900942.087200165 60527423.020093918 0 60527423.020093918 3977512.7227554321 0 0 0 0 36133203.844833374 44156781.358007431 0 44156781.358007431 4923845.6591339111 0 0 0 0 29458738.927810669 55150271.089456558 0 55150271.089456558 -8947983.3077545166 0 0 0 0 33802082.46521759 73595748.254318237 0 73595748.254318237 16509724.941894531 0 0 0 0 12858875.091018677 52493732.364485741 0 52493732.364485741 -417336.04857635498 0 0 0 0 12530732.556945801 51130616.570289612 0 51130616.570289612 9553881.1679153442 0 0 0 0 12662287.397506714 51518650.654565811 0 51518650.654565811 792890.16083526611 0 0 0 0 10170672.022018433 51911775.985523224 0 51911775.985523224 18334068.949443817 0 0 0 0 -14776910.109786987 44834596.046253204 0 44834596.046253204 -13082968.773036957 0 0 0 0 38986388.874450684 58218950.566577911 0 58218950.566577911 48868204.207862854 0 0 0 0 -12931619.111373901 42688018.687374115 0 42688018.687374115 10270271.383594513 0 0 0 0 -15560027.428634644 47092042.564767838 0 47092042.564767838 2971366.7683868408 0 0 0 0 -7963619.5341225564 31000931.509056248 0 31000931.509056248 3745186.7697655261 0 0 0 0 -16710076.682662964 36052564.024772644 0 36052564.024772644 -1318983.2111968994 0 0 0 0 39234386.919799805 57944250.568340302 0 57944250.568340302 48529460.466278076 0 0 0 0 175352.27002584934 55737296.886545032 0 55737296.886545032 -9238870.0980706159 0 0 0 0 14233347.265922546 126619412.72667694 0 126619412.72667694 67095669.485166311 0 0 0 0 10093126.89722392 60168360.931880049 0 60168360.931880049 -12484463.457871135 0 0 0 0 -4765770.7116775513 32778149.77394104 0 32778149.77394104 41506801.584009886 0 0 0 0 12572137.090194702 64196934.48392868 0 64196934.48392868 -11918049.508640289 0 0 0 0 -20262917.40512085 51781586.519039154 0 51781586.519039154 3616846.8263473511 0 0 0 0 -137620537.72851562 47788657.22328186 0 47788657.22328186 -63110916.574798584 0 0 0 0 -37500511.63859728 29327764.471078057 0 29327764.471078057 15996536.470702656 0 0 0 0 -31063807.640258789 60120197.430174828 0 60120197.430174828 56956098.383781433 0 0 0 0 -22616792.070435584 7157802.0567250401 0 7157802.0567250401 11866477.368340075 0 0 0 0 -39809507.101715088 39340990.090621948 0 39340990.090621948 22364884.001766205 0 0 0 0 124368143.76708984 -136520349.25400925 0 -136520349.25400925 63887730.526351929 0 0 0 0 -10554089.860219955 26571746.734034061 0 26571746.734034061 4873154.3182983398 0 0 0 0 -19073184.691612244 -2002738.7705459595 0 -2002738.7705459595 -20750382.133789062 0 0 0 0 -13393670.946474791 1988940.2364156395 0 1988940.2364156395 7803488.1536319777 0 0 0 0 17663082.548980713 40196922.963115692 0 40196922.963115692 -22476264.241592884 0 0 0 0 -16011809.623970032 21890081.87720871 0 21890081.87720871 45170292.606178284 0 0 0 0 -3501323.3767242432 20058732.09715271 0 20058732.09715271 5817469.1260802746 0 0 0 0 -5038934.9417281896 24627556.971926689 0 24627556.971926689 -7202426.7098029703 0 0 0 0 -9966303.122718811 20811729.815925598 0 20811729.815925598 6261039.5766506195 0 0 0 0 -65914147.119735718 74235356.201868057 0 74235356.201868057 -38748937.399734497 0 0 0 0 -51793621.956306458 41430590.724554062 0 41430590.724554062 -9904258.8655548096 0 0 0 0 -62715147.745178223 32132057.445381165 0 32132057.445381165 -17819366.640167236 0 0 0 0 -6710258.534362793 11173718.726234436 0 11173718.726234436 -4889520.2011481524 0 0 0 0 -21400433.026851296 13085124.88609723 0 13085124.88609723 16388069.94888008 0 0 0 0 -138907219.79025269 310095783.08238792 0 310095783.08238792 -170883609.90884399 0 0 0 0 -8089242.6967550814 10770468.946951136 0 10770468.946951136 5773687.102681607 0 0 0 0 -313751972.04324341 274023387.96498108 0 274023387.96498108 -51606743.841014862 0 0 0 0 -156204638.09240723 93650234.571874619 0 93650234.571874619 -78011794.313812256 0 0 0 0 -5830670.8042353019 14402960.377433792 0 14402960.377433792 -3238778.7593528926 0 0 0 0 6529623.0137934685 22236631.795793697 0 22236631.795793697 -4950340.8170330971 0 0 0 0 -4612391.1630935669 23727420.990501404 0 23727420.990501404 -5278194.7708511353 0 0 0 0 -5531657.8186498582 16236963.72305261 0 16236963.72305261 584344.84517559595 0 0 0 0 -7096872.7050170898 13949441.070640564 0 13949441.070640564 4016985.0541758537 0 0 0 0 -3417339.6969070435 16158721.019864082 0 16158721.019864082 3159947.9690628052 0 0 0 0 -175371297.34183216 156312049.66787982 0 156312049.66787982 128492206.85447311 0 0 0 0 -202135440.93709183 198946338.74318123 0 198946338.74318123 401980570.6778183 0 0 0 0 -124756435.30846405 360102584.33772087 0 360102584.33772087 -176451455.29223251 0 0 0 0 34821274.156211853 178356275.22111988 0 178356275.22111988 22724458.863265991 0 0 0 0 -25491490.848957062 183860998.23809433 0 183860998.23809433 24819311.087103844 0 0 0 0 -15854811.094842911 150734955.84924221 0 150734955.84924221 123083711.00657654 0 0 0 0 32034446.686813354 124254420.74127579 0 124254420.74127579 37580268.980369568 0 0 0 0 -27507329.896907806 116420977.23524666 0 116420977.23524666 36550214.351758003 0 0 0 0 23003104.140938759 154829679.2309885 0 154829679.2309885 -18539319.36630249 0 0 0 0 -18206889.905883729 58301023.898140535 0 58301023.898140535 2609535.9981317222 0 0 0 0 21459639.285663605 106136180.59950256 0 106136180.59950256 7061902.3136940002 0 0 0 0 65893140.933959484 83003817.22599411 0 83003817.22599411 9607185.936756134 0 0 0 0 74840059.317117691 105298035.86972094 0 105298035.86972094 22973274.6275177 0 0 0 0 -29372030.623885453 55700117.164326444 0 55700117.164326444 7337229.422149837 0 0 0 0 26586256.915863037 60754032.469226837 0 60754032.469226837 18543405.700896025 0 0 0 0 58074045.867858887 91768889.120521545 0 91768889.120521545 4593591.2006988525 0 0 0 0 44998557.30534935 77445628.752213001 0 77445628.752213001 -19921277.290424347 0 0 0 0 7701553.1943639219 65579397.184282288 0 65579397.184282288 -12516845.962506559 0 0 0 0 -21807914.484375 48815721.103288651 0 48815721.103288651 61545341.045416355 0 0 0 0 43517615.741611481 135960231.36040974 0 135960231.36040974 -37837485.658432007 0 0 0 0 -33354371.207044125 47873746.84864898 0 47873746.84864898 -10029066.510437995 0 0 0 0 -6512482.8362126797 49144130.750524312 0 49144130.750524312 1444968.4018049752 0 0 0 0 -1720933.4037382007 12060908.687309563 0 12060908.687309563 98715.205761106685 0 0 0 0 -3828453.6555051804 86258509.38184166 0 86258509.38184166 13030313.197780609 0 0 0 0 -34581496.566326141 137794231.42985153 0 137794231.42985153 25337337.02022028 0 0 0 0 -87208898.189712524 129900619.90707207 0 129900619.90707207 66403104.90858078 0 0 0 0 -137659329.32280731 112011299.09737587 0 112011299.09737587 100229889.86645508 0 0 0 0 -130591634.83929539 163556406.10641909 0 163556406.10641909 109522625.83423615 0 0 0 0 -76468756.464925766 223175289.28591347 0 223175289.28591347 -218047154.98475647 0 0 0 0 -49391096.931188583 165488557.65799999 0 165488557.65799999 -206955875.15529251 0 0 0 0 -93434570.7315979 24254723.645694733 0 24254723.645694733 -137738252.01222992 0 0 0 0 -55502030.932426453 97302360.681735992 0 97302360.681735992 -242405986.70014191 0 0 0 0 -57650710.829195976 95918270.620649815 0 95918270.620649815 -109647922.30368805 0 0 0 0 -340692699.63110352 -23665786.531984329 0 -23665786.531984329 269618303.20654297 0 0 0 0 -16738419.399419677 15151714.660108875 0 15151714.660108875 5999639.50711146 0 0 0 0 -208765771.60144281 96286991.551508188 0 96286991.551508188 58827665.578323364 0 0 0 0 -220669063.88464355 211606811.60516739 0 211606811.60516739 -91941087.276245117 0 0 0 0 -121955169.05737019 106002237.02759504 0 106002237.02759504 15504495.111282349 0 0 0 0 -104998445.61185551 80379008.848678589 0 80379008.848678589 69489203.806102753 0 0 0 0 -124723915.65019989 127618267.98540878 0 127618267.98540878 29479158.987342834 0 0 0 0 -177281142.86240578 62544830.108950615 0 62544830.108950615 68641219.366600037 0 0 0 0 -108860351.10739136 98310966.551916122 0 98310966.551916122 74945352.60344696 0 0 0 0 37464716.937347412 67740580.245607376 0 67740580.245607376 96272288.514968872 0 0 0 0 -44712193.361581743 47338866.073335528 0 47338866.073335528 -5965290.4641720802 0 0 0 0 -22240129.911882669 69329988.455246449 0 69329988.455246449 -14459054.714972332 0 0 0 0 -70098164.27643384 56512965.733432196 0 56512965.733432196 14015832.556767344 0 0 0 0 102229659.25959778 177839659.78502655 0 177839659.78502655 109954042.12933731 0 0 0 0 -225886869.08810425 611650830.69165993 0 611650830.69165993 237882817.00493813 0 0 0 0 -970371165.37008667 -233464886.46884918 0 -233464886.46884918 -17518288.583562374 0 0 0 0 58255590.783569336 20237173.053569794 0 20237173.053569794 188068773.9352417 0 0 0 0 -274272852.93032837 -302092598.71150017 0 -302092598.71150017 216430659.89490891 0 0 0 0 291792682.2694397 -2565724.1167545319 0 -2565724.1167545319 -154140448.93711853 0 0 0 0 46407878.611846924 161353399.3411808 0 161353399.3411808 75522050.964841604 0 0 0 0 -306690049.76112366 222179755.00612831 0 222179755.00612831 328440095.41172791 0 0 0 0 -49525501.954795271 43900461.940934241 0 43900461.940934241 7722810.7093576416 0 0 0 0 -790244.99658349156 468310.26691255905 0 468310.26691255905 950734.85115756653 0 0 0 0 19346083.20664978 -41653093.959331512 0 -41653093.959331512 55082002.365366042 0 0 0 0 4375458.5027313232 45360997.310886383 0 45360997.310886383 14890155.551273346 0 0 0 0 -230114642.79534912 118970724.54914856 0 118970724.54914856 33982383.165130615 0 0 0 0 -20865311.670639277 -779601.07229836285 0 -779601.07229836285 22956454.982029192 0 0 0 0 -28899755.929844856 62769625.347667277 0 62769625.347667277 165929160.95642853 0 0 0 0 -28440136.054092407 69155309.365012169 0 69155309.365012169 212989898.98805046 0 0 0 0 -17935497.236569524 8151244.8813780844 0 8151244.8813780844 9589224.0528491065 0 0 0 0 -368645191.65188599 -55799792.603922844 0 -55799792.603922844 13731167.374408722 0 0 0 0 74421499.816459656 141678338.82508469 0 141678338.82508469 61056804.623140335 0 0 0 0 -41864482.485626221 37338243.499545574 0 37338243.499545574 210595273.47414017 0 0 0 0 -69208553.375072479 127690658.61301875 0 127690658.61301875 100516203.30166245 0 0 0 0 -75401915.963335037 139216211.09829402 0 139216211.09829402 191914297.87297249 0 0 0 0 -4335857.3162078857 448045516.83738136 0 448045516.83738136 91886295.122913122 0 0 0 0 -456510354.80984497 517689356.22389412 0 517689356.22389412 48206694.528141975 0 0 0 0 -99923628.278501511 253265141.65562391 0 253265141.65562391 -272491796.20316315 0 0 0 0 -750336200.45581818 466446503.98609829 0 466446503.98609829 212240067.59014893 0 0 0 0 -274602400.93344116 -9617856.5980472565 0 -9617856.5980472565 8806300.8139190674 0 0 0 0 49154330.716345787 464892643.16541523 0 464892643.16541523 197543298.91461563 0 0 0 0 -6277899.7507330179 2674698.9672822952 0 2674698.9672822952 3398813.6213645786 0 0 0 0 -186544741.97109985 198750169.34333801 0 198750169.34333801 349021598.25333214 0 0 0 0 -561090150.4460144 598655124.96822023 0 598655124.96822023 -25651798.006729126 0 0 0 0 521460420.9876709 152653969.02548409 0 152653969.02548409 -108630618.31826401 0 0 0 0 123532827.39502716 71799470.143964767 0 71799470.143964767 26606631.083469391 0 0 0 0 -407004.64186096191 303087128.60407448 0 303087128.60407448 -174059084.76706314 0 0 0 0 -265341977.82595825 51480753.143878937 0 51480753.143878937 -140926586.66596985 0 0 0 0 -748143796.79147339 434845414.43032074 0 434845414.43032074 48956014.315265656 0 0 0 0 -205994735.65133667 400586054.84005356 0 400586054.84005356 -104845805.89385986 0 0 0 0 92313.907832860947 7079388.1796998084 0 7079388.1796998084 340038.49932798743 0 0 0 0 230016509.31985474 242841595.40638733 0 242841595.40638733 -48467783.914477348 0 0 0 0 220365491.13684082 76687414.105674744 0 76687414.105674744 -29503075.211799622 0 0 0 0 201893025.83779907 43108388.318494797 0 43108388.318494797 32754241.290027618 0 0 0 0 180628611.82032013 118035626.13727093 0 118035626.13727093 -15741730.779613495 0 0 0 0 152716567.64555359 68752945.769794464 0 68752945.769794464 -70992196.011692047 0 0 0 0 244558327.89642334 90115156.393764496 0 90115156.393764496 -56710621.642457008 0 0 0 0 354137211.26679993 171946797.33606148 0 171946797.33606148 -17262174.789001465 0 0 0 0 128879286.49842834 99522559.086866379 0 99522559.086866379 56485739.434339523 0 0 0 0 211098962.71901703 117808241.0029304 0 117808241.0029304 39901391.824401855 0 0 0 0 159773112.27153015 206935028.62690735 0 206935028.62690735 -4871465.0836906433 0 0 0 0 -10120196.437220216 11571809.080908723 0 11571809.080908723 8283783.8351641968 0 0 0 0 -20177848.253570557 25522474.4595294 0 25522474.4595294 21306703.567626953 0 0 0 0 -61087450.597092725 62205506.796050049 0 62205506.796050049 21328033.903768774 0 0 0 0 -76284354.478471726 64614305.812895343 0 64614305.812895343 47293216.044538043 0 0 0 0 4467936.0765213221 33411050.652136713 0 33411050.652136713 20012020.732143112 0 0 0 0 364232605.64706421 170790723.43122673 0 170790723.43122673 -38059309.98544693 0 0 0 0 392175804.829422 119355711.11453056 0 119355711.11453056 28284464.989013672 0 0 0 0 22894446.092863083 55518599.722032785 0 55518599.722032785 34320122.532484055 0 0 0 0 350758877.13653564 197946577.1123848 0 197946577.1123848 -99707005.942568779 0 0 0 0 335917954.6630249 176633819.91019535 0 176633819.91019535 84589760.560935974 0 0 0 0 68261354.263366699 66807523.191070557 0 66807523.191070557 35487286.538131714 0 0 0 0 584295308.62719727 412178606.06018448 0 412178606.06018448 15827826.876163483 0 0 0 0 -50965570.386430964 72253103.026188225 0 72253103.026188225 16353615.090037271 0 0 0 0 -2223034.7196592689 67261239.406907275 0 67261239.406907275 -17133049.371561065 0 0 0 0 -90802170.868671417 52265959.826763153 0 52265959.826763153 -67780157.186668396 0 0 0 0 -58940758.772502854 36306739.503788076 0 36306739.503788076 28099437.27345138 0 0 0 0 29886483.317710876 270347525.52926064 0 270347525.52926064 473116744.85826874 0 0 0 0 -27485190.126304626 263825031.76319027 0 263825031.76319027 569550150.6367054 0 0 0 0 202111937.19767761 710475001.74101257 0 710475001.74101257 1253865837.3527002 0 0 0 0 1189130568.9655075 237824213.50707531 0 237824213.50707531 465652448.8187809 0 0 0 0 -98677891.776062012 -92618826.241159439 0 -92618826.241159439 621219089.129282 0 0 0 0 -2203297.2546067387 8189817.8605906218 0 8189817.8605906218 6280344.3063231707 0 0 0 0 1205092918.5634689 248621185.216115 0 248621185.216115 34977896.435501099 0 0 0 0 -14526.062716543674 3609305.0405230895 0 3609305.0405230895 -993079.89234811813 0 0 0 0 -16411172.474170983 11811999.601761583 0 11811999.601761583 5135260.4009161983 0 0 0 0 -8073191.0593719482 25377295.826822281 0 25377295.826822281 11598610.695766449 0 0 0 0 132994771.51425171 -44563228.941246986 0 -44563228.941246986 -59998734.430625916 0 0 0 0 48365569.268249512 87398312.47734642 0 87398312.47734642 115986347.08810854 0 0 0 0 -15623199.047803402 11981627.528017445 0 11981627.528017445 1927629.4632906578 0 0 0 0 -3393770.717590332 57050181.569179535 0 57050181.569179535 69481007.199562073 0 0 0 0 -15971674.946782917 12429521.694486374 0 12429521.694486374 315485.69699373562 0 0 0 0 -275834610.34214783 97822173.511043549 0 97822173.511043549 77937638.710391998 0 0 0 0 23701649.401412964 16726793.045507431 0 16726793.045507431 62048164.737518787 0 0 0 0 -27299581.170272827 -47547166.639923096 0 -47547166.639923096 62586183.268081665 0 0 0 0 2323049.446685791 -59788540.229644775 0 -59788540.229644775 67514376.030353546 0 0 0 0 -3675863.3508451879 465256.75211250782 0 465256.75211250782 2107204.124488771 0 0 0 0 73174004.209503174 7119144.5612411499 0 7119144.5612411499 31515940.053609848 0 0 0 0 -22936030.118637085 2245718.8505573273 0 2245718.8505573273 200214837.23261642 0 0 0 0 10092259.52923584 99677126.560237885 0 99677126.560237885 237853265.83687925 0 0 0 0 4500017.9824371338 32437782.583141327 0 32437782.583141327 188671515.10933304 0 0 0 0 -41023782.788324833 76760487.131300211 0 76760487.131300211 272429930.99254227 0 0 0 0 176984098.69219971 319048442.53244305 0 319048442.53244305 399210220.00531864 0 0 0 0 61302223.803848267 188073816.70447922 0 188073816.70447922 307226071.73680687 0 0 0 0 116360244.20907402 82031909.979286671 0 82031909.979286671 204393752.83396721 0 0 0 0 358100039.95450592 119069836.14784145 0 119069836.14784145 257918843.29656982 0 0 0 0 522237677.78739929 534610317.60355401 0 534610317.60355401 341318388.03286362 0 0 0 0 143951992.08355713 548289925.73289013 0 548289925.73289013 621734730.62712479 0 0 0 0 208715003.73855972 552105625.24964333 0 552105625.24964333 579565053.09033585 0 0 0 0 141939809.12314606 394297877.52871227 0 394297877.52871227 293165430.08950424 0 0 0 0 455690703.55736542 477597721.97552538 0 477597721.97552538 313115018.03972054 0 0 0 0 301655186.00408173 407313208.81266308 0 407313208.81266308 441834089.59423447 0 0 0 0 283738772.49489594 110447614.71307421 0 110447614.71307421 -177066237.45308876 0 0 0 0 -67354272.747711182 201360351.49960804 0 201360351.49960804 291605501.75229508 0 0 0 0 12600134.733879238 2227640.967443265 0 2227640.967443265 -2401814.3518068381 0 0 0 0 -11418965.807228088 138606627.81421161 0 138606627.81421161 -130645813.75142288 0 0 0 0 40269304.008834839 238183047.70598984 0 238183047.70598984 -227645279.75083637 0 0 0 0 -103343678.64485931 81363884.54683733 0 81363884.54683733 134566999.26119995 0 0 0 0 -7843027.918626368 4726400.6097422075 0 4726400.6097422075 3747440.0046076933 0 0 0 0 -33467455.909194946 89994538.042426586 0 89994538.042426586 -36388864.408695698 0 0 0 0 166216077.95495605 146160945.41420603 0 146160945.41420603 230725172.45468712 0 0 0 0 50752284.868377686 3812699.8437833786 0 3812699.8437833786 55821872.144165039 0 0 0 0 -133636650.6740303 29643248.077821016 0 29643248.077821016 59562760.115316391 0 0 0 0 351236071.86328125 62072154.335296631 0 62072154.335296631 -253670718.4253602 0 0 0 0 5982601.9451946914 527170.93295101821 0 527170.93295101821 -992819.41528155841 0 0 0 0 588135240.22995758 389992687.19191647 0 389992687.19191647 83953606.715745926 0 0 0 0 204643413.16957092 513336467.19181061 0 513336467.19181061 482312828.97801828 0 0 0 0 80792581.290557861 318524393.71204042 0 318524393.71204042 194591858.21736717 0 0 0 0 79011016.433670044 462113497.27471924 0 462113497.27471924 266324143.31957436 0 0 0 0 251824765.24890137 312104625.37120676 0 312104625.37120676 396536062.50372028 0 0 0 0 210073884.4877243 184169635.22209263 0 184169635.22209263 51768019.343972564 0 0 0 0 -5799536.0423895419 1588046.1585438848 0 1588046.1585438848 2136591.082649203 0 0 0 0 59859692.785133362 96784587.205214024 0 96784587.205214024 -311298336.11973476 0 0 0 0 -2538665.8943124413 -252166.53149136528 0 -252166.53149136528 1052514.6868691277 0 0 0 0 33988783.146324158 -9791433.6891684532 0 -9791433.6891684532 -733066219.85469627 0 0 0 0 -35660398.930610657 483814544.2356863 0 483814544.2356863 728234630.69156647 0 0 0 0 -59184514.188941956 345891292.59664202 0 345891292.59664202 -438421689.42666078 0 0 0 0 77432208.605728149 202652247.35494995 0 202652247.35494995 -199732157.3575784 0 0 0 0 29374990.724704742 206589523.5237447 0 206589523.5237447 36064120.022542 0 0 0 0 24032061.821136475 147571976.90760756 0 147571976.90760756 -48468727.282000542 0 0 0 0 24715052.191062927 119692900.40420741 0 119692900.40420741 -21242547.475834846 0 0 0 0 8173049.1065368652 60649680.501577377 0 60649680.501577377 -152991977.87089157 0 0 0 0 6485803.2897333503 20613113.866677627 0 20613113.866677627 -169784.45278195292 0 0 0 0 189239213.795048 109885742.90691176 0 109885742.90691176 -24931613.162147522 0 0 0 0 45733537.19418335 90391606.237568855 0 90391606.237568855 118305542.37617111 0 0 0 0 190508640.50940514 178266508.14743263 0 178266508.14743263 122797007.11811256 0 0 0 0 -79436771.60514003 40208968.048659638 0 40208968.048659638 28078423.482287534 0 0 0 0 163866361.89196777 59417471.403231621 0 59417471.403231621 98386507.496082306 0 0 0 0 23498235.467781067 184854341.27174234 0 184854341.27174234 126006164.77327538 0 0 0 0 17841431.922309875 252652507.75670719 0 252652507.75670719 86103291.092960358 0 0 0 0 -92945705.159339905 485314950.88581228 0 485314950.88581228 90429776.620192528 0 0 0 0 -264492124.37812042 339004089.63861775 0 339004089.63861775 253309825.32739258 0 0 0 0 -706525287.98696899 54395029.877902031 0 54395029.877902031 172496060.73126221 0 0 0 0 -134658098.02613831 150586852.55829716 0 150586852.55829716 173002270.96804428 0 0 0 0 -151340273.2146759 420828474.09460926 0 420828474.09460926 203790711.78871465 0 0 0 0 -204577158.0803299 289007898.5746069 0 289007898.5746069 179904599.36463547 0 0 0 0 -51526121.725097656 590708352.61632156 0 590708352.61632156 357694234.08444107 0 0 0 0 -40508333.931022644 316162333.6968112 0 316162333.6968112 279365602.64777756 0 0 0 0 -119716811.49009323 237897717.10094273 0 237897717.10094273 -42445131.392154694 0 0 0 0 -181276642.89770126 376253865.2272048 0 376253865.2272048 -93518915.595848083 0 0 0 0 70896269.245567322 302175327.70462465 0 302175327.70462465 -80373518.347670078 0 0 0 0 80845990.500770569 205123816.7713778 0 205123816.7713778 -22538959.214075804 0 0 0 0 19089577.598739624 319727360.22017336 0 319727360.22017336 -121392291.82898521 0 0 0 0 -5956596.4765815735 278736646.69916856 0 278736646.69916856 67786735.604492188 0 0 0 0 163078629.29301453 247615966.60168791 0 247615966.60168791 -64763180.359384537 0 0 0 0 147529154.9269352 176303869.06776404 0 176303869.06776404 3656214.2210102081 0 0 0 0 322919312.40940857 120728716.97113609 0 120728716.97113609 -67097072.871311665 0 0 0 0 211953672.13943481 147513073.55892658 0 147513073.55892658 -70671879.227715492 0 0 0 0 223571500.99219513 98499319.963125646 0 98499319.963125646 29123518.769880295 0 0 0 0 132736129.43256378 40385682.634007454 0 40385682.634007454 -7050851.2752304077 0 0 0 0 180958064.93957901 142891716.54949355 0 142891716.54949355 12903865.543268204 0 0 0 0 180668557.01486206 143812918.40982056 0 143812918.40982056 35467417.602892876 0 0 0 0 28001088.650508076 35222407.77028507 0 35222407.77028507 -2038714.6388740167 0 0 0 0 5267419.0067022517 22657287.745074049 0 22657287.745074049 -5873867.8352593379 0 0 0 0 -15569281.39936924 32136094.140154049 0 32136094.140154049 23180630.237974565 0 0 0 0 -303508675.00608826 144614326.86238003 0 144614326.86238003 77294339.397546768 0 0 0 0 -54069404.23336792 30757723.995385945 0 30757723.995385945 -9294715.7834391594 0 0 0 0 309798874.40508842 74591471.263892591 0 74591471.263892591 177286143.82192898 0 0 0 0 -234198181.28968811 -23093985.597774506 0 -23093985.597774506 -483052283.35691261 0 0 0 0 25366716.036122173 16194565.442737132 0 16194565.442737132 -19323020.751309209 0 0 0 0 707615611.07551575 21055402.102003366 0 21055402.102003366 -118812521.25702858 0 0 0 0 838781057.67475128 192356652.40032506 0 192356652.40032506 42800841.414524078 0 0 0 0 347440178.57374573 -378484685.34735632 0 -378484685.34735632 583957809.54674768 0 0 0 0 459016668.56873512 8104361.1059889197 0 8104361.1059889197 -80630826.951107979 0 0 0 0 21995602.405973703 24500206.880940735 0 24500206.880940735 -22821727.859282032 0 0 0 0 321391980.80930614 -17092644.841294199 0 -17092644.841294199 -80174507.395964622 0 0 0 0 307195222.67701149 119971610.87443462 0 119971610.87443462 -44714787.998273849 0 0 0 0 441863835.11917782 154324317.65240091 0 154324317.65240091 -37998645.918185234 0 0 0 0 513746096.22918701 91872110.859255314 0 91872110.859255314 14929894.965416908 0 0 0 0 379745335.30767822 328364950.38076591 0 328364950.38076591 179892570.25662136 0 0 0 0 297970194.56534576 202790689.71460867 0 202790689.71460867 -12938947.412761211 0 0 0 0 229189764.09386826 285479355.99216342 0 285479355.99216342 -24741236.043147564 0 0 0 0 6884372.2262938023 -1649075.5084430128 0 -1649075.5084430128 -974953.96832848247 0 0 0 0 782948706.66203308 -38284100.026270717 0 -38284100.026270717 -870515286.34144831 0 0 0 0 188090416.65699768 333680319.57618046 0 333680319.57618046 440927461.86762714 0 0 0 0 637263432.95199585 404778873.63658762 0 404778873.63658762 197739900.43466091 0 0 0 0 3007113.9995346069 184470897.72450042 0 184470897.72450042 321421289.06516218 0 0 0 0 -10605497.196772575 99768051.231451482 0 99768051.231451482 -61742981.571074486 0 0 0 0 -88746776.235517502 225912534.07746905 0 225912534.07746905 -180145608.23996925 0 0 0 0 -91684244.635780334 237509421.28978348 0 237509421.28978348 62884124.565393925 0 0 0 0 -62714920.580039978 167447436.20159686 0 167447436.20159686 -146342225.9202311 0 0 0 0 11387616.984774321 112539.90879668854 0 112539.90879668854 -977244.54965445632 0 0 0 0 248930891.7130661 592956651.3971231 0 592956651.3971231 -359447811.01743072 0 0 0 0 112996731.041008 322274292.24068451 0 322274292.24068451 3928045.3900362849 0 0 0 0 16203161.460189819 626716480.84215569 0 626716480.84215569 553681985.00324559 0 0 0 0 317054083.38313293 467786371.1366806 0 467786371.1366806 583968067.986274 0 0 0 0 571683134.27867889 194163014.4514097 0 194163014.4514097 97706358.369710684 0 0 0 0 810412214.39059448 289506485.61007357 0 289506485.61007357 643572145.45083284 0 0 0 0 900910093.36277771 542109760.21376586 0 542109760.21376586 439111979.30906725 0 0 0 0 -287842824.22879028 253184051.78429514 0 253184051.78429514 103514656.92569757 0 0 0 0 608385088.4488678 -346537657.7604208 0 -346537657.7604208 -574211855.05481839 0 0 0 0 609112582.01037598 -122466761.87045574 0 -122466761.87045574 48909407.959648132 0 0 0 0 822872865.9303894 17166583.330270767 0 17166583.330270767 -210025137.57331562 0 0 0 0 1148424999.4257507 -274749155.0479641 0 -274749155.0479641 -12485520.558878899 0 0 0 0 1664629.0328504145 9196834.9634407014 0 9196834.9634407014 9187103.3859175444 0 0 0 0 2023989211.4243317 36018123.011451721 0 36018123.011451721 330404136.03788233 0 0 0 0 1022614314.0144043 -131198051.13647556 0 -131198051.13647556 -168555770.44785738 0 0 0 0 975648153.72756958 -425340564.94135082 0 -425340564.94135082 223351875.43266201 0 0 0 0 766185013.18893433 -287234912.6269145 0 -287234912.6269145 210448074.52981758 0 0 0 0 158337669.85687637 -372901276.86497426 0 -372901276.86497426 640206730.08989334 0 0 0 0 8514425.2037200928 -710074479.2688818 0 -710074479.2688818 -574139659.61902332 0 0 0 0 -8964567.1497267112 6943161.5624298006 0 6943161.5624298006 2976480.0187339075 0 0 0 0 54302795.482284546 -349519384.52078295 0 -349519384.52078295 1022414520.5057583 0 0 0 0 -36714101.049087524 -119045669.88705444 0 -119045669.88705444 360891104.85385132 0 0 0 0 -1464272.5078277588 -294990684.90371227 0 -294990684.90371227 675184656.63940811 0 0 0 0 61328287.44670105 -230715716.94312859 0 -230715716.94312859 509518648.35145569 0 0 0 0 146283719.13427734 -332964957.33301163 0 -332964957.33301163 387625683.23925018 0 0 0 0 159691081.82699585 -207367544.77616882 0 -207367544.77616882 47846574.040184021 0 0 0 0 239302635.39898682 -305347287.50803947 0 -305347287.50803947 -4356067.7146759033 0 0 0 0 177111130.63231659 -372302927.96678257 0 -372302927.96678257 151936374.71509552 0 0 0 0 26232152.211172566 30691321.398539782 0 30691321.398539782 -25891732.142106954 0 0 0 0 -536264782.735672 416949215.98788404 0 416949215.98788404 216773924.7445488 0 0 0 0 -81532630.993814468 25338338.405976206 0 25338338.405976206 -864938.5690908432 0 0 0 0 614427546.44519043 -141512268.42430305 0 -141512268.42430305 -346197549.78167105 0 0 0 0 233130.18055985868 25138844.303582758 0 25138844.303582758 19667895.737083502 0 0 0 0 191919708.55288696 779317018.71558952 0 779317018.71558952 -88061403.165352106 0 0 0 0 249434376.83136749 586551136.08423638 0 586551136.08423638 44769404.713020295 0 0 0 0 10668271.766357422 511074179.5469448 0 511074179.5469448 573374227.10444891 0 0 0 0 25245634.065868378 450870565.26463735 0 450870565.26463735 228849030.98076439 0 0 0 0 34582626.706100464 343584783.12159324 0 343584783.12159324 228789442.3848381 0 0 0 0 142665926.87582397 355682394.48086905 0 355682394.48086905 -3299206.8862232566 0 0 0 0 60679278.974212646 241315060.65705919 0 241315060.65705919 -63323002.360127926 0 0 0 0 -3942680.6653671265 281231317.83920717 0 281231317.83920717 -80952169.258287907 0 0 0 0 -25720693.751058578 195667108.91964155 0 195667108.91964155 -182989173.42000484 0 0 0 0 -115352071.13212585 188549201.40430129 0 188549201.40430129 -156133945.59543991 0 0 0 0 -104177889.81600952 154689504.35172009 0 154689504.35172009 -94073195.70519042 0 0 0 0 149668789.2674408 310975863.07892817 0 310975863.07892817 -547379101.57109106 0 0 0 0 4786338.4134654403 394265.6799260173 0 394265.6799260173 -168669.53942151731 0 0 0 0 321414.62656021118 667355378.84751976 0 667355378.84751976 1053498115.2407637 0 0 0 0 -47310472.023166656 492382391.37061024 0 492382391.37061024 577178598.7255466 0 0 0 0 47796163.351730347 620385455.73790491 0 620385455.73790491 641724415.99105394 0 0 0 0 204072362.42803192 581949346.56776428 0 581949346.56776428 538670629.09541798 0 0 0 0 -19910478.942741394 352578798.82964957 0 352578798.82964957 542179338.37563348 0 0 0 0 -19315140.012836456 357575867.30332017 0 357575867.30332017 522186782.44147593 0 0 0 0 41949574.131507874 349658239.51173103 0 349658239.51173103 448430537.52034152 0 0 0 0 243509194.50626373 392922185.44751507 0 392922185.44751507 442237278.65839088 0 0 0 0 145124620.4004364 391411395.77674419 0 391411395.77674419 376358066.06985259 0 0 0 0 23843774.411598206 368397112.48029912 0 368397112.48029912 437434900.81114984 0 0 0 0 58306949.53793335 407607559.4003641 0 407607559.4003641 294653353.80501413 0 0 0 0 8499729.9884338379 419340078.87339783 0 419340078.87339783 437101297.36420667 0 0 0 0 45890499.879760742 423225513.95328069 0 423225513.95328069 368503485.97586823 0 0 0 0 40792848.325790405 365219647.42811704 0 365219647.42811704 265913826.07654095 0 0 0 0 19065236.533500671 346886551.73759604 0 346886551.73759604 302866643.17797053 0 0 0 0 50800107.005741119 367318366.76999199 0 367318366.76999199 167718509.74731827 0 0 0 0 92470341.40039444 492745486.60758388 0 492745486.60758388 469094008.74044895 0 0 0 0 41607646.653686523 377173674.34195185 0 377173674.34195185 463999664.32481742 0 0 0 0 46231681.337059021 364201658.60697651 0 364201658.60697651 528193909.22230196 0 0 0 0 45179489.719696045 378458721.80233645 0 378458721.80233645 365531301.63476753 0 0 0 0 25124468.004867554 361166019.76918697 0 361166019.76918697 358695500.77108157 0 0 0 0 77148377.894134521 438628833.15422988 0 438628833.15422988 358139243.66726941 0 0 0 0 70881007.878005981 448946914.62953973 0 448946914.62953973 379375864.4102385 0 0 0 0 81660924.380325317 464119369.02705669 0 464119369.02705669 394901154.12639165 0 0 0 0 109685487.78044891 420369008.8421104 0 420369008.8421104 301532755.10100174 0 0 0 0 72078539.472492218 459261764.06143409 0 459261764.06143409 372599372.19393444 0 0 0 0 111461206.35710907 455890227.55581355 0 455890227.55581355 334099854.87899709 0 0 0 0 7715774.6111450195 279433762.58519351 0 279433762.58519351 503888160.00145745 0 0 0 0 35757957.072738647 224313783.9954859 0 224313783.9954859 155131702.86202714 0 0 0 0 142397529.69267273 295039203.28303313 0 295039203.28303313 106967737.10730863 0 0 0 0 96371837.853061676 190882526.0272882 0 190882526.0272882 128144526.54981613 0 0 0 0 128909827.64749908 253947883.3022871 0 253947883.3022871 150821542.51085019 0 0 0 0 211646278.37730408 238697880.46237957 0 238697880.46237957 143478870.9535656 0 0 0 0 181085009.49907494 321787653.67702091 0 321787653.67702091 238483485.932477 0 0 0 0 76542400.786636353 384051520.74087954 0 384051520.74087954 304521160.80798817 0 0 0 0 53618160.067886353 413889353.67429328 0 413889353.67429328 316342632.21618056 0 0 0 0 22159435.395637512 379173894.78915393 0 379173894.78915393 321072354.39358902 0 0 0 0 -1993664.0126266479 18771844.101613402 0 18771844.101613402 3324489.9359926283 0 0 0 0 264952994.84335327 149688943.37614417 0 149688943.37614417 133204057.18481541 0 0 0 0 504966699.44442749 69035650.528169155 0 69035650.528169155 89478245.424349785 0 0 0 0 289998110.05551147 183466475.95268106 0 183466475.95268106 -66703124.597268939 0 0 0 0 295468460.23373413 217161668.59538603 0 217161668.59538603 129179211.58005071 0 0 0 0 462905238.90905762 215395139.27300167 0 215395139.27300167 104299489.48531199 0 0 0 0 293921430.46002817 191302099.17304289 0 191302099.17304289 110357618.74644375 0 0 0 0 -259771391.29488373 70409425.120691776 0 70409425.120691776 -5639463.2273350358 0 0 0 0 696579973.0404892 252371260.22001612 0 252371260.22001612 -51300363.874173164 0 0 0 0 -557521.69816589355 481636218.93490672 0 481636218.93490672 -247776947.74064255 0 0 0 0 -1502415.614624545 5340231.2978460938 0 5340231.2978460938 -810312.26001805253 0 0 0 0 462997653.4294281 389868345.78836489 0 389868345.78836489 -82712476.176145554 0 0 0 0 174502971.85502625 442518079.21217775 0 442518079.21217775 161937012.25609896 0 0 0 0 -176508779.61029053 432978222.70422602 0 432978222.70422602 162898457.17810059 0 0 0 0 152784095.13227844 599261677.55927134 0 599261677.55927134 -95083959.330612183 0 0 0 0 164031611.00062561 555604911.80972195 0 555604911.80972195 179111339.80084687 0 0 0 0 329382767.06759644 372439990.95433617 0 372439990.95433617 177014488.06818274 0 0 0 0 349633304.32926941 313407068.29425031 0 313407068.29425031 19529779.611219406 0 0 0 0 348314808.98924255 316407955.54965687 0 316407955.54965687 186437649.02857733 0 0 0 0 325567708.33608627 470373785.53771782 0 470373785.53771782 242623382.42346096 0 0 0 0 242175250.90862274 398802180.75608397 0 398802180.75608397 440458064.27738571 0 0 0 0 397937547.54649353 420596935.57296276 0 420596935.57296276 441085908.10096264 0 0 0 0 295264.970703125 466017544.72416019 0 466017544.72416019 568094635.87044048 0 0 0 0 191644305.68400574 456547430.4738307 0 456547430.4738307 344462730.19877005 0 0 0 0 175552693.78170776 437342204.83781385 0 437342204.83781385 361178761.65826321 0 0 0 0 159409536.42954254 403583405.79254985 0 403583405.79254985 330984910.71020699 0 0 0 0 264818684.87498474 351062273.90244341 0 351062273.90244341 225918072.97633243 0 0 0 0 257975030.98205566 337456997.35611248 0 337456997.35611248 217496897.44019222 0 0 0 0 258574331.96176147 457332513.71906996 0 457332513.71906996 334700561.8498596 0 0 0 0 295401172.40182495 395326391.91160059 0 395326391.91160059 501963456.85214043 0 0 0 0 237317341.54343414 461238865.07802749 0 461238865.07802749 488849243.23956585 0 0 0 0 294643273.91731262 490096703.84377718 0 490096703.84377718 481930381.493343 0 0 0 0 182008589.69882202 470385861.38470745 0 470385861.38470745 479170130.56285477 0 0 0 0 84232695.152458191 469986131.33707237 0 469986131.33707237 821179624.2849865 0 0 0 0 34769950.286254883 300219833.65346384 0 300219833.65346384 1827100771.3043985 0 0 0 0 7012381.8238690197 1577075.5777026936 0 1577075.5777026936 88129.433429062366 0 0 0 0 30275949.506341934 149560444.3800025 0 149560444.3800025 654581457.34608746 0 0 0 0 13037463.788063049 131271164.97214079 0 131271164.97214079 706271009.26586604 0 0 0 0 27667790.743354797 366559743.87703276 0 366559743.87703276 792677291.60387611 0 0 0 0 231517250.38745117 465183575.37664938 0 465183575.37664938 748225850.70495415 0 0 0 0 538267709.05886078 628529191.70666599 0 628529191.70666599 794233242.60922194 0 0 0 0 368667226.66807556 241184122.6706686 0 241184122.6706686 814243552.45557165 0 0 0 0 -177401.60321807861 309034908.83161879 0 309034908.83161879 1064026267.7122822 0 0 0 0 319066015.72257996 642914907.25299454 0 642914907.25299454 668724523.59499359 0 0 0 0 436674550.78005028 367048848.43749237 0 367048848.43749237 -26471518.162288666 0 0 0 0 198409239.49939346 127496899.85710621 0 127496899.85710621 284276128.03257179 0 0 0 0 -2528999.6631485522 -2814089.1960185245 0 -2814089.1960185245 3097254.5465026423 0 0 0 0 33276878.093719482 249901880.96478653 0 249901880.96478653 429711646.58584595 0 0 0 0 406851.49883270264 149677449.34081793 0 149677449.34081793 159308855.29899096 0 0 0 0 16613208.955921292 7154548.9397670627 0 7154548.9397670627 361036.60930930451 0 0 0 0 104791015.83998108 -48085181.033600807 0 -48085181.033600807 -25610295.822044373 0 0 0 0 -40991048.749643326 191891280.52329826 0 191891280.52329826 -164141841.27522659 0 0 0 0 294408677.29898071 135325169.65812302 0 135325169.65812302 -400067193.8412466 0 0 0 0 -165589934.38658142 2621269.645973444 0 2621269.645973444 73467297.722705841 0 0 0 0 41500348.153404236 40795639.998091698 0 40795639.998091698 242879781.63390636 0 0 0 0 49088998.249694824 58513190.418354988 0 58513190.418354988 87676800.631691456 0 0 0 0 86739763.763271332 60155312.151751041 0 60155312.151751041 -53219866.773197174 0 0 0 0 -138452308.43414307 88475480.741218567 0 88475480.741218567 237464035.78007317 0 0 0 0 -24664931.608001709 71661274.882389069 0 71661274.882389069 161446143.78266144 0 0 0 0 -5314116.9831293821 -1586564.941708263 0 -1586564.941708263 6778943.0217283592 0 0 0 0 51335768.234466553 84873316.147423744 0 84873316.147423744 25080190.95508194 0 0 0 0 -3703446.9967603087 9357467.3069261964 0 9357467.3069261964 8719149.845867319 0 0 0 0 -24821182.1849823 -71801639.010910034 0 -71801639.010910034 -152397805.74809647 0 0 0 0 -50457005.998321533 112395175.85222292 0 112395175.85222292 69298863.004392624 0 0 0 0 36366087.428253174 76439817.166744232 0 76439817.166744232 229373725.1761055 0 0 0 0 39244054.093261719 22078923.853553772 0 22078923.853553772 -20102621.806118011 0 0 0 0 20292611.728946656 14997675.711667493 0 14997675.711667493 231532.13015582785 0 0 0 0 -1314490.0540924072 51089648.953513622 0 51089648.953513622 237231767.30007172 0 0 0 0 -98896180.751037598 -17201754.488193512 0 -17201754.488193512 -163405743.99693298 0 0 0 0 -2379652.2549403012 8955420.4393848069 0 8955420.4393848069 9949454.0683857184 0 0 0 0 1245663.6824951172 7158669.2499694824 0 7158669.2499694824 11061178.404052734 0 0 0 0 -11896949.320265561 12879102.151154354 0 12879102.151154354 18137993.150709897 0 0 0 0 -10838419.249237061 -125577734.36940384 0 -125577734.36940384 -157242609.01060104 0 0 0 0 -109318107.65048218 -57571074.255724907 0 -57571074.255724907 -155248400.40746307 0 0 0 0 -53723885.878601074 -59935874.32144165 0 -59935874.32144165 -169989138.38560486 0 0 0 0 -41893346.514373779 -127467371.3955307 0 -127467371.3955307 -151359594.50960159 0 0 0 0 -99013811.892318726 -31603062.179974556 0 -31603062.179974556 -184197338.73023987 0 0 0 0 -21937904.403164327 3105320.4417484403 0 3105320.4417484403 19925987.003781587 0 0 0 0 -93982649.927185059 -64006496.287345886 0 -64006496.287345886 -155097895.04226685 0 0 0 0 -33943140.933776855 -78722714.944635391 0 -78722714.944635391 -118199419.95854425 0 0 0 0 -10797325.789855957 -92816216.682789803 0 -92816216.682789803 -146922470.02783585 0 0 0 0 -45477610.640441895 -110993886.63884735 0 -110993886.63884735 -104468099.23557663 0 0 0 0 39275804.557189941 -87313533.103729248 0 -87313533.103729248 -118792594.69111633 0 0 0 0 59198858.524017334 61644247.665493011 0 61644247.665493011 -342380557.40273833 0 0 0 0 35274956.246002197 -102380424.42677689 0 -102380424.42677689 -114025200.43348694 0 0 0 0 117402635.2848053 -4449542.7331733704 0 -4449542.7331733704 -348741627.79116058 0 0 0 0 10198764.454682648 6025521.3974923491 0 6025521.3974923491 -2092395.3774337508 0 0 0 0 -266709.07675170898 -17899749.905469894 0 -17899749.905469894 -189875729.38823318 0 0 0 0 92769035.718673706 -46354944.278859138 0 -46354944.278859138 -223277686.38863373 0 0 0 0 18482065.550445557 24726676.071380615 0 24726676.071380615 -238902847.29025459 0 0 0 0 -120339558.6461792 7866384.4891853333 0 7866384.4891853333 -187484287.64827728 0 0 0 0 -29464792.193115234 -11301534.959125519 0 -11301534.959125519 -209636640.55279922 0 0 0 0 -66308828.154663086 29601520.094455719 0 29601520.094455719 -229057481.42734146 0 0 0 0 -103821774.95452881 50455124.93522644 0 50455124.93522644 -212383086.16192627 0 0 0 0 26032713.792377472 -22806134.909034967 0 -22806134.909034967 -208415116.18358612 0 0 0 0 28133830.746673584 -106386107.44485664 0 -106386107.44485664 -244223241.68908119 0 0 0 0 40356207.00743103 -3516736.877784729 0 -3516736.877784729 -94111944.442004681 0 0 0 0 -16794706.52768898 87902365.379510164 0 87902365.379510164 17581052.800608635 0 0 0 0 -2649594.0654907227 14034215.16092062 0 14034215.16092062 62538870.167466164 0 0 0 0 34907014.07901001 -62452481.907582283 0 -62452481.907582283 -13790936.475061417 0 0 0 0 5988753.315246582 28364955.074318886 0 28364955.074318886 74736230.815424442 0 0 0 0 -7079774.0314672291 11086095.989132643 0 11086095.989132643 6424197.9513658592 0 0 0 0 11704914.372634888 28221211.254770279 0 28221211.254770279 70722038.60277915 0 0 0 0 2035907.317561537 17762555.948505327 0 17762555.948505327 1543369.4218658004 0 0 0 0 -3348893.6355303824 4614327.5433546156 0 4614327.5433546156 13847509.874675306 0 0 0 0 13322138.366851807 21169300.965807915 0 21169300.965807915 122282199.97531414 0 0 0 0 2473752.9971008301 124406694.81943369 0 124406694.81943369 257033399.55826187 0 0 0 0 44603770.206695557 131954434.96700239 0 131954434.96700239 161505871.49221349 0 0 0 0 46735252.761932373 122851741.8868587 0 122851741.8868587 73543871.173974991 0 0 0 0 23357256.696655273 250020651.99763489 0 250020651.99763489 121109620.78797603 0 0 0 0 -1225779.4591315091 1379271.5056608915 0 1379271.5056608915 4426774.9677853752 0 0 0 0 42696255.694290161 237553574.28062105 0 237553574.28062105 129111397.37281227 0 0 0 0 -5485090.6406097412 240482727.1583358 0 240482727.1583358 149168023.88081741 0 0 0 0 12411339.005401611 226948921.46159649 0 226948921.46159649 159319262.93841273 0 0 0 0 26611570.096496582 241774290.33192062 0 241774290.33192062 245292394.38503075 0 0 0 0 23605228.318149567 244854557.17034471 0 244854557.17034471 264384913.32597828 0 0 0 0 -3473523.9853630066 235262191.8581388 0 235262191.8581388 350722076.82532883 0 0 0 0 4950880.6685028076 249140796.88793468 0 249140796.88793468 373006756.31773579 0 0 0 0 -18260466.655807495 265145733.81987619 0 265145733.81987619 639449189.55528259 0 0 0 0 50054532.408443451 370253073.35753727 0 370253073.35753727 421267394.69761848 0 0 0 0 1130965.1103782654 68096356.581568003 0 68096356.581568003 390872747.14369583 0 0 0 0 34352898.872711182 56811259.844287872 0 56811259.844287872 247441350.65083599 0 0 0 0 5620372.8089752197 106503568.09940672 0 106503568.09940672 407621893.03174019 0 0 0 0 13549753.979522705 125235379.96051311 0 125235379.96051311 230487510.00526923 0 0 0 0 184365605.07111597 -72084250.380050421 0 -72084250.380050421 -700932655.43374062 0 0 0 0 29784159.964229584 60452055.123235703 0 60452055.123235703 -243073752.47554493 0 0 0 0 -967561.66695020348 1000962.5672676452 0 1000962.5672676452 -685839.50270658359 0 0 0 0 -505484295.40591812 -409474901.92352962 0 -409474901.92352962 -419378576.87648678 0 0 0 0 -317141110.99631691 -756305803.51463723 0 -756305803.51463723 -1086257836.3079433 0 0 0 0 95631493.428211212 51901839.967455864 0 51901839.967455864 -660877681.16725159 0 0 0 0 -110280549.58211899 84709961.283298492 0 84709961.283298492 -500957060.43554688 0 0 0 0 -135305106.06855345 -153553475.39587265 0 -153553475.39587265 -716630393.87228012 0 0 0 0 -58729795.354610443 -48864788.055569649 0 -48864788.055569649 -919064217.02038622 0 0 0 0 -130111168.07045746 220640473.83052826 0 220640473.83052826 -482564766.2153511 0 0 0 0 11622953.012062073 -69377677.8008461 0 -69377677.8008461 -318296043.1259594 0 0 0 0 -51179673.969711304 258936309.70105171 0 258936309.70105171 -77661107.554912567 0 0 0 0 101536474.76275015 -73420036.729560733 0 -73420036.729560733 185343915.08441257 0 0 0 0 116999293.2370472 -1479145.0117540359 0 -1479145.0117540359 -577677126.20669937 0 0 0 0 -107783490.57496548 -154730126.5792172 0 -154730126.5792172 -206373052.9440434 0 0 0 0 1103045559.3409939 165474315.03292084 0 165474315.03292084 -437239575.81803131 0 0 0 0 89830627.449948311 380429506.0839076 0 380429506.0839076 38796035.543134212 0 0 0 0 195909230.3514924 245251752.46942633 0 245251752.46942633 -350588132.72994995 0 0 0 0 267435160.67920303 412386329.25045204 0 412386329.25045204 -111254939.05270815 0 0 0 0 -324833.12047934998 3911779.8107349984 0 3911779.8107349984 2193216.3435237706 0 0 0 0 899162108.33180904 -14861071.53305912 0 -14861071.53305912 -548145440.6822691 0 0 0 0 99088255.889875412 39593669.138670444 0 39593669.138670444 -290469972.46994638 0 0 0 0 -172254104.85686302 -306302061.88728404 0 -306302061.88728404 -308782253.46798325 0 0 0 0 134169584.94149017 88986846.38681221 0 88986846.38681221 -370139656.15934658 0 0 0 0 29884500.445357323 -51798332.286456585 0 -51798332.286456585 -326073125.77143502 0 0 0 0 -377696.79297100753 16506940.516798317 0 16506940.516798317 -14061758.182623167 0 0 0 0 -5428160.345910836 4542319.1773641221 0 4542319.1773641221 5440342.0783159453 0 0 0 0 81850500.292612076 -25762775.903166533 0 -25762775.903166533 129895332.3589852 0 0 0 0 207130619.22130966 399849789.28318423 0 399849789.28318423 127245445.73523951 0 0 0 0 110197.77423464507 7060109.8436842561 0 7060109.8436842561 -7469478.3338823132 0 0 0 0 -3212440.4580440521 -432391052.69055891 0 -432391052.69055891 -664620717.63901711 0 0 0 0 227709576.84680176 283394982.75544393 0 283394982.75544393 551223849.11402977 0 0 0 0 499865640.76782036 405369508.92499113 0 405369508.92499113 570218600.08171129 0 0 0 0 616968787.96466064 267449187.53587991 0 267449187.53587991 276242670.36812866 0 0 0 0 665375738.09196472 853706778.46498752 0 853706778.46498752 505069180.35687959 0 0 0 0 736382058.66923141 708452849.85558319 0 708452849.85558319 649082192.74091363 0 0 0 0 550898575.74937439 404329469.89055824 0 404329469.89055824 682335637.09695959 0 0 0 0 -1770503139.7367566 -229652648.36950076 0 -229652648.36950076 254453985.78842545 0 0 0 0 642904729.03509712 152036707.08655643 0 152036707.08655643 232156377.3791585 0 0 0 0 -2907270486.6036391 848128065.37815309 0 848128065.37815309 -761436758.20368004 0 0 0 0 -5314032.2891252413 5442297.7650405467 0 5442297.7650405467 493931.74762998894 0 0 0 0 -1875068565.226141 758222548.13144016 0 758222548.13144016 -25061686.74246788 0 0 0 0 1104316582.3441086 527567683.15984058 0 527567683.15984058 -129901367.32523346 0 0 0 0 -2360814144.1781178 -756553522.68730259 0 -756553522.68730259 708993393.93484879 0 0 0 0 -3287366345.7120171 391667780.40422726 0 391667780.40422726 369828074.29228044 0 0 0 0 757630473.82701349 -1049537853.0782527 0 -1049537853.0782527 441713197.64988613 0 0 0 0 895649549.9382267 1478259956.6952872 0 1478259956.6952872 -124618142.66448021 0 0 0 0 751732909.76079178 486110031.70152593 0 486110031.70152593 428637403.3841753 0 0 0 0 644026024.04186249 621211091.2772851 0 621211091.2772851 670381704.17656803 0 0 0 0 392337066.98983765 348696330.54894304 0 348696330.54894304 785182593.88679719 0 0 0 0 -15076132.279313169 15875545.985068962 0 15875545.985068962 -5664061.1448028423 0 0 0 0 550287184.00416946 356277850.52417469 0 356277850.52417469 539990980.38529086 0 0 0 0 53108212.517761216 75074895.023837328 0 75074895.023837328 39125460.936264873 0 0 0 0 -81091422.596204758 214597118.34436345 0 214597118.34436345 -122865837.20970917 0 0 0 0 -21341576.677144766 90326654.604109764 0 90326654.604109764 -77777855.685975075 0 0 0 0 -24352684.975168228 224879839.38138485 0 224879839.38138485 -270347567.21088409 0 0 0 0 -97784024.500047684 932082493.50527287 0 932082493.50527287 -620348259.68497562 0 0 0 0 -223426043.83091736 439185969.19479752 0 439185969.19479752 -281854793.16691589 0 0 0 0 8812867.4518416449 13100058.466985025 0 13100058.466985025 -9701.7227896898985 0 0 0 0 148006624.84440422 -5727878.5389683247 0 -5727878.5389683247 68848541.062932968 0 0 0 0 488554990.72055054 576376241.80032825 0 576376241.80032825 -405119438.35954952 0 0 0 0 460699136.31324387 217003720.453969 0 217003720.453969 -242817788.24219239 0 0 0 0 -93515417.199479103 125445830.84320617 0 125445830.84320617 33558174.894256592 0 0 0 0 49176244.497097053 80998669.539225876 0 80998669.539225876 36843142.639829278 0 0 0 0 -89678413.509591103 112856072.97300959 0 112856072.97300959 40699596.760131836 0 0 0 0 -86245291.29564476 120913154.22926664 0 120913154.22926664 44583091.450809479 0 0 0 0 -90217909.848823547 106034107.40090942 0 106034107.40090942 13495674.3035326 0 0 0 0 34094378.679833621 40492261.414995253 0 40492261.414995253 -6329763.8899483327 0 0 0 0 -1245924411.0622673 1602105490.3372872 0 1602105490.3372872 1242300549.07024 0 0 0 0 113866001.89666843 131840597.02578735 0 131840597.02578735 150451715.96756339 0 0 0 0 189648877.47461128 112917006.2203002 0 112917006.2203002 8932017.7162342072 0 0 0 0 31998051.768404447 96789006.040504217 0 96789006.040504217 8082548.2541425303 0 0 0 0 250358703.15921402 352435290.37588263 0 352435290.37588263 -532415994.06379056 0 0 0 0 -918852921.7034111 -1048073593.5862741 0 -1048073593.5862741 -336901319.2881186 0 0 0 0 54059456.316928662 21661442.71990291 0 21661442.71990291 -5984985.4479909539 0 0 0 0 -115582160.51240158 91965172.149757385 0 91965172.149757385 26560112.590671062 0 0 0 0 -101041659.44272232 109685525.87781191 0 109685525.87781191 23142908.597539902 0 0 0 0 -74249452.036979675 104750621.52073193 0 104750621.52073193 21105781.225873947 0 0 0 0 636782550.69297028 581006774.56879616 0 581006774.56879616 449986755.42349386 0 0 0 0 -55372393.384616852 -733723853.58712721 0 -733723853.58712721 -1573298086.1422348 0 0 0 0 788269986.40332031 610927452.94748211 0 610927452.94748211 -20756105.491323471 0 0 0 0 405159243.46644592 638957499.7388649 0 638957499.7388649 -146302314.08217049 0 0 0 0 181766547.16691971 478679962.80371952 0 478679962.80371952 -250422074.56500435 0 0 0 0 653239180.73484802 274914368.64564705 0 274914368.64564705 -1048388720.5341949 0 0 0 0 838539470.98918152 613136734.24852848 0 613136734.24852848 -576789474.78625679 0 0 0 0 542498432.62435532 329124740.20522928 0 329124740.20522928 5935798.3965301514 0 0 0 0 526245693.88415146 484682883.55805159 0 484682883.55805159 422778852.92898941 0 0 0 0 584328658.28982353 361070944.9654851 0 361070944.9654851 413162614.00372219 0 0 0 0 595669016.93342781 393521511.6660881 0 393521511.6660881 -85260447.931735992 0 0 0 0 -1031015690.8249435 1091562090.7304163 0 1091562090.7304163 641815379.42394912 0 0 0 0 456365706.76290512 623087336.63132477 0 623087336.63132477 -349125403.59107208 0 0 0 0 -11755753.362827655 9212590.9131502304 0 9212590.9131502304 -956795.20750654303 0 0 0 0 379248694.17303467 527054993.12354279 0 527054993.12354279 68622858.65337944 0 0 0 0 523502275.14089966 172342686.70343304 0 172342686.70343304 345194638.53490067 0 0 0 0 325416182.25914764 678159705.64829826 0 678159705.64829826 -372119224.18005085 0 0 0 0 372119835.20742416 594101493.15395832 0 594101493.15395832 -477503939.80471957 0 0 0 0 564653359.69429016 653405612.05750751 0 653405612.05750751 -469025297.14461136 0 0 0 0 460384677.63481736 705812408.63730443 0 705812408.63730443 -1002041842.3998432 0 0 0 0 445177838.26165009 499248484.10228252 0 499248484.10228252 -778161830.89923859 0 0 0 0 21653965.81798964 13949393.384635057 0 13949393.384635057 -3898168.9727714621 0 0 0 0 346825284.99554443 794693876.31791878 0 794693876.31791878 -1065633435.7672844 0 0 0 0 245489810.72822189 241333602.00519991 0 241333602.00519991 -721906043.35543072 0 0 0 0 -67609849.020959854 339023149.34455121 0 339023149.34455121 -127973761.69312286 0 0 0 0 329979632.04855919 168460723.62032557 0 168460723.62032557 -978676304.08828044 0 0 0 0 443290477.5207634 644918638.83443785 0 644918638.83443785 -679430743.24505615 0 0 0 0 -74867205.135564804 399101408.08603191 0 399101408.08603191 -600687106.7107048 0 0 0 0 -103868692.05649781 371542657.85050285 0 371542657.85050285 -891357561.70192719 0 0 0 0 -98056125.819354057 244185614.57307836 0 244185614.57307836 -1294154412.0624619 0 0 0 0 -54038505.369659424 127517572.97105598 0 127517572.97105598 -1416477979.6392422 0 0 0 0 -100233505.73152924 194524655.5329752 0 194524655.5329752 -1449671963.6023445 0 0 0 0 -360353394.71937561 -296094577.97236633 0 -296094577.97236633 -1366087786.9704971 0 0 0 0 -248235835.06229401 -71530749.856895447 0 -71530749.856895447 -1707374845.1183472 0 0 0 0 -90307107.188156128 742953400.0968647 0 742953400.0968647 -865911214.44282246 0 0 0 0 -43026545.169208527 -151973228.10181332 0 -151973228.10181332 -1343667003.6849785 0 0 0 0 135881189.57028961 17733347.003011703 0 17733347.003011703 -1782979772.4157605 0 0 0 0 -109830441.555336 207238005.20682526 0 207238005.20682526 -816123616.69684219 0 0 0 0 -222096155.54929543 120979700.86355782 0 120979700.86355782 -355695774.52551651 0 0 0 0 -172081136.71250916 206659650.8638649 0 206659650.8638649 -815594681.5377233 0 0 0 0 -238380581.86608505 240825824.72648335 0 240825824.72648335 -301808467.61480713 0 0 0 0 -238537266.7568922 274128818.09660888 0 274128818.09660888 -192683551.51548767 0 0 0 0 -203986710.4468689 172680370.82736778 0 172680370.82736778 -337308167.39639759 0 0 0 0 -143761083.51831055 217962157.75408471 0 217962157.75408471 32735085.29847908 0 0 0 0 -178423268.88374329 67852301.338376999 0 67852301.338376999 84989048.426729202 0 0 0 0 -125470429.58127975 149007556.63825893 0 149007556.63825893 -81435566.08940506 0 0 0 0 -296778457.69187164 122582684.91054344 0 122582684.91054344 -58111177.894058228 0 0 0 0 -172997504.9547658 43041529.687619567 0 43041529.687619567 175248369.81071472 0 0 0 0 54103052.347589493 -70583861.120536804 0 -70583861.120536804 68502931.061454773 0 0 0 0 11585645.755408637 65486157.032086767 0 65486157.032086767 34331287.398631632 0 0 0 0 16141280.704216957 147634458.29953861 0 147634458.29953861 34451289.635658264 0 0 0 0 -23943005.976013184 114005449.89880657 0 114005449.89880657 41192190.018821716 0 0 0 0 -42474196.348434448 99319458.772886276 0 99319458.772886276 69563322.080108643 0 0 0 0 -118951007.54987335 88474249.061927795 0 88474249.061927795 1859603.1394436359 0 0 0 0 15727797.116962001 6796816.7426134497 0 6796816.7426134497 -2121600.9002980068 0 0 0 0 -72652665.854255676 100828262.50624371 0 100828262.50624371 1371192.0672836304 0 0 0 0 339433067.86268616 111846528.30684853 0 111846528.30684853 4704913.7599294186 0 0 0 0 18142113.720272541 134307107.83831978 0 134307107.83831978 71369522.94455719 0 0 0 0 4772570.5307639465 70444473.588776812 0 70444473.588776812 -27782155.6617864 0 0 0 0 332332201.30938148 92331031.429196835 0 92331031.429196835 -27509350.90158844 0 0 0 0 -455528511.94030571 244175491.03775358 0 244175491.03775358 -46527117.349891663 0 0 0 0 -279119703.11818695 598342654.94229317 0 598342654.94229317 125888934.37233067 0 0 0 0 -263447786.08476257 171121176.95659828 0 171121176.95659828 72078933.88143158 0 0 0 0 -16172606.583023071 94344064.665466309 0 94344064.665466309 -154655074.2435112 0 0 0 0 31287312.567474365 222766385.68973923 0 222766385.68973923 -211084720.50699806 0 0 0 0 262110642.46995544 250435841.13043213 0 250435841.13043213 79372985.579711914 0 0 0 0 98175289.976760864 524330507.64047432 0 524330507.64047432 83825076.36775589 0 0 0 0 149828186.99709797 285190181.14187241 0 285190181.14187241 205950142.83088684 0 0 0 0 -18529053.870433882 60447425.26344578 0 60447425.26344578 -32981565.069968387 0 0 0 0 312134479.02987671 502360471.67044067 0 502360471.67044067 599719896.36200714 0 0 0 0 2247647.6550375894 1255582.9974245653 0 1255582.9974245653 -2746944.7028938085 0 0 0 0 155428819.18101883 46108287.628656387 0 46108287.628656387 221175989.15782928 0 0 0 0 5218082.452041626 114091892.28820133 0 114091892.28820133 193641758.83389282 0 0 0 0 226789611.84022903 161348232.0141468 0 161348232.0141468 108937826.88504028 0 0 0 0 126954743.32129669 231130314.11989117 0 231130314.11989117 78384215.43321991 0 0 0 0 35105299.393316269 172175408.71585846 0 172175408.71585846 228242665.7403965 0 0 0 0 101422589.24559832 115832181.42538357 0 115832181.42538357 42404734.398651123 0 0 0 0 -11072531.652803898 132441571.06786728 0 132441571.06786728 163296090.20625305 0 0 0 0 -25845748.665210724 10841170.159200668 0 10841170.159200668 13312667.800876617 0 0 0 0 -86237589.325763702 39399003.980031967 0 39399003.980031967 109721112.91642761 0 0 0 0 -58946770.50980401 26419763.132071257 0 26419763.132071257 115368231.80485916 0 0 0 0 -29826554.771032453 162481583.17780924 0 162481583.17780924 284220389.07206726 0 0 0 0 -62221490.556690693 257517525.63648891 0 257517525.63648891 297739312.10909271 0 0 0 0 -220093199.50293541 -49100452.977649689 0 -49100452.977649689 184595959.54999924 0 0 0 0 101085160.3224411 215354868.04389572 0 215354868.04389572 178593319.82343292 0 0 0 0 70649191.334035873 391081349.83844376 0 391081349.83844376 673889907.43107605 0 0 0 0 243187919.67267609 219312986.70243073 0 219312986.70243073 250651380.39559937 0 0 0 0 314958359.01495361 487194550.88948059 0 487194550.88948059 511312218.68844604 0 0 0 0 444783356.12989616 730255321.47148895 0 730255321.47148895 691597856.97906494 0 0 0 0 -7363588.4906288385 1919609.7151925266 0 1919609.7151925266 7618523.1719357073 0 0 0 0 14552093.802795487 50240357.113919087 0 50240357.113919087 29775435.968759961 0 0 0 0 34517852.584102631 59030680.778240204 0 59030680.778240204 31297638.294732094 0 0 0 0 -59056676.943551064 43849733.075376511 0 43849733.075376511 52053073.896808147 0 0 0 0 -89648449.934546947 65837430.74215889 0 65837430.74215889 79848855.776973724 0 0 0 0 -4869695.9688183619 26192780.283364613 0 26192780.283364613 9727439.1097592413 0 0 0 0 -72470109.863588333 5412526.5518894196 0 5412526.5518894196 39565092.831874847 0 0 0 0 73252482.159686089 -33142527.711696625 0 -33142527.711696625 106032105.84568787 0 0 0 0 2216840.3744358942 22275539.667414896 0 22275539.667414896 29188425.722742945 0 0 0 0 348043732.72254562 207044082.02420616 0 207044082.02420616 127582663.28637695 0 0 0 0 411085495.56706619 437589136.35966682 0 437589136.35966682 109384665.11343575 0 0 0 0 13096686.593622204 12591496.672432706 0 12591496.672432706 7106738.2935467698 0 0 0 0 374750941.03072166 109107332.63123703 0 109107332.63123703 56206311.787225723 0 0 0 0 793073252.14326382 674153998.0880909 0 674153998.0880909 350255486.49713135 0 0 0 0 1108633095.1415443 478440333.02840233 0 478440333.02840233 27030637.855074883 0 0 0 0 -1558484.9787361026 8380282.5935053602 0 8380282.5935053602 2559591.1709712595 0 0 0 0 99864775.098120213 798533459.08031607 0 798533459.08031607 458897371.0839386 0 0 0 0 -98624822.055249691 331430011.33537149 0 331430011.33537149 231546097.43314743 0 0 0 0 2455746.7004523501 2669219.9172746725 0 2669219.9172746725 3967719.5536236539 0 0 0 0 62030449.24671936 128039479.95488358 0 128039479.95488358 -344206337.33277893 0 0 0 0 62032574.506832123 127111837.26925373 0 127111837.26925373 7263463.0977325439 0 0 0 0 30934875.21452713 77218234.679850578 0 77218234.679850578 -60549693.586345673 0 0 0 0 -20520654.636009693 161700093.60878897 0 161700093.60878897 1356959.175868988 0 0 0 0 -86605781.15123558 187496658.95619774 0 187496658.95619774 42494724.072559357 0 0 0 0 -43780993.817253113 280067067.42760277 0 280067067.42760277 76994554.30491066 0 0 0 0 59154127.157262802 322443331.78002548 0 322443331.78002548 -29563176.281831741 0 0 0 0 32905582.085029602 265698323.96251965 0 265698323.96251965 89351027.055358887 0 0 0 0 91116818.875091314 142657345.2131207 0 142657345.2131207 121314475.74775696 0 0 0 0 110226311.20940018 203303853.85136795 0 203303853.85136795 -3990877.076520443 0 0 0 0 213525463.61087799 458738106.44901085 0 458738106.44901085 54228526.740021229 0 0 0 0 774289811.12016392 293516598.97409916 0 293516598.97409916 -129492552.70993805 0 0 0 0 197930982.11318135 206478776.966043 0 206478776.966043 -137059852.0608902 0 0 0 0 -191814070.21615791 136575052.66690159 0 136575052.66690159 -45778654.101325035 0 0 0 0 -118803265.70066452 270578800.20107269 0 270578800.20107269 -82130765.673343658 0 0 0 0 -123184440.07702446 78486828.774398327 0 78486828.774398327 -210245294.29016876 0 0 0 0 -40297898.531673431 162207090.24000263 0 162207090.24000263 64989087.27507782 0 0 0 0 726170764.33846807 1026822523.4072983 0 1026822523.4072983 592234180.02166939 0 0 0 0 -140663080.69545174 145364469.84841275 0 145364469.84841275 1080949929.7562983 0 0 0 0 75284570.855460167 432089419.02462959 0 432089419.02462959 1267604730.2761555 0 0 0 0 -2003826.2748321593 11776222.641411327 0 11776222.641411327 4557431.5625382885 0 0 0 0 770745286.15721703 711852564.4560957 0 711852564.4560957 -11705368.134971619 0 0 0 0 4974584.6400334258 11086843.689583836 0 11086843.689583836 6241021.5366682634 0 0 0 0 760557022.06139255 556535486.33298898 0 556535486.33298898 -370965643.05701637 0 0 0 0 -359497311.05366516 252907531.96315575 0 252907531.96315575 112936211.15746784 0 0 0 0 660016825.05376327 186661696.78633124 0 186661696.78633124 -479644589.87532043 0 0 0 0 1393763595.7180035 751547879.76315188 0 751547879.76315188 -142008325.18558693 0 0 0 0 655154114.09765244 333621560.89950466 0 333621560.89950466 -97413792.007688999 0 0 0 0 319669913.61417007 472334358.42026043 0 472334358.42026043 325699474.67166901 0 0 0 0 381349879.58975029 445024017.68191338 0 445024017.68191338 231285658.83582115 0 0 0 0 199709707.70919609 112627457.98492336 0 112627457.98492336 -11082489.118396282 0 0 0 0 -151825495.91288733 285609238.53631592 0 285609238.53631592 199530907.34865952 0 0 0 0 -134134488.43039083 116283228.55660415 0 116283228.55660415 39868081.729146957 0 0 0 0 -152284152.94551945 237842046.96970558 0 237842046.96970558 -180465021.10368323 0 0 0 0 2914107.2140204068 29820838.042876974 0 29820838.042876974 18990770.52832514 0 0 0 0 -406748759.53484631 579162109.12464237 0 579162109.12464237 -132517057.27409518 0 0 0 0 -28671801.431620628 46187442.387907848 0 46187442.387907848 38604423.41666609 0 0 0 0 -96328639.961063385 96955854.816801548 0 96955854.816801548 -26535839.640374482 0 0 0 0 -67353431.152305603 145721713.75638866 0 145721713.75638866 81264900.380036831 0 0 0 0 87491631.674118042 243623946.68120766 0 243623946.68120766 129966468.70714283 0 0 0 0 -41307022.134540305 73801465.965481266 0 73801465.965481266 -22008845.274565175 0 0 0 0 -45120399.6426754 76344303.402219296 0 76344303.402219296 18169371.862317085 0 0 0 0 -34816651.319206238 72680196.709871054 0 72680196.709871054 -31960014.422646105 0 0 0 0 -42539367.56321907 101582364.76828575 0 101582364.76828575 31905050.260104656 0 0 0 0 -52384979.65086174 139398672.90362263 0 139398672.90362263 -1974435.2595653534 0 0 0 0 -27346117.378206253 154575196.15679193 0 154575196.15679193 -53376127.698637962 0 0 0 0 -35543272.277519926 27535333.425544657 0 27535333.425544657 18463135.141328864 0 0 0 0 -82213247.293439388 155510857.98008871 0 155510857.98008871 213228066.30205154 0 0 0 0 -98203333.004772186 242306564.82062864 0 242306564.82062864 151601007.97671628 0 0 0 0 -99991387.145593643 314655986.70172024 0 314655986.70172024 505377869.606812 0 0 0 0 -38208632.420024872 109354345.06858492 0 109354345.06858492 40134399.046339989 0 0 0 0 -131850660.89172649 28357346.37787652 0 28357346.37787652 280278933.68526578 0 0 0 0 -56876063.189254761 73357545.763199091 0 73357545.763199091 -13893237.452319741 0 0 0 0 -53263188.991575778 15425086.361216579 0 15425086.361216579 24023045.223934054 0 0 0 0 99000687.896240234 63456919.708395004 0 63456919.708395004 -140866882.93052864 0 0 0 0 -159052512.37387466 -48997322.390454054 0 -48997322.390454054 329215000.72660065 0 0 0 0 -141160331.76087952 49660599.344765663 0 49660599.344765663 201986869.84848595 0 0 0 0 -33008055.067114353 -184604592.16959864 0 -184604592.16959864 396127983.87470627 0 0 0 0 -152362251.4601593 -4850390.6704597473 0 -4850390.6704597473 579506758.68041801 0 0 0 0 -193845079.93048859 -56145914.375013828 0 -56145914.375013828 648666053.95907211 0 0 0 0 -201593438.77548218 48321634.78800869 0 48321634.78800869 376384781.5018959 0 0 0 0 -187072842.62246704 95274776.59943676 0 95274776.59943676 342646926.84173965 0 0 0 0 -232030715.19024658 23577998.322101593 0 23577998.322101593 488861281.61331749 0 0 0 0 -117375574.39783478 -15864204.247932911 0 -15864204.247932911 88501266.774013519 0 0 0 0 -117744992.50836182 111828200.74732304 0 111828200.74732304 17082721.89468956 0 0 0 0 -46875918.949760854 29615955.305405915 0 29615955.305405915 22596939.415460378 0 0 0 0 -127495834.06505585 37975434.359918594 0 37975434.359918594 31846843.220726013 0 0 0 0 -110692775.81916809 139117821.08366585 0 139117821.08366585 146171261.83758068 0 0 0 0 -187781507.56529355 77167249.131803244 0 77167249.131803244 237380229.14097404 0 0 0 0 -206310005.80517578 194718790.82901001 0 194718790.82901001 414174367.07370281 0 0 0 0 -207027706.41582489 178073298.94061708 0 178073298.94061708 236635466.34312963 0 0 0 0 -53654799.368095398 196629107.87563324 0 196629107.87563324 179356528.67647171 0 0 0 0 -117150140.60058308 80374215.776451111 0 80374215.776451111 20295260.773939133 0 0 0 0 -14410589.035025597 112654358.42049336 0 112654358.42049336 -35340393.25584507 0 0 0 0 -51745873.938303456 80058183.328626335 0 80058183.328626335 -20732602.505972285 0 0 0 0 -138547573.66766357 75907429.910749435 0 75907429.910749435 20294477.877526589 0 0 0 0 -176361253.18961716 -37480633.225075722 0 -37480633.225075722 7765645.2838249207 0 0 0 0 -121145318.23721123 91763011.410449982 0 91763011.410449982 129076058.60656977 0 0 0 0 -65567123.349728271 58244015.616141625 0 58244015.616141625 29658922.117143083 0 0 0 0 128458600.57492065 111263043.06623118 0 111263043.06623118 -17537959.183674201 0 0 0 0 11330815.967765808 28163026.462388724 0 28163026.462388724 70528795.60593164 0 0 0 0 -65069135.697428435 60700170.483617961 0 60700170.483617961 36685237.704260439 0 0 0 0 -107887542.29052734 108144293.86353874 0 108144293.86353874 -51866234.843667984 0 0 0 0 10314239.190338135 36381141.980951756 0 36381141.980951756 21043288.139080465 0 0 0 0 -65048745.111991882 22095961.455899 0 22095961.455899 75508485.538395643 0 0 0 0 -127252553.40665436 -6265687.3492892236 0 -6265687.3492892236 47610301.060329571 0 0 0 0 45868481.804016113 98919465.244787589 0 98919465.244787589 -98899085.888683051 0 0 0 0 18808946.429429963 25753183.819044843 0 25753183.819044843 -1720609.564818088 0 0 0 0 -65194589.600239754 42372696.123761818 0 42372696.123761818 -7040032.0323486328 0 0 0 0 -133100225.64784813 112401456.07850771 0 112401456.07850771 8914745.5919744968 0 0 0 0 -63745686.860076904 18169660.271872938 0 18169660.271872938 -8517626.7066020966 0 0 0 0 -79933834.947845459 58460243.380954146 0 58460243.380954146 41829570.651531339 0 0 0 0 -42484131.922386169 50230826.368463039 0 50230826.368463039 9969179.8929114342 0 0 0 0 -92223857.556381226 78541991.723199785 0 78541991.723199785 22740958.004630566 0 0 0 0 154945123.94088745 119593591.20309448 0 119593591.20309448 42491048.122104645 0 0 0 0 -250502090.35493469 240450652.83708596 0 240450652.83708596 103743345.67978197 0 0 0 0 -172257611.50945473 89998675.191294745 0 89998675.191294745 49344467.589398146 0 0 0 0 -10542373.191034019 -2927543.5721087307 0 -2927543.5721087307 2822660.0887431456 0 0 0 0 -117392858.06642151 -7025584.3468649387 0 -7025584.3468649387 -15387089.488254547 0 0 0 0 -261137962.8354187 -116315102.07500911 0 -116315102.07500911 22623541.687618852 0 0 0 0 -40007195.558579713 54766219.280600935 0 54766219.280600935 34257491.786999628 0 0 0 0 -33674692.260253906 20433394.406995296 0 20433394.406995296 -3917285.209815979 0 0 0 0 -1919742.0114033595 38815658.477836534 0 38815658.477836534 7061730.4843453327 0 0 0 0 -30680166.098327637 14237231.480072021 0 14237231.480072021 -1457354.092628479 0 0 0 0 12248038.66198644 45146342.677523039 0 45146342.677523039 27335246.66744509 0 0 0 0 3117911.4291172698 42248359.12901102 0 42248359.12901102 -3807633.6019712896 0 0 0 0 -23152399.985696033 13184323.426090211 0 13184323.426090211 -1945438.2677517505 0 0 0 0 99671629.882080078 20502943.01456809 0 20502943.01456809 5240362.2637126446 0 0 0 0 10410301.810774401 3502795.975692302 0 3502795.975692302 -2631006.5905575156 0 0 0 0 128842756.42784691 239494759.51696709 0 239494759.51696709 -24552759.927001834 0 0 0 0 -61076766.449356079 173027342.14283651 0 173027342.14283651 -161282793.4227736 0 0 0 0 -16013422.35577774 58164610.143882059 0 58164610.143882059 131300122.45567387 0 0 0 0 -292503296.82845306 -52903438.436597168 0 -52903438.436597168 63309342.744279027 0 0 0 0 -14420523.490913391 -34649347.887323737 0 -34649347.887323737 110886234.64487696 0 0 0 0 -229164368.46498871 139765229.06169319 0 139765229.06169319 155304698.11078215 0 0 0 0 -57272857.137733981 53851923.486850053 0 53851923.486850053 31153277.52592 0 0 0 0 120262393.57132339 -147000618.24887466 0 -147000618.24887466 59253545.271716118 0 0 0 0 -207984858.76330566 -153908637.80670118 0 -153908637.80670118 104070134.77976227 0 0 0 0 -66088731.641444206 148376620.20580828 0 148376620.20580828 20535306.32845974 0 0 0 0 -4877563.7369346619 91534423.389503956 0 91534423.389503956 -84606163.537178516 0 0 0 0 132397954.09155035 396501804.31624663 0 396501804.31624663 227368345.26646233 0 0 0 0 365791410.85079002 135142187.48330069 0 135142187.48330069 -17579190.866164207 0 0 0 0 2976828.6955574304 4749301.1838206444 0 4749301.1838206444 635255.09985112026 0 0 0 0 10691281.248449326 40943589.952910423 0 40943589.952910423 -43634762.337702155 0 0 0 0 343265407.85015774 96067848.773316622 0 96067848.773316622 -87974271.67772007 0 0 0 0 20911244.570753098 218655052.8315959 0 218655052.8315959 41424859.199306488 0 0 0 0 26380512.842758179 180576659.19820166 0 180576659.19820166 35742041.349252939 0 0 0 0 -139620972.11494446 239857331.05240393 0 239857331.05240393 432205397.49700117 0 0 0 0 213411813.19773722 392997090.63894176 0 392997090.63894176 192859001.87013245 0 0 0 0 81841972.442077637 185509108.39385414 0 185509108.39385414 -42467273.31547451 0 0 0 0 -51661482.732668892 56434413.912170716 0 56434413.912170716 40465330.494179666 0 0 0 0 -234399127.36591244 58203994.859012842 0 58203994.859012842 219967006.72512436 0 0 0 0 12745710.802024841 179181728.42905474 0 179181728.42905474 83677686.506692886 0 0 0 0 11138114.896382809 222481774.3916527 0 222481774.3916527 132241213.43999767 0 0 0 0 -169025515.98892975 46494811.603158474 0 46494811.603158474 89250187.293546677 0 0 0 0 -40635048.364133291 64743586.499737509 0 64743586.499737509 56094384.403019138 0 0 0 0 -82900839.335662842 101694718.97579384 0 101694718.97579384 61645001.435276031 0 0 0 0 13801987.993099213 180228187.90466285 0 180228187.90466285 82123186.897134781 0 0 0 0 -152604212.56150055 110191149.37584448 0 110191149.37584448 113449759.64320946 0 0 0 0 65368569.54675293 94491600.663103104 0 94491600.663103104 112321020.13722134 0 0 0 0 -224496994.63504791 -53607784.377968311 0 -53607784.377968311 30449321.025335312 0 0 0 0 -54267808.316134363 39975009.358179614 0 39975009.358179614 38509688.032083131 0 0 0 0 -131779522.61172485 -113231367.87751627 0 -113231367.87751627 43523840.761706829 0 0 0 0 -8332773.4221481234 -3883724.3300461322 0 -3883724.3300461322 1387108.7820580732 0 0 0 0 25329975.280629158 308401801.50643206 0 308401801.50643206 105743159.66759491 0 0 0 0 208007868.56932712 338218777.98864269 0 338218777.98864269 -171672174.15111637 0 0 0 0 26730957.33108139 306495642.88622284 0 306495642.88622284 74040679.815814018 0 0 0 0 150293961.16292572 489232318.14501929 0 489232318.14501929 143704788.57435322 0 0 0 0 -71900133.629965782 284057734.39344501 0 284057734.39344501 188689181.690166 0 0 0 0 -68676668.25854969 245406220.41719866 0 245406220.41719866 128153917.12825394 0 0 0 0 7703797.7937164307 228791085.88932323 0 228791085.88932323 96492270.77167511 0 0 0 0 -28516130.262649536 144144142.51823044 0 144144142.51823044 36998522.506308556 0 0 0 0 -111709651.57454681 148896340.41701746 0 148896340.41701746 433143508.06291676 0 0 0 0 -41021631.537073135 121027410.44223571 0 121027410.44223571 -5580113.5610694885 0 0 0 0 7943457.3431418911 13933488.028219059 0 13933488.028219059 -733593.17936620861 0 0 0 0 -31006736.245714188 129430260.5481019 0 129430260.5481019 -9952459.1796832085 0 0 0 0 -18975997.274585724 82301121.048030853 0 82301121.048030853 -85732153.865726948 0 0 0 0 68569351.728430748 150753878.1821866 0 150753878.1821866 -36538013.055858135 0 0 0 0 70726815.877285957 101966275.59710503 0 101966275.59710503 -191863683.62896824 0 0 0 0 115088242.51004934 171823446.66502869 0 171823446.66502869 -123033993.82738686 0 0 0 0 53306165.824770927 47578916.561554909 0 47578916.561554909 -103583785.57906389 0 0 0 0 18057761.418202221 45673307.39331007 0 45673307.39331007 -98130521.413581848 0 0 0 0 -725433.06129113212 27569924.709922045 0 27569924.709922045 -14894602.109697219 0 0 0 0 84041705.351385117 136696100.37088442 0 136696100.37088442 112141286.08951735 0 0 0 0 70896997.562076569 139169561.40986049 0 139169561.40986049 118919984.72954357 0 0 0 0 64425841.241691589 49089478.325149536 0 49089478.325149536 68363109.550686836 0 0 0 0 4887736.5764570236 75060420.260273814 0 75060420.260273814 123306610.08919525 0 0 0 0 105409654.50657082 96259712.366380692 0 96259712.366380692 74855256.876701355 0 0 0 0 95957294.298728943 128759633.36297607 0 128759633.36297607 105197814.54477978 0 0 0 0 -10792359.439308167 123071250.14039898 0 123071250.14039898 312434382.586483 0 0 0 0 -1070699.830029007 716884.39369446598 0 716884.39369446598 81358.276386793703 0 0 0 0 16210972.274428606 62798810.461704344 0 62798810.461704344 -74924036.129325867 0 0 0 0 14861928.097763747 23724923.947589263 0 23724923.947589263 -11893879.413090106 0 0 0 0 -14338457.991630554 46979522.018692732 0 46979522.018692732 -55986254.435814857 0 0 0 0 -15404787.162811279 81853940.752175331 0 81853940.752175331 -64179668.148734093 0 0 0 0 -18347590.318436623 55182473.443471313 0 55182473.443471313 -35640896.689758301 0 0 0 0 -1239894.1570720673 60186287.268629074 0 60186287.268629074 -42675280.204158306 0 0 0 0 -18568250.302207947 54955477.69080925 0 54955477.69080925 -35694629.588423282 0 0 0 0 -29915664.082771301 57325387.617547035 0 57325387.617547035 -29555557.220514774 0 0 0 0 -22223265.006919861 62873385.716316462 0 62873385.716316462 -29653352.436763104 0 0 0 0 -29895226.791812897 48278712.330217838 0 48278712.330217838 -36693132.144432068 0 0 0 0 23022170.329768211 53566490.265179738 0 53566490.265179738 1608298.3854402117 0 0 0 0 4507067.3104534149 86217368.496147633 0 86217368.496147633 82064085.059211731 0 0 0 0 -82430167.153964996 102732694.12101555 0 102732694.12101555 91257028.842166901 0 0 0 0 -55922375.571876526 87232813.334342957 0 87232813.334342957 94889907.983802795 0 0 0 0 -4979339.2333055139 59681401.718954153 0 59681401.718954153 35656844.479115546 0 0 0 0 -6702925.8085025251 3708115.7654226609 0 3708115.7654226609 21818052.057134926 0 0 0 0 -82062370.836788177 78356796.873922348 0 78356796.873922348 52404955.724004745 0 0 0 0 11221128.634321213 106259944.45083046 0 106259944.45083046 58960656.673839569 0 0 0 0 -6798512.4124298096 44696100.093988895 0 44696100.093988895 66708011.542362213 0 0 0 0 23900327.267665863 35959552.404361725 0 35959552.404361725 60580592.7133255 0 0 0 0 24484027.289897919 39254088.042041779 0 39254088.042041779 76737221.617940903 0 0 0 0 20421773.429059159 50631506.901715338 0 50631506.901715338 4088452.2533646328 0 0 0 0 -1894773.3200274855 5724022.3646418005 0 5724022.3646418005 12053394.703313664 0 0 0 0 109975423.91119146 220561660.72132063 0 220561660.72132063 344113929.805233 0 0 0 0 46270668.431863755 23028847.103225194 0 23028847.103225194 -11756336.913079008 0 0 0 0 86510773.618188858 44296606.01906538 0 44296606.01906538 7498038.846165657 0 0 0 0 22654090.80831337 35892857.034873843 0 35892857.034873843 21059344.173737049 0 0 0 0 -12560711.338835789 39076788.534384839 0 39076788.534384839 1373485.4100428373 0 0 0 0 28289832.588470459 45042556.263496399 0 45042556.263496399 72175833.733386993 0 0 0 0 40035118.065291882 85712854.650901318 0 85712854.650901318 49812814.154067993 0 0 0 0 -24430190.79052411 43828655.005603291 0 43828655.005603291 39181806.446826175 0 0 0 0 9616140.8766136169 86118981.703094482 0 86118981.703094482 81183173.762865067 0 0 0 0 65943439.762950897 69260079.650356293 0 69260079.650356293 60254081.827239037 0 0 0 0 41032193.949066162 95346887.580986977 0 95346887.580986977 87798771.504857063 0 0 0 0 42690170.856950998 102305721.13770449 0 102305721.13770449 65000420.512563705 0 0 0 0 3732690.0636920929 72777918.508803844 0 72777918.508803844 59574059.493991375 0 0 0 0 46592360.65967679 88813131.919277549 0 88813131.919277549 -33534067.4976511 0 0 0 0 37420871.90745163 55919895.742496014 0 55919895.742496014 9466473.1691055298 0 0 0 0 -63241079.858753204 76563850.835771561 0 76563850.835771561 -70421840.370038271 0 0 0 0 -15910773.502432242 73939011.956083626 0 73939011.956083626 -3714619.8008637428 0 0 0 0 -58488974.863255501 94362965.418627977 0 94362965.418627977 -88931052.397377014 0 0 0 0 -44358907.869224548 72250776.851554871 0 72250776.851554871 -85439863.722704887 0 0 0 0 -55881889.462287903 74481799.040180206 0 74481799.040180206 -85028335.530581474 0 0 0 0 6420755.2549209595 56113555.320244789 0 56113555.320244789 37216366.216939926 0 0 0 0 30993388.697860718 124420722.62003756 0 124420722.62003756 115522488.55167246 0 0 0 0 30594035.791578382 108095204.31669304 0 108095204.31669304 -7883417.9505426288 0 0 0 0 -26930134.138214111 -32594082.00005722 0 -32594082.00005722 -30250731.073493958 0 0 0 0 -10194323.863298416 155004079.20997071 0 155004079.20997071 30661869.579140663 0 0 0 0 13672684.778728485 175193787.75969911 0 175193787.75969911 17263428.577764988 0 0 0 0 32210438.411388397 190352710.22535086 0 190352710.22535086 45418670.874287605 0 0 0 0 -11817826.309301756 91247591.166444376 0 91247591.166444376 43616309.047147602 0 0 0 0 -59023873.42754364 110136738.46670723 0 110136738.46670723 -70300707.071846008 0 0 0 0 -32646965.987159729 105738638.10330582 0 105738638.10330582 -119671232.48774719 0 0 0 0 1234369.7691982538 66262827.817320399 0 66262827.817320399 34205992.654735431 0 0 0 0 63810243.893545151 120834452.09392786 0 120834452.09392786 -85763408.238203526 0 0 0 0 -17754024.977874756 173855534.06123734 0 173855534.06123734 -59979029.338823318 0 0 0 0 28837168.00617981 104060448.91951895 0 104060448.91951895 -64137632.095480919 0 0 0 0 118757057.81623545 173844277.61769614 0 173844277.61769614 -14622402.046432495 0 0 0 0 120798382.8255873 77375001.330918521 0 77375001.330918521 -61488655.833787918 0 0 0 0 -7578214.3651371002 74284343.934576035 0 74284343.934576035 -58172177.650976062 0 0 0 0 -99728365.344490051 181281273.82906437 0 181281273.82906437 34197362.645271301 0 0 0 0 -48885554.641506195 111405555.90880489 0 111405555.90880489 1440695.1408004761 0 0 0 0 -69405454.720329285 129544268.2754631 0 129544268.2754631 116170058.7680397 0 0 0 0 -153923083.94247055 194188802.44200706 0 194188802.44200706 93145246.513392448 0 0 0 0 3518703.7781677246 246511398.72512054 0 246511398.72512054 45133765.620220661 0 0 0 0 -134601857.89243698 256476303.80567551 0 256476303.80567551 85865639.274307251 0 0 0 0 -64980134.625991821 230448036.31521606 0 230448036.31521606 42610322.939105034 0 0 0 0 136637233.77046204 370091516.36666107 0 370091516.36666107 60897077.02444458 0 0 0 0 -4937011.4145545959 150398689.44988251 0 150398689.44988251 -40333956.137325287 0 0 0 0 -23788989.900148392 92006715.126645088 0 92006715.126645088 -68810870.117134094 0 0 0 0 -16662215.944587708 96627322.770439148 0 96627322.770439148 -88824148.135253906 0 0 0 0 33397365.118244171 134156444.15152359 0 134156444.15152359 -39929259.842628479 0 0 0 0 32964945.728640556 140063476.68293047 0 140063476.68293047 -38601973.937026978 0 0 0 0 10124608.255882263 142959150.11223984 0 142959150.11223984 -4161509.772819519 0 0 0 0 240127417.491436 128008409.97855759 0 128008409.97855759 -5839165.8354690075 0 0 0 0 15465009.985507965 116947425.72162247 0 116947425.72162247 39021381.01258564 0 0 0 0 -52329839.352272034 121263741.46865845 0 121263741.46865845 41471203.772205353 0 0 0 0 -90124966.737377167 130888309.64017487 0 130888309.64017487 52826992.062316895 0 0 0 0 -60192300.163669586 96190594.257392883 0 96190594.257392883 19937151.260314941 0 0 0 0 -105921654.47440815 155645026.51211643 0 155645026.51211643 -52569494.221611023 0 0 0 0 -41799597.894485474 82189578.796108246 0 82189578.796108246 -98508218.935781479 0 0 0 0 -4104800.3358726501 77426842.885147095 0 77426842.885147095 -40465400.470157623 0 0 0 0 -31260295.206104279 106065355.86130142 0 106065355.86130142 -69660310.05178833 0 0 0 0 -34735359.279640198 70208859.490837097 0 70208859.490837097 -91777648.888252258 0 0 0 0 -50014855.536262512 53606072.726959229 0 53606072.726959229 -119067841.01811981 0 0 0 0 34993882.052349091 132989430.82313919 0 132989430.82313919 84721939.208618164 0 0 0 0 -90590453.97653389 162076601.61347389 0 162076601.61347389 94471373.648347855 0 0 0 0 -115864722.99189568 109285684.26939011 0 109285684.26939011 93644762.06489563 0 0 0 0 -77388356.407295227 162107621.40694332 0 162107621.40694332 162544350.19155884 0 0 0 0 -44504218.233177185 83893577.086984634 0 83893577.086984634 97435671.982509613 0 0 0 0 22944441.231192112 78395411.498871326 0 78395411.498871326 201727813.86578369 0 0 0 0 296891639.99643326 244423157.30483627 0 244423157.30483627 136013369.43456554 0 0 0 0 191004115.64392471 64635664.780907631 0 64635664.780907631 -6373833.2949886322 0 0 0 0 17126915.132989883 91245414.99338913 0 91245414.99338913 67017469.705307007 0 0 0 0 928666.28689193726 2373179.1015834808 0 2373179.1015834808 -28867486.556879044 0 0 0 0 1617556.4886927456 4296338.6560597122 0 4296338.6560597122 -6371097.1993834078 0 0 0 0 137079250.58307648 -13979084.526554108 0 -13979084.526554108 -2800577.9572048187 0 0 0 0 308340004.85036278 -33445257.246018946 0 -33445257.246018946 -3000290.586227417 0 0 0 0 983627.37153286487 1768959.0514991134 0 1768959.0514991134 110407.04054507613 0 0 0 0 -176842457.8829155 255925901.14026642 0 255925901.14026642 137618679.37843704 0 0 0 0 -203239365.38166285 107615800.56020403 0 107615800.56020403 -14707000.768539429 0 0 0 0 -174334409.68389368 133898752.5117259 0 133898752.5117259 24122841.126686096 0 0 0 0 -151043441.4782486 178813314.46461678 0 178813314.46461678 -233304761.60904694 0 0 0 0 -217594778.909132 162315164.63150692 0 162315164.63150692 17714796.339103699 0 0 0 0 -168463.69479786605 5453366.8705934286 0 5453366.8705934286 5669506.6608012244 0 0 0 0 -304948420.02969933 202774543.18014336 0 202774543.18014336 -98252702.085289001 0 0 0 0 -218340935.42406464 308689348.57734299 0 308689348.57734299 -227003542.8514365 0 0 0 0 50757595.200416565 -19166956.233639717 0 -19166956.233639717 -19712385.415164948 0 0 0 0 46288490.091049194 -30820787.150741577 0 -30820787.150741577 81121394.44919014 0 0 0 0 260223.30823713355 4458109.7571819127 0 4458109.7571819127 -5341869.3657255471 0 0 0 0 -22730015.81511879 18658095.933542252 0 18658095.933542252 45722780.476873398 0 0 0 0 37861382.482294083 -4909215.6723194122 0 -4909215.6723194122 -13235189.668617249 0 0 0 0 137122780.5206337 37677360.169834137 0 37677360.169834137 -20804208.943264246 0 0 0 0 -160302944.86070919 -143934950.65600824 0 -143934950.65600824 -61212699.343700409 0 0 0 0 -453495609.7648716 181631225.46784401 0 181631225.46784401 131192362.18792629 0 0 0 0 172095288.32351243 356688381.23672932 0 356688381.23672932 182893722.72406387 0 0 0 0 214488728.78257942 286395570.57221603 0 286395570.57221603 58826827.767305374 0 0 0 0 194877805.40345407 391983277.43219447 0 391983277.43219447 383594162.04908371 0 0 0 0 73370502.006160259 93931488.067145348 0 93931488.067145348 102720318.41986084 0 0 0 0 82477776.755098343 146883138.73415852 0 146883138.73415852 38870331.185256958 0 0 0 0 58522386.997646332 169407981.91191101 0 169407981.91191101 201783079.54537582 0 0 0 0 49019618.711608887 96557995.310026169 0 96557995.310026169 -32350615.155643463 0 0 0 0 -12146668.908443451 76631632.749351501 0 76631632.749351501 97610545.021461487 0 0 0 0 -41407642.1802845 35006092.198518753 0 35006092.198518753 43057771.004322052 0 0 0 0 -102331475.65675449 132363649.41228962 0 132363649.41228962 11082496.925861359 0 0 0 0 -175203332.46274567 97936203.25567627 0 97936203.25567627 -4692764.7068252563 0 0 0 0 -138064828.70389938 178508992.59511566 0 178508992.59511566 -109127095.02745056 0 0 0 0 -152844472.54210281 137285263.24470329 0 137285263.24470329 -212198789.76073074 0 0 0 0 -115585337.96947098 214214710.70425034 0 214214710.70425034 -112859520.20306015 0 0 0 0 181067716.75172043 249737301.40086937 0 249737301.40086937 -140585176.27662468 0 0 0 0 -119082207.7481842 97950879.184621811 0 97950879.184621811 1535029.515504837 0 0 0 0 366359506.03738594 513283496.06183624 0 513283496.06183624 -318434910.68162537 0 0 0 0 -133506944.10575676 102721661.82611275 0 102721661.82611275 -188275623.61407471 0 0 0 0 -250560872.51115799 383775795.64025116 0 383775795.64025116 -259639247.65984058 0 0 0 0 2016849.063716948 5573538.2834592909 0 5573538.2834592909 4947776.3681874126 0 0 0 0 -6797682.5903611183 71653103.645871639 0 71653103.645871639 21407997.006435394 0 0 0 0 153456063.42424774 76746597.433349609 0 76746597.433349609 8792207.3615217209 0 0 0 0 15781205.764493942 115734622.10584068 0 115734622.10584068 259346439.08742523 0 0 0 0 1436712.9570208415 2602261.6051803827 0 2602261.6051803827 2081569.0066561475 0 0 0 0 124045001.77588081 477742729.82688522 0 477742729.82688522 726665097.08275795 0 0 0 0 247856664.83572817 672486787.89120054 0 672486787.89120054 420158082.59129333 0 0 0 0 250471969.88934326 492771297.78628731 0 492771297.78628731 66828007.813761711 0 0 0 0 250853361.14922273 484109859.47114432 0 484109859.47114432 244909263.35322189 0 0 0 0 388541365.7057476 434869276.59348869 0 434869276.59348869 232470704.98166466 0 0 0 0 342103509.13696098 368554648.31095123 0 368554648.31095123 156941719.41885757 0 0 0 0 2160742.9173751846 1829321.1564693674 0 1829321.1564693674 664020.42399051785 0 0 0 0 534196227.5082078 129812211.84991217 0 129812211.84991217 -22571170.982082367 0 0 0 0 687425027.07663536 309537275.62625408 0 309537275.62625408 -185473391.61303711 0 0 0 0 779438600.32701874 165137332.60274506 0 165137332.60274506 -155192132.72929764 0 0 0 0 693830185.97481346 372129541.47001648 0 372129541.47001648 156977436.58794072 0 0 0 0 501962843.88920212 558085057.74721622 0 558085057.74721622 210972653.67473221 0 0 0 0 19971838.259052277 21800194.609952927 0 21800194.609952927 107983733.00451851 0 0 0 0 21849181.369477272 -19446049.173930168 0 -19446049.173930168 -110822054.83640671 0 0 0 0 -94335563.328834534 113548778.61552811 0 113548778.61552811 140946685.52215958 0 0 0 0 183130193.3711071 184081106.02899551 0 184081106.02899551 153529091.81285858 0 0 0 0 11001080.216369629 33861257.914024353 0 33861257.914024353 77376818.381729126 0 0 0 0 90915386.461335182 -8119086.5591011047 0 -8119086.5591011047 53695053.855083466 0 0 0 0 15039626.748023484 38355059.006710328 0 38355059.006710328 24480520.672447085 0 0 0 0 11087869.454452991 33917107.637864113 0 33917107.637864113 72698375.07069397 0 0 0 0 -26893599.347027823 5968165.9051445425 0 5968165.9051445425 17051430.860047925 0 0 0 0 24052784.49265825 28262629.177610315 0 28262629.177610315 558092.33751690015 0 0 0 0 469676.92190337181 15167042.937234879 0 15167042.937234879 -2727151.2814865112 0 0 0 0 13306343.241577148 38301954.311466217 0 38301954.311466217 69817928.696008682 0 0 0 0 3150253.0460583679 32181775.198958915 0 32181775.198958915 3226585.9685682058 0 0 0 0 -59387713.776499987 81409944.550759315 0 81409944.550759315 113020769.42220306 0 0 0 0 141579457.3216629 -659303913.01383209 0 -659303913.01383209 -244549467.82356834 0 0 0 0 14482332.696304321 42464257.645030975 0 42464257.645030975 76622403.142416954 0 0 0 0 148690933.51359558 -177508673.73756695 0 -177508673.73756695 -341330323.35857391 0 0 0 0 -95178281.710377216 215526085.6353507 0 215526085.6353507 32289752.465103149 0 0 0 0 1253414287.8655739 76750330.623111725 0 76750330.623111725 -681516175.14644623 0 0 0 0 293356193.11518764 56834131.920818806 0 56834131.920818806 -87868419.964855194 0 0 0 0 522151336.76940155 912654539.72471809 0 912654539.72471809 2058780713.2971401 0 0 0 0 1558437113.3977203 -591571635.30328751 0 -591571635.30328751 368739510.44574738 0 0 0 0 -535072253.23388672 277879387.83249664 0 277879387.83249664 481170201.04930878 0 0 0 0 8477424.5016629696 23374430.138406277 0 23374430.138406277 39562775.931003571 0 0 0 0 -12118117.430004181 41149020.038776189 0 41149020.038776189 40204996.263568565 0 0 0 0 944646036.26105881 558382984.05778122 0 558382984.05778122 -17456162.959022522 0 0 0 0 1824633594.2410507 785363678.29891586 0 785363678.29891586 -269681575.86203575 0 0 0 0 19262993.607815549 5786751.3608818427 0 5786751.3608818427 -4888948.5990250036 0 0 0 0 477037532.25800991 986645821.83199024 0 986645821.83199024 1623475549.676651 0 0 0 0 185027903.7936554 254481487.77283859 0 254481487.77283859 240266148.12657738 0 0 0 0 -62698057.025697708 116322743.80121946 0 116322743.80121946 131853806.28156662 0 0 0 0 -62740615.502360344 118983528.3047576 0 118983528.3047576 -13219280.187992573 0 0 0 0 706693652.33941507 565952694.34283364 0 565952694.34283364 25413204.225881577 0 0 0 0 1117157691.8961754 778997184.27078056 0 778997184.27078056 134626770.89437294 0 0 0 0 717082888.68788218 496922191.99089003 0 496922191.99089003 -63856415.890083313 0 0 0 0 1228001366.9863625 575565028.77342033 0 575565028.77342033 -386654963.24392128 0 0 0 0 1364895971.9895515 -120997342.62518311 0 -120997342.62518311 -335834498.85535145 0 0 0 0 1869766058.276329 847108934.36626053 0 847108934.36626053 -276980783.62314606 0 0 0 0 569735754.13858032 842571187.74490929 0 842571187.74490929 195991646.61050081 0 0 0 0 1181809530.1236105 474987134.45969772 0 474987134.45969772 -397569365.89626312 0 0 0 0 26587891.277022839 18264619.455625057 0 18264619.455625057 17844726.819238663 0 0 0 0 -146601555.82418823 158150995.18214703 0 158150995.18214703 -54166007.53767395 0 0 0 0 3199979.148141861 11348090.266964912 0 11348090.266964912 34034192.235771179 0 0 0 0 -2880541.5960854478 40861121.918383539 0 40861121.918383539 20534012.246939398 0 0 0 0 28222690.195523262 18088830.659329891 0 18088830.659329891 5514504.2235012054 0 0 0 0 48760236.67524147 70836918.19228363 0 70836918.19228363 20980471.519430161 0 0 0 0 19848583.076766014 36366402.289843559 0 36366402.289843559 11951017.84239006 0 0 0 0 19343144.990431786 30686961.028319359 0 30686961.028319359 38489438.392309189 0 0 0 0 2827065313.6188354 334503833.10700226 0 334503833.10700226 -60624040.603362083 0 0 0 0 1708408169.9649658 710797827.66635132 0 710797827.66635132 -332985009.43535709 0 0 0 0 1395894540.0406761 332154521.91016579 0 332154521.91016579 146257025.64396286 0 0 0 0 2738554.1267988607 1409303.3883195464 0 1409303.3883195464 207957.0897481218 0 0 0 0 1143904635.262722 651555124.91686249 0 651555124.91686249 197837347.21755981 0 0 0 0 -1273464.4479034394 8301622.8677222058 0 8301622.8677222058 10118935.287786782 0 0 0 0 1189182290.8883352 -511649800.27989042 0 -511649800.27989042 1290402282.1825981 0 0 0 0 1133464744.9544888 1212244437.0815306 0 1212244437.0815306 1157198256.0169086 0 0 0 0 2365097610.492506 1113344247.9493942 0 1113344247.9493942 284688345.52906895 0 0 0 0 -13304670.755508423 182168456.79330349 0 182168456.79330349 1113421440.9146891 0 0 0 0 -13615069.76413382 21765987.948327698 0 21765987.948327698 6020984.0999237075 0 0 0 0 514306800.6117115 1566528693.1936934 0 1566528693.1936934 796523937.79924583 0 0 0 0 -5733981.2252994999 6854037.1490660505 0 6854037.1490660505 -2183302.3747512735 0 0 0 0 787165305.11286736 360330057.94676971 0 360330057.94676971 -205777235.68813419 0 0 0 0 881666137.94428062 814243863.23826742 0 814243863.23826742 -422555872.57168674 0 0 0 0 725018451.88072646 544980491.97087383 0 544980491.97087383 -111862263.53508759 0 0 0 0 561672581.47187042 572463273.49416733 0 572463273.49416733 -109881558.84321064 0 0 0 0 117480088.02087003 211812280.49257383 0 211812280.49257383 111573983.16532326 0 0 0 0 53881760.037872314 41086979.968803883 0 41086979.968803883 61580558.628481448 0 0 0 0 90136344.390552521 126821492.06181574 0 126821492.06181574 32121085.101263046 0 0 0 0 227788252.303545 -486430030.07182217 0 -486430030.07182217 499233559.63040352 0 0 0 0 697205193.56371689 325251251.68498135 0 325251251.68498135 -116335804.03119993 0 0 0 0 -12176609.57918033 16738064.691213112 0 16738064.691213112 7464306.8790500872 0 0 0 0 496386861.97042847 332593089.7275877 0 332593089.7275877 499457593.52532482 0 0 0 0 -445522043.54619598 214247752.33758068 0 214247752.33758068 153948917.23266602 0 0 0 0 -588170497.17396641 266056861.53504467 0 266056861.53504467 144469019.77738571 0 0 0 0 -456719351.17528915 245734055.18691254 0 245734055.18691254 135378875.41891289 0 0 0 0 -266738944.69312477 181574356.28252029 0 181574356.28252029 6595417.3166999817 0 0 0 0 -288631367.93703079 153071759.35291195 0 153071759.35291195 90362961.554819107 0 0 0 0 -388556068.65474224 258599832.87756252 0 258599832.87756252 79341410.889644623 0 0 0 0 -228417811.98881769 268907606.61445665 0 268907606.61445665 5037990.5022315979 0 0 0 0 -105373156.89624023 208620117.53085566 0 208620117.53085566 -19084155.061965942 0 0 0 0 -216251173.62640476 285826660.30552197 0 285826660.30552197 -6456301.7903270721 0 0 0 0 -404158063.00203323 494524791.44659138 0 494524791.44659138 -196630496.9437232 0 0 0 0 -449809345.52667427 285949474.99127293 0 285949474.99127293 68566608.348176479 0 0 0 0 -454628272.20821083 320455733.01553816 0 320455733.01553816 115209748.69841003 0 0 0 0 -652557549.17844963 513934472.04700279 0 513934472.04700279 -5075824.3820266724 0 0 0 0 -564572476.01016617 387553671.69145489 0 387553671.69145489 110675238.45861053 0 0 0 0 -1269413345.3086667 -257701058.95178771 0 -257701058.95178771 243256848.89737129 0 0 0 0 -161173338.55914497 -159113990.67882156 0 -159113990.67882156 146522596.43582821 0 0 0 0 -10309499.331039947 14376392.096651576 0 14376392.096651576 777653.6161419265 0 0 0 0 -18283422.733529091 80486068.09454298 0 80486068.09454298 40069496.807784081 0 0 0 0 881375160.05421448 818992879.75800896 0 818992879.75800896 98914302.918267965 0 0 0 0 784959290.62099242 334976998.47141492 0 334976998.47141492 314868133.84204197 0 0 0 0 -55400686.929836273 6589102.2781000137 0 6589102.2781000137 37510700.129617065 0 0 0 0 52939858.649993658 41208654.729640961 0 41208654.729640961 -20245507.521057129 0 0 0 0 -168184170.98191261 67438076.251927376 0 67438076.251927376 69603579.504952431 0 0 0 0 -587109377.10680735 58034166.979958966 0 58034166.979958966 149036400.7776432 0 0 0 0 -167973112.95187259 67034741.961480498 0 67034741.961480498 39300578.548736572 0 0 0 0 -360404552.62743282 217629520.84432745 0 217629520.84432745 5608517.4641361237 0 0 0 0 -155243372.76757622 165825359.54465485 0 165825359.54465485 17027841.068126678 0 0 0 0 -27324007.993405342 53029640.657625198 0 53029640.657625198 -30400386.660596848 0 0 0 0 -3561070.9034414291 12791477.414881706 0 12791477.414881706 9099524.0109920502 0 0 0 0 -38323455.819732666 15167703.648534775 0 15167703.648534775 7203038.105928421 0 0 0 0 3427606.1294956207 26779992.61636734 0 26779992.61636734 4341580.2385854721 0 0 0 0 -64469513.277153015 -38832737.843800545 0 -38832737.843800545 51525719.875341415 0 0 0 0 -68782161.116439819 128445102.59696293 0 128445102.59696293 -130071222.53403854 0 0 0 0 98578122.196978569 125962819.36991882 0 125962819.36991882 -356588960.32278752 0 0 0 0 -775449751.6307354 357261668.97486973 0 357261668.97486973 179571948.86896467 0 0 0 0 -396262252.93154955 490803050.0690093 0 490803050.0690093 -286453718.78658867 0 0 0 0 -471966384.50194359 255554766.56445885 0 255554766.56445885 129313377.72022629 0 0 0 0 -269695201.41842866 79432307.853866875 0 79432307.853866875 64332657.063016891 0 0 0 0 -272879706.61451912 41519388.434728622 0 41519388.434728622 149848275.73856926 0 0 0 0 -498833573.8406601 138774533.14587498 0 138774533.14587498 117108637.46374035 0 0 0 0 -689606759.74871445 111287487.55968094 0 111287487.55968094 264918045.6417799 0 0 0 0 -312069861.47918797 477108603.8321476 0 477108603.8321476 -563703758.43924618 0 0 0 0 -11563584.165459506 2185715.7631997857 0 2185715.7631997857 3637894.7056217529 0 0 0 0 -2969666.3460816965 8207419.7446270771 0 8207419.7446270771 3014251.4141060663 0 0 0 0 -1512683833.5906105 403938155.03490257 0 403938155.03490257 -297352917.36133385 0 0 0 0 -378902941.58496666 -47674896.851312637 0 -47674896.851312637 333695669.31089592 0 0 0 0 -1017246401.2388123 -96002312.576769352 0 -96002312.576769352 334490255.47088242 0 0 0 0 -1128400585.2383394 894459543.0437634 0 894459543.0437634 -200204713.3331604 0 0 0 0 -299382888.83709496 -262848534.80255032 0 -262848534.80255032 306871040.034729 0 0 0 0 -859017502.347507 368233127.59361506 0 368233127.59361506 161469443.81275749 0 0 0 0 -256610015.17351913 -310211811.28283691 0 -310211811.28283691 334316254.40196609 0 0 0 0 -195344142.91903538 -221527597.49888706 0 -221527597.49888706 359184117.42152405 0 0 0 0 -192980977.1525259 -232729236.35609055 0 -232729236.35609055 306666620.27278519 0 0 0 0 -231122768.69829845 -239908258.67604637 0 -239908258.67604637 433849151.17971039 0 0 0 0 -281208701.75633025 634601459.58805466 0 634601459.58805466 -954298928.74378967 0 0 0 0 -9233677.690335691 -1951782.8664397225 0 -1951782.8664397225 -373611.83854778856 0 0 0 0 -1030814645.0531387 690848584.80337811 0 690848584.80337811 -277922610.00208664 0 0 0 0 -258215533.40425014 -318706225.84215927 0 -318706225.84215927 467024224.85401344 0 0 0 0 -539552731.23321152 -24779608.259939194 0 -24779608.259939194 316731872.02023697 0 0 0 0 152705409.10428333 -98898087.991174698 0 -98898087.991174698 312088165.86733246 0 0 0 0 -24574645.679355815 24021070.583949551 0 24021070.583949551 11923700.466624461 0 0 0 0 -9630566.1105055809 23131625.587544918 0 23131625.587544918 86867150.21244812 0 0 0 0 99758385.886190414 174912001.50827026 0 174912001.50827026 149449708.33001518 0 0 0 0 -4391525.4251661301 -6242228.5902376175 0 -6242228.5902376175 35462557.022007942 0 0 0 0 -40892515.9331007 74427833.421756744 0 74427833.421756744 143262385.81816196 0 0 0 0 -25146886.504665595 10085557.200218301 0 10085557.200218301 8697503.9725422803 0 0 0 0 -414855693.40979385 496225404.6302495 0 496225404.6302495 442547635.16386795 0 0 0 0 252760488.95820379 -194809089.88227844 0 -194809089.88227844 -329333489.25589919 0 0 0 0 266001327.84171438 181868309.93658638 0 181868309.93658638 -374859279.34361076 0 0 0 0 168600669.11955428 -69516721.370449066 0 -69516721.370449066 25963883.226243973 0 0 0 0 125162011.75360775 58933249.672897339 0 58933249.672897339 -38594122.001506805 0 0 0 0 266998332.30181372 157275920.16505051 0 157275920.16505051 22166094.332267761 0 0 0 0 -64563922.414134264 32331556.926721573 0 32331556.926721573 41003045.84784317 0 0 0 0 -59302871.271971524 37364662.571080208 0 37364662.571080208 45788514.22310257 0 0 0 0 -1503059.437056134 19310627.769707456 0 19310627.769707456 8138137.8694473654 0 0 0 0 -31133675.635300517 46427513.756523132 0 46427513.756523132 36073772.722970009 0 0 0 0 1524696.7662596703 7399811.8786683083 0 7399811.8786683083 3468999.6617012024 0 0 0 0 -67201326.776118994 -8169227.5962772369 0 -8169227.5962772369 276431.40113019943 0 0 0 0 -49616882.840186238 30292375.695531845 0 30292375.695531845 7582798.5804271698 0 0 0 0 -54521554.620388269 23255745.730314255 0 23255745.730314255 13129802.640327454 0 0 0 0 -90611445.607460022 219576136.67807007 0 219576136.67807007 -372194358.60735345 0 0 0 0 -82895097.886064529 276546704.33674622 0 276546704.33674622 -379388377.5684967 0 0 0 0 -29212709.262290567 283706932.729599 0 283706932.729599 -847757635.36719513 0 0 0 0 -644757606.65733492 259475222.55716324 0 259475222.55716324 -134044423.86281013 0 0 0 0 -536190.21361368545 2067350.17185352 0 2067350.17185352 619246.03180456161 0 0 0 0 -76549257.292732 -48256471.510112762 0 -48256471.510112762 54709907.478709221 0 0 0 0 -216005525.29633474 23035854.774822235 0 23035854.774822235 22130402.359165192 0 0 0 0 -71122285.036173105 -43983184.548707962 0 -43983184.548707962 -196384.03964519501 0 0 0 0 -286696387.56217909 203356903.87957907 0 203356903.87957907 -165594440.48407745 0 0 0 0 -137761092.48923469 -10484415.2891922 0 -10484415.2891922 -55251620.396190643 0 0 0 0 -70562685.95001483 3500532.9798164368 0 3500532.9798164368 117305410.52553177 0 0 0 0 -167778420.0919677 46817876.492576599 0 46817876.492576599 98029284.125518799 0 0 0 0 -61189349.524430633 23358579.225333214 0 23358579.225333214 59734457.641752243 0 0 0 0 -65931223.219808578 -27381866.227300167 0 -27381866.227300167 48918548.304014206 0 0 0 0 -65216043.786467195 15119653.670290947 0 15119653.670290947 96475626.331150055 0 0 0 0 -71558396.281731844 65852199.304580688 0 65852199.304580688 148532065.26704025 0 0 0 0 110793122.392506 148660684.61938 0 148660684.61938 126134867.73782349 0 0 0 0 -38331812.860119432 113935622.51656103 0 113935622.51656103 228296083.79563904 0 0 0 0 30907513.85096705 135298697.61229038 0 135298697.61229038 173060982.85582733 0 0 0 0 47636602.412712693 119213366.77743864 0 119213366.77743864 90980516.712135315 0 0 0 0 -31887735.382557869 107694000.01362419 0 107694000.01362419 128475198.71020126 0 0 0 0 127907505.32628611 144329250.02446103 0 144329250.02446103 37146699.741783142 0 0 0 0 11542948.324828148 101076192.75523376 0 101076192.75523376 82526523.183312535 0 0 0 0 169652590.42819214 128314876.89071655 0 128314876.89071655 3790875.0253639221 0 0 0 0 119624522.23173642 245861776.50152969 0 245861776.50152969 159037450.44457483 0 0 0 0 -18048304.845861331 53338315.579498917 0 53338315.579498917 -49618912.399514288 0 0 0 0 291536683.85948181 54382963.676185608 0 54382963.676185608 -298951892.19498634 0 0 0 0 -17614884.942993164 193857759.0126915 0 193857759.0126915 8463590.8455123901 0 0 0 0 -12725167.470237732 171216794.25796509 0 171216794.25796509 -77816561.128372192 0 0 0 0 210576936.16289473 368158035.68028927 0 368158035.68028927 53860063.765563965 0 0 0 0 -40623986.981719971 120553766.53893661 0 120553766.53893661 21688014.864400864 0 0 0 0 -83362081.761764526 -141530427.63973236 0 -141530427.63973236 -232936904.94749832 0 0 0 0 -46684379.517822266 44290971.243278503 0 44290971.243278503 -81858288.093429565 0 0 0 0 91883515.695278168 111711511.76066208 0 111711511.76066208 -49166144.411949158 0 0 0 0 8323683.5405356884 118483769.2355957 0 118483769.2355957 -2747491.291267395 0 0 0 0 -113970599.04508352 18829264.594562531 0 18829264.594562531 41487303.618175507 0 0 0 0 -27178490.775167227 70317224.59528923 0 70317224.59528923 43360302.941627502 0 0 0 0 -176586797.67118359 40097956.214593887 0 40097956.214593887 93272031.868858337 0 0 0 0 -118926699.17394447 96332175.398578644 0 96332175.398578644 88601952.236595154 0 0 0 0 -201519060.67555183 94311276.270471573 0 94311276.270471573 91314550.282829285 0 0 0 0 4693712.4928952223 39197119.635973558 0 39197119.635973558 30886079.584471136 0 0 0 0 143736578.41251361 91827619.280284047 0 91827619.280284047 -37108491.612426758 0 0 0 0 2005455.323822096 1996029.542908147 0 1996029.542908147 847646.47501495481 0 0 0 0 157541141.2622242 253232586.46773338 0 253232586.46773338 183548712.96142197 0 0 0 0 -127701262.00349236 270432620.55085945 0 270432620.55085945 101383159.64724684 0 0 0 0 -88439031.031937718 10785885.163898468 0 10785885.163898468 71280165.628704548 0 0 0 0 -88566303.473457575 16239967.185941696 0 16239967.185941696 12828839.649348855 0 0 0 0 -99354230.592137098 45151870.746313095 0 45151870.746313095 89638003.220537663 0 0 0 0 -55667244.238516033 62592047.087590218 0 62592047.087590218 61785028.867137909 0 0 0 0 -124608266.62060702 93342363.203151703 0 93342363.203151703 14912997.292144775 0 0 0 0 207482996.26718998 -20577927.717678547 0 -20577927.717678547 -89464145.652305603 0 0 0 0 9565376.1790101938 34481797.403601661 0 34481797.403601661 28898444.355915084 0 0 0 0 -132668231.7448062 28977539.060263395 0 28977539.060263395 38364451.523971558 0 0 0 0 -34882924.326503754 144191471.84531403 0 144191471.84531403 -1944430.8905315399 0 0 0 0 3922452.0180339813 3779814.3026236966 0 3779814.3026236966 1725425.6856167763 0 0 0 0 -5686064.0361772776 53106711.708829761 0 53106711.708829761 -37404772.646778107 0 0 0 0 151719846.57102203 -30487690.849636078 0 -30487690.849636078 -99203119.002340317 0 0 0 0 2936413.5009181499 142239204.22206736 0 142239204.22206736 -143965494.06505966 0 0 0 0 -55765210.021989822 -88922802.56609726 0 -88922802.56609726 5147447.428817749 0 0 0 0 59170357.231796265 20107115.430145264 0 20107115.430145264 -170640754.41028309 0 0 0 0 129297931.0063858 257284631.87026978 0 257284631.87026978 154946466.54675961 0 0 0 0 336800087.10520935 196653004.51672649 0 196653004.51672649 41142781.673923492 0 0 0 0 148145293.20058632 -22363239.443815231 0 -22363239.443815231 -55743896.448781967 0 0 0 0 164024805.60780144 -19261610.30142498 0 -19261610.30142498 -94421707.428943634 0 0 0 0 136142531.55425453 46725665.720443726 0 46725665.720443726 -31785546.755702972 0 0 0 0 99173019.485445023 16469230.428375244 0 16469230.428375244 -16441588.391030312 0 0 0 0 -119504384.46196556 37022014.09446907 0 37022014.09446907 -27677905.728713989 0 0 0 0 207339125.86831284 -48448250.551580429 0 -48448250.551580429 -86966532.475280762 0 0 0 0 238304375.6090126 -131567380.48209953 0 -131567380.48209953 21225912.687385559 0 0 0 0 843079742.93022156 194082356.0300827 0 194082356.0300827 46894995.457479239 0 0 0 0 44778624.593141556 -19753339.826832771 0 -19753339.826832771 1422399.8398132324 0 0 0 0 57077140.545153618 -26608537.303206444 0 -26608537.303206444 -123398230.03736496 0 0 0 0 -171758265.07492638 203162501.63499641 0 203162501.63499641 112274260.65853119 0 0 0 0 -134030409.89515305 43855369.791013241 0 43855369.791013241 -17611038.677345276 0 0 0 0 82469660.765110016 223053556.75875854 0 223053556.75875854 83444352.38433075 0 0 0 0 70289443.607328415 50757828.331130981 0 50757828.331130981 -92745110.238243103 0 0 0 0 163369885.54496765 20422316.396772385 0 20422316.396772385 -64170554.130706787 0 0 0 0 172494723.13685226 16281705.51373291 0 16281705.51373291 -97077890.024251461 0 0 0 0 212105957.60237694 374165359.51588249 0 374165359.51588249 217187775.32749939 0 0 0 0 587746432.13964081 74640087.204330444 0 74640087.204330444 -58911269.677569389 0 0 0 0 -109799236.10966492 185458870.01645279 0 185458870.01645279 272426247.28096581 0 0 0 0 -56309352.493412018 90973159.215713501 0 90973159.215713501 45690262.271736145 0 0 0 0 -33117708.402843475 189812031.26157761 0 189812031.26157761 110047885.73589325 0 0 0 0 -50337425.263281822 219360498.47440338 0 219360498.47440338 128828488.31404877 0 0 0 0 -49130553.121761322 213003195.10926437 0 213003195.10926437 103162668.56484222 0 0 0 0 -64482650.81652832 109563410.71130371 0 109563410.71130371 115449694.54797745 0 0 0 0 -42897765.775781631 118983158.25154305 0 118983158.25154305 36240088.684402466 0 0 0 0 -63238068.527477264 55761696.710613251 0 55761696.710613251 -4599569.8764266968 0 0 0 0 -63133812.969272614 63625860.414466858 0 63625860.414466858 -29929295.826515198 0 0 0 0 -65962905.035533905 42788616.840694427 0 42788616.840694427 -15384958.832826614 0 0 0 0 -54601250.507847786 85810650.282465935 0 85810650.282465935 48692750.997756958 0 0 0 0 -3576181.0060977619 9236727.0735257268 0 9236727.0735257268 174861.23329770565 0 0 0 0 711488911.35394096 346188756.06527901 0 346188756.06527901 88586070.127433777 0 0 0 0 -189149786.18799973 62752729.741405487 0 62752729.741405487 128662944.64101791 0 0 0 0 -2110316.67227377 3355242.6339417472 0 3355242.6339417472 -315708.93070547283 0 0 0 0 -61663242.892539024 51889423.632154465 0 51889423.632154465 -51486022.907424927 0 0 0 0 544209923.57396317 -264744877.34982872 0 -264744877.34982872 -276645020.49443436 0 0 0 0 291585035.14796448 305614339.00530338 0 305614339.00530338 633053424.32992554 0 0 0 0 -5892818.6624679565 20994790.010231018 0 20994790.010231018 -13473435.883529663 0 0 0 0 4556264.3020593142 21729636.503194779 0 21729636.503194779 -19553486.127204359 0 0 0 0 -49949627.030426025 53194293.153831482 0 53194293.153831482 -34268564.64655304 0 0 0 0 -26317914.387181498 23984462.487278894 0 23984462.487278894 4271875.0148979574 0 0 0 0 -64167047.419827461 52012719.283278465 0 52012719.283278465 -33971388.770393372 0 0 0 0 -69023951.27166748 81444887.611995697 0 81444887.611995697 -52244546.921522498 0 0 0 0 -22137419.7842943 15416108.545646042 0 15416108.545646042 6460487.6689355671 0 0 0 0 -75941205.260707855 73740167.815982819 0 73740167.815982819 -32099780.503047943 0 0 0 0 10568667.867038414 8010777.8011008129 0 8010777.8011008129 2960672.9441477954 0 0 0 0 -244772067.2313199 322144239.8837285 0 322144239.8837285 -155005794.77910614 0 0 0 0 -139893022.77272034 208407636.4135685 0 208407636.4135685 -239949769.48809624 0 0 0 0 -4416665.66847229 -216773203.0486145 0 -216773203.0486145 32993230.450744629 0 0 0 0 -98872632.254360199 220140964.40732193 0 220140964.40732193 282456346.23347092 0 0 0 0 795308280.81609058 299941608.60385227 0 299941608.60385227 -338349895.6043396 0 0 0 0 5834635.1570374817 3376682.6779788584 0 3376682.6779788584 543605.08686044812 0 0 0 0 -138227108.4482584 86665179.576653004 0 86665179.576653004 22713086.236946106 0 0 0 0 -231373865.00915194 186537229.11981821 0 186537229.11981821 -25443884.903663635 0 0 0 0 -8214020.3184700012 196765737.31244278 0 196765737.31244278 10655233.55814743 0 0 0 0 -232452171.20760918 174454879.57897758 0 174454879.57897758 140438342.62901306 0 0 0 0 -6478145.7666425705 274782290.41992289 0 274782290.41992289 6219166.908996582 0 0 0 0 288983138.2165451 511956812.34357452 0 511956812.34357452 194071480.93936348 0 0 0 0 284913242.54824448 206145479.12595367 0 206145479.12595367 -60523144.10823822 0 0 0 0 35798326.243864059 143716421.76518345 0 143716421.76518345 12368521.293556213 0 0 0 0 51337194.508331299 168930260.07211781 0 168930260.07211781 -66433296.90120697 0 0 0 0 -154251454.73148727 100502910.00105286 0 100502910.00105286 49928563.150604248 0 0 0 0 -109920105.56504822 206351633.35067749 0 206351633.35067749 26388178.944797516 0 0 0 0 5935289.799074173 21954077.725162506 0 21954077.725162506 -2635745.7453327179 0 0 0 0 -3712260.9889001288 38815383.262978308 0 38815383.262978308 -10138201.807005867 0 0 0 0 1869903.8695039749 27862718.243761063 0 27862718.243761063 185167.47909545898 0 0 0 0 -7393066.9395565987 25765078.08009696 0 25765078.08009696 852803.82437133789 0 0 0 0 -6167807.1231482029 16825229.894286156 0 16825229.894286156 -4763068.954284668 0 0 0 0 -2365444.7033240199 32822050.46473287 0 32822050.46473287 -22628086.930248648 0 0 0 0 61580459.336174011 31634886.920650482 0 31634886.920650482 -81960159.293827057 0 0 0 0 900896229.19402695 229511229.24610901 0 229511229.24610901 -453702350.39090729 0 0 0 0 211192319.34273529 5843614.0839385986 0 5843614.0839385986 -284503139.82776642 0 0 0 0 119896501.37207413 106447199.6145649 0 106447199.6145649 -16562783.869979858 0 0 0 0 -19624131.816293716 90483305.061454773 0 90483305.061454773 -13685012.594446838 0 0 0 0 1444289.3140525818 50419104.372642517 0 50419104.372642517 -12895688.831820488 0 0 0 0 -23641179.683249772 48131662.65735054 0 48131662.65735054 6325229.9718017578 0 0 0 0 -92954518.663333893 73590938.005859375 0 73590938.005859375 -6140140.4528007507 0 0 0 0 -38674199.681736946 71086116.808456421 0 71086116.808456421 -17021121.361206055 0 0 0 0 -6606573.6570756231 32542209.05921115 0 32542209.05921115 -1463135.917262435 0 0 0 0 3728993.9369440079 37404911.977848053 0 37404911.977848053 -9167398.4287624359 0 0 0 0 5827843.3537025452 64035372.362831116 0 64035372.362831116 -41772739.64571476 0 0 0 0 19640024.766274452 25999679.579120636 0 25999679.579120636 -8770293.4808654785 0 0 0 0 1531526.1726646423 20741640.637264252 0 20741640.637264252 -5861470.1503372192 0 0 0 0 -8583197.5720273443 25187939.030486986 0 25187939.030486986 5386219.2066402882 0 0 0 0 14668687.103803709 18295140.843464673 0 18295140.843464673 -18890334.983672291 0 0 0 0 5813772.4360051155 29930981.87436676 0 29930981.87436676 -24321604.840862274 0 0 0 0 -37809193.854628831 27581292.782228827 0 27581292.782228827 8989076.9785461426 0 0 0 0 77430304.231410027 -46661765.942276001 0 -46661765.942276001 6850022.3532180786 0 0 0 0 68376219.400948524 21751464.868206024 0 21751464.868206024 -47255243.631408691 0 0 0 0 -9337933.5549674034 -24611662.443267822 0 -24611662.443267822 -27128248.003967285 0 0 0 0 80996365.181249857 12593405.31979847 0 12593405.31979847 -63022709.926651001 0 0 0 0 -371827.07609701157 5663188.3132019043 0 5663188.3132019043 44115497.197715759 0 0 0 0 68993755.441146851 8333269.2568359375 0 8333269.2568359375 -160364344.16641235 0 0 0 0 -676916.34049670305 3691331.9192685373 0 3691331.9192685373 844364.78661924601 0 0 0 0 107157123.06437969 127713440.35258579 0 127713440.35258579 4761365.5494995117 0 0 0 0 65693864.575054169 123400269.72590637 0 123400269.72590637 2216974.9439582825 0 0 0 0 103944945.75350571 114713142.9392395 0 114713142.9392395 -42908072.514404297 0 0 0 0 40341513.616591454 79429716.831039429 0 79429716.831039429 -41395642.881576538 0 0 0 0 -23343789.295663834 12482249.216194153 0 12482249.216194153 -110200482.11618805 0 0 0 0 54307467.948418796 50541423.505193599 0 50541423.505193599 -17970322.542853668 0 0 0 0 30623699.0453403 74751136.75062561 0 74751136.75062561 -55669890.165716171 0 0 0 0 30133802.677771091 107228772.87464333 0 107228772.87464333 -109644552.68216705 0 0 0 0 41429043.389163017 108184923.51265144 0 108184923.51265144 -50749712.737236023 0 0 0 0 27184380.956887677 46627643.961780407 0 46627643.961780407 -13394624.321470909 0 0 0 0 73506894.734799385 47207648.089681625 0 47207648.089681625 -61716934.891998291 0 0 0 0 17831007.017418861 97340922.323564529 0 97340922.323564529 -23815573.929920197 0 0 0 0 74600392.884782791 102429164.18072128 0 102429164.18072128 3157259.0005226135 0 0 0 0 1739607.4688322246 55078806.051706739 0 55078806.051706739 -36831697.861977093 0 0 0 0 50685062.969692707 78774761.532320499 0 78774761.532320499 -20197476.186965942 0 0 0 0 43200274.024036884 103228127.5139308 0 103228127.5139308 -25338444.862785339 0 0 0 0 -11637479.921374321 151796795.47472572 0 151796795.47472572 58138467.032777786 0 0 0 0 -242921229.81482315 22027471.82381916 0 22027471.82381916 3766242.6886482239 0 0 0 0 -1467593.3262270577 58022551.948396891 0 58022551.948396891 22845546.417488217 0 0 0 0 -12251660.023762703 149283803.55053425 0 149283803.55053425 84895559.74967128 0 0 0 0 -180005318.43110001 90629313.884541392 0 90629313.884541392 -7446826.5648880005 0 0 0 0 -177150037.15605938 27671156.500448227 0 27671156.500448227 -22548307.110427856 0 0 0 0 -98128904.615585327 51052084.863868713 0 51052084.863868713 -20729886.126968384 0 0 0 0 -80179691.233215332 51020680.310691833 0 51020680.310691833 -22457879.180122375 0 0 0 0 -53764217.51927948 87321810.142849922 0 87321810.142849922 -24832564.923355103 0 0 0 0 -85167132.695327759 69887158.244880676 0 69887158.244880676 -7723531.0491256714 0 0 0 0 -151847194.08554721 103254919.18019056 0 103254919.18019056 -28878015.838729858 0 0 0 0 -102472967.30907822 71026334.374782562 0 71026334.374782562 -27896498.813552856 0 0 0 0 -145295412.59957886 49960259.996177673 0 49960259.996177673 -13495064.105041504 0 0 0 0 -101207030.40853882 65580946.598777771 0 65580946.598777771 -27413688.752105713 0 0 0 0 -132689861.51508331 83763776.95942688 0 83763776.95942688 -23126477.961364746 0 0 0 0 13600014.422336578 31968899.814422607 0 31968899.814422607 -6723285.3690567017 0 0 0 0 -54781981.844894409 71330577.981834412 0 71330577.981834412 -30740075.610466003 0 0 0 0 16156.214248433709 52887182.155591413 0 52887182.155591413 -3087172.9972934127 0 0 0 0 -88443059.511741638 82339813.964733124 0 82339813.964733124 -31071297.936092377 0 0 0 0 -49283328.359050453 74245439.226770967 0 74245439.226770967 -32388697.350208282 0 0 0 0 -64718165.213848114 52327144.406703949 0 52327144.406703949 -32059912.7541852 0 0 0 0 -66075939.626861572 66603466.61190033 0 66603466.61190033 -38693443.681991577 0 0 0 0 17157674.850473404 23839765.125 0 23839765.125 8790788.0169372559 0 0 0 0 1766425.9700927734 35655487.665206909 0 35655487.665206909 -18628743.342588425 0 0 0 0 15347245.307361811 25780145.15996334 0 25780145.15996334 -22285753.739849821 0 0 0 0 -113943310.49142838 93938539.936397552 0 93938539.936397552 -58989480.60736084 0 0 0 0 -4675603.4445866738 59893710.480972961 0 59893710.480972961 13641272.489253938 0 0 0 0 -7397242.0435243994 6633690.4118085504 0 6633690.4118085504 2572216.4096226469 0 0 0 0 -98658291.205230713 42146616.44708252 0 42146616.44708252 -80189453.411758423 0 0 0 0 5429183.2569461707 44581965.184277907 0 44581965.184277907 -14258983.880465031 0 0 0 0 -1649227.6782286167 18953955.492370605 0 18953955.492370605 -2139202.9735717773 0 0 0 0 -8411973.9046323486 31924448.556550674 0 31924448.556550674 -15518236.529071257 0 0 0 0 -298088302.83719778 -3009780.7986326218 0 -3009780.7986326218 36882343.699264526 0 0 0 0 159832480.39450455 107466630.02004242 0 107466630.02004242 -49314192.783281326 0 0 0 0 -140879076.46316624 135053363.87427711 0 135053363.87427711 -16944630.203342438 0 0 0 0 -244812473.83633423 147680465.34945297 0 147680465.34945297 8174486.3222732544 0 0 0 0 -672511.74320652522 2917417.256214451 0 2917417.256214451 -797028.66958966851 0 0 0 0 -372757093.3865757 206073176.0162096 0 206073176.0162096 -2178200.0755958557 0 0 0 0 418689901.80881882 285808870.13867283 0 285808870.13867283 -3846395.697807312 0 0 0 0 -445327024.80964661 151462637.03118515 0 151462637.03118515 43012215.676473618 0 0 0 0 -337551296.22117329 336335033.55774736 0 336335033.55774736 -160794732.0789032 0 0 0 0 -756514.11417059042 5110693.5662644431 0 5110693.5662644431 -3270535.7853325009 0 0 0 0 72469884.166654587 86368528.070451736 0 86368528.070451736 -42712062.750209808 0 0 0 0 83056592.66714859 122424730.74447775 0 122424730.74447775 129034325.43958664 0 0 0 0 217257215.10165215 213900169.74106407 0 213900169.74106407 132027255.23919821 0 0 0 0 276611368.10865593 430824832.85928345 0 430824832.85928345 33074967.741329193 0 0 0 0 536959203.83757782 503246713.00400352 0 503246713.00400352 49757772.967597961 0 0 0 0 562226151.22945595 379240554.64738846 0 379240554.64738846 -76924196.017885208 0 0 0 0 380821872.30666351 311057701.5900898 0 311057701.5900898 148829662.94391918 0 0 0 0 217896875.0083046 238195849.08504105 0 238195849.08504105 -105691623.3972578 0 0 0 0 -69431999.131254196 97758870.609508514 0 97758870.609508514 -21703412.839548111 0 0 0 0 4372952.8550092429 3536616.9635925218 0 3536616.9635925218 1611235.7507093251 0 0 0 0 436732539.26580358 137761862.41704059 0 137761862.41704059 -376831696.64585876 0 0 0 0 295469683.78033876 511637447.28879166 0 511637447.28879166 367674361.83215332 0 0 0 0 512218959.42642212 515269922.78250313 0 515269922.78250313 -371296.41690587997 0 0 0 0 187973910.49452209 198515757.92546988 0 198515757.92546988 363836805.95335007 0 0 0 0 509378146.5967865 408415604.58203506 0 408415604.58203506 323475294.80770493 0 0 0 0 365264711.69451332 563440951.31421471 0 563440951.31421471 294830901.72337151 0 0 0 0 -75820747.691486359 423397877.84947395 0 423397877.84947395 582128801.37773323 0 0 0 0 457078825.26122737 601483713.76540828 0 601483713.76540828 309695681.08879471 0 0 0 0 200754884.19005394 327609269.38123512 0 327609269.38123512 429856056.83053637 0 0 0 0 214681984.52018261 367253251.06616688 0 367253251.06616688 254486868.7781868 0 0 0 0 -41733506.105707169 169120426.36322212 0 169120426.36322212 286952962.89413786 0 0 0 0 -52635206.837734222 258864946.07827187 0 258864946.07827187 -200224694.46342468 0 0 0 0 -23352183.071285248 48778282.890335083 0 48778282.890335083 518642.18436050415 0 0 0 0 -77950112.82610321 281178171.93787193 0 281178171.93787193 -290695451.43632889 0 0 0 0 9672986.6254447326 8001572.1939333677 0 8001572.1939333677 3464887.2982739136 0 0 0 0 -164993192.3776741 219420776.00016785 0 219420776.00016785 -30969402.487663269 0 0 0 0 -127046990.82408905 97784974.704938889 0 97784974.704938889 -75642440.169033051 0 0 0 0 29056986.05704689 211938704.92692375 0 211938704.92692375 1976779.4284553528 0 0 0 0 -882255.14259845577 7419955.9458311051 0 7419955.9458311051 3324576.5548284203 0 0 0 0 -461497066.55503273 56801962.223777771 0 56801962.223777771 83915485.763698578 0 0 0 0 -128410168.16171265 81022494.392101288 0 81022494.392101288 36667727.856508255 0 0 0 0 -150937418.23102188 72249066.785106659 0 72249066.785106659 56133624.181358337 0 0 0 0 -8321383.6431806758 30425284.476580013 0 30425284.476580013 17610211.198858649 0 0 0 0 25502836.520401001 129233308.65072632 0 129233308.65072632 82425485.928905487 0 0 0 0 10704542.738440007 8060645.0792742968 0 8060645.0792742968 -17968807.167796373 0 0 0 0 225494234.56195736 74895951.444894791 0 74895951.444894791 -59430602.967941284 0 0 0 0 289920387.6583147 201498190.97995138 0 201498190.97995138 -22184900.995437622 0 0 0 0 156934236.24646378 167203174.54493141 0 167203174.54493141 41107912.291965485 0 0 0 0 172348360.03922272 113167971.98685265 0 113167971.98685265 -38397223.807914734 0 0 0 0 175780377.10988998 173637365.17358017 0 173637365.17358017 -16040502.18353653 0 0 0 0 74708281.089389801 103025616.84909439 0 103025616.84909439 76261080.965129852 0 0 0 0 -40734974.317407608 86923889.613714218 0 86923889.613714218 -30265549.343582153 0 0 0 0 42069087.241218567 169487137.02419472 0 169487137.02419472 -25708914.769119263 0 0 0 0 80041664.297168732 71268773.235864639 0 71268773.235864639 -35046150.20619297 0 0 0 0 -34511469.021125793 157500009.22553253 0 157500009.22553253 -47370908.96893692 0 0 0 0 112143936.34851456 128307881.37134743 0 128307881.37134743 -42337905.045017242 0 0 0 0 67944413.746015549 62565661.145898581 0 62565661.145898581 -40944665.0599823 0 0 0 0 96929097.526544571 110184483.92499542 0 110184483.92499542 3298050.7322158813 0 0 0 0 149252902.14502525 112770904.79149628 0 112770904.79149628 -138408616.57137871 0 0 0 0 128995312.29702091 181391723.71004391 0 181391723.71004391 34295049.74363327 0 0 0 0 330301958.84315634 572876925.35006976 0 572876925.35006976 168635726.71541977 0 0 0 0 1679572.1978759794 8066911.8825771362 0 8066911.8825771362 4850082.2579812258 0 0 0 0 -677776661.01346207 184211214.46956062 0 184211214.46956062 183230577.12787819 0 0 0 0 2046532323.1973612 346746813.21719956 0 346746813.21719956 -1540575.7653121948 0 0 0 0 -146377328.58459091 404436141.65209579 0 404436141.65209579 267463778.15334129 0 0 0 0 -144060143.63547897 200941416.50681019 0 200941416.50681019 -48784483.257606506 0 0 0 0 -90710220.3273983 100076820.75298882 0 100076820.75298882 -66538881.90013504 0 0 0 0 -381770454.0367012 108947912.16466713 0 108947912.16466713 29285764.328502655 0 0 0 0 2690497.2332705781 21795008.589736566 0 21795008.589736566 16606524.16313307 0 0 0 0 1642688448.4447527 -190157449.73280048 0 -190157449.73280048 -295214770.56731415 0 0 0 0 385272784.51964569 -146458004.25125504 0 -146458004.25125504 351844865.05949402 0 0 0 0 564549751.8433876 53321297.492324829 0 53321297.492324829 280447216.14892006 0 0 0 0 912632924.4248085 341179550.00689316 0 341179550.00689316 32151287.381099701 0 0 0 0 265425692.78853607 104023166.23537445 0 104023166.23537445 -5727396.9492645264 0 0 0 0 395491201.60416031 673941512.76743317 0 673941512.76743317 -477444435.57422256 0 0 0 0 309208161.74990511 108374405.30195713 0 108374405.30195713 -677149178.53790283 0 0 0 0 -173378100.19555473 229793469.8140564 0 229793469.8140564 -5330963.7725067139 0 0 0 0 435244982.54979515 464908872.36080551 0 464908872.36080551 155814798.89770508 0 0 0 0 28118866.597702026 162125310.29415894 0 162125310.29415894 -275740.59921169281 0 0 0 0 -94049614.75876236 210489879.85429382 0 210489879.85429382 179428819.63809204 0 0 0 0 -364159712.2623558 932597.6404876709 0 932597.6404876709 260771958.08491135 0 0 0 0 -95727489.156356812 182991545.43243217 0 182991545.43243217 472120696.55442047 0 0 0 0 444987293.36236572 513159258.88101768 0 513159258.88101768 491367891.0843811 0 0 0 0 176776401.580616 16920386.727451324 0 16920386.727451324 235062777.47779083 0 0 0 0 130114138.82526588 100157288.18125153 0 100157288.18125153 282049395.87816238 0 0 0 0 -139611282.25833893 -8647098.9929180145 0 -8647098.9929180145 190174934.7047348 0 0 0 0 -61175878.576229095 194083075.24152565 0 194083075.24152565 201409265.60616302 0 0 0 0 50488100.185563885 19772327.86725226 0 19772327.86725226 -10278392.930512197 0 0 0 0 171257277.89709091 54984606.251083374 0 54984606.251083374 -98817011.21686554 0 0 0 0 219818421.44146729 224036628.73131561 0 224036628.73131561 -219977006.74935818 0 0 0 0 9922509.2772789001 101582271.35209656 0 101582271.35209656 -82538239.023773193 0 0 0 0 302604923.21723557 128631328.31781769 0 128631328.31781769 -210176876.82428646 0 0 0 0 338697313.7551918 47838241.080535889 0 47838241.080535889 -612843658.06436157 0 0 0 0 66903493.902267456 -522845902.70481873 0 -522845902.70481873 551364561.34616089 0 0 0 0 333659465.49942017 -1237761219.6692123 0 -1237761219.6692123 -1109401517.9759741 0 0 0 0 100971655.0898819 624513897.15600586 0 624513897.15600586 -126818692.71090698 0 0 0 0 432392493.98191833 595011554.3385849 0 595011554.3385849 -912527464.04279327 0 0 0 0 529035436.92463684 333848410.34575272 0 333848410.34575272 -260637379.40203857 0 0 0 0 312822392.2246933 301818519.56750488 0 301818519.56750488 -231408215.15513992 0 0 0 0 287342956.14988327 387098621.12802124 0 387098621.12802124 -48798227.667602539 0 0 0 0 272771710.42167568 306473082.60507965 0 306473082.60507965 -43853503.20501709 0 0 0 0 288227206.59168452 270227597.70624888 0 270227597.70624888 76293131.230102539 0 0 0 0 226023447.49893188 412030076.97425842 0 412030076.97425842 -124143193.17831421 0 0 0 0 355519370.94361877 460009504.84641647 0 460009504.84641647 326909027.13874054 0 0 0 0 305272966.38790894 314228419.25487518 0 314228419.25487518 125730537.15252686 0 0 0 0 430483793.13363266 302566428.90976143 0 302566428.90976143 109215572.31121826 0 0 0 0 254087450.71162415 271415938.99516296 0 271415938.99516296 158858210.23649597 0 0 0 0 142724114.1314621 326614015.21355438 0 326614015.21355438 181608927.71516037 0 0 0 0 281770715.11301804 329400886.1657486 0 329400886.1657486 -41906003.098220825 0 0 0 0 97626914.342679977 222768845.2856102 0 222768845.2856102 -38573782.617630005 0 0 0 0 54906962.456111908 132208875.73855591 0 132208875.73855591 -64843608.678512573 0 0 0 0 146043943.28143692 261127287.42195892 0 261127287.42195892 -31897524.363555908 0 0 0 0 12623429.917175293 175202457.15068054 0 175202457.15068054 26632897.858428955 0 0 0 0 -121809024.32756805 103487482.84179688 0 103487482.84179688 -60815032.262451172 0 0 0 0 -68900438.524555206 265405895.36712646 0 265405895.36712646 109400693.6443634 0 0 0 0 -134152253.72588348 238007040.88397217 0 238007040.88397217 71031386.323059082 0 0 0 0 79146940.593238831 116452768.59133148 0 116452768.59133148 51728444.498559952 0 0 0 0 82191768.89547348 69259487.905471802 0 69259487.905471802 292352407.13941574 0 0 0 0 -118845291.38650799 117182719.73823309 0 117182719.73823309 151507289.52519226 0 0 0 0 -106850930.93047333 302417553.15641785 0 302417553.15641785 -116505514.52303314 0 0 0 0 80192630.163173676 64235966.552352905 0 64235966.552352905 35236535.59236908 0 0 0 0 -22197836.100255966 -71209879.017654419 0 -71209879.017654419 247962881.22140503 0 0 0 0 -4094361.3480180502 -3689674.2378735989 0 -3689674.2378735989 1732861.530397539 0 0 0 0 -115781738.97765732 247477694.14963531 0 247477694.14963531 782457306.6242981 0 0 0 0 539678396.18660736 411506180.6553688 0 411506180.6553688 -1011412520.6003723 0 0 0 0 670037832.60711288 354438233.13679886 0 354438233.13679886 118299719.2279129 0 0 0 0 57405325.547729492 300779516.54452133 0 300779516.54452133 762461371.87026215 0 0 0 0 -836865.51791704446 -1282830.4926092327 0 -1282830.4926092327 1291580.5862701237 0 0 0 0 229109212.51256943 439757715.03023148 0 439757715.03023148 120380188.14333344 0 0 0 0 328358353.98379707 158360095.2470665 0 158360095.2470665 -761068866.75195312 0 0 0 0 449684443.07080841 274993372.0615387 0 274993372.0615387 86500.284561157227 0 0 0 0 608438659.80622101 38397711.532539368 0 38397711.532539368 68311796.965574265 0 0 0 0 485527731.64536285 229298358.33981323 0 229298358.33981323 56816308.791687012 0 0 0 0 -227603138.51219225 107807207.27353477 0 107807207.27353477 68275419.189331055 0 0 0 0 1195354616.1137662 150899328.06515312 0 150899328.06515312 -166984803.83029175 0 0 0 0 74493.504121151753 34672182.75965599 0 34672182.75965599 35232127.331382319 0 0 0 0 756957390.83580017 505125403.43041229 0 505125403.43041229 -177623036.6913681 0 0 0 0 -109180795.27036095 94693653.572158813 0 94693653.572158813 23669483.31552124 0 0 0 0 -121529023.63303375 118855598.85084534 0 118855598.85084534 -2427079.339717865 0 0 0 0 -39304915.509698868 135068209.56301498 0 135068209.56301498 19004033.239067078 0 0 0 0 -130148690.18027115 38338321.12894249 0 38338321.12894249 47873909.131278992 0 0 0 0 -22197386.601829529 92339471.539600372 0 92339471.539600372 32089400.332092285 0 0 0 0 -23531803.115018845 76292747.813966751 0 76292747.813966751 111034345.40861511 0 0 0 0 -39114321.445386887 121095513.61476707 0 121095513.61476707 94001720.578643799 0 0 0 0 101053815.3110466 508945161.16210938 0 508945161.16210938 428480137.47761536 0 0 0 0 6184728.4391244501 41716459.302318618 0 41716459.302318618 -44936622.125004619 0 0 0 0 -45798732.093496323 120501181.36565208 0 120501181.36565208 125729705.67617798 0 0 0 0 531599968.33508492 156110722.053936 0 156110722.053936 72176514.313262939 0 0 0 0 -7036614.6974906866 50361715.677818544 0 50361715.677818544 59343067.43121171 0 0 0 0 342535011.83474731 205477504.64925385 0 205477504.64925385 150677965.67286682 0 0 0 0 321334671.93145752 245325387.53222656 0 245325387.53222656 111334712.06860352 0 0 0 0 281509197.47902679 241631276.04083252 0 241631276.04083252 150894844.36801147 0 0 0 0 372653298.92442131 139990480.48035431 0 139990480.48035431 217338292.17153931 0 0 0 0 596854918.37742233 673613222.19026947 0 673613222.19026947 -506020681.42749023 0 0 0 0 2315766.2979825903 7943257.2926810384 0 7943257.2926810384 -1399612.3571536839 0 0 0 0 -118491536.5967865 -328564959.55221558 0 -328564959.55221558 -1043119705.5180054 0 0 0 0 1557511629.3897171 409458055.58787537 0 409458055.58787537 -1875780559.5541992 0 0 0 0 115874102.42207336 504266578.59156799 0 504266578.59156799 -7074103.8508605957 0 0 0 0 -8671509.5211220682 12720053.587243341 0 12720053.587243341 8306951.3686482608 0 0 0 0 224111197.47708893 355260050.68456268 0 355260050.68456268 187834547.84590149 0 0 0 0 2101873780.7611847 1619223767.1457214 0 1619223767.1457214 -1321116141.9992867 0 0 0 0 2076703.8938381113 699761.750005126 0 699761.750005126 188703.95680379868 0 0 0 0 -491930425.28104019 325328791.4101181 0 325328791.4101181 17799164.852340698 0 0 0 0 633101781.12496948 1048756930.080719 0 1048756930.080719 -74154162.11057663 0 0 0 0 -535368132.17530012 80014572.948959351 0 80014572.948959351 -5818645.9284820557 0 0 0 0 740573316.80963135 468241508.08966064 0 468241508.08966064 430611717.31590462 0 0 0 0 -56071310.633354187 137322999.68930817 0 137322999.68930817 -14682349.373847961 0 0 0 0 -153104995.80053329 517695727.00902557 0 517695727.00902557 23982889.307250977 0 0 0 0 -248966116.9849205 209206365.90944672 0 209206365.90944672 -128854236.99331665 0 0 0 0 -232046062.88225555 253996996.32467651 0 253996996.32467651 -90113956.971466064 0 0 0 0 -185184096.10358906 104426872.75494957 0 104426872.75494957 -41807099.645965576 0 0 0 0 -438602615.33256149 202063424.30192566 0 202063424.30192566 -78930095.867729187 0 0 0 0 -400239403.49365616 -29752911.510597229 0 -29752911.510597229 -47126474.734392285 0 0 0 0 -190247281.59375381 1342690.1553077698 0 1342690.1553077698 -46560298.78074646 0 0 0 0 -302745390.45874786 97815844.389846802 0 97815844.389846802 51021844.992950439 0 0 0 0 -46058395.387950897 79032550.433280945 0 79032550.433280945 30613998.240615845 0 0 0 0 -213681130.13961506 -68421456.772615433 0 -68421456.772615433 151461038.00785828 0 0 0 0 119170584.77125168 34065413.143089294 0 34065413.143089294 262473075.05331421 0 0 0 0 -174605500.73724365 195255230.42110825 0 195255230.42110825 174768762.51530457 0 0 0 0 328553772.57905197 472016350.37312317 0 472016350.37312317 25031241.431079865 0 0 0 0 95940503.001342773 140944352.83024406 0 140944352.83024406 34434603.374938965 0 0 0 0 54424374.093957901 199272690.53207397 0 199272690.53207397 64616843.939460754 0 0 0 0 2773389.5029176176 47277246.508320414 0 47277246.508320414 -46768449.172228932 0 0 0 0 -51870952.539020538 170901205.65263748 0 170901205.65263748 13926065.196773529 0 0 0 0 47704002.925615311 151575665.92308617 0 151575665.92308617 -7580975.7036056519 0 0 0 0 48089854.345733643 141975625.69016171 0 141975625.69016171 55389220.483825684 0 0 0 0 -36246639.346248627 125679952.5692482 0 125679952.5692482 47374026.622982025 0 0 0 0 73701350.551696777 151453516.02254868 0 151453516.02254868 -19555457.305379868 0 0 0 0 127998990.95090389 63728586.862661362 0 63728586.862661362 -60665957.974975586 0 0 0 0 91002896.862599373 102144412.00200272 0 102144412.00200272 46428386.933204651 0 0 0 0 6969499.2808074951 350840351.86294937 0 350840351.86294937 409812105.39039612 0 0 0 0 -99259627.588260651 131882497.04338837 0 131882497.04338837 237298622.1680069 0 0 0 0 1353273.4148006439 81005955.366685867 0 81005955.366685867 5986155.3015213013 0 0 0 0 -8151014.7000353765 41946820.738377519 0 41946820.738377519 52819970.234180927 0 0 0 0 -2066608.0209434405 50064674.53289108 0 50064674.53289108 -37565210.652245507 0 0 0 0 -62600257.370838165 59632263.323577881 0 59632263.323577881 58999556.418637276 0 0 0 0 -6544767.9119422585 37908878.209569514 0 37908878.209569514 35477149.852269784 0 0 0 0 -94004147.614852905 113505474.74822998 0 113505474.74822998 52431398.782531738 0 0 0 0 -107548834.17472839 54799275.179145813 0 54799275.179145813 58564646.841903687 0 0 0 0 -71068657.33862114 83926257.02986145 0 83926257.02986145 47629441.147956848 0 0 0 0 -34016841.222147226 39181723.70430398 0 39181723.70430398 66426772.963249207 0 0 0 0 -28581940.76140213 75703449.17525959 0 75703449.17525959 42128902.849899292 0 0 0 0 -2361674.530345656 50114145.744638264 0 50114145.744638264 32379706.673078656 0 0 0 0 -6471825.5029010773 44383451.98002243 0 44383451.98002243 23859078.477310181 0 0 0 0 9655158.0771522522 37537710.708282471 0 37537710.708282471 80084571.329128265 0 0 0 0 12411831.485595703 21295471.753780365 0 21295471.753780365 62996372.833381653 0 0 0 0 -20150844.215978622 27105429.193958282 0 27105429.193958282 76433345.608062744 0 0 0 0 -2574704.7826624624 12794404.963607363 0 12794404.963607363 25685639.419509202 0 0 0 0 -279121818.1009903 -11629549.988986969 0 -11629549.988986969 107924392.52084351 0 0 0 0 21538162.476623535 25695015.011100769 0 25695015.011100769 63854713.685707092 0 0 0 0 154613083.85470676 287678337.66251564 0 287678337.66251564 105096419.79223633 0 0 0 0 530861681.18364334 -214280463.67646027 0 -214280463.67646027 137608247.45450592 0 0 0 0 -142276677.37300873 24361851.142868042 0 24361851.142868042 353293015.58132172 0 0 0 0 -1477918.6048737541 5980535.0327561647 0 5980535.0327561647 9939036.701033175 0 0 0 0 -134710578.16587067 94659436.578598022 0 94659436.578598022 110346791.31923676 0 0 0 0 1219320.7921468988 4164960.3318979889 0 4164960.3318979889 5833760.4016370475 0 0 0 0 128694430.37494659 94144536.82585907 0 94144536.82585907 115629969.56561279 0 0 0 0 100832577.24349976 126637666.40319824 0 126637666.40319824 115543859.21879578 0 0 0 0 -10947259.925911583 27667466.414745443 0 27667466.414745443 13014524.073462009 0 0 0 0 28591944.658821106 64480033.031349182 0 64480033.031349182 29001497.904693604 0 0 0 0 71904120.459241152 33620200.076794386 0 33620200.076794386 -118915975.8134613 0 0 0 0 -9993371.0581054688 71984458.704811096 0 71984458.704811096 79594737.440597534 0 0 0 0 12523080.862915039 86675337.008178711 0 86675337.008178711 82138511.373901367 0 0 0 0 78476602.481329679 86517519.397133827 0 86517519.397133827 36199450.021469116 0 0 0 0 -69841042.648914337 102746733.91672897 0 102746733.91672897 117242789.55976105 0 0 0 0 -63956743.057201385 103561241.14922333 0 103561241.14922333 82927960.688644409 0 0 0 0 195781702.46440887 316536092.30693054 0 316536092.30693054 -252920885.63733673 0 0 0 0 -2684012.5762933716 8448594.4016243815 0 8448594.4016243815 1838701.6068587005 0 0 0 0 250453991.52407837 1063903640.0283165 0 1063903640.0283165 -506107690.84257507 0 0 0 0 -406730127.42541504 468563333.08371735 0 468563333.08371735 -81945282.566204071 0 0 0 0 -464181388.28387547 196543195.59115791 0 196543195.59115791 307116483.94232178 0 0 0 0 -359080752.9116497 484430029.24438477 0 484430029.24438477 -190585147.73748779 0 0 0 0 -271567918.61054182 735750326.3840313 0 735750326.3840313 -361993354.49154663 0 0 0 0 -19774691.098840714 -24672235.921943665 0 -24672235.921943665 210024196.58635139 0 0 0 0 -4810863.8323239088 2026403.4137935936 0 2026403.4137935936 5125725.6023815572 0 0 0 0 1385537.562128067 148345061.74022675 0 148345061.74022675 268143859.77455902 0 0 0 0 -25121036.282542706 614189313.7869215 0 614189313.7869215 -467370064.46152496 0 0 0 0 81734959.951126099 368243429.66485596 0 368243429.66485596 317360.87215423584 0 0 0 0 -470790048.28583527 154221420.96268463 0 154221420.96268463 68319191.893440247 0 0 0 0 49614338.958345413 240519100.97358704 0 240519100.97358704 424825009.76682281 0 0 0 0 55349663.933597565 379368490.75660706 0 379368490.75660706 -339422652.93023682 0 0 0 0 708313.63903468102 4176621.4630591869 0 4176621.4630591869 1663621.4707470685 0 0 0 0 -58515207.637834549 237154557.3455143 0 237154557.3455143 -423278255.90950012 0 0 0 0 -68045629.190570831 219934050.10668945 0 219934050.10668945 -173856926.79980469 0 0 0 0 -71611675.982139587 159365014.41399384 0 159365014.41399384 -185721005.82743835 0 0 0 0 -138142004.77549744 169825399.47447205 0 169825399.47447205 -165150800.94340897 0 0 0 0 3225826.9282766879 9903435.9995424151 0 9903435.9995424151 3154296.9539994746 0 0 0 0 28383505.518438339 116838795.37621498 0 116838795.37621498 277807.33139038086 0 0 0 0 96858558.021600723 62239005.290809631 0 62239005.290809631 25136501.774597168 0 0 0 0 2805278.0276753511 -4129167.2981388494 0 -4129167.2981388494 1570473.8668534458 0 0 0 0 -43619409.684181213 33751858.948616028 0 33751858.948616028 1295291.8263397217 0 0 0 0 5181292.2764656693 13329878.6607337 0 13329878.6607337 5694872.0776264966 0 0 0 0 29423817.528473377 21487933.060264587 0 21487933.060264587 71749.675765991211 0 0 0 0 -335666114.19525909 144456871.61507416 0 144456871.61507416 -28946135.584960938 0 0 0 0 3930422.6835520063 883690.17456542701 0 883690.17456542701 -1576408.3045195937 0 0 0 0 -155022372.44980907 140820335.79763031 0 140820335.79763031 -86279673.394256592 0 0 0 0 12390424.395088196 247346959.19895935 0 247346959.19895935 -165830558.10667038 0 0 0 0 1977822.3482322693 177077318.24630737 0 177077318.24630737 -186265241.43812704 0 0 0 0 -256946480.79999161 371822686.69886017 0 371822686.69886017 -144479958.97502136 0 0 0 0 -489278453.66222 342046807.53773499 0 342046807.53773499 -137509809.21648026 0 0 0 0 -755079387.75841236 95185956.987232208 0 95185956.987232208 -8545183.7195281982 0 0 0 0 -830144.34525216743 4162588.4607945867 0 4162588.4607945867 7097340.148239553 0 0 0 0 848375251.48398972 565932560.64800835 0 565932560.64800835 -401892680.33338928 0 0 0 0 -258204211.98377228 240661624.92763519 0 240661624.92763519 -190095153.77934265 0 0 0 0 -248009863.3571949 245202840.2682761 0 245202840.2682761 -42380509.592559814 0 0 0 0 125910644.52118301 26658970.685248375 0 26658970.685248375 -19444726.544158936 0 0 0 0 1023946.5400885995 -129072.36785700172 0 -129072.36785700172 -497886.2961717248 0 0 0 0 -522722323.47772598 274677608.09153748 0 274677608.09153748 -119126370.75885773 0 0 0 0 -422359770.32602501 262520415.82400894 0 262520415.82400894 -192925280.96318054 0 0 0 0 -164486293.30978775 216975672.02123642 0 216975672.02123642 -134493959.02918243 0 0 0 0 -70794761.753139496 -33703805.779975891 0 -33703805.779975891 20106257.065929413 0 0 0 0 13252848.682987213 19365287.284183502 0 19365287.284183502 -5753132.459274292 0 0 0 0 -189334572.49494171 210000359.22579193 0 210000359.22579193 877741756.34616089 0 0 0 0 764014257.2301712 1372300306.0512848 0 1372300306.0512848 948326511.27674866 0 0 0 0 1221827643.7064819 -299805510.14844513 0 -299805510.14844513 904487163.61641145 0 0 0 0 5728840.0965502933 2938680.0803983249 0 2938680.0803983249 -1133457.3341290355 0 0 0 0 9194465.6891104132 15781771.869829491 0 15781771.869829491 4903630.3401246965 0 0 0 0 379315.68008422852 6523469.1630706787 0 6523469.1630706787 11182314.059501648 0 0 0 0 -2705900.0467681885 28832318.829582214 0 28832318.829582214 3932195.218208313 0 0 0 0 -1008836.5388031006 21837894.649597168 0 21837894.649597168 -9126673.7930679321 0 0 0 0 3318842.8898220062 29400644.247564316 0 29400644.247564316 -21596883.301742554 0 0 0 0 20081781.643909454 34740274.40618515 0 34740274.40618515 -20158972.119804382 0 0 0 0 -9006857.3821372986 47652476.663330078 0 47652476.663330078 -273254.41467985534 0 0 0 0 63278896.24578476 -15896125.929599762 0 -15896125.929599762 -177543939.11404419 0 0 0 0 19940402.805287361 33471675.326257706 0 33471675.326257706 -31515818.969833374 0 0 0 0 9120469.9048726633 2762004.6649508029 0 2762004.6649508029 -7756701.4140240848 0 0 0 0 27332675.017627716 21630126.364421844 0 21630126.364421844 -29562736.043380737 0 0 0 0 16639297.022491455 15874231.787117004 0 15874231.787117004 -8418678.6617965698 0 0 0 0 -19707832.55316925 -149882792.56759262 0 -149882792.56759262 127835537.31468201 0 0 0 0 218855081.44670486 147523879.80107498 0 147523879.80107498 -90925937.107402802 0 0 0 0 327410116.90246582 313035940.68813324 0 313035940.68813324 57908248.911102295 0 0 0 0 -154157266.92827606 72202046.262565613 0 72202046.262565613 140481027.74456787 0 0 0 0 3907193.1155128255 -229787.00785408542 0 -229787.00785408542 -3400221.1223534048 0 0 0 0 -51528058.674192429 242377168.36926079 0 242377168.36926079 76824793.325836182 0 0 0 0 313487819.64281464 423487147.16859436 0 423487147.16859436 132432532.7065711 0 0 0 0 458289043.72049332 486772301.43128204 0 486772301.43128204 94115045.93272543 0 0 0 0 394399525.84023666 569745949.73880768 0 569745949.73880768 331082488.12619019 0 0 0 0 307040629.44673538 310590429.75607681 0 310590429.75607681 70858779.862739563 0 0 0 0 466582771.43238068 743773893.16819 0 743773893.16819 1003087872.9284363 0 0 0 0 552715079.09836578 -58439712.179351807 0 -58439712.179351807 -45069768.528923035 0 0 0 0 3053027.4548604786 6291718.0146722645 0 6291718.0146722645 2808322.1530509591 0 0 0 0 1069417523.1981888 456612615.24617767 0 456612615.24617767 -38933180.303577423 0 0 0 0 768897930.43115234 806381711.46906662 0 806381711.46906662 583709077.30047607 0 0 0 0 608309467.81585693 823201473.48272324 0 823201473.48272324 591359195.0436821 0 0 0 0 18592134.508892447 4219030.9878419638 0 4219030.9878419638 -3570156.4223406315 0 0 0 0 596185591.99884605 924782537.73443794 0 924782537.73443794 792550115.57712555 0 0 0 0 201504414.0758934 -20907659.368591309 0 -20907659.368591309 247714155.98078156 0 0 0 0 233804831.46481323 75239519.01373291 0 75239519.01373291 -127179867.91145325 0 0 0 0 -173811320.12013721 30021911.356803894 0 30021911.356803894 43061428.873033524 0 0 0 0 -118186612.4937582 77387020.580608368 0 77387020.580608368 58890027.046527863 0 0 0 0 -132078524.83687019 15854365.74017334 0 15854365.74017334 5628630.2602844238 0 0 0 0 -107923001.37412691 79715336.921380997 0 79715336.921380997 45957945.778549194 0 0 0 0 -95759443.216190338 62233061.97840023 0 62233061.97840023 -8000714.7066574097 0 0 0 0 -205973623.5725956 66561238.952011108 0 66561238.952011108 -8134508.3705708981 0 0 0 0 -64172504.765332222 116091061.50617981 0 116091061.50617981 -63859619.180961609 0 0 0 0 -164500272.56865883 36476959.878175735 0 36476959.878175735 -9916429.3244857788 0 0 0 0 -201362494.66922855 -1182722.0368499756 0 -1182722.0368499756 -33533131.192737579 0 0 0 0 -14881335.076338731 26716743.733923666 0 26716743.733923666 -632930.40041768551 0 0 0 0 151095863.9170208 81276528.368189812 0 81276528.368189812 -26567207.110412598 0 0 0 0 281376418.74006033 111297065.8153801 0 111297065.8153801 178676344.63551331 0 0 0 0 311226121.52398443 -20410082.127563477 0 -20410082.127563477 67686335.717899323 0 0 0 0 59144792.964150429 92743983.132722855 0 92743983.132722855 22486276.030532837 0 0 0 0 22205635.063092947 25839762.034770593 0 25839762.034770593 -20023128.389659792 0 0 0 0 65839855.432125568 43873891.210235596 0 43873891.210235596 17917132.76374054 0 0 0 0 107385238.17532778 8768624.4105148315 0 8768624.4105148315 -54960025.225624084 0 0 0 0 28657104.848940544 1612098.8279651999 0 1612098.8279651999 -41259279.732150078 0 0 0 0 109320627.45842552 58123088.35943985 0 58123088.35943985 -60997009.891662598 0 0 0 0 129186597.27989006 16255569.212024689 0 16255569.212024689 18806259.54548645 0 0 0 0 101442297.8900032 107240228.6400528 0 107240228.6400528 124851933.4597168 0 0 0 0 106577757.65273201 39231065.013990402 0 39231065.013990402 -10765146.344406128 0 0 0 0 -2048045.3094419288 7630663.6464709081 0 7630663.6464709081 5922317.7898722887 0 0 0 0 -202738167.89494276 5165464.2796630859 0 5165464.2796630859 26150191.69657135 0 0 0 0 244226029.85861015 168076579.51080322 0 168076579.51080322 92062832.220001221 0 0 0 0 709270381.84558392 151373478.18209839 0 151373478.18209839 -115365810.74943542 0 0 0 0 6459.941618852783 1383875.470197957 0 1383875.470197957 -14851.284256786108 0 0 0 0 -2791548.7214746494 14328197.484695349 0 14328197.484695349 7765810.0664557219 0 0 0 0 16819495.64693284 -3791918.0927019119 0 -3791918.0927019119 -18451007.416946411 0 0 0 0 -110930058.42217112 47342859.729030609 0 47342859.729030609 39443906.725738525 0 0 0 0 310724508.72886801 132316988.63420486 0 132316988.63420486 -3509688.2052307129 0 0 0 0 1256059.2634421187 6232916.9498412888 0 6232916.9498412888 32433.249582439661 0 0 0 0 97906983.244915009 206150642.20798111 0 206150642.20798111 66327710.102684021 0 0 0 0 268968893.44727325 168085070.86773682 0 168085070.86773682 -10894788.170185089 0 0 0 0 91057309.638744175 43561452.491247892 0 43561452.491247892 63776601.672889709 0 0 0 0 -13463712.593150837 33460076.628479373 0 33460076.628479373 -7662588.526061058 0 0 0 0 300882749.60271454 83376597.080600739 0 83376597.080600739 -81828819.36529541 0 0 0 0 165272158.81224966 70270587.770336151 0 70270587.770336151 -8738261.5970001221 0 0 0 0 208443474.47677374 5745982.9170532227 0 5745982.9170532227 40460287.660842896 0 0 0 0 95797213.298808932 82287614.442578316 0 82287614.442578316 81056213.916168213 0 0 0 0 99141609.272163868 103339646.44538021 0 103339646.44538021 66260854.104751587 0 0 0 0 50351527.112151146 141457239.79032898 0 141457239.79032898 26477568.052383423 0 0 0 0 99406617.459150314 95007123.263282776 0 95007123.263282776 45747327.123535156 0 0 0 0 93870393.68667984 125867453.03928375 0 125867453.03928375 586875.01592254639 0 0 0 0 2863499.1622664928 59074875.351512909 0 59074875.351512909 9077698.7173614502 0 0 0 0 -1951760.4620910306 22944915.750470258 0 22944915.750470258 7609106.7783361375 0 0 0 0 75202718.518967628 -5202687.9799346924 0 -5202687.9799346924 -41676930.864852905 0 0 0 0 120860891.34551239 87108679.626678467 0 87108679.626678467 42523405.336639404 0 0 0 0 79610874.740589142 -61360383.588600159 0 -61360383.588600159 903919.50547409058 0 0 0 0 -1841597.7153371591 1552409.2967752665 0 1552409.2967752665 -224196.61501167715 0 0 0 0 -90201294.29294157 111454910.45182228 0 111454910.45182228 -13329716.506416321 0 0 0 0 -57497352.046550751 66875014.036773682 0 66875014.036773682 2162078.8130674362 0 0 0 0 -45777787.273419857 57805326.215023041 0 57805326.215023041 773809.275390625 0 0 0 0 -49644021.374866486 63645081.633255005 0 63645081.633255005 -37811238.578842163 0 0 0 0 -92695184.965362549 94836168.272720337 0 94836168.272720337 65242920.149139404 0 0 0 0 -112424726.71821404 56106433.988769531 0 56106433.988769531 13955375.297733307 0 0 0 0 -154965857.56564999 43472934.276443481 0 43472934.276443481 53934983.619415283 0 0 0 0 -75451582.254774094 156191927.95112991 0 156191927.95112991 122165979.36606026 0 0 0 0 -56757664.504431248 111748711.01160431 0 111748711.01160431 107127704.39453125 0 0 0 0 -98603496.279644966 54887139.679584503 0 54887139.679584503 84611072.064323425 0 0 0 0 -37830903.049402714 121496514.65723991 0 121496514.65723991 -122062439.06741333 0 0 0 0 46759586.383665085 41225215.455329895 0 41225215.455329895 -146149111.2606802 0 0 0 0 -13389248.353554551 41050557.579116076 0 41050557.579116076 -10588878.019926369 0 0 0 0 -51576646.389702797 126389184.32552719 0 126389184.32552719 153798479.8370285 0 0 0 0 6936875.4564622492 6530999.2075450122 0 6530999.2075450122 -6618468.3046370596 0 0 0 0 50482658.918722153 27064659.181171417 0 27064659.181171417 -107108131.48512268 0 0 0 0 24873656.297297478 63099717.541057587 0 63099717.541057587 41665885.460151672 0 0 0 0 5467162.6606516764 38291171.445752159 0 38291171.445752159 -28606780.191178471 0 0 0 0 62797747.409507751 130485682.22960281 0 130485682.22960281 -24066417.645381927 0 0 0 0 51355060.390151978 15966308.49810791 0 15966308.49810791 31458274.329723358 0 0 0 0 -22766694.656337108 19088600.574136794 0 19088600.574136794 15622492.664623037 0 0 0 0 25611375.93113327 67426118.335090637 0 67426118.335090637 21188115.61341095 0 0 0 0 -7753160.8098545074 92741916.70010376 0 92741916.70010376 52031027.56590271 0 0 0 0 92581521.223087311 174500339.15011597 0 174500339.15011597 78659198.250305176 0 0 0 0 117526836.55557823 56385739.946205139 0 56385739.946205139 83311939.041778564 0 0 0 0 -26192489.331407547 56682069.612121582 0 56682069.612121582 204804696.97522354 0 0 0 0 162810161.62546349 162724386.64497375 0 162724386.64497375 157839179.62596512 0 0 0 0 -59841372.68784523 47098083.501976013 0 47098083.501976013 248270503.97409058 0 0 0 0 -1713510.8989971257 1230924.1063922606 0 1230924.1063922606 146824.35617786646 0 0 0 0 -43850062.432086945 92572823.421411514 0 92572823.421411514 47418040.768306732 0 0 0 0 -40848957.387184143 146073819.3357029 0 146073819.3357029 13478266.257285118 0 0 0 0 48305980.367565155 87410231.098245621 0 87410231.098245621 38947731.682170868 0 0 0 0 -20439845.303730965 43472340.711277008 0 43472340.711277008 90424915.119739532 0 0 0 0 53541252.697388187 130434087.88037959 0 130434087.88037959 38826608.277709961 0 0 0 0 -1209269.0606720001 3568431.4259421825 0 3568431.4259421825 6205495.927552253 0 0 0 0 -9669914.9790782928 97174926.049585342 0 97174926.049585342 25583114.787010193 0 0 0 0 -15379028.467143901 42761996.841192514 0 42761996.841192514 -1206207.3473883569 0 0 0 0 -16622687.182958603 126490379.46788216 0 126490379.46788216 37245366.732581019 0 0 0 0 76984982.434112549 91244874.048339844 0 91244874.048339844 85154273.900970459 0 0 0 0 2531613.9361419678 10792638.879013062 0 10792638.879013062 8107947.3182678223 0 0 0 0 -10387782.126096077 16895758.959858686 0 16895758.959858686 31061562.1520226 0 0 0 0 21369024.51174257 13866474.445124552 0 13866474.445124552 498096.07815007865 0 0 0 0 29469432.519195557 13504760.648925781 0 13504760.648925781 37525654.639511108 0 0 0 0 -10620702.861415997 38695097.432429865 0 38695097.432429865 -19802916.88835299 0 0 0 0 11064422.310489543 38246853.657806434 0 38246853.657806434 17679528.594080955 0 0 0 0 -536030363.31757069 66920619.263092041 0 66920619.263092041 19114944.604660034 0 0 0 0 -12832912.848776203 25800234.961961828 0 25800234.961961828 14079340.163605228 0 0 0 0 60310143.32484436 437007305.32356262 0 437007305.32356262 -1601389.8214316368 0 0 0 0 410630788.56582069 -144323735.42900848 0 -144323735.42900848 -70117987.893608093 0 0 0 0 -49796295.224871635 -8200771.7726783752 0 -8200771.7726783752 225027289.86115122 0 0 0 0 -163542075.61759758 104925962.5023613 0 104925962.5023613 207249098.32292175 0 0 0 0 -11163926.493236542 100638264.63148499 0 100638264.63148499 -69170319.088696718 0 0 0 0 64879675.169801466 -95754392.469042361 0 -95754392.469042361 -61322570.628883362 0 0 0 0 4698447.1872839723 3153638.6129947454 0 3153638.6129947454 -1998475.6658371687 0 0 0 0 3120772.4794273376 92282676.69587326 0 92282676.69587326 2936799.5840606689 0 0 0 0 4801845.1883851029 48399111.973155916 0 48399111.973155916 24797472.63624984 0 0 0 0 5066396.2000350952 82144019.479415894 0 82144019.479415894 24278554.744552612 0 0 0 0 -15002452.4702034 58332321.060562134 0 58332321.060562134 7739181.9027709961 0 0 0 0 2090079.733581543 84182766.157287598 0 84182766.157287598 46821925.127548218 0 0 0 0 10133565.913783073 72905651.06427002 0 72905651.06427002 35745051.352526665 0 0 0 0 8403419.6730709076 98154108.872486115 0 98154108.872486115 -65768388.704444885 0 0 0 0 317668.99082565308 57587710.893676758 0 57587710.893676758 48820045.980308533 0 0 0 0 -15037087.723653555 100014735.41339874 0 100014735.41339874 70367118.725967407 0 0 0 0 49443968.490531921 117419075.20383453 0 117419075.20383453 26662539.46937561 0 0 0 0 -16273184.064390182 58282815.20256424 0 58282815.20256424 82714247.266054153 0 0 0 0 -19969461.750374794 138478041.72751999 0 138478041.72751999 111375297.87361145 0 0 0 0 -11831037.5409832 148191422.97582245 0 148191422.97582245 73782611.082492828 0 0 0 0 -78412082.645366669 193511148.50379944 0 193511148.50379944 67585764.470121384 0 0 0 0 11764783.098423958 55755482.135101318 0 55755482.135101318 -23537441.571853638 0 0 0 0 -1796699.0620069038 6516930.0519744977 0 6516930.0519744977 6654447.1653696597 0 0 0 0 17498343.853461266 28258676.755001068 0 28258676.755001068 -6971245.5558547974 0 0 0 0 17816346.834731102 25797042.427410126 0 25797042.427410126 -52984689.275580883 0 0 0 0 -3985782.9800652042 24386335.691464052 0 24386335.691464052 8130798.5732311904 0 0 0 0 -595386.2214679718 31240355.161773682 0 31240355.161773682 -19314043.102771759 0 0 0 0 13573558.955457462 10195234.167069599 0 10195234.167069599 -6317578.6311759949 0 0 0 0 27445500.265641212 22426832.885734558 0 22426832.885734558 -19044725.032447815 0 0 0 0 -36378323.504630446 32237439.235360146 0 32237439.235360146 28501648.771118164 0 0 0 0 -1070038.7967114113 27512589.163773149 0 27512589.163773149 19481715.752619147 0 0 0 0 -19693914.202644348 21200916.876647949 0 21200916.876647949 34224748.717212677 0 0 0 0 -1784813.062599659 25442738.497606277 0 25442738.497606277 -9551727.9230575562 0 0 0 0 3268396.277759552 15614577.221345901 0 15614577.221345901 -7041206.7909622192 0 0 0 0 1058655.9573429637 10710385.029041931 0 10710385.029041931 -3478548.358697772 0 0 0 0 15115365.920957968 28078081.21103194 0 28078081.21103194 4757534.9890504479 0 0 0 0 -5979304.7632980347 59768594.711238861 0 59768594.711238861 50685220.934677124 0 0 0 0 -29026186.152296066 74684410.773590088 0 74684410.773590088 63398805.242828369 0 0 0 0 5584673.115744669 36763134.800102375 0 36763134.800102375 23111517.382025063 0 0 0 0 -53471260.166296005 80826320.621242523 0 80826320.621242523 18947933.888809204 0 0 0 0 -52412451.948213577 56869161.517215729 0 56869161.517215729 52181379.626358032 0 0 0 0 -40585381.557033539 36879172.053237915 0 36879172.053237915 38470462.369232178 0 0 0 0 -36463507.506300986 29083878.184667826 0 29083878.184667826 52550412.222106934 0 0 0 0 -37741212.056354523 12740654.380935669 0 12740654.380935669 37938233.462356567 0 0 0 0 -33483101.469249725 -194521.15001678467 0 -194521.15001678467 74706445.586294174 0 0 0 0 -43331187.919447899 34603816.213178635 0 34603816.213178635 70675957.840301514 0 0 0 0 -16100217.85840416 -29998798.679344177 0 -29998798.679344177 93007638.17539978 0 0 0 0 -38850863.028495789 32356602.454086304 0 32356602.454086304 67724226.95867157 0 0 0 0 -27673078.063796997 62030417.627601624 0 62030417.627601624 143245207.63504028 0 0 0 0 -15541314.166671753 13982330.57170105 0 13982330.57170105 2699224.0032997131 0 0 0 0 -18235876.670827866 -6994070.0986061096 0 -6994070.0986061096 11604462.50881958 0 0 0 0 -21778473.572868347 9919696.0455169678 0 9919696.0455169678 18432265.055282593 0 0 0 0 -36547934.346242905 12385352.677928925 0 12385352.677928925 27123356.15222168 0 0 0 0 -40025823.88715744 20477956.673362732 0 20477956.673362732 28503664.360656738 0 0 0 0 -29248829.002235413 14235837.000213623 0 14235837.000213623 24324784.565505981 0 0 0 0 -31658866.455140114 21019136.680429459 0 21019136.680429459 16360222.644073486 0 0 0 0 -22981074.58084774 14453746.058315277 0 14453746.058315277 15824541.595550537 0 0 0 0 -25016081.796981812 18959138.710800171 0 18959138.710800171 8127816.9574890137 0 0 0 0 -24225346.414764404 17461324.962356567 0 17461324.962356567 7595294.805847168 0 0 0 0 -15677956.912981987 16255912.234380722 0 16255912.234380722 7334421.3162689209 0 0 0 0 -21247508.79983902 1261904.4441490173 0 1261904.4441490173 -5991377.979675293 0 0 0 0 -402740445.44251251 769929899.87608337 0 769929899.87608337 -1405934553.4934692 0 0 0 0 -6178825.4771739841 15362492.8399764 0 15362492.8399764 1678137.6140145734 0 0 0 0 8591342.5677052066 15480368.434530243 0 15480368.434530243 13908369.312055975 0 0 0 0 -589319746.97432208 407657614.20169163 0 407657614.20169163 204360594.5242691 0 0 0 0 -12915062.177433394 3639851.6860505641 0 3639851.6860505641 9286991.3228880465 0 0 0 0 3862386.000038147 15985216.2551651 0 15985216.2551651 7569978.1981487274 0 0 0 0 1029543.5051974282 11410651.318300083 0 11410651.318300083 2979775.8611629196 0 0 0 0 11307033.04845047 24556485.168365479 0 24556485.168365479 10739691.507347107 0 0 0 0 -6402203.5129299164 18118998.046760559 0 18118998.046760559 20306421.568283081 0 0 0 0 767063.38045172766 508701.14453285933 0 508701.14453285933 -1268976.2261114717 0 0 0 0 4918666.0614987798 14499858.008927975 0 14499858.008927975 14158068.815796882 0 0 0 0 2852918.4967098236 9734639.6918296814 0 9734639.6918296814 221642.56295013428 0 0 0 0 -34302975.104286194 2010725.7787418365 0 2010725.7787418365 29560365.951446533 0 0 0 0 658635.23850908875 3056458.6097655743 0 3056458.6097655743 219768.40006092191 0 0 0 0 4832719.798374176 18284201.483146667 0 18284201.483146667 13165386.501173973 0 0 0 0 1368205.7918424606 12596279.803092957 0 12596279.803092957 -3337.9111557006836 0 0 0 0 6017917.7290829979 15236679.349816278 0 15236679.349816278 357042.11232783087 0 0 0 0 1685365.6565475464 12625942.334625244 0 12625942.334625244 -655.39288330078125 0 0 0 0 7149355.7063007355 19502541.67798233 0 19502541.67798233 10867160.795089722 0 0 0 0 6957205.359459091 16709141.605586186 0 16709141.605586186 7186138.2648220658 0 0 0 0 1724907.2547655106 12594835.715816498 0 12594835.715816498 15107.701797485352 0 0 0 0 733824.20581901073 13360649.032512531 0 13360649.032512531 -941284.83690339886 0 0 0 0 9233719.1861028671 18570151.183208466 0 18570151.183208466 4882500.7371292114 0 0 0 0 4837496.1189819872 18387300.924391866 0 18387300.924391866 7917109.9526367188 0 0 0 0 -4165313.8467102051 16110110.384429932 0 16110110.384429932 1201425.4402694702 0 0 0 0 5423477.5701255798 14355003.556091309 0 14355003.556091309 1905020.6228179932 0 0 0 0 722050.895990327 4312223.5315283537 0 4312223.5315283537 7678410.7367173433 0 0 0 0 -132444549.53024292 442410642.53041077 0 442410642.53041077 1164283.9734641302 0 0 0 0 4776312.0323352814 17078810.573387146 0 17078810.573387146 4978810.5562133789 0 0 0 0 21197215.976022363 -11445864.196230888 0 -11445864.196230888 35264796.883232117 0 0 0 0 15567275.836062431 22098816.868743896 0 22098816.868743896 10252411.132293701 0 0 0 0 5443252.7008345779 8275454.1794634163 0 8275454.1794634163 -228971.01720105112 0 0 0 0 25258900.560314655 33457588.204711914 0 33457588.204711914 64158.490867614746 0 0 0 0 11828881.631468978 12576191.356992349 0 12576191.356992349 -1876480.0321315825 0 0 0 0 100271.14605793171 12668660.193309098 0 12668660.193309098 -7863119.3765420318 0 0 0 0 10824070.562066078 15364507.9180336 0 15364507.9180336 698862.54634094238 0 0 0 0 1086803.340752935 15469354.705518484 0 15469354.705518484 -12567415.019414455 0 0 0 0 6522846.4696102142 8921572.9755020142 0 8921572.9755020142 -11221001.965332031 0 0 0 0 -854683708.16814709 322668857.74869537 0 322668857.74869537 702251134.37701416 0 0 0 0 3833536.9882632643 29276563.035733372 0 29276563.035733372 -17741366.383070916 0 0 0 0 16750399.765935479 13606579.232686028 0 13606579.232686028 -5440298.5469447076 0 0 0 0 634231.97310829163 5142619.3041229248 0 5142619.3041229248 -11049335.00491333 0 0 0 0 15092644.378038406 23784867.561523438 0 23784867.561523438 -3860403.9990463257 0 0 0 0 7094304.9356155396 17068702.430770874 0 17068702.430770874 1759413.428276062 0 0 0 0 5726567.7975310981 17024296.175164208 0 17024296.175164208 -3691134.101502426 0 0 0 0 10508596.236549377 18818656.543777943 0 18818656.543777943 2309341.1309509277 0 0 0 0 -2416808.7159776688 22566690.833602905 0 22566690.833602905 -15491197.132172585 0 0 0 0 15189556.636676788 149574605.9631691 0 149574605.9631691 -12987370.467201233 0 0 0 0 101310624.8441124 -131763890.71448517 0 -131763890.71448517 63482156.837173462 0 0 0 0 963179.01115075126 26573925.937603757 0 26573925.937603757 -2147181.1048179567 0 0 0 0 8712725.2331689913 1905192.3224543743 0 1905192.3224543743 -9159079.6505736113 0 0 0 0 -249000954.26127863 187677911.59344888 0 187677911.59344888 252225650.14126587 0 0 0 0 33855472.635879517 -236456869.37841797 0 -236456869.37841797 -144221578.58547974 0 0 0 0 250947228.70266247 141957583.40169144 0 141957583.40169144 -517174560.49558258 0 0 0 0 470368160.93962955 26727301.022422791 0 26727301.022422791 -501512729.53691101 0 0 0 0 -250403688.09999752 212069503.20875549 0 212069503.20875549 47696243.530715942 0 0 0 0 -610777.29301676853 2429996.9917076379 0 2429996.9917076379 1686689.6713417172 0 0 0 0 -189675704.38820934 249548971.50418472 0 249548971.50418472 -17154375.506778717 0 0 0 0 -531250640.47767305 26419879.315410614 0 26419879.315410614 76023916.966674805 0 0 0 0 -178048257.73498777 58466197.225764275 0 58466197.225764275 28714459.216674805 0 0 0 0 -79226724.631321907 67353083.357206345 0 67353083.357206345 24546337.420799255 0 0 0 0 22081272.139633179 -46911486.579959869 0 -46911486.579959869 32179851.433036804 0 0 0 0 44454674.843420029 2043632.5748596191 0 2043632.5748596191 -34587105.731201172 0 0 0 0 128692648.52644777 92284271.789924622 0 92284271.789924622 -67318722.405975342 0 0 0 0 121910814.90529972 17158234.835464001 0 17158234.835464001 -98696408.636077881 0 0 0 0 52933175.187879324 19752250.399709702 0 19752250.399709702 -24411175.085365295 0 0 0 0 620720294.03709412 294425004.59430695 0 294425004.59430695 -124593759.48632812 0 0 0 0 114295773.46553206 69786109.281574249 0 69786109.281574249 -52609619.039871216 0 0 0 0 38903310.897977173 -2268288.1366558671 0 -2268288.1366558671 -34999455.841295063 0 0 0 0 94615616.746946335 33282437.497314453 0 33282437.497314453 39727765.586650848 0 0 0 0 -16370803.241602715 25659271.42655082 0 25659271.42655082 5688836.8400748968 0 0 0 0 486426619.69782448 308463040.34016418 0 308463040.34016418 2383648.5376281738 0 0 0 0 19967652.354657948 28117927.062407382 0 28117927.062407382 -34145190.433959305 0 0 0 0 46260844.915615678 16482840.14453125 0 16482840.14453125 -102036401.61001587 0 0 0 0 101371487.64045906 98557948.81362915 0 98557948.81362915 -19358725.10144043 0 0 0 0 4939910.4879809832 -936078.1071793437 0 -936078.1071793437 -5686426.5477657318 0 0 0 0 15565107.020902991 -37747992.253865719 0 -37747992.253865719 -39692539.821807861 0 0 0 0 19861449.809053309 35286943.779441833 0 35286943.779441833 -38403876.384325534 0 0 0 0 441242711.60307217 343380273.83182526 0 343380273.83182526 33696528.876926422 0 0 0 0 46017357.516347408 69420589.399768829 0 69420589.399768829 -56276024.001274109 0 0 0 0 20294550.782409668 50301147.400230408 0 50301147.400230408 -60022307.112823486 0 0 0 0 27710422.584107757 -25381600.084352016 0 -25381600.084352016 -94585718.313140869 0 0 0 0 12189998.350701362 15006914.242362976 0 15006914.242362976 -27947785.282936096 0 0 0 0 4840795.1981118917 -2432153.9640703201 0 -2432153.9640703201 -10300473.899307251 0 0 0 0 43499201.942005873 95880262.746623039 0 95880262.746623039 104967999.08631897 0 0 0 0 7778993.5452785492 14751637.115013123 0 14751637.115013123 -9835828.9814362526 0 0 0 0 11548448.488508895 12575399.690568998 0 12575399.690568998 -12373588.691633403 0 0 0 0 12834969.518467903 8154848.3984680176 0 8154848.3984680176 -28713515.515304565 0 0 0 0 57146601.446628571 64678885.68119812 0 64678885.68119812 39698429.788375854 0 0 0 0 16356351.443576762 7683059.0129635483 0 7683059.0129635483 -15102343.25804894 0 0 0 0 5543121.4390335083 15516923.058074951 0 15516923.058074951 -18106222.188568115 0 0 0 0 15066543.758062363 11027337.511741638 0 11027337.511741638 -16628694.585582733 0 0 0 0 11625281.815220833 1341228.2711105347 0 1341228.2711105347 -11019862.031525433 0 0 0 0 36530875.819778442 75470326.467910767 0 75470326.467910767 63529205.515975952 0 0 0 0 -23927.314045560546 288133.68119883537 0 288133.68119883537 -542722.75890219212 0 0 0 0 41228993.305919409 59780681.019010544 0 59780681.019010544 48758519.295776367 0 0 0 0 153547483.00375253 113529293.75228882 0 113529293.75228882 29492934.275634766 0 0 0 0 97013419.837546527 72589280.92615509 0 72589280.92615509 67863.71263885498 0 0 0 0 54984722.566346884 60509913.354454041 0 60509913.354454041 48745206.593933105 0 0 0 0 157758270.37730131 144047531.05976105 0 144047531.05976105 71192024.292869568 0 0 0 0 305216154.37271595 161182070.05840683 0 161182070.05840683 21399484.991630554 0 0 0 0 240554554.27592731 121586537.81522179 0 121586537.81522179 17871.727729797363 0 0 0 0 203580268.33303308 171822576.33562469 0 171822576.33562469 96912178.238235474 0 0 0 0 262227388.90869141 189736478.39665222 0 189736478.39665222 100315643.57933044 0 0 0 0 111496519.85340071 118519096.74992752 0 118519096.74992752 111265022.7010994 0 0 0 0 94279769.309381008 124466434.76947021 0 124466434.76947021 144214030.60064697 0 0 0 0 135412126.50264597 190845210.54551697 0 190845210.54551697 220831403.22467041 0 0 0 0 8108669.6035201978 12873684.103467509 0 12873684.103467509 -10417591.810327053 0 0 0 0 200630642.59371409 154545592.87929773 0 154545592.87929773 72681381.151275635 0 0 0 0 32248967.338409424 -37087206.417778015 0 -37087206.417778015 -50166706.005233765 0 0 0 0 277515201.8218658 101893232.0425396 0 101893232.0425396 -14436538.809806824 0 0 0 0 246364216.85244179 125776412.32984161 0 125776412.32984161 -109507.8726537075 0 0 0 0 463355520.68417263 227483497.04560852 0 227483497.04560852 18862006.796607971 0 0 0 0 241667303.61727858 134542268.73441315 0 134542268.73441315 -9905964.9750976562 0 0 0 0 -97009812.168546677 -119866244.53598785 0 -119866244.53598785 -73131905.679659128 0 0 0 0 402419928.29955125 258138109.93780136 0 258138109.93780136 -81157090.998184204 0 0 0 0 278106794.90709019 66617002.600263596 0 66617002.600263596 63698971.455657959 0 0 0 0 684091335.93227386 283347003.98054504 0 283347003.98054504 -70323850.2786026 0 0 0 0 565326566.1458658 614798847.01999474 0 614798847.01999474 519898502.94041443 0 0 0 0 5740233.303413678 2010887.9837419838 0 2010887.9837419838 -4286441.8540448844 0 0 0 0 397423392.44672489 276605145.55570984 0 276605145.55570984 183450446.06655884 0 0 0 0 386002350.52114844 65510805.409187317 0 65510805.409187317 -238634002.3633728 0 0 0 0 500654231.71841669 288933519.21582413 0 288933519.21582413 6068966.0827178955 0 0 0 0 427130131.11515808 64294113.013000488 0 64294113.013000488 -96303625.973251343 0 0 0 0 -85816490.934091568 222150890.51202774 0 222150890.51202774 77581831.03032434 0 0 0 0 131807595.80164146 355772744.10006714 0 355772744.10006714 76906925.139566898 0 0 0 0 -2675403.3801792115 1614006.3657069355 0 1614006.3657069355 4695968.1738445461 0 0 0 0 59622010.192160606 -13461750.523162842 0 -13461750.523162842 -167884561.79803467 0 0 0 0 14620361.107692342 1665518.0083043128 0 1665518.0083043128 -10250348.503962349 0 0 0 0 -14291118.656270027 -34503410.496948242 0 -34503410.496948242 -133230483.20602703 0 0 0 0 214197399.25835705 277037366.45106506 0 277037366.45106506 285154361.58123779 0 0 0 0 15679934.153494209 5153769.9046964198 0 5153769.9046964198 -12067791.942886755 0 0 0 0 293735554.92978525 243009386.44843292 0 243009386.44843292 163847205.909729 0 0 0 0 291346048.94152784 223552562.04354095 0 223552562.04354095 196921135.40140533 0 0 0 0 39721351.584217072 -80507662.981098175 0 -80507662.981098175 -252756838.92115784 0 0 0 0 57580155.770246506 29719033.599212646 0 29719033.599212646 -204585790.35653687 0 0 0 0 23300830.69824791 -184037072.2966156 0 -184037072.2966156 -362430790.02124023 0 0 0 0 62603446.890230179 -22102265.729064941 0 -22102265.729064941 -97276753.224220276 0 0 0 0 22159580.071806908 58740698.403671265 0 58740698.403671265 -39084945.19883728 0 0 0 0 39661990.304626465 76333492.29876709 0 76333492.29876709 -7669607.3759384155 0 0 0 0 61791235.217480659 33860425.991027832 0 33860425.991027832 -98939138.520366669 0 0 0 0 5581995.1229019165 7571126.6987915039 0 7571126.6987915039 -93394483.760192871 0 0 0 0 62648451.682703018 33235309.630126953 0 33235309.630126953 -131199545.86178041 0 0 0 0 161666403.91884327 101154110.616539 0 101154110.616539 -48205700.713356018 0 0 0 0 58844917.751438141 211455359.70246887 0 211455359.70246887 22505044.245994568 0 0 0 0 53191089.009285927 22890721.512580872 0 22890721.512580872 -46340020.495773315 0 0 0 0 18118746.649131775 49084127.980792999 0 49084127.980792999 41609490.166381836 0 0 0 0 99981922.325119019 110430442.31220245 0 110430442.31220245 88043144.539215088 0 0 0 0 20569337.410369873 -33312183.706264496 0 -33312183.706264496 -10191359.369293213 0 0 0 0 5527091.1429330222 15984290.399540126 0 15984290.399540126 6257933.1163695455 0 0 0 0 29296960.575716659 12467685.249687791 0 12467685.249687791 -53828976.755105183 0 0 0 0 75535679.180130005 34633888.864723206 0 34633888.864723206 -40823222.962432861 0 0 0 0 150508635.3703804 107276986.39185333 0 107276986.39185333 44575710.525100708 0 0 0 0 -17907727.368217468 48018368.648681641 0 48018368.648681641 110090923.5242157 0 0 0 0 -338318.29909898061 9914687.2872284278 0 9914687.2872284278 7330077.7436312139 0 0 0 0 172625130.96929467 51689930.161026478 0 51689930.161026478 -65548086.726593018 0 0 0 0 99857607.159191132 110025251.51145935 0 110025251.51145935 90931439.379606247 0 0 0 0 22463296.330140542 14749054.571493775 0 14749054.571493775 -51832258.719258517 0 0 0 0 194811389.90612912 63820430.978429794 0 63820430.978429794 -97283132.175933838 0 0 0 0 -39129628.120571136 55616576.410972595 0 55616576.410972595 -38944993.409561157 0 0 0 0 99348028.190628052 100323697.04548645 0 100323697.04548645 -99067974.683141232 0 0 0 0 179316909.92582035 20006919.998878479 0 20006919.998878479 -97559579.261657715 0 0 0 0 332354222.38216639 110518319.25130081 0 110518319.25130081 -102087817.57775879 0 0 0 0 271179081.0770359 78063945.231552124 0 78063945.231552124 -99882136.085499763 0 0 0 0 298264560.39692879 20480500.127120972 0 20480500.127120972 -114183201.39231873 0 0 0 0 322391811.87111473 98797759.26385498 0 98797759.26385498 -107923340.61334229 0 0 0 0 287954411.15418816 62707497.101509094 0 62707497.101509094 -110901824.64639282 0 0 0 0 198112210.80587149 51998105.380512238 0 51998105.380512238 -88749314.375366211 0 0 0 0 203663200.69641113 238267398.10423279 0 238267398.10423279 -70602063.615515709 0 0 0 0 457595845.18109345 283018694.9685359 0 283018694.9685359 -73827671.084945679 0 0 0 0 292578736.30945969 210191731.81097412 0 210191731.81097412 -94191676.185638428 0 0 0 0 95383205.276909828 236118597.45619965 0 236118597.45619965 10617608.039077759 0 0 0 0 104071595.1588459 201287357.39485168 0 201287357.39485168 -30536820.313476562 0 0 0 0 83805966.242512703 142034077.63619232 0 142034077.63619232 -14310059.274040222 0 0 0 0 183940704.21076202 174216046.56642914 0 174216046.56642914 -57140442.684295654 0 0 0 0 170110326.04224396 166471679.71860504 0 166471679.71860504 -54920131.395339966 0 0 0 0 236048243.09823322 71933046.585487366 0 71933046.585487366 -81249630.538696289 0 0 0 0 233478413.54110527 106895098.01672363 0 106895098.01672363 -89148150.649017334 0 0 0 0 181653350.25841141 113582114.56983948 0 113582114.56983948 -42447274.964019775 0 0 0 0 190377612.17401886 110153926.00470924 0 110153926.00470924 -41104183.176193237 0 0 0 0 207624883.25496292 89316142.989833832 0 89316142.989833832 -37852601.055511475 0 0 0 0 245051402.63085747 165350287.65821838 0 165350287.65821838 53163480.127441406 0 0 0 0 176754720.77388239 79852838.814131737 0 79852838.814131737 -31865053.47644043 0 0 0 0 1211782.2452154234 -972364.60958918929 0 -972364.60958918929 -4674735.9543595612 0 0 0 0 26377310.02333479 24914835.909075066 0 24914835.909075066 -47365298.913082391 0 0 0 0 150605629.8806076 294031430.72415543 0 294031430.72415543 -170621897.04484558 0 0 0 0 193390057.16320229 52971348.348274231 0 52971348.348274231 -74434700.171539307 0 0 0 0 159029739.51239777 100550473.51295471 0 100550473.51295471 -17108954.20476532 0 0 0 0 136706718.4662838 127864133.01374817 0 127864133.01374817 -24966761.600921631 0 0 0 0 163410303.50984001 114693512.47007751 0 114693512.47007751 -32467085.466697693 0 0 0 0 136589388.56784916 128406379.05322266 0 128406379.05322266 -20209951.931121826 0 0 0 0 82481653.628782272 136795398.90000916 0 136795398.90000916 -16973926.051263809 0 0 0 0 62182988.749918938 121378383.97075653 0 121378383.97075653 -2013780.5205078125 0 0 0 0 79491458.102776527 83309663.287895203 0 83309663.287895203 -36747876.217773438 0 0 0 0 52576276.727796555 113773857.28419495 0 113773857.28419495 -2434848.1058635712 0 0 0 0 196019938.10203648 -18823650.926616192 0 -18823650.926616192 -32476296.123016357 0 0 0 0 26968258.364831734 36013805.217027098 0 36013805.217027098 -44873564.230419844 0 0 0 0 95718759.934634209 104051603.42364502 0 104051603.42364502 -27578348.245780945 0 0 0 0 49205585.484172821 -86660467.731395721 0 -86660467.731395721 37228024.814315796 0 0 0 0 192759829.33602905 -47292642.296951294 0 -47292642.296951294 -94680698.21774292 0 0 0 0 134145759.49842739 97270807.946243286 0 97270807.946243286 -26652296.165237427 0 0 0 0 161090889.14681816 -25236724.015808105 0 -25236724.015808105 7278113.2785110474 0 0 0 0 134457861.17709351 -53102352.899799347 0 -53102352.899799347 -71748859.21081543 0 0 0 0 132733877.04278946 -47307926.990730286 0 -47307926.990730286 -6021488.264541626 0 0 0 0 24246870.394802094 28203885.699516296 0 28203885.699516296 -91393217.57649231 0 0 0 0 66000274.642028809 77491681.645042419 0 77491681.645042419 -218338135.69918108 0 0 0 0 166009811.59417725 -56679866.311172485 0 -56679866.311172485 -51785814.49773407 0 0 0 0 -8784706.5683784485 74794260.466796875 0 74794260.466796875 -57830984.384429932 0 0 0 0 -107413886.97254181 164977305.08094025 0 164977305.08094025 -134398180.4077301 0 0 0 0 -95996644.159931183 27755032.468826294 0 27755032.468826294 -6972864.2248458862 0 0 0 0 -17403.915607452393 176091946.17858887 0 176091946.17858887 -247626317.9535675 0 0 0 0 4172781.7708511353 161306385.06639099 0 161306385.06639099 -165049899.17042542 0 0 0 0 6009828.508430481 141128936.38707733 0 141128936.38707733 -176422796.90626526 0 0 0 0 62517709.272497177 177601771.91004181 0 177601771.91004181 -223040324.25918579 0 0 0 0 194012014.81626892 267284931.63026428 0 267284931.63026428 -33778118.074584961 0 0 0 0 47729351.808490753 218787670.25591278 0 218787670.25591278 298649908.65512085 0 0 0 0 167081099.33371353 -51596043.364044189 0 -51596043.364044189 92646950.817802429 0 0 0 0 53347245.088230133 259095756.40716171 0 259095756.40716171 -57358034.837219238 0 0 0 0 75665024.113319397 215024089.64682007 0 215024089.64682007 -199306090.72697449 0 0 0 0 45338778.076442719 42892796.093009949 0 42892796.093009949 64623810.96408844 0 0 0 0 7946574.2091741562 155907266.04783058 0 155907266.04783058 -72076815.126068115 0 0 0 0 10850867.615840912 24300902.01184082 0 24300902.01184082 -51233767.327575684 0 0 0 0 37475935.888870239 97084157.568450928 0 97084157.568450928 -138126461.30911255 0 0 0 0 92205492.285152435 -18946531.473251343 0 -18946531.473251343 -34239948.13454628 0 0 0 0 82000713.699920654 8433947.1069793701 0 8433947.1069793701 -99945060.890075684 0 0 0 0 283714301.05975914 -15014218.655277252 0 -15014218.655277252 -61421607.504562378 0 0 0 0 147060667.6749649 40614250.817657471 0 40614250.817657471 -51735308.059906006 0 0 0 0 111806831.1421957 9411923.6881484985 0 9411923.6881484985 -48724076.548431396 0 0 0 0 176068827.79486465 74834623.048591614 0 74834623.048591614 -42546253.174468994 0 0 0 0 -52316098.290239334 -6727046.4793777466 0 -6727046.4793777466 -13325617.536979675 0 0 0 0 1883613.030679591 4722409.1160702854 0 4722409.1160702854 1438966.3625921607 0 0 0 0 98332450.239152908 71726263.478343964 0 71726263.478343964 101082974.55165863 0 0 0 0 -42492398.349075317 -71283152.916412354 0 -71283152.916412354 -137369198.35263062 0 0 0 0 18768234.252433777 35561110.75579834 0 35561110.75579834 -268677668.13731003 0 0 0 0 -42329921.414573669 59812077.381801605 0 59812077.381801605 7584297.3013944626 0 0 0 0 -64504012.913225174 -30370930.751163483 0 -30370930.751163483 32223288.658744812 0 0 0 0 -5150135.0111745894 7033255.9531722516 0 7033255.9531722516 2466235.9456872344 0 0 0 0 13933497.859462738 75570386.691425323 0 75570386.691425323 -55968826.575616837 0 0 0 0 -95646198.999132156 -27797107.483545303 0 -27797107.483545303 -18254077.354598999 0 0 0 0 -10685135.864878938 5618895.4495106749 0 5618895.4495106749 6655156.5094653666 0 0 0 0 -134605897.50349617 60086711.019483566 0 60086711.019483566 36263477.181694031 0 0 0 0 -20951611.83425808 128388243.42064667 0 128388243.42064667 24523781.131111145 0 0 0 0 -31149628.639781624 26082033.432396978 0 26082033.432396978 29287625.059513107 0 0 0 0 17777519.937726412 54896771.509924278 0 54896771.509924278 49305257.132913351 0 0 0 0 29968078.171608925 101510696.61266327 0 101510696.61266327 30199356.887588501 0 0 0 0 -14139723.135201454 117947360.75128937 0 117947360.75128937 26975805.568313599 0 0 0 0 -24196425.746669769 148447567.45288849 0 148447567.45288849 15494485.608131409 0 0 0 0 44381735.333026886 142142817.24081421 0 142142817.24081421 12889986.958816528 0 0 0 0 -19689870.664075851 117236498.42258453 0 117236498.42258453 16652464.432933807 0 0 0 0 -139745740.36676598 137066018.77702713 0 137066018.77702713 44040382.402957916 0 0 0 0 -27232265.228126526 172128062.99499512 0 172128062.99499512 8500211.0314254761 0 0 0 0 73644030.017284155 182254459.89799309 0 182254459.89799309 -10551412.763565063 0 0 0 0 -100254499.3205204 122888301.39012146 0 122888301.39012146 6890268.191865921 0 0 0 0 -36654107.117101192 195260707.09297752 0 195260707.09297752 -10696994.347366333 0 0 0 0 -20987296.860538483 177277250.05758286 0 177277250.05758286 15689435.616989136 0 0 0 0 -236499024.14316177 129787471.52444458 0 129787471.52444458 23697722.977945328 0 0 0 0 -377535104.60880661 103874749.6816597 0 103874749.6816597 205313700.73390961 0 0 0 0 12159235.185645115 39581018.919233605 0 39581018.919233605 56489818.292627215 0 0 0 0 -146445507.61235952 153914271.02661705 0 153914271.02661705 16007810.999816895 0 0 0 0 14617103.878210068 -179841740.08113337 0 -179841740.08113337 317586056.63813019 0 0 0 0 -2437814.9114023596 1972950.403701447 0 1972950.403701447 1854708.6599850655 0 0 0 0 -24081135.482028961 201937960.64041138 0 201937960.64041138 451775284.36717224 0 0 0 0 -84689600.787693024 22226598.064758301 0 22226598.064758301 11353092.878791809 0 0 0 0 31698257.806526184 291384088.15608978 0 291384088.15608978 -28638172.694080353 0 0 0 0 56009409.258975506 130970987.40120077 0 130970987.40120077 -17761801.020401001 0 0 0 0 -15146905.070842743 43544951.819860458 0 43544951.819860458 -95812476.240982056 0 0 0 0 -231449197.12215042 255964177.70673752 0 255964177.70673752 35805776.999687195 0 0 0 0 -3366741.3787916005 2518892.5672963262 0 2518892.5672963262 4001670.3041346669 0 0 0 0 -277555391.56448364 204792505.4525795 0 204792505.4525795 -48005624.788497925 0 0 0 0 -321484081.20297623 138564612.61740112 0 138564612.61740112 34057754.515441895 0 0 0 0 11258770.599421345 34182227.542452604 0 34182227.542452604 51048301.143706918 0 0 0 0 -198918612.42133045 197659537.04619217 0 197659537.04619217 -133212408.74383545 0 0 0 0 -186424955.18928337 162246899.65108299 0 162246899.65108299 -80234209.303375244 0 0 0 0 -218414258.17835236 187563600.93948364 0 187563600.93948364 -104756152.87237549 0 0 0 0 -404441883.4622879 291580481.19372559 0 291580481.19372559 -123039064.07744217 0 0 0 0 -166889085.33641815 196327395.15323257 0 196327395.15323257 -290169954.77804565 0 0 0 0 -179995920.58080482 186930971.65402222 0 186930971.65402222 -176340773.78781128 0 0 0 0 -270396163.69215393 194314096.91108704 0 194314096.91108704 -200158339.8059845 0 0 0 0 -98524360.619249821 119242534.06375504 0 119242534.06375504 -181173686.32400513 0 0 0 0 -153904911.43483162 156489669.7381134 0 156489669.7381134 -156772569.53616333 0 0 0 0 -148999155.4101944 160679926.51219177 0 160679926.51219177 -162515954.07155609 0 0 0 0 -108549497.48032379 159081082.85657501 0 159081082.85657501 -222286392.62312317 0 0 0 0 -174638540.93479156 158501409.68659973 0 158501409.68659973 -165129632.52841187 0 0 0 0 -134878242.11754799 195516618.88912964 0 195516618.88912964 -216695536.90011597 0 0 0 0 37691527.744262017 33649416.00575614 0 33649416.00575614 17071997.225435048 0 0 0 0 -138224508.28820229 227134525.31510353 0 227134525.31510353 -228255153.15409851 0 0 0 0 -164869808.0644989 180266046.05862427 0 180266046.05862427 -183207410.043396 0 0 0 0 -137677965.74789429 246548924.81997681 0 246548924.81997681 -198974524.86846924 0 0 0 0 3848528.4400625229 175832606.92076874 0 175832606.92076874 -340632139.00452423 0 0 0 0 -88134230.468742371 266733997.82962799 0 266733997.82962799 -265772015.86461639 0 0 0 0 -434550438.43026543 521674111.08449173 0 521674111.08449173 -424074203.17822266 0 0 0 0 -488868889.20799255 542213834.82925415 0 542213834.82925415 -415633009.67970276 0 0 0 0 3628854.8953305595 2817096.3170005083 0 2817096.3170005083 -2842320.7995774746 0 0 0 0 -153848077.29763031 286161263.46120834 0 286161263.46120834 -432017519.32846069 0 0 0 0 -118596590.78521156 78710032.552200317 0 78710032.552200317 -43746600.322589874 0 0 0 0 -75512831.779119492 203153047.06817627 0 203153047.06817627 44323074.668548584 0 0 0 0 -131273959.54236412 147689200.21381378 0 147689200.21381378 -77751495.778396606 0 0 0 0 -126080156.55698586 166437466.62056732 0 166437466.62056732 -64305301.116363525 0 0 0 0 -101201446.38674736 93828342.899414062 0 93828342.899414062 -67267285.686079025 0 0 0 0 -123046724.27496719 125540738.75263977 0 125540738.75263977 -126638398.18357849 0 0 0 0 -115905905.30230045 129376626.64704132 0 129376626.64704132 -153054566.13395691 0 0 0 0 -116780274.23677635 114798584.41520691 0 114798584.41520691 -138249061.36134338 0 0 0 0 -76467820.577960968 103733201.63368607 0 103733201.63368607 -156005870.62949252 0 0 0 0 -76328696.916755676 80740919.060977936 0 80740919.060977936 -154601236.82585144 0 0 0 0 -116921902.28972274 199284218.65493429 0 199284218.65493429 -61662053.66835022 0 0 0 0 -5245597.2019594163 2677952.0880275369 0 2677952.0880275369 8340817.7334688008 0 0 0 0 -75914322.216751099 112431182.12039566 0 112431182.12039566 -148240902.24130249 0 0 0 0 -130710823.26938629 36293329.63293457 0 36293329.63293457 -37107624.176085949 0 0 0 0 -3826399.6043614894 1125629.7390306592 0 1125629.7390306592 4887148.9713110924 0 0 0 0 -100135811.10217524 103317250.4528656 0 103317250.4528656 10969733.234634399 0 0 0 0 -21467882.639362574 102685774.52289867 0 102685774.52289867 45355.448112487793 0 0 0 0 -102843229.73450565 234942086.45811272 0 234942086.45811272 -64883030.917282104 0 0 0 0 -55649332.28125 198613831.8991394 0 198613831.8991394 -115310217.45122147 0 0 0 0 -110520888.27089787 204880976.54775238 0 204880976.54775238 -90120108.51121521 0 0 0 0 -124119910.92519569 179318922.99055862 0 179318922.99055862 -120307223.03137207 0 0 0 0 -104599224.64609909 205110919.78085327 0 205110919.78085327 -174254017.38804626 0 0 0 0 -94535461.51322937 207062246.0286026 0 207062246.0286026 -189435012.80383301 0 0 0 0 -52229804.747592926 165596287.34212494 0 165596287.34212494 -145485573.80999756 0 0 0 0 -86407600.764770508 77001786.532131195 0 77001786.532131195 -83783187.159835815 0 0 0 0 -114779149.31096268 129801549.87738037 0 129801549.87738037 -163013078.46362877 0 0 0 0 -87584947.81180191 147202951.42825699 0 147202951.42825699 -85723170.723144531 0 0 0 0 53641345.913746357 206514329.64518166 0 206514329.64518166 -65585980.58480835 0 0 0 0 23827620.900281906 60513553.798027039 0 60513553.798027039 -90504994.286806107 0 0 0 0 93221064.777442932 113447549.02175903 0 113447549.02175903 110811.06155395508 0 0 0 0 -82243727.867832184 213496821.79268646 0 213496821.79268646 41605396.661102295 0 0 0 0 -85929446.044779778 190241176.12196541 0 190241176.12196541 -45747562.239753723 0 0 0 0 -119540411.94801712 190723062.71826744 0 190723062.71826744 22343.978889465332 0 0 0 0 -70804064.232666016 192970538.23102188 0 192970538.23102188 -215274531.31747437 0 0 0 0 -65244712.832509995 167931379.40933228 0 167931379.40933228 -104563540.39597321 0 0 0 0 22642690.961782515 28726228.084924787 0 28726228.084924787 17056575.089632764 0 0 0 0 -107159204.50356102 153944239.00798798 0 153944239.00798798 -90125262.357757568 0 0 0 0 -100762710.1885376 124991102.69693375 0 124991102.69693375 -217610.06496841105 0 0 0 0 10380144.939384803 5134850.2689710185 0 5134850.2689710185 -7516907.8622994423 0 0 0 0 176885668.11317039 -51361887.967027187 0 -51361887.967027187 -217713950.86211395 0 0 0 0 16123996.376003072 13197401.722389221 0 13197401.722389221 -7761785.600895524 0 0 0 0 1188124.7194671631 179613396.04543304 0 179613396.04543304 334163.99486541748 0 0 0 0 46710148.296390533 75874080.821437836 0 75874080.821437836 -129506620.35652161 0 0 0 0 112830497.53347015 280403560.18608093 0 280403560.18608093 -189905085.98464966 0 0 0 0 902013.7625458315 3090459.4566411078 0 3090459.4566411078 559360.2669582665 0 0 0 0 8160980.5596084595 -8583685.8041381836 0 -8583685.8041381836 -300387926.25775528 0 0 0 0 169150505.50109005 18868347.932703018 0 18868347.932703018 -42268037.647125244 0 0 0 0 8084917.0351384319 21231012.10598065 0 21231012.10598065 -17615615.744290024 0 0 0 0 35228387.635518074 -1542084.8887872696 0 -1542084.8887872696 40301422.465270996 0 0 0 0 9803301.0057165027 23917198.285007045 0 23917198.285007045 7918806.2768079638 0 0 0 0 11953393.773540497 31639347.444519043 0 31639347.444519043 -14540172.909786224 0 0 0 0 24121681.073831558 41575620.604665756 0 41575620.604665756 -26310148.518516541 0 0 0 0 37198241.989570618 17605610.53175354 0 17605610.53175354 -34666143.414749146 0 0 0 0 5794116.3178693838 20588010.763231322 0 20588010.763231322 -18358218.885165155 0 0 0 0 23965092.723953247 8757574.4848747253 0 8757574.4848747253 -21671425.858311176 0 0 0 0 15485234.59803772 17953192.946872711 0 17953192.946872711 -28514764.013755798 0 0 0 0 -41745244.158111572 38252635.582126617 0 38252635.582126617 -63485316.96850729 0 0 0 0 14093662.404263496 10524943.958105087 0 10524943.958105087 -65702645.108734131 0 0 0 0 4927877.8856958002 2592928.5134194233 0 2592928.5134194233 -5126624.1465289295 0 0 0 0 218184396.64102936 177724901.41082764 0 177724901.41082764 -89820959.478858948 0 0 0 0 -51061280.399446011 198401109.65659726 0 198401109.65659726 -95346430.089431763 0 0 0 0 305056480.54001617 -88765157.388973236 0 -88765157.388973236 -73468887.184091568 0 0 0 0 93302890.640010834 158866289.1270752 0 158866289.1270752 -170553900.36671638 0 0 0 0 -46095089.097837448 27418818.68473053 0 27418818.68473053 31778415.53792572 0 0 0 0 1060382.9862623215 53665744.765722275 0 53665744.765722275 -50013541.813217163 0 0 0 0 87774042.592105865 28252538.604629517 0 28252538.604629517 -128823596.73946762 0 0 0 0 18503332.380369172 9844134.8933721557 0 9844134.8933721557 -18805719.138781488 0 0 0 0 142033193.59181213 -172326240.88843536 0 -172326240.88843536 410520386.88389969 0 0 0 0 200009416.48509216 172290011.95546722 0 172290011.95546722 -181988534.66751862 0 0 0 0 -84574577.690366745 313401144.83560848 0 313401144.83560848 53875266.020126343 0 0 0 0 -6111286.7392153889 5817116.8103985041 0 5817116.8103985041 -531458.84467855841 0 0 0 0 -278238172.30682373 522547265.0930748 0 522547265.0930748 -578519447.76892853 0 0 0 0 -270349835.20692444 194867052.83141327 0 194867052.83141327 789684499.27096558 0 0 0 0 -465660359.49562836 783690528.37346268 0 783690528.37346268 1162925.4839859009 0 0 0 0 -106818795.19588661 863009521.42436028 0 863009521.42436028 -270970579.99337769 0 0 0 0 -408144655.48422623 558008782.43054199 0 558008782.43054199 260107178.42212677 0 0 0 0 -94781810.69304657 280087875.9443512 0 280087875.9443512 125527121.71086121 0 0 0 0 -64639868.055847168 489604650.4588623 0 489604650.4588623 -68716862.386650085 0 0 0 0 -31174935.484367371 308031177.35192108 0 308031177.35192108 -237478740.44197845 0 0 0 0 525565676.72896671 -158561454.23280907 0 -158561454.23280907 -49440279.77028656 0 0 0 0 856845295.05808258 466638157.37178802 0 466638157.37178802 -254657907.37750244 0 0 0 0 1281354372.3602142 685853786.51908875 0 685853786.51908875 -456924208.43119812 0 0 0 0 1499076148.0094867 -671182154.16226339 0 -671182154.16226339 138189540.06013489 0 0 0 0 4823365.2674856335 6458821.2608786672 0 6458821.2608786672 -6491063.2005079538 0 0 0 0 -37246057.01499939 71150700.607543945 0 71150700.607543945 -299274.97850287822 0 0 0 0 -33457640.818061829 70003096.486328125 0 70003096.486328125 -124989934.32145691 0 0 0 0 307586926.74178314 -64815419.698043823 0 -64815419.698043823 8079254.4050865173 0 0 0 0 317650910.57047653 4928783.4792137146 0 4928783.4792137146 -145984893.82231903 0 0 0 0 344973744.88619232 82209891.868965149 0 82209891.868965149 -138028694.56615973 0 0 0 0 269258532.40527534 100298601.85357094 0 100298601.85357094 -46190683.415046692 0 0 0 0 78020493.883140564 111557859.69915771 0 111557859.69915771 80128703.932556152 0 0 0 0 137207435.72119904 149754226.89274597 0 149754226.89274597 -33717071.611308098 0 0 0 0 3795474.6529859751 1433291.0846620202 0 1433291.0846620202 -2964246.9001279771 0 0 0 0 -104989357.40594101 435674293.20083618 0 435674293.20083618 1183580078.9633942 0 0 0 0 100139226.70135498 302140495.83600235 0 302140495.83600235 161534490.1435585 0 0 0 0 379764056.96752954 351874031.27085686 0 351874031.27085686 -869952230.74942017 0 0 0 0 387241247.7411499 486563723.18269348 0 486563723.18269348 -218658906.23894501 0 0 0 0 435656517.28052521 151381731.20614624 0 151381731.20614624 -383175449.50849915 0 0 0 0 272927470.98534012 295646109.59176636 0 295646109.59176636 -277823648.69261169 0 0 0 0 64962519.591022491 274312411.59132767 0 274312411.59132767 -287921259.23162842 0 0 0 0 -254925798.38489056 568608361.65309334 0 568608361.65309334 -503546915.05363464 0 0 0 0 -159790272.25614166 39886889.840682983 0 39886889.840682983 -416919878.94009399 0 0 0 0 132072483.99327087 931710401.18379211 0 931710401.18379211 -102023505.26805878 0 0 0 0 110070550.23394012 404651336.51612854 0 404651336.51612854 535993660.31724358 0 0 0 0 -5517976.6001473665 4858341.2600883543 0 4858341.2600883543 -1364864.6350850165 0 0 0 0 -23610955.86264658 392944182.07222795 0 392944182.07222795 538265971.78572083 0 0 0 0 -43533901.155456543 15631974.371574402 0 15631974.371574402 9215727.2020111084 0 0 0 0 131386908.39942932 49645130.019760132 0 49645130.019760132 -238987015.1229248 0 0 0 0 128073149.7335968 89936327.423492432 0 89936327.423492432 -705514038.52005005 0 0 0 0 76766499.915992737 153709312.39468384 0 153709312.39468384 -398377519.81318665 0 0 0 0 3737916.777759552 323043143.49440002 0 323043143.49440002 -425377040.84194946 0 0 0 0 -9428397.8990421295 392408371.7964859 0 392408371.7964859 -280125152.59187317 0 0 0 0 247001591.02742028 287565355.45148611 0 287565355.45148611 218964732.46203613 0 0 0 0 252908042.19545746 229503947.69792175 0 229503947.69792175 6288424.0030822754 0 0 0 0 349859444.10004807 489918745.8541584 0 489918745.8541584 339780592.83669281 0 0 0 0 313767413.19564629 312368925.23336124 0 312368925.23336124 229640736.58421326 0 0 0 0 296192906.68225098 409552678.63902283 0 409552678.63902283 -2222985.555267334 0 0 0 0 78645712.216148376 524510434.74356079 0 524510434.74356079 276932651.06658936 0 0 0 0 50710010.427494049 172959351.30266953 0 172959351.30266953 102346896.29112053 0 0 0 0 -8059731.0912857056 292463021.32427216 0 292463021.32427216 -19316554.057907104 0 0 0 0 -219707728.14185715 149242143.04449463 0 149242143.04449463 -417914.82500457764 0 0 0 0 63574889.46621418 417940563.43620205 0 417940563.43620205 -474568870.64785767 0 0 0 0 -204932163.94548416 214655944.76363373 0 214655944.76363373 18064850.504051208 0 0 0 0 -210813139.11119843 185048759.30623627 0 185048759.30623627 -118864754.6044426 0 0 0 0 7341267.5133490115 7034873.4193100184 0 7034873.4193100184 -7055334.2648665756 0 0 0 0 2887151.9594661444 12860330.061488539 0 12860330.061488539 -11910944.28181693 0 0 0 0 -276576315.11067963 119897432.84017944 0 119897432.84017944 -26361816.229038239 0 0 0 0 -246892353.04737091 166946041.58688545 0 166946041.58688545 46615328.714385986 0 0 0 0 -826474554.69391251 65003582.728694916 0 65003582.728694916 84609584.131960869 0 0 0 0 371788.34076464549 4548357.9388237149 0 4548357.9388237149 -3725403.6688683331 0 0 0 0 62593649.332303047 60735201.303836823 0 60735201.303836823 29313873.363441467 0 0 0 0 -22292518.02148819 -180182923.26646614 0 -180182923.26646614 342752481.46690369 0 0 0 0 57286589.410858154 -59473206.926139832 0 -59473206.926139832 -164057039.83968973 0 0 0 0 -115732532.31002998 94938340.815839767 0 94938340.815839767 18924240.664001465 0 0 0 0 -310939170.81628418 422554219.68105316 0 422554219.68105316 -57345912.764930725 0 0 0 0 132392601.71194792 68632310.854819775 0 68632310.854819775 118509860.79605103 0 0 0 0 106100625.35829544 189829869.0916481 0 189829869.0916481 -52616802.148384094 0 0 0 0 139502093.79493523 143786921.88656616 0 143786921.88656616 47522692.705955505 0 0 0 0 -15611486.890014648 114685060.77383041 0 114685060.77383041 221807337.48065567 0 0 0 0 168222898.65341568 131541410.35100555 0 131541410.35100555 222319053.39179611 0 0 0 0 159055443.96417618 163257841.38854027 0 163257841.38854027 149495633.16039276 0 0 0 0 207234731.04597569 -22957314.363324165 0 -22957314.363324165 -19199737.444694519 0 0 0 0 4777771.6647495031 2665282.3338553458 0 2665282.3338553458 -2139837.3454460576 0 0 0 0 35874190.767211914 188981695.91742325 0 188981695.91742325 446385689.97556305 0 0 0 0 181864.10696029663 156660615.81648636 0 156660615.81648636 664901186.48155975 0 0 0 0 361022757.15966034 278552551.77308273 0 278552551.77308273 204496326.5753479 0 0 0 0 270133570.38725138 38996653.163724422 0 38996653.163724422 -43879698.772712708 0 0 0 0 307398099.60968399 284271152.13879395 0 284271152.13879395 75722607.50227356 0 0 0 0 134354284.99308777 170520202.42240143 0 170520202.42240143 -141752657.9343071 0 0 0 0 133648864.33756256 -17597042.756072998 0 -17597042.756072998 -71933716.997407913 0 0 0 0 16641675.059101105 -25886376.361854553 0 -25886376.361854553 9894971.6825675964 0 0 0 0 5364181.2573661804 505495.08699035645 0 505495.08699035645 -30825390.932868958 0 0 0 0 12632712.1991117 8421027.6987378448 0 8421027.6987378448 -8393677.9982459545 0 0 0 0 17157939.431995392 16090941.51867485 0 16090941.51867485 -20336644.148956299 0 0 0 0 61190595.180690765 42935713.759918213 0 42935713.759918213 -959253.60157203674 0 0 0 0 19886160.32423687 34989469.796147823 0 34989469.796147823 9096563.7683372498 0 0 0 0 156202080.93968201 229704937.54875946 0 229704937.54875946 68121896.914482117 0 0 0 0 -15594568.773500443 64870205.13910675 0 64870205.13910675 151926542.48985291 0 0 0 0 106108199.31476021 278411823.02087402 0 278411823.02087402 154095384.53883743 0 0 0 0 108692853.45463943 246281218.24450493 0 246281218.24450493 -83584917.349210739 0 0 0 0 144162382.26926231 57834117.812244415 0 57834117.812244415 -107320741.28411865 0 0 0 0 74671406.008960724 171056609.36042786 0 171056609.36042786 133295376.96679688 0 0 0 0 158555381.39485168 225324952.21948051 0 225324952.21948051 64506837.243774414 0 0 0 0 275659686.45737457 373501740.07901382 0 373501740.07901382 193365179.82914352 0 0 0 0 65327503.619152069 175373215.94786835 0 175373215.94786835 74926245.830127716 0 0 0 0 -17421535.622703552 270074792.43349838 0 270074792.43349838 104746854.61911774 0 0 0 0 -410569.42702865601 -85646872.62241745 0 -85646872.62241745 2036504.4977550507 0 0 0 0 419013641.66595459 104902246.53090668 0 104902246.53090668 28793611.441375732 0 0 0 0 -67779361.780849457 23277391.206150055 0 23277391.206150055 99347753.111373901 0 0 0 0 -12109325.902084991 18614830.670621336 0 18614830.670621336 2443687.5777492486 0 0 0 0 -202952031.4126358 229913783.61327744 0 229913783.61327744 -414344164.12889099 0 0 0 0 84339.825767219067 3137951.5555676222 0 3137951.5555676222 -4672891.1638427675 0 0 0 0 24877255.864093781 -76823971.038627625 0 -76823971.038627625 -580274809.43187904 0 0 0 0 4130798.3901786804 367607585.71051788 0 367607585.71051788 85958224.022956848 0 0 0 0 76123846.300537109 49852020.128952026 0 49852020.128952026 -639007827.40291786 0 0 0 0 10838293.57809639 46255480.615663528 0 46255480.615663528 -423354022.24548721 0 0 0 0 65049208.657096863 220804954.5763092 0 220804954.5763092 333906081.54066086 0 0 0 0 -9824687.5672547221 15201674.185798407 0 15201674.185798407 178600.82041333616 0 0 0 0 -102401816.67518616 -6691958.7575645447 0 -6691958.7575645447 -296020375.46374512 0 0 0 0 81334146.293796539 53618245.862766266 0 53618245.862766266 -608693744.29466295 0 0 0 0 -18327349.368966579 109861007.75249529 0 109861007.75249529 -54877793.417617798 0 0 0 0 47647538.551330566 107140489.99568176 0 107140489.99568176 -272809086.68913984 0 0 0 0 -1640579.9629758 7031902.9198510945 0 7031902.9198510945 -1452048.2520596087 0 0 0 0 -51914522.293250084 -23461326.844933033 0 -23461326.844933033 35998441.836521149 0 0 0 0 -83526177.818809509 2964205.2195625305 0 2964205.2195625305 1910897.5604324341 0 0 0 0 -237500310.21411133 -75733726.642524719 0 -75733726.642524719 2994558.992401123 0 0 0 0 -155612.70053757727 645577.92041283101 0 645577.92041283101 -222080.67494289577 0 0 0 0 238209929.78284264 168900783.40061378 0 168900783.40061378 142710074.12685394 0 0 0 0 228746182.17288208 236197951.95882416 0 236197951.95882416 197068942.70539856 0 0 0 0 299878274.18951035 206829533.2378788 0 206829533.2378788 117829746.29508018 0 0 0 0 -467505.55643568188 8327941.7058903575 0 8327941.7058903575 -9971863.4616923034 0 0 0 0 199635181.55986214 134480464.73368645 0 134480464.73368645 158555932.29289246 0 0 0 0 56209874.63494873 257687145.97514153 0 257687145.97514153 211731342.26966095 0 0 0 0 24758170.002380371 175123910.69519424 0 175123910.69519424 201122142.83721161 0 0 0 0 39248343.495449066 -164091421.45590973 0 -164091421.45590973 -274282981.37576294 0 0 0 0 -117110814.92781115 126581122.03284693 0 126581122.03284693 -121026011.79139709 0 0 0 0 145283862.56702423 250558545.18705559 0 250558545.18705559 -341178016.7060318 0 0 0 0 54166686.491060257 265609674.94141197 0 265609674.94141197 -118377245.84806824 0 0 0 0 -42552076.560901642 176407876.37692261 0 176407876.37692261 150531784.0220108 0 0 0 0 -102386597.29253674 116630452.0654726 0 116630452.0654726 993394355.61813354 0 0 0 0 -3238703.911597088 1484044.1860057712 0 1484044.1860057712 -50872.771102186292 0 0 0 0 -190948619.46520996 451252586.48699188 0 451252586.48699188 -376303214.37543869 0 0 0 0 249365395.29963684 133469367.61112213 0 133469367.61112213 -1211491764.5684128 0 0 0 0 -216463761.64837456 -41703358.242376328 0 -41703358.242376328 -425829760.59414673 0 0 0 0 -7662949.9932273477 8695442.2754820287 0 8695442.2754820287 -154883.21525600553 0 0 0 0 -354048293.40921974 298882037.60536575 0 298882037.60536575 867116347.33467484 0 0 0 0 120155825.67971039 76899398.219772339 0 76899398.219772339 -790060103.99658036 0 0 0 0 -3268033.1823897362 3248689.221150279 0 3248689.221150279 -608118.25679566711 0 0 0 0 -115223905.91052151 -71173331.104487419 0 -71173331.104487419 120228842.08706665 0 0 0 0 -157301905.07972336 258785474.76359177 0 258785474.76359177 -237200150.00409126 0 0 0 0 -74276238.752113342 169807603.59395599 0 169807603.59395599 -143206408.30705261 0 0 0 0 -185967698.33090782 240009776.44374657 0 240009776.44374657 -194693838.75000381 0 0 0 0 166446839.20190048 151202695.90438843 0 151202695.90438843 -372061805.24528503 0 0 0 0 -231675405.74289131 -145245034.38283157 0 -145245034.38283157 220389847.1607132 0 0 0 0 -1163718.288083002 487978.8280916065 0 487978.8280916065 -746292.87643666565 0 0 0 0 -37750846.721138 373121403.43744469 0 373121403.43744469 -651965515.79955673 0 0 0 0 -233514764.15759659 306610671.83868027 0 306610671.83868027 -107415326.92056942 0 0 0 0 51428311.33216095 83634096.292633057 0 83634096.292633057 -180243370.51015377 0 0 0 0 68796061.553995132 52584760.169898987 0 52584760.169898987 -284094755.73491669 0 0 0 0 31680760.79235363 -13945316.984163761 0 -13945316.984163761 93628598.704109192 0 0 0 0 32174811.641210556 167555126.27009773 0 167555126.27009773 87998396.623069763 0 0 0 0 -33431105.420382023 138542896.39734983 0 138542896.39734983 119308554.24562073 0 0 0 0 -153341422.38225746 75747349.90760994 0 75747349.90760994 86632231.62531662 0 0 0 0 -2638260.3030795008 1430914.4241299033 0 1430914.4241299033 -88723.937871664762 0 0 0 0 75976480.513988495 116426164.68143463 0 116426164.68143463 -30940183.590366364 0 0 0 0 -45677673.363243103 -20903975.541042328 0 -20903975.541042328 120992839.16540909 0 0 0 0 49183145.991418839 160178900.97631454 0 160178900.97631454 -270714451.78527069 0 0 0 0 -1877040.540195182 876894.37616573274 0 876894.37616573274 -74657.242837604135 0 0 0 0 -106213430.03943634 332251158.49673271 0 332251158.49673271 -452376330.25273514 0 0 0 0 -513882217.7556076 386394778.29149246 0 386394778.29149246 -143314573.68751258 0 0 0 0 -479989097.59294128 597475296.49249268 0 597475296.49249268 -111863840.02900696 0 0 0 0 -312835057.42922592 236170800.25548172 0 236170800.25548172 387860718.40821457 0 0 0 0 -348213023.51898575 9556407.5204277039 0 9556407.5204277039 -44018308.305854797 0 0 0 0 -249036748.4511261 104390384.43244934 0 104390384.43244934 -5911151.0537223816 0 0 0 0 -99109483.069545746 133551274.47068787 0 133551274.47068787 -48872361.137260437 0 0 0 0 -25237886.067220211 127415074.5779705 0 127415074.5779705 -49751290.754257202 0 0 0 0 9887637.3822631836 65208503.193202972 0 65208503.193202972 538340.85518836975 0 0 0 0 9601952.0747499466 36213589.985578537 0 36213589.985578537 -36872032.064155579 0 0 0 0 116427922.58566666 61085920.244817734 0 61085920.244817734 -43923406.044368744 0 0 0 0 2513806.2822036743 86021951.146011353 0 86021951.146011353 -20538677.583625793 0 0 0 0 66844757.316875458 81275526.90190506 0 81275526.90190506 -22219117.180435181 0 0 0 0 52293019.946874619 88088207.320627213 0 88088207.320627213 26037570.669750214 0 0 0 0 36254718.863391876 63751851.877182007 0 63751851.877182007 17946185.532175064 0 0 0 0 64604613.615802765 56307186.492786407 0 56307186.492786407 -28536670.184410095 0 0 0 0 -9561023.6082148552 25402882.891515732 0 25402882.891515732 -30779540.573326111 0 0 0 0 188921393.69885826 141371309.28293991 0 141371309.28293991 -129659831.50057602 0 0 0 0 147525675.88735962 165204535.91774559 0 165204535.91774559 -28325546.636814117 0 0 0 0 126139687.42272568 40968526.958286285 0 40968526.958286285 -88432997.358491898 0 0 0 0 76342061.200014114 71851651.703052521 0 71851651.703052521 -97382470.259311676 0 0 0 0 121893705.67404175 213695871.37725353 0 213695871.37725353 9213295.3743362427 0 0 0 0 152403822.21791077 117765573.48036194 0 117765573.48036194 153959125.82066536 0 0 0 0 138485933.38710022 176202645.05392456 0 176202645.05392456 185946889.64584541 0 0 0 0 172843924.12300873 237074844.02153778 0 237074844.02153778 367534306.47492218 0 0 0 0 152828880.41144562 111821216.24861145 0 111821216.24861145 51710148.868894577 0 0 0 0 303508534.2980423 218770423.91875458 0 218770423.91875458 88333146.551422119 0 0 0 0 -6225186.8901645839 6084380.9203964025 0 6084380.9203964025 -1043676.1615311205 0 0 0 0 87360443.110832214 78889692.158973694 0 78889692.158973694 -21487305.371006012 0 0 0 0 165279690.39089584 273539819.61048126 0 273539819.61048126 227118781.8213501 0 0 0 0 161805875.85037994 193714131.92288208 0 193714131.92288208 270024349.11509705 0 0 0 0 220453411.74201965 152384305.44021988 0 152384305.44021988 -11697351.71472168 0 0 0 0 23318106.671546936 -36649766.924045563 0 -36649766.924045563 -51869238.397697449 0 0 0 0 -563009896.73059845 260368426.13372803 0 260368426.13372803 -65404739.763339996 0 0 0 0 -307780887.80975342 -95970686.499069214 0 -95970686.499069214 95642229.345924377 0 0 0 0 -2412057.1712294891 2506415.2181949914 0 2506415.2181949914 -943536.76604743302 0 0 0 0 232984101.76005554 291405298.8916893 0 291405298.8916893 -270726256.21759033 0 0 0 0 -100505452.75231934 544974044.4707489 0 544974044.4707489 -300451109.96408987 0 0 0 0 61865753.715515137 270885349.06611252 0 270885349.06611252 -143177222.74530029 0 0 0 0 -584058681.21912956 309420514.53292084 0 309420514.53292084 -14405135.115959167 0 0 0 0 149083230.10908508 124479112.02755356 0 124479112.02755356 -21015610.224729538 0 0 0 0 231122667.20422804 85660510.994185388 0 85660510.994185388 14456588.41003418 0 0 0 0 195424339.36260605 250498381.95701599 0 250498381.95701599 -237408593.18637848 0 0 0 0 78149268.174922943 290648855.71191978 0 290648855.71191978 -162653894.63478088 0 0 0 0 35968946.236326694 161840969.28635263 0 161840969.28635263 -117497741.17221832 0 0 0 0 -107220284.15404129 283577245.73028183 0 283577245.73028183 -81729841.228847504 0 0 0 0 -100222369.68429565 262641523.43738174 0 262641523.43738174 -19236178.446671963 0 0 0 0 -77841591.810424805 246272070.42477226 0 246272070.42477226 -67543205.782857895 0 0 0 0 -105236386.08707047 139177652.18281937 0 139177652.18281937 -80435762.999809265 0 0 0 0 31247096.014251709 158867581.99822235 0 158867581.99822235 -110751270.20471191 0 0 0 0 41595328.946447372 67493577.565463305 0 67493577.565463305 -78855021.29776001 0 0 0 0 18417275.83206749 48207304.6165905 0 48207304.6165905 -93227692.334354401 0 0 0 0 2148986.9168548584 146313336.01971054 0 146313336.01971054 -84594407.085437298 0 0 0 0 29259552.352268219 104401378.34588623 0 104401378.34588623 -33687127.739177704 0 0 0 0 25456012.520700455 96331802.956953049 0 96331802.956953049 6078433.2650909424 0 0 0 0 -30883435.124058247 106433977.53992367 0 106433977.53992367 53598888.955848694 0 0 0 0 -6762561.5131530762 15154621.954059601 0 15154621.954059601 -94471837.459705353 0 0 0 0 -2144900.1468048096 64223778.763629913 0 64223778.763629913 -5948094.9462471008 0 0 0 0 -114189.15071678162 -3972431.7869930267 0 -3972431.7869930267 -171029504.20463943 0 0 0 0 -77342454.042526245 65031095.022464752 0 65031095.022464752 -113917281.8256855 0 0 0 0 24092053.574913025 117778836.46959972 0 117778836.46959972 -328174312.1911087 0 0 0 0 588133.87744949758 3831664.3452936336 0 3831664.3452936336 897399.32235939801 0 0 0 0 107630391.87546444 146962706.11689711 0 146962706.11689711 -300435698.24350357 0 0 0 0 555357.54665017128 1527017.6798615977 0 1527017.6798615977 367941.43767848611 0 0 0 0 869403.82592391968 157390113.79066277 0 157390113.79066277 -156149975.26646423 0 0 0 0 -23138645.903612137 102801016.27091599 0 102801016.27091599 -266536661.69045258 0 0 0 0 -63012367.035217285 117754396.32387543 0 117754396.32387543 -80263964.942398071 0 0 0 0 -69044722.485393524 90871998.604598999 0 90871998.604598999 -137909746.32985687 0 0 0 0 15337886.947330475 -33378158.941043854 0 -33378158.941043854 -150833929.51705551 0 0 0 0 256198375.30673218 134501049.17814636 0 134501049.17814636 -213104399.17102051 0 0 0 0 -2791421.6994154006 4348884.4734463617 0 4348884.4734463617 1339925.3832673877 0 0 0 0 90452284.254852295 85224068.672748566 0 85224068.672748566 -263935638.20321846 0 0 0 0 24555763.539783686 313903888.92877281 0 313903888.92877281 9312007.4650192261 0 0 0 0 584867931.06796646 230675002.84407997 0 230675002.84407997 -75498279.591571808 0 0 0 0 -1546271.2787954994 1497997.4809348434 0 1497997.4809348434 994941.91279631853 0 0 0 0 40835960.187984467 139929619.48396301 0 139929619.48396301 83448955.575618744 0 0 0 0 128219353.91139603 117901417.43743896 0 117901417.43743896 13251759.344552994 0 0 0 0 -7128444.5764574334 9183102.9779608101 0 9183102.9779608101 4245424.3613432646 0 0 0 0 323874385.99803543 198741724.04838181 0 198741724.04838181 7577305.8789138794 0 0 0 0 131493825.6085453 166240033.15004027 0 166240033.15004027 140076432.44185638 0 0 0 0 -204502550.85442162 68597222.214426041 0 68597222.214426041 255135402.53289032 0 0 0 0 -163303563.73567581 61966158.153877258 0 61966158.153877258 -226644268.65883636 0 0 0 0 218587105.81600356 302468605.29123688 0 302468605.29123688 88392566.309814453 0 0 0 0 133432593.38124847 157297175.82599258 0 157297175.82599258 18964101.359779358 0 0 0 0 -301539089.37612534 79811540.395439148 0 79811540.395439148 141356796.28957748 0 0 0 0 -689905015.08646774 -76104813.095947266 0 -76104813.095947266 253376929.15222168 0 0 0 0 -32330190.337603807 201878805.29908752 0 201878805.29908752 125921440.70432663 0 0 0 0 7175015.886644125 114703910.48514557 0 114703910.48514557 278607415.2388382 0 0 0 0 262398974.71956229 637905797.97917175 0 637905797.97917175 352808742.23856628 0 0 0 0 184997003.74332404 499793783.66021037 0 499793783.66021037 283653846.38693237 0 0 0 0 -31421116.381977357 57653076.311017722 0 57653076.311017722 -62498854.898569472 0 0 0 0 397851709.32164598 199165053.89760995 0 199165053.89760995 -170877262.39218903 0 0 0 0 -129014599.0803299 310995342.56410217 0 310995342.56410217 368118931.67047691 0 0 0 0 112910174.7042907 369147348.20493209 0 369147348.20493209 351606890.94511032 0 0 0 0 381959127.1258316 401008464.22961807 0 401008464.22961807 11647822.459281921 0 0 0 0 227018231.24584961 210725855.93585205 0 210725855.93585205 85479973.492547989 0 0 0 0 -27917323.821270809 56092889.806372419 0 56092889.806372419 -58850606.418150559 0 0 0 0 277108911.63320923 141268633.8679657 0 141268633.8679657 -236649211.33738708 0 0 0 0 174400776.08596039 182066532.17778397 0 182066532.17778397 -75095008.955814362 0 0 0 0 146512790.86566925 292060253.88987732 0 292060253.88987732 -473299691.33409119 0 0 0 0 132337991.5399437 41643353.921975136 0 41643353.921975136 -32238743.783027649 0 0 0 0 49860740.565563202 37891820.780410767 0 37891820.780410767 -22361740.140405655 0 0 0 0 171079595.8435812 -14932556.593790054 0 -14932556.593790054 -136578148.25234985 0 0 0 0 213263357.39175034 51605419.782829285 0 51605419.782829285 -34580109.818506241 0 0 0 0 145002956.72640038 88184894.892858505 0 88184894.892858505 -18336583.115524292 0 0 0 0 -245954313.1789856 183872443.38864899 0 183872443.38864899 -178456639.85958862 0 0 0 0 -122056280.36013031 829478698.1105423 0 829478698.1105423 -765594112.75164032 0 0 0 0 352119549.32070923 355985652.60338593 0 355985652.60338593 -508704315.02986145 0 0 0 0 277265413.54213715 113043692.0592804 0 113043692.0592804 -357898857.43782043 0 0 0 0 -791693918.97421265 169411887.47607422 0 169411887.47607422 -609233992.90149689 0 0 0 0 -3353563.8795837015 2844021.0509753451 0 2844021.0509753451 1211375.8552380055 0 0 0 0 189905162.66942215 257088949.75247192 0 257088949.75247192 -806513383.72153473 0 0 0 0 45115540.76889801 -124149138.92598724 0 -124149138.92598724 -585811251.7582283 0 0 0 0 -1039212849.9296989 406439943.96940613 0 406439943.96940613 -40869204.389083862 0 0 0 0 3938781.6299946532 3090329.2203569338 0 3090329.2203569338 -5032936.3925458491 0 0 0 0 18386615.789142609 -102197380.5007782 0 -102197380.5007782 -178083902.20516205 0 0 0 0 -76460415.915145874 73905417.700214386 0 73905417.700214386 -28396984.198296785 0 0 0 0 -35993330.154457092 232345729.17935944 0 232345729.17935944 -240354412.85764694 0 0 0 0 -495776329.32609558 215568000.23526001 0 215568000.23526001 -32264179.053333759 0 0 0 0 -132739747.7372818 565621663.60031891 0 565621663.60031891 -476597800.04766846 0 0 0 0 58760990.032394409 280449529.62371826 0 280449529.62371826 -305018080.36695862 0 0 0 0 -32801555.618251801 111394091.37685013 0 111394091.37685013 -46729796.021934509 0 0 0 0 -40219091.100738525 108735260.82854462 0 108735260.82854462 -43367242.967842102 0 0 0 0 -195422745.34717751 171805701.59950638 0 171805701.59950638 -49560290.963348389 0 0 0 0 -80339729.160874367 128804881.97299385 0 128804881.97299385 -45215389.262924194 0 0 0 0 -22783741.257801056 30465147.39213562 0 30465147.39213562 -8667013.3670310974 0 0 0 0 -60188220.588949203 88562693.163766861 0 88562693.163766861 -28919927.319602966 0 0 0 0 11999996.693429284 10260798.815264143 0 10260798.815264143 -12156822.981121078 0 0 0 0 29433495.039499868 36435516.790548161 0 36435516.790548161 -3141668.6174302697 0 0 0 0 45748143.806089401 42719335.293136597 0 42719335.293136597 -10803789.003368378 0 0 0 0 69342190.7640028 58342298.083257675 0 58342298.083257675 -21437716.77016449 0 0 0 0 14087591.560580254 68836005.496085167 0 68836005.496085167 14121165.63571167 0 0 0 0 14191756.598161697 67709047.101882935 0 67709047.101882935 -2285402.239440918 0 0 0 0 30735523.011301633 37324961.457422495 0 37324961.457422495 -1466358.0818417966 0 0 0 0 23776937.747444153 55092831.155044556 0 55092831.155044556 -17996678.9599123 0 0 0 0 50761585.822822571 98458107.750099182 0 98458107.750099182 -52668464.641204834 0 0 0 0 39437312.183746338 98987318.997058868 0 98987318.997058868 -39550199.263198853 0 0 0 0 -43334850.500267029 139147564.53800201 0 139147564.53800201 -56705827.935913086 0 0 0 0 -8045496.5303955078 116496679.48503876 0 116496679.48503876 -61861470.270431519 0 0 0 0 -25904627.596534729 92487484.913791656 0 92487484.913791656 -13567556.140884399 0 0 0 0 134436309.10942841 45332442.599010468 0 45332442.599010468 -33067471.336423874 0 0 0 0 150396256.18911362 54393816.529647827 0 54393816.529647827 -45523234.164421082 0 0 0 0 186998215.47907066 -870010.93488121033 0 -870010.93488121033 -44328853.049537659 0 0 0 0 8225241.4013253003 1043441.2176718079 0 1043441.2176718079 -8439505.4515344799 0 0 0 0 37061372.065973684 4795210.3900274262 0 4795210.3900274262 -38926240.435926288 0 0 0 0 106502013.96277237 13631295.71068573 0 13631295.71068573 -45247209.18353653 0 0 0 0 128303718.95891953 31557090.293540955 0 31557090.293540955 -49684118.889343262 0 0 0 0 91641415.416152954 63981282.15555954 0 63981282.15555954 -46943146.082368851 0 0 0 0 74950558.93788147 59397754.773889542 0 59397754.773889542 -49814551.180194624 0 0 0 0 88342526.539321899 74582765.147605896 0 74582765.147605896 -81709345.233951569 0 0 0 0 40045819.389580086 12643573.088685401 0 12643573.088685401 -47379903.61125657 0 0 0 0 118909973.66358185 71224000.473310471 0 71224000.473310471 -2357976.0931396484 0 0 0 0 115595224.8135376 64734435.776557922 0 64734435.776557922 -9494376.8326339722 0 0 0 0 13752159.142854691 87913399.8074646 0 87913399.8074646 61594164.933242798 0 0 0 0 287347485.29875183 -183690926.00372314 0 -183690926.00372314 -41498135.358428955 0 0 0 0 244236497.31884003 182028410.78406525 0 182028410.78406525 207523729.40062714 0 0 0 0 1075008.9724487327 3040728.3096702695 0 3040728.3096702695 359290.91282765567 0 0 0 0 -11879925.147022247 128051218.32803345 0 128051218.32803345 197757637.32577515 0 0 0 0 57275368.021213531 139095269.02737427 0 139095269.02737427 106979240.31665039 0 0 0 0 49364372.389607906 179731052.41925716 0 179731052.41925716 163827603.33105469 0 0 0 0 -57736736.208911896 82765242.494064331 0 82765242.494064331 160316671.74915314 0 0 0 0 336111553.82186317 124455817.21025085 0 124455817.21025085 -53113289.783050537 0 0 0 0 595023.26194992661 976094.07294981182 0 976094.07294981182 -3773982.4878420681 0 0 0 0 213887343.55562973 195718694.75416565 0 195718694.75416565 213070896.12939453 0 0 0 0 -4856533.8759699389 43169479.87947458 0 43169479.87947458 -13067637.109458208 0 0 0 0 32867991.565025091 94968521.156700134 0 94968521.156700134 6105066.5799026489 0 0 0 0 70833377.595877171 107773022.34167719 0 107773022.34167719 -52836440.571678162 0 0 0 0 6778172.7615890503 51767437.159866333 0 51767437.159866333 26277959.059402466 0 0 0 0 2540028.991355896 19424055.786994934 0 19424055.786994934 3457070.7126312256 0 0 0 0 15249059.417507939 21568937.923270062 0 21568937.923270062 5096523.5022770762 0 0 0 0 9005598.940952301 10857072.076774597 0 10857072.076774597 312948.32992553711 0 0 0 0 12312144.507451817 24390605.377074383 0 24390605.377074383 8080095.5886383057 0 0 0 0 44977322.328323364 41504923.248298645 0 41504923.248298645 45074462.185440063 0 0 0 0 6179786.779647857 32627111.912092548 0 32627111.912092548 7513578.2517662644 0 0 0 0 1380432.1176601201 4088286.6897126734 0 4088286.6897126734 3550743.8307719231 0 0 0 0 -16622764.13433075 79230160.939437866 0 79230160.939437866 22613819.253814697 0 0 0 0 -5195498.4754066467 28503703.884246826 0 28503703.884246826 -8886790.3357696533 0 0 0 0 11582876.57157135 46995828.550140381 0 46995828.550140381 23727145.333423615 0 0 0 0 1446670.8090057373 34721890.136550903 0 34721890.136550903 29761964.380065918 0 0 0 0 13781396.875087738 75658789.603630066 0 75658789.603630066 54418624.331298828 0 0 0 0 21854813.767621994 54440926.620422363 0 54440926.620422363 26991889.026443481 0 0 0 0 64524372.584312439 19678687.228408813 0 19678687.228408813 36055640.196731567 0 0 0 0 2464472.1955879033 5820495.3216576427 0 5820495.3216576427 -3256101.9287423491 0 0 0 0 5094488.965306066 13551688.834898204 0 13551688.834898204 -2106327.4462927133 0 0 0 0 -20153643.716407776 61405263.19380188 0 61405263.19380188 116573012.95291901 0 0 0 0 98322551.358427048 -50231800.29536438 0 -50231800.29536438 38391258.128128052 0 0 0 0 -60748282.14332962 38409761.000688553 0 38409761.000688553 112783225.30828857 0 0 0 0 -23084725.760826111 27767342.65725708 0 27767342.65725708 61811889.07598877 0 0 0 0 -454753072.09872627 304407680.65865326 0 304407680.65865326 6896955.8603515625 0 0 0 0 34718182.968765259 -6518293.4416809082 0 -6518293.4416809082 -2116524.2915039062 0 0 0 0 -650073.20493479073 1974855.8601492494 0 1974855.8601492494 -218540.55866795033 0 0 0 0 21550660.306780428 37419363.973354086 0 37419363.973354086 -290885.74658711627 0 0 0 0 3438970.8690702766 8352596.9797200114 0 8352596.9797200114 -5908056.0872559324 0 0 0 0 -85898.459735870361 5252407.6616287231 0 5252407.6616287231 4190012.1481170654 0 0 0 0 12964483.76069006 25707605.247834764 0 25707605.247834764 8173366.7974890769 0 0 0 0 9035962.0431922451 27627199.836444475 0 27627199.836444475 16331485.630482495 0 0 0 0 7807969.0938949585 21807745.567272186 0 21807745.567272186 1203367.9958496094 0 0 0 0 4426733.2247467041 43339935.149551392 0 43339935.149551392 44405214.465179443 0 0 0 0 3254124.9509048462 18316463.367660522 0 18316463.367660522 5545953.2890472412 0 0 0 0 45246.65576004982 14434989.70305565 0 14434989.70305565 -6037860.5108517259 0 0 0 0 4172429.697268486 17732812.888978004 0 17732812.888978004 -6347863.6822662354 0 0 0 0 -4276565.1250305176 20035628.432067871 0 20035628.432067871 -16934915.068862915 0 0 0 0 -3332903.7975196838 13968995.580432892 0 13968995.580432892 -9749812.4314880371 0 0 0 0 201682.38642883301 23946459.106338501 0 23946459.106338501 -16636339.396268845 0 0 0 0 2386092.0451674461 21570473.469196439 0 21570473.469196439 -2847219.2530136108 0 0 0 0 22984043.287024006 48511163.440272793 0 48511163.440272793 7592149.9454903305 0 0 0 0 -1002302.8305617273 18869423.741890296 0 18869423.741890296 18731873.585422643 0 0 0 0 16113.619316667318 157342.57485726476 0 157342.57485726476 -294300.27635169029 0 0 0 0 35825221.734668732 346732790.78090286 0 346732790.78090286 140923712.20427704 0 0 0 0 1836323.4911419749 24107566.891224138 0 24107566.891224138 12608246.371387899 0 0 0 0 -2647248.3745613098 15676967.897956848 0 15676967.897956848 -8728714.7364273071 0 0 0 0 530100264.29521179 29205219.249183655 0 29205219.249183655 -618204083.09693909 0 0 0 0 -1163688616.3509064 -416975783.78786469 0 -416975783.78786469 -208933832.87245941 0 0 0 0 309227.4222728014 1550503.890591234 0 1550503.890591234 454934.88331840932 0 0 0 0 47068496.018875122 56349715.535598755 0 56349715.535598755 -22054593.311126709 0 0 0 0 22536071.88470462 20548814.845735312 0 20548814.845735312 1296413.107214734 0 0 0 0 8746054.9233302698 10003346.777868763 0 10003346.777868763 -8588689.7328716516 0 0 0 0 -36300099.458847046 149375979.6560936 0 149375979.6560936 46799246.065055847 0 0 0 0 -617177.18608856201 322186491.84063721 0 322186491.84063721 143435279.12226868 0 0 0 0 -29796471.062980652 230482952.47580719 0 230482952.47580719 -9948474.3569335938 0 0 0 0 293499576.72221375 482763018.26365662 0 482763018.26365662 -34671278.338035583 0 0 0 0 -4642139.5241699219 38695382.114837646 0 38695382.114837646 -16586490.602413177 0 0 0 0 -17992291.22331953 15665775.418369293 0 15665775.418369293 -63721751.805725098 0 0 0 0 15787109.387023926 34798760.041656494 0 34798760.041656494 -33045105.355651855 0 0 0 0 -2254190.0800260231 29561952.14127975 0 29561952.14127975 6758355.4839261491 0 0 0 0 27170437.672138527 35455444.039646357 0 35455444.039646357 -28380122.204008758 0 0 0 0 8521095.4292144775 26789082.308921814 0 26789082.308921814 -18041675.955627441 0 0 0 0 -853446.6153717041 39236018.454751968 0 39236018.454751968 -18228764.658561707 0 0 0 0 7043660.9026678056 41354115.552856982 0 41354115.552856982 19247054.057440005 0 0 0 0 -11757314.178893119 22622262.179659754 0 22622262.179659754 8349442.9735223632 0 0 0 0 -1312441.6991553679 19496018.045262016 0 19496018.045262016 -8771011.9978104234 0 0 0 0 -39467620.335086823 71361881.719852448 0 71361881.719852448 -154573516.75622559 0 0 0 0 11109567.580032349 12367409.939403534 0 12367409.939403534 -101252680.63741684 0 0 0 0 -24950856.422273636 23267382.338785172 0 23267382.338785172 7625999.1446418762 0 0 0 0 44871545.82723999 -119225062.62504578 0 -119225062.62504578 -246098058.76552582 0 0 0 0 72238030.202495575 -155413936.4937973 0 -155413936.4937973 -516464650.29986572 0 0 0 0 163229875.84194183 103101423.95010376 0 103101423.95010376 -711497771.88092041 0 0 0 0 147114484.78992462 151057441.30930328 0 151057441.30930328 -343891749.80350685 0 0 0 0 14091349.534946442 311844193.23251343 0 311844193.23251343 -109180731.12840652 0 0 0 0 36964002.940319061 456545020.28310394 0 456545020.28310394 -392836896.65723801 0 0 0 0 39830070.716949463 176816339.52955246 0 176816339.52955246 -60401033.307220459 0 0 0 0 55028778.258758545 174993414.0398941 0 174993414.0398941 -236135993.9666748 0 0 0 0 -31678360.64906311 208756201.28694916 0 208756201.28694916 -71280816.083099365 0 0 0 0 -4777021.9220657349 266933049.24768066 0 266933049.24768066 -58277185.144601822 0 0 0 0 -3239848.9007759094 282726506.31594849 0 282726506.31594849 -14032674.964683533 0 0 0 0 -16708055.929489136 232067920.69682312 0 232067920.69682312 -16008657.974101782 0 0 0 0 -3755772.3033027649 282566355.4804306 0 282566355.4804306 -17071087.094818115 0 0 0 0 9570607.2765846252 196609744.37937927 0 196609744.37937927 142454755.18068314 0 0 0 0 5316051.8894267082 327304694.61932945 0 327304694.61932945 19041902.160888672 0 0 0 0 -48404172.528167725 121269073.38212204 0 121269073.38212204 346939078.1644249 0 0 0 0 -37912086.12264061 81919810.458469391 0 81919810.458469391 163004225.21356964 0 0 0 0 -17411652.745424271 256516609.51065254 0 256516609.51065254 60439054.670333862 0 0 0 0 -38754218.59584713 98338866.495999813 0 98338866.495999813 -8925362.4535064697 0 0 0 0 -37519991.829803467 137311984.43096542 0 137311984.43096542 -95169403.505279541 0 0 0 0 -23521111.964588165 234803545.10639954 0 234803545.10639954 -9195715.6181564331 0 0 0 0 -78148794.619709015 120006976.94572067 0 120006976.94572067 -38294677.344198227 0 0 0 0 -88545806.310731888 148525097.58641624 0 148525097.58641624 -91804004.994598389 0 0 0 0 -67065634.925567627 146106358.24937439 0 146106358.24937439 -97363522.602237701 0 0 0 0 -67253340.284545898 153239963.45063019 0 153239963.45063019 -122273440.23236847 0 0 0 0 -83118948.352340698 180999371.78684998 0 180999371.78684998 -108147174.12118912 0 0 0 0 -95069650.495668411 186042258.25950623 0 186042258.25950623 -64471907.788650513 0 0 0 0 -85889910.648139954 170732124.94294357 0 170732124.94294357 -46212297.560661316 0 0 0 0 -76621842.439557672 208593105.77148557 0 208593105.77148557 -74277938.700958252 0 0 0 0 -163593761.39019775 178917511.1658783 0 178917511.1658783 -47061723.414768219 0 0 0 0 -75839532.933082581 176267728.52117157 0 176267728.52117157 -57033725.919754028 0 0 0 0 -21160065.495834351 158259199.58535767 0 158259199.58535767 -69694251.24848938 0 0 0 0 340887.19722366333 174563935.22261429 0 174563935.22261429 -82242824.808273315 0 0 0 0 80369449.948913574 113053735.41924667 0 113053735.41924667 -47741686.557891846 0 0 0 0 185722017.0927124 33601460.442466736 0 33601460.442466736 -28100655.376031876 0 0 0 0 -557877424.12963867 237806401.71736145 0 237806401.71736145 -69898302.212295532 0 0 0 0 -294109431.03079987 318320734.43634796 0 318320734.43634796 -220552750.98738098 0 0 0 0 6602452.8575045988 5668982.8801263236 0 5668982.8801263236 -5034400.1730997264 0 0 0 0 -325655737.89540482 -190674888.10527802 0 -190674888.10527802 -299947547.98727417 0 0 0 0 63405571.264194489 150404850.11981201 0 150404850.11981201 -133499304.17919922 0 0 0 0 45015905.277755737 212304876.94110107 0 212304876.94110107 -225070652.25800323 0 0 0 0 63673234.777954102 320438626.72907257 0 320438626.72907257 -16412747.59896183 0 0 0 0 3578224.5581531525 259956602.9395504 0 259956602.9395504 -76868696.430984497 0 0 0 0 -40633116.036312103 205265757.91695023 0 205265757.91695023 -59767722.519012451 0 0 0 0 -19702565.003585815 178278986.1125145 0 178278986.1125145 -79638992.290912628 0 0 0 0 -88428080.387779236 103213997.99482346 0 103213997.99482346 -139804539.68127441 0 0 0 0 515265.25576019287 384652714.55899143 0 384652714.55899143 99310025.791721344 0 0 0 0 187387049.58804321 291400294.90071487 0 291400294.90071487 -153830518.01428223 0 0 0 0 2671896.8746255003 5332915.4321603477 0 5332915.4321603477 -2720784.0257874131 0 0 0 0 13780164.0885849 279504298.37429237 0 279504298.37429237 -38582692.64907074 0 0 0 0 246116972.57489014 80790709.258867264 0 80790709.258867264 27708042.867256165 0 0 0 0 269697420.13017654 80037414.120452881 0 80037414.120452881 -21246289.342578888 0 0 0 0 431407867.09892273 179753133.57873154 0 179753133.57873154 -19272596.232517242 0 0 0 0 380772760.40984058 171642085.79979849 0 171642085.79979849 25333130.622268677 0 0 0 0 240474982.23252106 119598271.0002861 0 119598271.0002861 -35898161.174506187 0 0 0 0 10446455.076307684 12657194.545966074 0 12657194.545966074 -9154994.0080856979 0 0 0 0 116744991.00371361 72822906.7574687 0 72822906.7574687 6480790.100944519 0 0 0 0 356038185.15072632 64163644.390083313 0 64163644.390083313 187985700.03371429 0 0 0 0 23100558.201880828 27060538.959285021 0 27060538.959285021 -16933760.38662079 0 0 0 0 -52930355.695037842 -6547713.6710891724 0 -6547713.6710891724 52451016.886886597 0 0 0 0 -1339611.7431716919 -23040541.096195221 0 -23040541.096195221 7429540.5428848267 0 0 0 0 989578161.64663696 301327790.29753304 0 301327790.29753304 -117735300.39595795 0 0 0 0 807673614.34967041 894780081.00910187 0 894780081.00910187 332244097.81539822 0 0 0 0 696617920.91915894 521959016.70380402 0 521959016.70380402 88152762.192977905 0 0 0 0 233541396.12930584 601796377.94204617 0 601796377.94204617 242642328.54034042 0 0 0 0 684882634.4224205 706510874.70765305 0 706510874.70765305 654880731.74183655 0 0 0 0 897398.83679964265 1455581885.7776766 0 1455581885.7776766 936875713.85919952 0 0 0 0 691388511.12616825 798834202.0595026 0 798834202.0595026 1185157942.0445557 0 0 0 0 1596454092.6612892 1698158429.9839344 0 1698158429.9839344 -1364281.3963356018 0 0 0 0 1764773384.5403595 1276161917.7839355 0 1276161917.7839355 43877100.178892136 0 0 0 0 3156991744.9574356 1200585075.4445267 0 1200585075.4445267 11754370.615150452 0 0 0 0 -159652700.40393448 22856229.50729847 0 22856229.50729847 69931559.034820557 0 0 0 0 13491360.686013736 7415669.2861033678 0 7415669.2861033678 8604807.1663090587 0 0 0 0 1697528516.5944061 1146331054.3494568 0 1146331054.3494568 413885486.50489807 0 0 0 0 10897987.209814824 16810314.412139922 0 16810314.412139922 24863497.149912208 0 0 0 0 -34130385.697885513 51224638.618674278 0 51224638.618674278 71778249.060119629 0 0 0 0 36310179.794937134 24775360.483024597 0 24775360.483024597 29322358.702513561 0 0 0 0 1504573551.9762802 1414624429.6476746 0 1414624429.6476746 363073661.80179596 0 0 0 0 1533627224.0255356 1182688295.9785805 0 1182688295.9785805 1142853647.4350586 0 0 0 0 7213249.2913299203 7752321.6193346381 0 7752321.6193346381 1287872.3872262763 0 0 0 0 1468821936.683485 -290944160.11306 0 -290944160.11306 -181164761.20252991 0 0 0 0 1619912461.2032166 1051323345.6222992 0 1051323345.6222992 324349180.75113297 0 0 0 0 45819046.470458984 117468607.38217163 0 117468607.38217163 -57900349.311309814 0 0 0 0 41070596.935905635 45214552.791932121 0 45214552.791932121 12262106.28354476 0 0 0 0 -137824494.92085266 -171404785.97625732 0 -171404785.97625732 -267573018.0426178 0 0 0 0 1453572660.1644592 161296123.48081207 0 161296123.48081207 -347707462.67590332 0 0 0 0 46069822.044649392 36206969.602098644 0 36206969.602098644 -8150753.0560025312 0 0 0 0 -91711536.45904541 737034530.29259109 0 737034530.29259109 213372222.37262726 0 0 0 0 -313717702.38362503 165142084.22655106 0 165142084.22655106 214477262.85379028 0 0 0 0 -793971838.39144897 -363076010.28838348 0 -363076010.28838348 -365937808.98568726 0 0 0 0 860235.9648283124 2848151.3710947335 0 2848151.3710947335 3559326.6443407238 0 0 0 0 -201580065.82881927 -155148488.43545151 0 -155148488.43545151 19091933.318120956 0 0 0 0 37027713.033931732 39859659.73405838 0 39859659.73405838 45897597.536186218 0 0 0 0 15838473.684578776 16324407.361989468 0 16324407.361989468 12828056.90711233 0 0 0 0 30041065.496986389 35079631.192081451 0 35079631.192081451 57841297.426385075 0 0 0 0 39611763.099952698 98414885.984214783 0 98414885.984214783 47176911.06048584 0 0 0 0 24715540.332862854 64285833.872642517 0 64285833.872642517 -7310349.1288757324 0 0 0 0 33754279.362350464 36459007.966957092 0 36459007.966957092 74043266.96780014 0 0 0 0 924659.27701950073 38381236.420307159 0 38381236.420307159 45898601.551170349 0 0 0 0 16450708.984025002 8505179.9906008244 0 8505179.9906008244 202792.13263118267 0 0 0 0 113853942.18960571 137162698.36300468 0 137162698.36300468 30935739.335594177 0 0 0 0 141434866.42412949 92930119.12834549 0 92930119.12834549 89610.251541137695 0 0 0 0 73932999.065887451 43082572.534729004 0 43082572.534729004 41980958.539745331 0 0 0 0 7060759.3273735046 115614577.44809341 0 115614577.44809341 -77343.569313049316 0 0 0 0 -13413170.601989746 152298374.99495697 0 152298374.99495697 12098762.180473328 0 0 0 0 28502832.918075562 155642110.27358627 0 155642110.27358627 -129778.88248443604 0 0 0 0 -123861521.2676506 24358327.906497955 0 24358327.906497955 40366153.26335907 0 0 0 0 16047077.23087199 4962380.1611613631 0 4962380.1611613631 -3440727.1594645381 0 0 0 0 17751571.310035706 59815302.781841278 0 59815302.781841278 48954431.093572617 0 0 0 0 32205363.73059845 132465030.58400345 0 132465030.58400345 1706345.2084655762 0 0 0 0 23791887.476524353 61815369.744158745 0 61815369.744158745 39580811.183586121 0 0 0 0 32279759.774026871 84249030.448225975 0 84249030.448225975 23995199.441940308 0 0 0 0 24308566.115470886 46675636.920635223 0 46675636.920635223 47215335.630889893 0 0 0 0 35204507.470375061 53853376.906326294 0 53853376.906326294 36013160.660652161 0 0 0 0 -12309668.434509277 224298311.17986298 0 224298311.17986298 23848466.847260937 0 0 0 0 41864099.714835197 42810133.27321811 0 42810133.27321811 -4501384.3062200677 0 0 0 0 253532877.56277657 64699995.475908279 0 64699995.475908279 36950061.241760254 0 0 0 0 211488533.96269035 -48000489.939358711 0 -48000489.939358711 205023619.66486359 0 0 0 0 36104000.833131224 42319423.69866538 0 42319423.69866538 -2627216.2957534576 0 0 0 0 -1376160776.3905029 209837283.57885742 0 209837283.57885742 234497543.35009003 0 0 0 0 165338240.43739319 40858494.055194855 0 40858494.055194855 120222842.96550751 0 0 0 0 50746356.599227905 56508870.624736786 0 56508870.624736786 7294226.134727478 0 0 0 0 -260583875.86642241 -352762885.45586395 0 -352762885.45586395 -18392940.251693726 0 0 0 0 1338497.297432363 4842533.8110143542 0 4842533.8110143542 -4992335.0538061559 0 0 0 0 41387050.111068726 87596993.710212708 0 87596993.710212708 -19241415.400337219 0 0 0 0 3150160.2145466283 4877633.5970707536 0 4877633.5970707536 5900784.4665415883 0 0 0 0 -101451563.84638214 170200939.18208694 0 170200939.18208694 -3480908.9758148193 0 0 0 0 239406311.16396332 308997462.13729858 0 308997462.13729858 60391166.734344482 0 0 0 0 -42696916.866088867 -20004528.328865051 0 -20004528.328865051 48155227.658050537 0 0 0 0 -50388587.903701782 -19646087.530776978 0 -19646087.530776978 145935545.94308472 0 0 0 0 -269579429.31107759 -111784950.1865015 0 -111784950.1865015 51601516.670272827 0 0 0 0 -6292833.3510629684 21223514.170514256 0 21223514.170514256 -3862341.2003102005 0 0 0 0 -284202638.08190155 41775192.603603363 0 41775192.603603363 80312273.018707275 0 0 0 0 -43074635.135437012 85228835.992227554 0 85228835.992227554 24069017.952392578 0 0 0 0 138132856.41898155 175241108.39413357 0 175241108.39413357 -9071039.5445709229 0 0 0 0 -273487454.9336853 135248775.7773056 0 135248775.7773056 128079212.32810974 0 0 0 0 -3159598.6449656785 4686406.4058060944 0 4686406.4058060944 6661906.6502774656 0 0 0 0 1226867010.9619217 198095149.85131264 0 198095149.85131264 -274587464.26594162 0 0 0 0 442171518.33328247 -22037828.208328247 0 -22037828.208328247 27443766.760643005 0 0 0 0 295158124.72570801 285950118.98550415 0 285950118.98550415 130587465.47123528 0 0 0 0 236844275.99357605 87753308.266914368 0 87753308.266914368 42064712.243039131 0 0 0 0 -16769616.567825317 100151259.22705078 0 100151259.22705078 22322976.058123589 0 0 0 0 279543465.42891312 83157421.514984131 0 83157421.514984131 -6131471.1335144043 0 0 0 0 -7511899.3938494176 20673374.979191974 0 20673374.979191974 14980126.397171408 0 0 0 0 -11142765.968468755 38483836.715050817 0 38483836.715050817 -22231332.599684775 0 0 0 0 258674806.18250275 114990902.33394241 0 114990902.33394241 -441887.3177947998 0 0 0 0 250507840.33804703 99125200.707036972 0 99125200.707036972 -11113204.424819946 0 0 0 0 -25221449.104598999 134862704.61244965 0 134862704.61244965 57579753.016624451 0 0 0 0 -54095907.373069763 25389967.226465225 0 25389967.226465225 -14530546.901199341 0 0 0 0 -178497782.20492554 106407192.40019226 0 106407192.40019226 76243815.889541626 0 0 0 0 -16561745.874935552 30631158.710996509 0 30631158.710996509 38664164.749983519 0 0 0 0 29753122.205652237 -17287998.82670784 0 -17287998.82670784 38881615.419082642 0 0 0 0 58415767.521591187 105424672.51024246 0 105424672.51024246 10679042.316802979 0 0 0 0 -10770731.709839635 37019556.052336231 0 37019556.052336231 23996069.643629044 0 0 0 0 383907712.32213593 133984770.06880951 0 133984770.06880951 12957914.125411987 0 0 0 0 110648238.74136353 224675672.88680649 0 224675672.88680649 186723309.68347168 0 0 0 0 -94495291.141220093 70835449.578590393 0 70835449.578590393 78871432.818229675 0 0 0 0 417981140.84896088 -142131947.62611008 0 -142131947.62611008 12566162.985153198 0 0 0 0 -99002656.805496216 44809746.940505981 0 44809746.940505981 256943015.63438416 0 0 0 0 -91565565.790924072 67370812.315475464 0 67370812.315475464 131731724.67430115 0 0 0 0 -106455405.05270386 105306899.45988464 0 105306899.45988464 29109266.148460388 0 0 0 0 -144865738.00621033 -37974266.887313843 0 -37974266.887313843 -15922393.190227509 0 0 0 0 -43389222.250915527 74414578.508331299 0 74414578.508331299 77112342.679077148 0 0 0 0 87100455.394577026 65780515.996025085 0 65780515.996025085 -18146332.0365448 0 0 0 0 12238568.135815457 13278017.65865612 0 13278017.65865612 6108492.8579582125 0 0 0 0 133847129.00370026 151096654.50393295 0 151096654.50393295 161663873.87716675 0 0 0 0 75527324.434570312 37212507.06615448 0 37212507.06615448 40214754.081878662 0 0 0 0 83225989.772003174 64884219.960548401 0 64884219.960548401 -17891293.773538589 0 0 0 0 -18007529.53704834 127821480.46641541 0 127821480.46641541 47805635.119537354 0 0 0 0 -107485695.41118622 -4178242.0811691284 0 -4178242.0811691284 11246543.907928467 0 0 0 0 118533193.08056641 135536904.27946472 0 135536904.27946472 15245313.948013306 0 0 0 0 168108196.37191772 89076652.781478882 0 89076652.781478882 30212924.847229004 0 0 0 0 297441380.42352295 138400577.46723938 0 138400577.46723938 44889179.133903027 0 0 0 0 314790953.04862976 167778936.66217804 0 167778936.66217804 69558407.236938477 0 0 0 0 234373188.27885437 168758784.40542603 0 168758784.40542603 75066931.05859375 0 0 0 0 316836499.131073 151144642.66090393 0 151144642.66090393 158169801.01722717 0 0 0 0 354418455.08779907 113288819.92375183 0 113288819.92375183 110739969.73009491 0 0 0 0 335206995.23417664 143396835.26174927 0 143396835.26174927 120125818.3223877 0 0 0 0 282563526.27178955 131879822.82336426 0 131879822.82336426 68763478.124361038 0 0 0 0 282443717.51504517 123446502.9042511 0 123446502.9042511 136146109.66033936 0 0 0 0 327284002.08927917 225895083.98410416 0 225895083.98410416 172703667.94195938 0 0 0 0 334230930.60169983 165739050.8506012 0 165739050.8506012 -209530363.54130077 0 0 0 0 76613882.579490662 -45400267.025417328 0 -45400267.025417328 -241037020.95993042 0 0 0 0 1190287.7349317521 3506578.8402728289 0 3506578.8402728289 4327446.6947214901 0 0 0 0 405106542.1978302 177090966.60631561 0 177090966.60631561 71351394.222389221 0 0 0 0 403034656.45167542 199518118.13497925 0 199518118.13497925 -160573128.07183838 0 0 0 0 86904654.756469727 56824401.310260773 0 56824401.310260773 -32365868.565124512 0 0 0 0 75607533.859359264 58169402.641264796 0 58169402.641264796 -23629147.693756104 0 0 0 0 -202859007.07361221 4202771.9764862061 0 4202771.9764862061 158416557.56452751 0 0 0 0 91620788.243041992 60149303.14988327 0 60149303.14988327 -30022345.190795898 0 0 0 0 -7725948.7419666946 6218760.2808433883 0 6218760.2808433883 -3561029.7612775862 0 0 0 0 -177943755.35307598 -72477770.713153839 0 -72477770.713153839 151400199.0660553 0 0 0 0 -213180390.64130783 144495746.59011841 0 144495746.59011841 33040660.799461365 0 0 0 0 -78265801.350357056 -70913923.363758087 0 -70913923.363758087 74592465.658370972 0 0 0 0 -136427707.7970047 50056277.011360168 0 50056277.011360168 1771506.4641876221 0 0 0 0 -51412848.642578125 86865081.231765747 0 86865081.231765747 -63312825.307220459 0 0 0 0 -102919667.68352509 18185055.714164734 0 18185055.714164734 8426418.9764022827 0 0 0 0 -51518927.168319702 24039344.778823853 0 24039344.778823853 -7869185.543762207 0 0 0 0 -12159723.778469149 60893357.809709296 0 60893357.809709296 5361978.1620506048 0 0 0 0 -32978112.265850201 13134675.338791486 0 13134675.338791486 -5167594.1187419593 0 0 0 0 -195675205.12797546 45232056.662155151 0 45232056.662155151 -19968970.44519043 0 0 0 0 -192513025.07256699 59362419.38539505 0 59362419.38539505 19680939.077079773 0 0 0 0 92861838.721893311 64227613.908676147 0 64227613.908676147 -16631980.156738281 0 0 0 0 86937468.840209961 51004911.375869751 0 51004911.375869751 60469846.917724609 0 0 0 0 5828804.5805451274 4076396.0094357729 0 4076396.0094357729 -2311452.1780089438 0 0 0 0 -66173647.416168213 -41874695.217880249 0 -41874695.217880249 -44037649.379608154 0 0 0 0 -37031477.464111328 4886459.6808624268 0 4886459.6808624268 -27581246.963989258 0 0 0 0 -81251269.993347168 -17268119.015472412 0 -17268119.015472412 -15743563.700164795 0 0 0 0 -35277073.861434937 3090398.8168487549 0 3090398.8168487549 -25949591.166564941 0 0 0 0 -33806311.961608887 -10741210.825683594 0 -10741210.825683594 -89751814.972854614 0 0 0 0 -26440046.107694626 46269447.076699257 0 46269447.076699257 18549311.434539795 0 0 0 0 -101134141.96014404 -48854138.557037354 0 -48854138.557037354 -59264437.776748657 0 0 0 0 -6162783.7609966286 34761513.283333391 0 34761513.283333391 8765278.7832170725 0 0 0 0 -166386280.27276611 -25192982.623916626 0 -25192982.623916626 -12437788.129577637 0 0 0 0 8812091.9635696411 16983423.553504944 0 16983423.553504944 -1775974.0266113281 0 0 0 0 -4939301.6704066843 55034624.945482016 0 55034624.945482016 20376143.490816325 0 0 0 0 -78526572.650184631 -1284660.3400421143 0 -1284660.3400421143 -8990382.7515869141 0 0 0 0 39649455.789619297 28396067.383090198 0 28396067.383090198 -3539823.0056006759 0 0 0 0 -45241575.667414077 32607778.162172958 0 32607778.162172958 29263421.623042673 0 0 0 0 -15832475.249020025 31140973.994019181 0 31140973.994019181 -1220753.5497107208 0 0 0 0 -99627932.711029053 86519452.635917664 0 86519452.635917664 119264256.48358154 0 0 0 0 -12625344.798942566 -12768133.035045624 0 -12768133.035045624 -61689762.167999268 0 0 0 0 4481976.2792358398 58906766.17401123 0 58906766.17401123 -48647659.313964844 0 0 0 0 29345695.464324951 108298470.21924591 0 108298470.21924591 -2440714.7366333008 0 0 0 0 -59244898.983459473 26698691.698120117 0 26698691.698120117 -27955728.234802246 0 0 0 0 -81093800.797660828 20590731.499404907 0 20590731.499404907 -14668374.689083099 0 0 0 0 -16615295.864469498 29022405.207942069 0 29022405.207942069 3101427.6978169531 0 0 0 0 70273494.505249023 98468732.654724121 0 98468732.654724121 108622186.52047729 0 0 0 0 -62929074.01839447 5447344.5683898926 0 5447344.5683898926 -9666483.7444915771 0 0 0 0 -88075976.912885666 19546449.06883812 0 19546449.06883812 7682728.0864715576 0 0 0 0 -91777129.239624023 32476799.651145935 0 32476799.651145935 -17543943.958557129 0 0 0 0 -82037010.501987457 23828228.474826813 0 23828228.474826813 -25634468.535858154 0 0 0 0 -2908502.0539930016 158413.61561927199 0 158413.61561927199 1843398.6963787675 0 0 0 0 -80865169.516822815 -10468280.361412048 0 -10468280.361412048 -54564124.498123169 0 0 0 0 16448170.419620991 185148438.07463408 0 185148438.07463408 157988270.81292725 0 0 0 0 24998655.021537781 106804804.90667343 0 106804804.90667343 32486330.705535889 0 0 0 0 62201094.225341797 95476120.010147095 0 95476120.010147095 110084534.37067032 0 0 0 0 3035184.3690019101 29505619.198751599 0 29505619.198751599 -21761562.902754158 0 0 0 0 -84330294.845336914 40184306.93196106 0 40184306.93196106 114616092.70334244 0 0 0 0 -63027754.64667511 159660514.72528076 0 159660514.72528076 47675252.105163574 0 0 0 0 121669998.86445618 116261451.07001495 0 116261451.07001495 54133778.491577148 0 0 0 0 -18560352.347726032 20766397.220203042 0 20766397.220203042 27989231.336265922 0 0 0 0 -175321830.25922775 137965068.70955276 0 137965068.70955276 108294836.5316925 0 0 0 0 -6243931.2077331543 110736170.95269775 0 110736170.95269775 77780472.526626587 0 0 0 0 -210472479.28099823 65030203.006317139 0 65030203.006317139 150873948.93087769 0 0 0 0 -14674039.096960172 15886686.166238748 0 15886686.166238748 13681167.213934422 0 0 0 0 -101796428.89465427 59281459.928318024 0 59281459.928318024 -66299392.719329834 0 0 0 0 58038572.595092773 22937899.369232178 0 22937899.369232178 139683634.88821411 0 0 0 0 415251143.74812317 30948024.48651123 0 30948024.48651123 96250773.470348358 0 0 0 0 398063055.46368408 104308248.57740784 0 104308248.57740784 56615551.089019775 0 0 0 0 217908847.51223755 24391998.882278442 0 24391998.882278442 97887600.49275589 0 0 0 0 216543012.81658173 106150094.0688324 0 106150094.0688324 95181967.409820557 0 0 0 0 216686467.13800049 106269174.42858887 0 106269174.42858887 93600280.708267212 0 0 0 0 322655587.99528503 127517063.60179138 0 127517063.60179138 65945271.797393799 0 0 0 0 -12145238.416053772 99430264.250602722 0 99430264.250602722 149604503.75256348 0 0 0 0 99123271.612518311 88738004.831542969 0 88738004.831542969 104045704.19292068 0 0 0 0 96285381.747833252 110944570.15849304 0 110944570.15849304 69586892.794586182 0 0 0 0 39971904.738555908 80406070.650985718 0 80406070.650985718 70356875.531916142 0 0 0 0 110132398.48461914 122893005.71737671 0 122893005.71737671 23466715.871124268 0 0 0 0 220125803.79148865 119437158.35098267 0 119437158.35098267 53971313.495986938 0 0 0 0 220935919.69827271 110191323.31799316 0 110191323.31799316 109819231.89624023 0 0 0 0 111809119.84692383 114257297.20329285 0 114257297.20329285 67878913.098884583 0 0 0 0 216490995.52696228 103283222.28927994 0 103283222.28927994 20532102.365203857 0 0 0 0 91072979.523162842 129427304.51725769 0 129427304.51725769 34083576.496185303 0 0 0 0 245745762.35877609 167593148.7659111 0 167593148.7659111 20903068.045532227 0 0 0 0 264115743.20935059 121451345.21079254 0 121451345.21079254 18415279.280029297 0 0 0 0 181246781.18684387 161120300.03134155 0 161120300.03134155 36917834.217344284 0 0 0 0 158332674.42779922 95951202.310279846 0 95951202.310279846 -2812548.6161499023 0 0 0 0 14971104.977020264 82072863.490875244 0 82072863.490875244 33674299.909420013 0 0 0 0 57602607.060150146 61493033.552734375 0 61493033.552734375 14550483.212249756 0 0 0 0 199464596.64846516 39260049.533026695 0 39260049.533026695 36630090.895751953 0 0 0 0 -15001459.426085129 34155985.958239511 0 34155985.958239511 27329330.294201612 0 0 0 0 432787323.70678711 197471396.04556274 0 197471396.04556274 4857815.3255310059 0 0 0 0 354296415.20123291 220587999.57889557 0 220587999.57889557 72759793.328140259 0 0 0 0 380891165.86175537 161214290.69161987 0 161214290.69161987 -5711090.6885986328 0 0 0 0 299330909.07299805 198866198.15763855 0 198866198.15763855 42880188.416281223 0 0 0 0 343427760.68716431 144994193.49009705 0 144994193.49009705 11988752.532913208 0 0 0 0 385045464.31362534 88034144.035598755 0 88034144.035598755 72818492.753295898 0 0 0 0 282645285.97662354 140406088.14881897 0 140406088.14881897 31288417.833282471 0 0 0 0 9831989.0042213425 18202683.318632722 0 18202683.318632722 22321973.657617152 0 0 0 0 95034769.396812439 82972690.100086212 0 82972690.100086212 38235507.419191599 0 0 0 0 -16330171.415861964 32705011.057779461 0 32705011.057779461 30389712.000793815 0 0 0 0 423607705.12834167 193497325.7588501 0 193497325.7588501 69615289.446350098 0 0 0 0 367796364.89843559 209334375.35263634 0 209334375.35263634 104577787.22869873 0 0 0 0 296263902.115448 151497814.91270447 0 151497814.91270447 150035094.87480927 0 0 0 0 82639445.388849258 49024894.11928463 0 49024894.11928463 23190157.774093628 0 0 0 0 -262852075.80072731 1022684427.3039904 0 1022684427.3039904 -60119540.984832764 0 0 0 0 430922380.42385864 178293148.1068573 0 178293148.1068573 100485244.65756226 0 0 0 0 43373556.673625588 36302028.576021567 0 36302028.576021567 -3083103.4988620467 0 0 0 0 43403729.610092163 46042757.390655518 0 46042757.390655518 30048496.489308387 0 0 0 0 -139129648.36583328 99059708.100967407 0 99059708.100967407 291039043.745224 0 0 0 0 -2288090.4746750593 6590123.4635163322 0 6590123.4635163322 3467290.9409716725 0 0 0 0 1065777994.9886627 94283185.75868988 0 94283185.75868988 -772861527.35592651 0 0 0 0 527324183.10890198 56991244.622161865 0 56991244.622161865 86845039.23828125 0 0 0 0 476997613.36672974 314516667.55598831 0 314516667.55598831 105340988.42108154 0 0 0 0 -199388.49034234881 2156191.4664818645 0 2156191.4664818645 634381.56833693199 0 0 0 0 766653426.44050598 795036954.65489197 0 795036954.65489197 -2393547309.047503 0 0 0 0 262179239.04953766 -81102901.389518738 0 -81102901.389518738 989763976.83187866 0 0 0 0 15138319.757253677 19865507.222261056 0 19865507.222261056 -874995.26259794831 0 0 0 0 168535236.18564987 111303758.18924713 0 111303758.18924713 7055953.3125076294 0 0 0 0 93427484.231414795 440877286.91788483 0 440877286.91788483 241629578.03183365 0 0 0 0 -36345179.070632935 263323238.62574005 0 263323238.62574005 430568709.42279053 0 0 0 0 64773814.488220215 155795466.42931557 0 155795466.42931557 38171383.023887634 0 0 0 0 93504583.274116516 83290908.450996399 0 83290908.450996399 17650285.110099792 0 0 0 0 12977840.126229838 20841932.673680529 0 20841932.673680529 5490943.8175529242 0 0 0 0 4057065.8556671143 51264580.245487213 0 51264580.245487213 74362781.0128479 0 0 0 0 199610283.54907227 123408881.22232056 0 123408881.22232056 -1084836.5690002441 0 0 0 0 -122258569.16796875 55713775.588216782 0 55713775.588216782 139292325.86878967 0 0 0 0 5087252.0096384808 4083875.4940475374 0 4083875.4940475374 658407.55459997058 0 0 0 0 5903763.93719583 3696420.0961434692 0 3696420.0961434692 -1749109.6599387527 0 0 0 0 397084109.46699524 229827034.67131329 0 229827034.67131329 -96509481.348968506 0 0 0 0 362583160.2068634 117676650.76402283 0 117676650.76402283 -98166349.283935547 0 0 0 0 231445926.54681396 94417045.86000061 0 94417045.86000061 -77301758.728088379 0 0 0 0 128335511.11516571 179005433.06865692 0 179005433.06865692 184375.40821838379 0 0 0 0 277690953.88894081 252170296.47130203 0 252170296.47130203 -24770605.968917847 0 0 0 0 -267993105.60910034 336151875.36451721 0 336151875.36451721 -32164623.051589966 0 0 0 0 68183487.653427124 129404566.20824432 0 129404566.20824432 -9144739.6850967407 0 0 0 0 76898467.787109375 143333334.20236969 0 143333334.20236969 -23391522.180534363 0 0 0 0 -123751969.38115311 526751364.47379017 0 526751364.47379017 36972005.663742065 0 0 0 0 -81960135.868120193 427954669.23935127 0 427954669.23935127 -249475531.24894714 0 0 0 0 258793628.47499847 350614551.30023956 0 350614551.30023956 -591347.51484317065 0 0 0 0 -112396872.80987549 -21280275.017476082 0 -21280275.017476082 -324027328.14926147 0 0 0 0 -1923744.4408753049 -943659.01993358135 0 -943659.01993358135 5424280.6685250401 0 0 0 0 -553294754.4600296 234118044.05347824 0 234118044.05347824 402246359.51402283 0 0 0 0 623609822.51013184 309476884.55702972 0 309476884.55702972 -196122672.10686874 0 0 0 0 -482392073.6705513 21700982.103210449 0 21700982.103210449 -6262332.0443267822 0 0 0 0 -261411793.15240479 182250303.21994019 0 182250303.21994019 90310644.282901764 0 0 0 0 -253840274.14873695 59848323.204299212 0 59848323.204299212 -240591615.01560974 0 0 0 0 -326171767.60990524 -39704469.181537628 0 -39704469.181537628 -11971974.959327698 0 0 0 0 -120743206.48791504 24109508.783073425 0 24109508.783073425 -25620255.890052795 0 0 0 0 71993494.540237427 386693218.18232346 0 386693218.18232346 107843207.61781311 0 0 0 0 -61385164.829910278 181641618.9910202 0 181641618.9910202 165329729.43563271 0 0 0 0 -7647082.9168087579 2453753.1305608153 0 2453753.1305608153 16464212.46431312 0 0 0 0 34437259.595932007 113285625.75057602 0 113285625.75057602 182158730.52183533 0 0 0 0 -341113777.11587334 -41658207.106934071 0 -41658207.106934071 82873045.266998291 0 0 0 0 -70741049.414573669 -33702774.563896179 0 -33702774.563896179 -17957576.832523346 0 0 0 0 -173848871.58827972 113340447.81620026 0 113340447.81620026 87920992.892044067 0 0 0 0 -109123872.5006485 24794558.787372589 0 24794558.787372589 124116301.64651489 0 0 0 0 6077146.6490532607 2624610.3859425485 0 2624610.3859425485 -3890723.4140424728 0 0 0 0 -13563426.82515119 23748582.713948011 0 23748582.713948011 -13285806.06638819 0 0 0 0 185767093.39315796 316515547.50395203 0 316515547.50395203 182260414.70807648 0 0 0 0 217980354.92642212 215261529.11578369 0 215261529.11578369 60437950.575408936 0 0 0 0 209438907.45444489 31813404.341747284 0 31813404.341747284 -66888132.978126526 0 0 0 0 -38213516.56798172 170089006.55474091 0 170089006.55474091 191257047.78897095 0 0 0 0 3877511.4686279297 217554590.30547333 0 217554590.30547333 308664852.61273193 0 0 0 0 86093633.042098999 157100509.25288391 0 157100509.25288391 328680960.46206665 0 0 0 0 279637749.71828461 100744039.90288544 0 100744039.90288544 274392435.40576172 0 0 0 0 113300306.53559875 257131337.05490875 0 257131337.05490875 152358761.40844727 0 0 0 0 28290516.165222168 147574997.88964844 0 147574997.88964844 110475221.82130432 0 0 0 0 -3476691.8633210957 2568506.5065992475 0 2568506.5065992475 1126120.9171396941 0 0 0 0 105791030.64205933 -41243933.135551453 0 -41243933.135551453 -153039153.54631042 0 0 0 0 41678743.793552399 -155814160.47132874 0 -155814160.47132874 -88814453.080169678 0 0 0 0 -39506791.464538574 188050073.95059204 0 188050073.95059204 98714224.68800354 0 0 0 0 -23885569.396179199 19706937.304664612 0 19706937.304664612 163435812.72616577 0 0 0 0 37506401.114093781 75999845.318202972 0 75999845.318202972 -190438794.42999268 0 0 0 0 36178947.696029663 220557191.70836639 0 220557191.70836639 -136291701.56880188 0 0 0 0 -79794207.0025177 212830388.15563965 0 212830388.15563965 83484044.62701416 0 0 0 0 372138022.02020836 475496458.12937546 0 475496458.12937546 94344617.098968506 0 0 0 0 -3833321.7794006765 13949246.802163675 0 13949246.802163675 -15880938.293619335 0 0 0 0 424921495.1413269 124715287.17137909 0 124715287.17137909 98036414.247665405 0 0 0 0 128119885.10185432 402242501.76045322 0 402242501.76045322 217925351.9024353 0 0 0 0 -159274887.78503799 109810839.07555389 0 109810839.07555389 166623240.25898743 0 0 0 0 334534338.85637665 200428655.96572113 0 200428655.96572113 65228241.90335083 0 0 0 0 -22928744.309455872 243231065.20617676 0 243231065.20617676 92552619.800674438 0 0 0 0 160080545.7321949 214075111.22993946 0 214075111.22993946 -57745628.749298096 0 0 0 0 -94647330.490879059 129296161.05595398 0 129296161.05595398 -72615126.434509277 0 0 0 0 11361277.994293213 64293535.816360474 0 64293535.816360474 -38502938.858627319 0 0 0 0 -83481232.856384277 513329581.54342651 0 513329581.54342651 -639260198.83784485 0 0 0 0 -136988705.07987213 27476360.521240234 0 27476360.521240234 -144708678.31773376 0 0 0 0 -522651922.46464539 211628602.38391113 0 211628602.38391113 -202874090.94363022 0 0 0 0 -184513977.86851501 303176354.84410095 0 303176354.84410095 -79905789.876644135 0 0 0 0 198130656.4765625 110295278.76672363 0 110295278.76672363 38583873.599334717 0 0 0 0 417095405.80457687 242747360.75975418 0 242747360.75975418 -1078265453.5689087 0 0 0 0 205690066.52455139 168121621.17323303 0 168121621.17323303 -556374378.938797 0 0 0 0 410713732.09906292 14333298.665184021 0 14333298.665184021 -592888836.5589447 0 0 0 0 411077695.13965607 6927396.4851150513 0 6927396.4851150513 -591572838.9455986 0 0 0 0 -24853611.153717041 145768330.48008728 0 145768330.48008728 358011814.94169617 0 0 0 0 -3837250.0353402644 8294957.8712425083 0 8294957.8712425083 -1291391.8541748449 0 0 0 0 -163853295.10701752 428027645.04146576 0 428027645.04146576 488513.09772092983 0 0 0 0 -45157800.949272156 2271458.1359024048 0 2271458.1359024048 -1100253.3882064819 0 0 0 0 -978470014.7375946 246759304.07319641 0 246759304.07319641 136326646.33664703 0 0 0 0 -7701514.2071380615 51333678.348613739 0 51333678.348613739 61512369.037521362 0 0 0 0 -10103268.806098565 12925199.774928793 0 12925199.774928793 -1529797.7040398344 0 0 0 0 53181670.745315552 71872488.480228424 0 71872488.480228424 326402.70384216309 0 0 0 0 596388.14908129722 4253310.038919732 0 4253310.038919732 -7742166.8536451757 0 0 0 0 411028360.29604626 12458965.905581474 0 12458965.905581474 -586689193.02487183 0 0 0 0 -1933736.5414597597 2854381.9302581996 0 2854381.9302581996 -569356.6279463768 0 0 0 0 -1157150942.1257629 397571361.23257446 0 397571361.23257446 230968533.5506134 0 0 0 0 -384398073.89480591 1417215555.3416367 0 1417215555.3416367 -1127911201.6216125 0 0 0 0 251973365.51176453 -60539782.853347778 0 -60539782.853347778 -5388908.5395202637 0 0 0 0 -1188481449.6186562 420979872.32983398 0 420979872.32983398 73656035.368209839 0 0 0 0 575560095.72624588 230158674.07814407 0 230158674.07814407 -286619942.90484619 0 0 0 0 411140006.73005962 5262548.5743587017 0 5262548.5743587017 -581610003.80433655 0 0 0 0 394553402.35350037 797714240.37413788 0 797714240.37413788 -643655933.73838806 0 0 0 0 -595403440.23434067 932056552.16614914 0 932056552.16614914 -231838950.61238098 0 0 0 0 620142227.20544434 -76715165.383720398 0 -76715165.383720398 -194242724.89692688 0 0 0 0 -27702693.919487 416005526.90145874 0 416005526.90145874 -265019529.70266151 0 0 0 0 -52722529.671012878 373270053.62109756 0 373270053.62109756 -337787264.78077698 0 0 0 0 -114378539.59976196 472879563.61212921 0 472879563.61212921 -332788622.96308088 0 0 0 0 -437362718.29668427 110465559.69412994 0 110465559.69412994 -119618287.74038696 0 0 0 0 -84040004.353347778 43394679.782623291 0 43394679.782623291 -128750222.96041679 0 0 0 0 -18396395.202030182 61223300.811592102 0 61223300.811592102 344655655.27287292 0 0 0 0 -78722733.6745224 370276086.27211761 0 370276086.27211761 157415258.88140869 0 0 0 0 410505414.88812256 -156471809.83841705 0 -156471809.83841705 50973268.843772888 0 0 0 0 -6157927.5270550866 9086446.9195101708 0 9086446.9195101708 2709591.4281390309 0 0 0 0 -140048781.08071518 52267085.661079407 0 52267085.661079407 -19115471.647781372 0 0 0 0 335146002.15225983 204837945.9900589 0 204837945.9900589 -524441965.27819824 0 0 0 0 9527184.107213974 -212501884.65732574 0 -212501884.65732574 218902015.97669983 0 0 0 0 -128228672.999897 143969219.18643951 0 143969219.18643951 -122070644.18156433 0 0 0 0 -14657425.9022789 151502174.8799057 0 151502174.8799057 71095194.413488388 0 0 0 0 -12164679.861662254 12968305.77858609 0 12968305.77858609 -5200445.6781194508 0 0 0 0 -5587268.6759308577 -6972905.648948431 0 -6972905.648948431 -2467118.4220428467 0 0 0 0 349577288.14804077 348902998.18815994 0 348902998.18815994 229559748.35146332 0 0 0 0 329302252.63249969 256558363.93793488 0 256558363.93793488 213869704.05134201 0 0 0 0 -13588909.659700528 18041544.582489714 0 18041544.582489714 13456739.807663858 0 0 0 0 -14786174.270414203 18787112.480770543 0 18787112.480770543 -8086244.1218537092 0 0 0 0 -45642818.396957397 41540455.414291382 0 41540455.414291382 78465763.53830719 0 0 0 0 159721332.87625504 114054123.54396152 0 114054123.54396152 17487455.576568604 0 0 0 0 38471254.311050415 112447253.56095886 0 112447253.56095886 139355770.56535339 0 0 0 0 -57636764.38193512 87849397.504318237 0 87849397.504318237 -24870545.990968704 0 0 0 0 30202439.567932129 34520403.253120422 0 34520403.253120422 -1225451.5668945312 0 0 0 0 -4287250.984631151 11885527.59683314 0 11885527.59683314 -2869364.9247616529 0 0 0 0 -68741681.249977112 -48769317.655799866 0 -48769317.655799866 -39885920.459960938 0 0 0 0 -27433189.436637878 87784458.690185547 0 87784458.690185547 42816753.373260498 0 0 0 0 50242854.465484619 47058802.564254761 0 47058802.564254761 58229871.560668945 0 0 0 0 -132716447.01866913 -4497066.6491279602 0 -4497066.6491279602 26832848.760162354 0 0 0 0 -27500408.296764061 9253983.9768277407 0 9253983.9768277407 22109363.585693121 0 0 0 0 -28313150.168128967 -140245.94161987305 0 -140245.94161987305 -34989859.171127319 0 0 0 0 -42187952.246582031 15568906.626541138 0 15568906.626541138 -49328771.794271469 0 0 0 0 -33603678.919438839 37998608.759812832 0 37998608.759812832 37548178.112930298 0 0 0 0 -64980752.995697975 11095632.774680138 0 11095632.774680138 23775164.741973877 0 0 0 0 74966106.254772186 51960206.239685059 0 51960206.239685059 36179649.392333984 0 0 0 0 5321992.7497024536 103110627.18832397 0 103110627.18832397 35045543.311225891 0 0 0 0 -13788594.772094727 24953397.413322449 0 24953397.413322449 -1154335.1706123352 0 0 0 0 -39325386.982002258 90262507.266094208 0 90262507.266094208 346543434.89133453 0 0 0 0 -24456157.469164819 17433427.570168108 0 17433427.570168108 4226299.7307499796 0 0 0 0 76218000.213996887 62375707.926944733 0 62375707.926944733 4421505.1182327271 0 0 0 0 58529636.039428711 110294964.14731216 0 110294964.14731216 60100194.267871857 0 0 0 0 -58841997.653359413 70612425.791414261 0 70612425.791414261 104815443.30518341 0 0 0 0 5386430.3659095764 6217760.8034667969 0 6217760.8034667969 49518078.028450012 0 0 0 0 -51100477.948555052 47564842.787056744 0 47564842.787056744 24885381.211578369 0 0 0 0 161785500.6615963 343482357.91314507 0 343482357.91314507 299464104.94190216 0 0 0 0 37128944.742424011 173176797.65644073 0 173176797.65644073 45193717.090934753 0 0 0 0 -19201540.011921436 11435471.368774027 0 11435471.368774027 3585347.3191573322 0 0 0 0 211209847.07416344 286798594.16827393 0 286798594.16827393 185117189.95056152 0 0 0 0 271210670.46035004 368377844.54248428 0 368377844.54248428 288499564.67823029 0 0 0 0 360083950.17975998 241471460.20126724 0 241471460.20126724 73187644.775209427 0 0 0 0 220537856.85295105 217837110.45221043 0 217837110.45221043 328251339.80130768 0 0 0 0 246379970.3902359 153248337.22414017 0 153248337.22414017 150251265.51345062 0 0 0 0 121439688.43185806 237314146.73475266 0 237314146.73475266 93693377.238414764 0 0 0 0 334602179.55375671 279384425.58216858 0 279384425.58216858 203666261.81002617 0 0 0 0 264425281.42646027 321622737.60089111 0 321622737.60089111 278318314.40203857 0 0 0 0 544111956.86713409 467998546.68238068 0 467998546.68238068 333181171.46984863 0 0 0 0 -4904192.5907096192 8618395.0033546314 0 8618395.0033546314 4088073.403737694 0 0 0 0 182565084.50355911 158260832.43235779 0 158260832.43235779 -142264799.74696159 0 0 0 0 276081078.85647964 170118996.98283958 0 170118996.98283958 -159330927.04788208 0 0 0 0 224004825.97060394 187321344.98330688 0 187321344.98330688 60269231.69870472 0 0 0 0 142135576.06175232 231663150.7648468 0 231663150.7648468 188373577.47048044 0 0 0 0 268303112.92388439 255739030.63496017 0 255739030.63496017 14647555.240112305 0 0 0 0 107605175.03891754 221650596.61156845 0 221650596.61156845 371051273.6113739 0 0 0 0 245227728.40852356 64098721.269630432 0 64098721.269630432 150349341.24686432 0 0 0 0 174201890.36449814 237946353.23250198 0 237946353.23250198 126171243.78599548 0 0 0 0 184054546.11411285 129342163.38288879 0 129342163.38288879 103520290.00849152 0 0 0 0 207799761.49185562 230660705.94139099 0 230660705.94139099 -50471858.343795776 0 0 0 0 182816474.44527507 243644041.72081563 0 243644041.72081563 -49511265.395355225 0 0 0 0 136193140.03419113 139804919.42794037 0 139804919.42794037 -134916317.73160172 0 0 0 0 76386881.735801697 323105727.80138206 0 323105727.80138206 -154882518.56159973 0 0 0 0 233826068.37945557 199570052.46353149 0 199570052.46353149 -85584801.266731262 0 0 0 0 221620837.93715286 136771719.64879227 0 136771719.64879227 -124323392.99706268 0 0 0 0 168508948.04080963 157925562.76245117 0 157925562.76245117 -130011088.94579887 0 0 0 0 197152562.96164989 192272576.74318218 0 192272576.74318218 -233940633.05026245 0 0 0 0 92798013.875030518 118532236.49339676 0 118532236.49339676 -233938664.90408325 0 0 0 0 4711228.0488341553 3910401.5731618479 0 3910401.5731618479 -1646439.5486363173 0 0 0 0 333676801.26573932 105231906.98518443 0 105231906.98518443 -67030519.225318909 0 0 0 0 -122067153.38278008 239969827.70192528 0 239969827.70192528 -155137430.27384949 0 0 0 0 66903859.252189636 112948191.9710598 0 112948191.9710598 -100582448.61122894 0 0 0 0 19516754.145114899 2904052.4542007446 0 2904052.4542007446 -66123691.103905678 0 0 0 0 258331842.58851624 9464714.7098350525 0 9464714.7098350525 -251188453.26463413 0 0 0 0 69245865.092605591 -66004580.670761108 0 -66004580.670761108 -262830254.65806532 0 0 0 0 262284736.15849304 133555581.86245918 0 133555581.86245918 -234237190.47496033 0 0 0 0 261025218.43869305 122527888.8608439 0 122527888.8608439 -296273613.77048492 0 0 0 0 361168307.06471443 100909150.87432289 0 100909150.87432289 -294879027.06845856 0 0 0 0 230803299.10452271 247210587.80499268 0 247210587.80499268 -86018384.495344162 0 0 0 0 238545692.54605484 27838546.461402893 0 27838546.461402893 -19308335.787391663 0 0 0 0 514398976.33559418 250212932.15528679 0 250212932.15528679 5406267.17943573 0 0 0 0 362618166.48894882 401421155.36582565 0 401421155.36582565 339438673.83952332 0 0 0 0 3043068.7070522457 306808.0497867316 0 306808.0497867316 2266428.0008669347 0 0 0 0 195479219.51369476 197757078.40521622 0 197757078.40521622 240959003.60591125 0 0 0 0 268255076.79861069 220804293.88079071 0 220804293.88079071 116590107.57208252 0 0 0 0 262173015.46617889 115358358.08871841 0 115358358.08871841 134977708.40322495 0 0 0 0 182162618.43475342 210237619.25604248 0 210237619.25604248 29815831.33972168 0 0 0 0 45681263.23249054 257024820.39421463 0 257024820.39421463 141871378.02194214 0 0 0 0 251695344.57243347 187804034.78219604 0 187804034.78219604 56912167.401092529 0 0 0 0 -608184.55253883451 1167005.1226660013 0 1167005.1226660013 585644.81548458338 0 0 0 0 154804137.36678886 163540676.27199936 0 163540676.27199936 310800759.43597412 0 0 0 0 138636664.96567535 118447117.84630585 0 118447117.84630585 -329128619.64743423 0 0 0 0 -830233.44519127905 322513.5391908884 0 322513.5391908884 54701.595099348575 0 0 0 0 57910900.950778961 3815976.1475315094 0 3815976.1475315094 -156271094.15792847 0 0 0 0 81778962.92175293 75619706.707490921 0 75619706.707490921 -2969829.7156295776 0 0 0 0 -205226.35225853324 1346622.1878005713 0 1346622.1878005713 361928.19698739052 0 0 0 0 218072493.92594528 98076645.077034473 0 98076645.077034473 2589.2049179077148 0 0 0 0 185108474.00922012 -7885116.9304275513 0 -7885116.9304275513 5335222.8138141632 0 0 0 0 235202677.11998749 156365701.94419098 0 156365701.94419098 43020009.803695679 0 0 0 0 141065438.26990509 73905065.527202606 0 73905065.527202606 42235214.595912933 0 0 0 0 81282436.858139038 23041422.158771515 0 23041422.158771515 22897582.991918564 0 0 0 0 51457709.383789062 57357071.365743637 0 57357071.365743637 12140063.081855774 0 0 0 0 211644647.69587326 92109002.902568817 0 92109002.902568817 249588166.53278351 0 0 0 0 310230172.04334641 203410963.88240242 0 203410963.88240242 77990855.641586304 0 0 0 0 97761765.22416687 288252367.97402954 0 288252367.97402954 250384355.58709717 0 0 0 0 115790559.02710724 160138534.9673996 0 160138534.9673996 73769769.661399841 0 0 0 0 239822516.38692474 141015664.86449051 0 141015664.86449051 43829123.849979401 0 0 0 0 203079554.41861343 183107063.76193428 0 183107063.76193428 163116971.1252594 0 0 0 0 155060876.24554062 109906995.10615158 0 109906995.10615158 102845717.48937988 0 0 0 0 209622230.50409698 167799074.72281647 0 167799074.72281647 108777484.884552 0 0 0 0 157163790.6745224 157626161.86555862 0 157626161.86555862 171041776.68077087 0 0 0 0 208153417.14245224 174555714.83190155 0 174555714.83190155 88850860.844665527 0 0 0 0 220287037.27367401 193832629.99037933 0 193832629.99037933 115190665.60928726 0 0 0 0 233666074.93094635 189227571.03466797 0 189227571.03466797 78341323.944061279 0 0 0 0 239534468.11322021 162374623.92979431 0 162374623.92979431 72606014.499710083 0 0 0 0 259804683.75370789 59470642.164642334 0 59470642.164642334 -14940655.39390564 0 0 0 0 310066508.15672302 204150920.63758087 0 204150920.63758087 81506444.651565552 0 0 0 0 295967890.49963379 176334441.41808319 0 176334441.41808319 31712836.794204712 0 0 0 0 262949858.28020477 223792503.64245605 0 223792503.64245605 118044012.10362244 0 0 0 0 295177052.27062225 288155075.46128845 0 288155075.46128845 268700594.93200684 0 0 0 0 -126701704.92226607 -50917507.768295407 0 -50917507.768295407 139097753.70193481 0 0 0 0 673495729.39070892 161250824.04386902 0 161250824.04386902 33581021.843933105 0 0 0 0 -1583993.1615837202 474473.06798000634 0 474473.06798000634 1173634.3064133525 0 0 0 0 622105353.31671143 277091830.98666382 0 277091830.98666382 86024140.753601074 0 0 0 0 -22760417.019294329 2256695.2171622813 0 2256695.2171622813 6219496.3139927536 0 0 0 0 627835392.69918823 112271360.50328064 0 112271360.50328064 -169587430.03973389 0 0 0 0 -717708.6768103987 61309.550335720181 0 61309.550335720181 380103.60941551626 0 0 0 0 10779903.565342735 2834993.7723459154 0 2834993.7723459154 631736.35564124584 0 0 0 0 3138710.8753790855 3254884.1054728031 0 3254884.1054728031 1019513.7477722168 0 0 0 0 201573936.72614288 152453090.48646545 0 152453090.48646545 103353620.00524616 0 0 0 0 150486168.53256607 108409956.47378159 0 108409956.47378159 83534105.789428711 0 0 0 0 43030286.399846166 17690764.163224727 0 17690764.163224727 3545775.2083781362 0 0 0 0 201391963.98096848 154941593.51200104 0 154941593.51200104 103796537.03542328 0 0 0 0 229825710.86772919 153616215.82637787 0 153616215.82637787 67179615.129230499 0 0 0 0 220919175.98976898 191858446.77725983 0 191858446.77725983 84971767.892513275 0 0 0 0 223701189.66591358 177171848.70072365 0 177171848.70072365 86737892.337661743 0 0 0 0 220691426.49642181 187035205.0256958 0 187035205.0256958 110224283.6309967 0 0 0 0 190370127.5055275 155634436.14907837 0 155634436.14907837 119853481.2860508 0 0 0 0 189182289.78697968 169261824.83010101 0 169261824.83010101 157811860.41156197 0 0 0 0 235122722.16536713 216177281.921772 0 216177281.921772 125183671.9657135 0 0 0 0 160396517.9176473 49175603.672999561 0 49175603.672999561 -12935207.279953003 0 0 0 0 16667640.505425712 9188955.3123416081 0 9188955.3123416081 -3748131.9905601144 0 0 0 0 14929815.090760127 3255131.355811581 0 3255131.355811581 1867355.1753928363 0 0 0 0 50804984.782032132 28504044.806879327 0 28504044.806879327 -46868003.307189941 0 0 0 0 31085990.406305313 60968609.938766554 0 60968609.938766554 9357735.9850128293 0 0 0 0 84631902.171936035 29890696.393409729 0 29890696.393409729 -6441358.4043400288 0 0 0 0 109679247.33036804 70319764.392559052 0 70319764.392559052 -7955561.4300746918 0 0 0 0 107060773.34686279 88567356.846927643 0 88567356.846927643 -28929742.273706436 0 0 0 0 118181922.55056763 -11273132.157306671 0 -11273132.157306671 23256479.689025879 0 0 0 0 -836645.30591583252 127647304.81955719 0 127647304.81955719 83130129.422805786 0 0 0 0 382774729.05731964 149429515.75826263 0 149429515.75826263 -39629916.525787354 0 0 0 0 -6532390.260345459 77753787.611846924 0 77753787.611846924 48552993.850822449 0 0 0 0 50804077.011505127 51371176.21660614 0 51371176.21660614 35713118.880199432 0 0 0 0 113822084.88448906 208849471.88809395 0 208849471.88809395 87431023.876968384 0 0 0 0 -499515.0520362854 123413158.15359497 0 123413158.15359497 14190018.717857361 0 0 0 0 49294150.881164551 51345268.03465271 0 51345268.03465271 253047.49736022949 0 0 0 0 58449455.021881104 33139040.453941345 0 33139040.453941345 24473600.704223633 0 0 0 0 93481736.119636536 3481345.4201507568 0 3481345.4201507568 450539.0498046875 0 0 0 0 58136858.411994934 31685633.525924683 0 31685633.525924683 26438173.761230469 0 0 0 0 4044345.9026686922 581732.10081513226 0 581732.10081513226 -611569.31866902113 0 0 0 0 -36770189.375152588 37170827.424091339 0 37170827.424091339 29834690.723711967 0 0 0 0 3116672.0204918534 28856221.052211732 0 28856221.052211732 10079072.480563417 0 0 0 0 15444306.34295854 35448986.025893092 0 35448986.025893092 8763182.5869407207 0 0 0 0 19167629.783576965 9706347.8666419983 0 9706347.8666419983 -4007782.5232162476 0 0 0 0 -19165424.712436616 28298966.80934225 0 28298966.80934225 17743607.879302233 0 0 0 0 -43975675.794288635 53319011.133148193 0 53319011.133148193 -4282771.2356262207 0 0 0 0 -30731061.783783913 -2670125.039598465 0 -2670125.039598465 -26411398.629257202 0 0 0 0 -5555230.6506195068 63484825.808326721 0 63484825.808326721 -1688034.2170295715 0 0 0 0 -33470112.704091072 23692429.792841911 0 23692429.792841911 29699298.965232849 0 0 0 0 -22660634.784378052 164138851.0268631 0 164138851.0268631 330310025.56175232 0 0 0 0 -18775424.182210922 4523742.9658002853 0 4523742.9658002853 83629735.55329895 0 0 0 0 -54658981.960245132 66224389.919857025 0 66224389.919857025 181122998.53115845 0 0 0 0 -1210926.0572357178 72868188.576629639 0 72868188.576629639 58384819.77678299 0 0 0 0 -23902515.851821899 45353216.787864685 0 45353216.787864685 -2042365.9921112061 0 0 0 0 -20523210.492800795 39692181.869549543 0 39692181.869549543 24518662.948670745 0 0 0 0 18741946.239144921 14261615.320491165 0 14261615.320491165 -6509576.704012394 0 0 0 0 -28373503.044258118 50911052.635715485 0 50911052.635715485 37100463.13366127 0 0 0 0 122497747.90106201 216798394.39335632 0 216798394.39335632 -46363285.258811951 0 0 0 0 -121023260.00377274 156426446.98114586 0 156426446.98114586 81300269.918769836 0 0 0 0 53675995.194458008 57804126.851951599 0 57804126.851951599 127113673.51407433 0 0 0 0 127508005.51649475 16847318.176383972 0 16847318.176383972 146628834.70460129 0 0 0 0 -116223482.56580353 55581349.739261627 0 55581349.739261627 211053615.3941803 0 0 0 0 41204149.556045532 403910832.05373764 0 403910832.05373764 83161849.168556213 0 0 0 0 64350437.85710907 238231774.64720917 0 238231774.64720917 72193179.190914154 0 0 0 0 21849405.196685791 186087781.92234039 0 186087781.92234039 118277038.15843201 0 0 0 0 74572375.562335968 195944036.90373898 0 195944036.90373898 109845254.93254089 0 0 0 0 -13708587.68296814 36863776.47177887 0 36863776.47177887 -7951470.0567321777 0 0 0 0 66076439.611373901 195715910.47217178 0 195715910.47217178 -120701071.76679611 0 0 0 0 266082295.9750061 396226562.3182373 0 396226562.3182373 9231401.8497390747 0 0 0 0 -73275049.579935074 279553369.21525669 0 279553369.21525669 97587791.455215454 0 0 0 0 157926333.70571899 263605236.90390778 0 263605236.90390778 86221677.931722641 0 0 0 0 147873005.28703308 157388729.83190918 0 157388729.83190918 19685347.131494522 0 0 0 0 182684232.514328 -44257951.472694397 0 -44257951.472694397 140406943.91085052 0 0 0 0 452770350.38227844 114355490.03302383 0 114355490.03302383 3792628.8175506592 0 0 0 0 1513353829.9385262 -114450403.59646416 0 -114450403.59646416 -277400598.5382843 0 0 0 0 433359243.39698792 419557144.54756546 0 419557144.54756546 398925278.15816498 0 0 0 0 265671546.9440918 101776934.48913574 0 101776934.48913574 -176473666.967453 0 0 0 0 -27549025.301757812 305480815.47229385 0 305480815.47229385 257523135.08113098 0 0 0 0 1994362.3211646453 4937368.6071802676 0 4937368.6071802676 1332654.0165914744 0 0 0 0 -597875032.13087082 479550577.97142601 0 479550577.97142601 174191235.24582672 0 0 0 0 -149698208.51106262 474325458.90355301 0 474325458.90355301 -5227589.7707166672 0 0 0 0 -471876820.15061951 364996235.90541077 0 364996235.90541077 266923925.99051857 0 0 0 0 425998650.47853851 156350172.14958954 0 156350172.14958954 107193689.04949474 0 0 0 0 -722060578.68222046 320827217.5752182 0 320827217.5752182 283394744.40298462 0 0 0 0 6336527.445025593 6487336.6563732624 0 6487336.6563732624 -1270949.4032594562 0 0 0 0 -211336045.42319489 131908005.00098991 0 131908005.00098991 215969115.14918518 0 0 0 0 645063347.90106201 264459590.89725494 0 264459590.89725494 -357188779.09611511 0 0 0 0 506272393.08836365 -242793884.53582001 0 -242793884.53582001 179586583.08049774 0 0 0 0 170156827.97807312 134531618.41109467 0 134531618.41109467 -24474148.775001526 0 0 0 0 228296679.0905304 -76047004.041851044 0 -76047004.041851044 -54967723.986175537 0 0 0 0 21394791.652407911 17901022.626905128 0 17901022.626905128 -4887669.1855652928 0 0 0 0 -69984464.725341797 46253666.933307648 0 46253666.933307648 74553667.445327759 0 0 0 0 397093710.21141815 -17175402.280574799 0 -17175402.280574799 -34685177.866722107 0 0 0 0 712672621.76478195 -151575023.54483414 0 -151575023.54483414 -53348781.705780029 0 0 0 0 3190493.9692075849 14284164.068141811 0 14284164.068141811 9977618.1692295372 0 0 0 0 -358745614.12776184 -194418365.41745377 0 -194418365.41745377 -1387099321.726532 0 0 0 0 338786599.36074829 -78271557.583961487 0 -78271557.583961487 108507351.15756226 0 0 0 0 363198885.61955261 23847104.716041565 0 23847104.716041565 37581320.434249878 0 0 0 0 335082680.62887573 -20390356.134185791 0 -20390356.134185791 -31080437.330657959 0 0 0 0 353489909.52163696 15088877.410949707 0 15088877.410949707 -36433569.150965691 0 0 0 0 364249167.85661221 -28229305.280889511 0 -28229305.280889511 -42065220.536590576 0 0 0 0 181146501.87986755 -43747666.041809082 0 -43747666.041809082 15147273.861167908 0 0 0 0 415872239.76112747 1870797.225320816 0 1870797.225320816 -41888199.620986938 0 0 0 0 347962981.34682083 -96210313.113582611 0 -96210313.113582611 -1255738.7060012817 0 0 0 0 -3604543.7034828812 15887587.349329084 0 15887587.349329084 2565266.8163277507 0 0 0 0 -63172754.888347626 20296118.389122009 0 20296118.389122009 -34599960.577438354 0 0 0 0 151576466.9542799 70666238.33119154 0 70666238.33119154 -12523896.968231201 0 0 0 0 163414573.65136337 -3730236.619096756 0 -3730236.619096756 -22426333.21761322 0 0 0 0 242845686.33564758 71601331.383781433 0 71601331.383781433 -5730062.6754932404 0 0 0 0 28855115.850348428 62328768.10435845 0 62328768.10435845 6308782.6828803122 0 0 0 0 27211742.172241211 82631451.482051849 0 82631451.482051849 27507058.031097412 0 0 0 0 98863648.233375549 68039678.246425629 0 68039678.246425629 20065203.234806061 0 0 0 0 101792619.44516754 58057770.299674988 0 58057770.299674988 39547746.07762146 0 0 0 0 116449559.85749054 15307664.531692505 0 15307664.531692505 33977817.675937653 0 0 0 0 191257662.58550453 -96137766.800271988 0 -96137766.800271988 106277513.63249207 0 0 0 0 4707795.4650306702 104212158.57136536 0 104212158.57136536 11919386.353752136 0 0 0 0 17117559.116270389 56059952.898598179 0 56059952.898598179 -4791050.5592018366 0 0 0 0 -408062779.98178864 693185958.14705658 0 693185958.14705658 -755383482.1255722 0 0 0 0 -487692886.23179626 -49046463.352607727 0 -49046463.352607727 481716288.91977692 0 0 0 0 113267660.60082054 191551602.92787933 0 191551602.92787933 79698397.339927673 0 0 0 0 78548800.093669891 300034992.0678978 0 300034992.0678978 -209034879.57012939 0 0 0 0 125942457.66633606 387351938.41706848 0 387351938.41706848 -245615154.00931931 0 0 0 0 -329228051.95830393 544813240.31471539 0 544813240.31471539 -202258807.24604797 0 0 0 0 218753642.90422821 249317992.71881866 0 249317992.71881866 -162029229.2847023 0 0 0 0 -8743655.870023258 4140264.6398456693 0 4140264.6398456693 2420246.6557860672 0 0 0 0 -221818597.53749847 -93015273.927078247 0 -93015273.927078247 72994507.854705811 0 0 0 0 -288104285.78676605 -63622870.257881165 0 -63622870.257881165 175774964.12508011 0 0 0 0 -23577529.234610081 165182576.585711 0 165182576.585711 -200772878.64631653 0 0 0 0 -321958455.02920532 -58697250.228637695 0 -58697250.228637695 180569889.86955261 0 0 0 0 60072.21201087907 55318957.524035789 0 55318957.524035789 -2969414.4182983637 0 0 0 0 -332950666.995224 33253346.577095032 0 33253346.577095032 162272910.04918671 0 0 0 0 -29461810.102639198 94377324.479673386 0 94377324.479673386 69215752.521621704 0 0 0 0 44134485.127937317 116102211.72687531 0 116102211.72687531 -35661820.816279888 0 0 0 0 50972944.303775787 144023132.20421505 0 144023132.20421505 8313846.6060180664 0 0 0 0 312221162.04634094 300826406.73732376 0 300826406.73732376 96125333.201519012 0 0 0 0 251136223.43117523 144822484.64044189 0 144822484.64044189 -82012706.935333252 0 0 0 0 590104097.73693848 64176097.464378357 0 64176097.464378357 -62846943.058837891 0 0 0 0 -21516552.115356445 178864135.62932587 0 178864135.62932587 232659020.0951767 0 0 0 0 591104817.17144012 -160197731.50434113 0 -160197731.50434113 -38492235.843349457 0 0 0 0 -46837241.307723999 64834016.320053101 0 64834016.320053101 160457907.20172119 0 0 0 0 3017265.9828184545 5982297.3613523394 0 5982297.3613523394 -2131686.9906722009 0 0 0 0 -28824339.247894287 -13686194.791404724 0 -13686194.791404724 -5505325.7089309692 0 0 0 0 10497518.412391663 109070315.82493973 0 109070315.82493973 47744595.976470947 0 0 0 0 -140559582.76529694 8207397.0078048706 0 8207397.0078048706 21423347.471559525 0 0 0 0 541968603.50652456 230060495.01118493 0 230060495.01118493 10645405.386886597 0 0 0 0 -5961447.1352777556 50010150.741776973 0 50010150.741776973 25251576.088803887 0 0 0 0 32520838.660255432 -56611472.836860657 0 -56611472.836860657 196996140.34580994 0 0 0 0 212099527.11288452 -192957999.92585754 0 -192957999.92585754 286625008.31916809 0 0 0 0 320707324.60507202 58687778.73727417 0 58687778.73727417 -88621594.360607147 0 0 0 0 -22467413.454706132 19724794.616367325 0 19724794.616367325 39253806.789481252 0 0 0 0 -60932584.900215149 86899832.557518005 0 86899832.557518005 -8580721.6864886284 0 0 0 0 -147438650.3761673 93650599.730698586 0 93650599.730698586 90988922.568191528 0 0 0 0 -70556584.897598267 31841813.363155365 0 31841813.363155365 49312037.030177116 0 0 0 0 111592843.66660309 141206729.60424423 0 141206729.60424423 73601521.1354599 0 0 0 0 119701860.99972153 249746862.88719547 0 249746862.88719547 123436312.84712601 0 0 0 0 -9971141.3956491053 28152379.628904507 0 28152379.628904507 -26316210.250178799 0 0 0 0 103512278.26039886 75011226.322072983 0 75011226.322072983 75236500.017501831 0 0 0 0 19354460.746166229 187778394.8668499 0 187778394.8668499 171449326.93164062 0 0 0 0 -130956163.84062958 76400731.032337189 0 76400731.032337189 103664952.76843262 0 0 0 0 -50863125.115280151 49423707.356113434 0 49423707.356113434 71253937.552682638 0 0 0 0 -164731358.30898285 18193515.339956284 0 18193515.339956284 1349043.8694915771 0 0 0 0 -173529007.74607086 2753222.1278877258 0 2753222.1278877258 63018244.599378586 0 0 0 0 -90113335.580051422 197277007.49242926 0 197277007.49242926 21467916.078598022 0 0 0 0 -118719829.54444122 60165973.81968689 0 60165973.81968689 -32858917.443843842 0 0 0 0 -333511440.00014877 -47765751.252013206 0 -47765751.252013206 -17288776.338371277 0 0 0 0 -195789512.20568848 188644736.24601936 0 188644736.24601936 -230372381.85466766 0 0 0 0 366076728.09650421 106793346.43019867 0 106793346.43019867 -259368503.50849915 0 0 0 0 67469357.267745972 -11389978.591217041 0 -11389978.591217041 169783560.04515839 0 0 0 0 66186815.439571381 216788311.24015999 0 216788311.24015999 10491968.666435242 0 0 0 0 -197391706.77741241 -4878112.3585929871 0 -4878112.3585929871 56635756.080392838 0 0 0 0 2836941.6936423853 24829450.284002081 0 24829450.284002081 -10068637.457034439 0 0 0 0 -6479473.9392865896 40465847.435410261 0 40465847.435410261 52416751.567231849 0 0 0 0 88262176.458656311 149422996.15552902 0 149422996.15552902 56070221.38205719 0 0 0 0 402069629.2641983 -10863483.297578812 0 -10863483.297578812 -37573715.418617249 0 0 0 0 549252.39323578775 25537277.627254859 0 25537277.627254859 29964002.040473074 0 0 0 0 -186478745.04463196 -24821585.877780914 0 -24821585.877780914 221553113.83629227 0 0 0 0 -245647322.9357605 114636490.34051132 0 114636490.34051132 227891776.78639221 0 0 0 0 -221557345.01754761 231278181.20429993 0 231278181.20429993 384170442.41740417 0 0 0 0 -563867038.39598083 971027160.69917297 0 971027160.69917297 -78787289.717266083 0 0 0 0 314427037.43601227 538693290.76032257 0 538693290.76032257 -961996006.43492699 0 0 0 0 -230018850.6503315 299867143.15105438 0 299867143.15105438 -144336833.29637146 0 0 0 0 376448097.67153931 135030777.75143862 0 135030777.75143862 -472207932.89006805 0 0 0 0 3876408.7864130139 2660883.8212396353 0 2660883.8212396353 -8609729.2420106977 0 0 0 0 429238267.71625519 266549218.81123734 0 266549218.81123734 -575099990.6362555 0 0 0 0 161119284.7746582 359069809.9631691 0 359069809.9631691 -566901000.85680389 0 0 0 0 536309160.6977005 121290132.07051468 0 121290132.07051468 -547424466.13171387 0 0 0 0 -16205054.592834473 -66010005.286830902 0 -66010005.286830902 81687460.016019821 0 0 0 0 -222426354.19284821 45783857.535186768 0 45783857.535186768 118377673.6782074 0 0 0 0 101517012.15499496 76860552.151800156 0 76860552.151800156 49939354.337188721 0 0 0 0 -9843976.5618425012 7866930.8427554667 0 7866930.8427554667 -1913904.7547053024 0 0 0 0 -312334165.03613281 -45436369.898208618 0 -45436369.898208618 111225794.69068146 0 0 0 0 -716919186.01292419 123798038.67748642 0 123798038.67748642 259388091.02523804 0 0 0 0 -483550895.26322937 -26668693.577682495 0 -26668693.577682495 169166012.67782593 0 0 0 0 -478409847.04408264 144231266.21139145 0 144231266.21139145 218682811.65745163 0 0 0 0 -222310449.92118835 155861915.10826492 0 155861915.10826492 117087158.84900284 0 0 0 0 -226874784.90711236 34765432.180975974 0 34765432.180975974 127760014.70252228 0 0 0 0 -328320372.75656891 202240740.56516933 0 202240740.56516933 136323525.00479889 0 0 0 0 -54150277.628437042 61604537.215528011 0 61604537.215528011 68570537.881759644 0 0 0 0 -52631854.817321777 83878578.719993591 0 83878578.719993591 89191168.887039185 0 0 0 0 -38372323.444564819 103804941.30248642 0 103804941.30248642 97980037.669334412 0 0 0 0 3282570.8712158203 79889152.630908966 0 79889152.630908966 73909292.087638855 0 0 0 0 -113790690.20503235 167859982.08970642 0 167859982.08970642 124828330.33956146 0 0 0 0 -66685385.114524841 82586063.910675049 0 82586063.910675049 92109111.136445999 0 0 0 0 -51266929.994430542 212707864.64596415 0 212707864.64596415 126285528.11974335 0 0 0 0 26940772.335243225 83361154.511117935 0 83361154.511117935 39146936.634763718 0 0 0 0 18511460.202782631 66815177.189026475 0 66815177.189026475 29086399.809448242 0 0 0 0 4003312.3814163208 81057909.813077927 0 81057909.813077927 51566759.979385376 0 0 0 0 19057688.669181824 74608338.118736267 0 74608338.118736267 51793226.881515503 0 0 0 0 -5148227.6366271973 68998280.768440247 0 68998280.768440247 100039481.63498688 0 0 0 0 29801480.15530777 83206486.793706894 0 83206486.793706894 55949733.333396912 0 0 0 0 7506898.3537979126 41514294.278324127 0 41514294.278324127 47256872.10534668 0 0 0 0 -22699814.63483429 42766625.283016205 0 42766625.283016205 60836323.157680511 0 0 0 0 204089559.97835159 -124489733.69530869 0 -124489733.69530869 92225487.513931274 0 0 0 0 -25321818.081932068 15703543.914913654 0 15703543.914913654 -25684.962176002562 0 0 0 0 16335633.895626068 105850744.94216347 0 105850744.94216347 117831888.99134827 0 0 0 0 -40027165.281005859 314231011.00793457 0 314231011.00793457 -200116635.97153473 0 0 0 0 -853291714.05862427 -30547595.669937134 0 -30547595.669937134 508485874.47960663 0 0 0 0 -648914587.7193985 63925892.23024559 0 63925892.23024559 -11016290.47593689 0 0 0 0 -426235591.8657341 397288348.04123497 0 397288348.04123497 -172576810.46923065 0 0 0 0 -83995065.736755371 203465547.90505028 0 203465547.90505028 -238302235.52601624 0 0 0 0 -140794166.29367065 174171244.23034859 0 174171244.23034859 -129032781.1909256 0 0 0 0 362506857.87380981 229934559.12459564 0 229934559.12459564 -253502444.17045212 0 0 0 0 -288064.35181954503 2735434.4854024053 0 2735434.4854024053 -790147.12815520167 0 0 0 0 22630413.217681885 721256.49533462524 0 721256.49533462524 -40273012.717273712 0 0 0 0 131718610.50910187 1061600406.0446205 0 1061600406.0446205 190585144.89034271 0 0 0 0 396856339.57035065 76461232.828552246 0 76461232.828552246 -321044912.68616295 0 0 0 0 -16166147.700164795 49128354.759841919 0 49128354.759841919 95579325.572689056 0 0 0 0 -3642612.4871082306 4595268.5495401621 0 4595268.5495401621 2269045.4883954078 0 0 0 0 32410976.668254852 -52015895.323433876 0 -52015895.323433876 16732602.934700012 0 0 0 0 50975208.99206543 83526790.978263855 0 83526790.978263855 56160944.879722595 0 0 0 0 -70776675.069099426 8616118.6683197021 0 8616118.6683197021 255862143.5833149 0 0 0 0 -34961305.458236694 36420742.999457359 0 36420742.999457359 151844141.70932007 0 0 0 0 34559248.7396698 16430815.725021362 0 16430815.725021362 157456468.28667831 0 0 0 0 -28640743.62710762 23837741.721905485 0 23837741.721905485 4308833.6979028322 0 0 0 0 -12575634.481109619 39864789.009632111 0 39864789.009632111 22453741.896848679 0 0 0 0 -1450637.885544993 4554872.2645196319 0 4554872.2645196319 1198411.1503753811 0 0 0 0 16472329.671829224 56664059.371177673 0 56664059.371177673 35766023.46194458 0 0 0 0 -9283395.1729247384 32762123.714625716 0 32762123.714625716 9382472.7883895934 0 0 0 0 62520184.450405121 12787231.336617947 0 12787231.336617947 -9699288.5009918213 0 0 0 0 67042338.293731689 19807049.338588715 0 19807049.338588715 695931.0167734623 0 0 0 0 3376495.1027908325 53244972.739162445 0 53244972.739162445 5986803.7468948364 0 0 0 0 -51536469.217247963 34725288.041569948 0 34725288.041569948 36230645.297264099 0 0 0 0 -10358851.664245605 56884731.999294281 0 56884731.999294281 -33767941.209434509 0 0 0 0 -35032656.023109436 42053815.989025116 0 42053815.989025116 -28951062.015716553 0 0 0 0 -25438998.627365112 53675662.133323669 0 53675662.133323669 -17136008.591285706 0 0 0 0 5478047.4247190356 1801613.7548788562 0 1801613.7548788562 -4948882.4713096023 0 0 0 0 72641303.689048767 14255551.439136505 0 14255551.439136505 -13133217.296646118 0 0 0 0 -51236315.141098022 78494345.86101532 0 78494345.86101532 -18703104.663389206 0 0 0 0 64268891.613494873 13309796.496631622 0 13309796.496631622 -11983278.753688812 0 0 0 0 18207270.594101846 14176931.424777776 0 14176931.424777776 -6627483.9031924084 0 0 0 0 -4799070.1055908203 32042144.438346863 0 32042144.438346863 31346372.08617115 0 0 0 0 4084920.192565918 267258.16020202637 0 267258.16020202637 -14798642.91361618 0 0 0 0 -27196627.03225708 33662052.556793213 0 33662052.556793213 64384961.379310608 0 0 0 0 -31772149.931060791 16769299.023376465 0 16769299.023376465 37856857.547729492 0 0 0 0 -241659.08277893066 24657486.001548767 0 24657486.001548767 39610734.032934189 0 0 0 0 3133082.1280418038 10674493.91188208 0 10674493.91188208 6554119.8913982809 0 0 0 0 -10153895.941040039 35842002.086238861 0 35842002.086238861 -38935615.495326996 0 0 0 0 10035978.877178192 9962677.5206756592 0 9962677.5206756592 25212423.200286865 0 0 0 0 -2513.4570770263672 46715080.936338425 0 46715080.936338425 -44505367.084342957 0 0 0 0 -46592946.843963623 60737785.001335144 0 60737785.001335144 -24472878.724700928 0 0 0 0 -14126396.255752563 45801549.039321899 0 45801549.039321899 -47345725.632705688 0 0 0 0 11048148.218846858 3511109.3557263836 0 3511109.3557263836 -9881734.3371659517 0 0 0 0 -10728913.999744415 31140795.902780533 0 31140795.902780533 -63584663.766586304 0 0 0 0 -2148802.641912818 2273030.2863889486 0 2273030.2863889486 17423113.586449444 0 0 0 0 -4332.0319519042969 9324030.9363021851 0 9324030.9363021851 2633586.4198913574 0 0 0 0 -2233627.6222114563 26685900.872107506 0 26685900.872107506 914618231.03677368 0 0 0 0 2850972.4172082394 4969810.0740508065 0 4969810.0740508065 -5445021.8400203586 0 0 0 0 -527408808.55698395 -109338467.50318909 0 -109338467.50318909 922413112.11205506 0 0 0 0 -4348877.4349691868 1576681.41519849 0 1576681.41519849 9966054.3492980897 0 0 0 0 -9379864.9867095947 850221.12696838379 0 850221.12696838379 24033857.634935379 0 0 0 0 -42725878.484313965 18630989.72869873 0 18630989.72869873 60784137.018417358 0 0 0 0 -38255721.933197021 7296598.4879608154 0 7296598.4879608154 45625684.079910278 0 0 0 0 13395.517330169678 371555472.4998312 0 371555472.4998312 -113813681.62638092 0 0 0 0 -159005264.84442902 238825888.60589695 0 238825888.60589695 211621730.67890549 0 0 0 0 -3531793.4275900871 6879121.5023801625 0 6879121.5023801625 -6700243.8545898348 0 0 0 0 262699222.61663055 27727073.17162323 0 27727073.17162323 -267519690.17338562 0 0 0 0 7283732.1666526794 316927327.24356556 0 316927327.24356556 -168335132.87488556 0 0 0 0 217026678.39286041 102712829.20658875 0 102712829.20658875 49923257.576519012 0 0 0 0 -8608157.3510665894 19110231.617705345 0 19110231.617705345 -19028330.591647953 0 0 0 0 248813055.42525482 319992485.61953545 0 319992485.61953545 31342756.433428288 0 0 0 0 146029440.35946465 392407806.54210281 0 392407806.54210281 236811174.2902832 0 0 0 0 402064792.84302974 202881811.73445916 0 202881811.73445916 -292022104.14364624 0 0 0 0 404404571.62889862 325489616.06664276 0 325489616.06664276 79533248.785622597 0 0 0 0 -43871246.371536255 180605371.75244904 0 180605371.75244904 261362638.37893057 0 0 0 0 89313069.740253448 125451673.76724052 0 125451673.76724052 -123253945.08747864 0 0 0 0 99669069.827287674 264879122.88621616 0 264879122.88621616 78467840.943927765 0 0 0 0 194582866.51534462 329624946.0175035 0 329624946.0175035 -10684147.709651947 0 0 0 0 129461743.20010376 209746257.37526321 0 209746257.37526321 43586032.323856354 0 0 0 0 85168851.760925293 122722202.85374832 0 122722202.85374832 -136582534.32032776 0 0 0 0 3964300.4493972436 6169147.3024267852 0 6169147.3024267852 1548171.6596255973 0 0 0 0 -294635468.33984375 179495834.71824265 0 179495834.71824265 -15071622.409515381 0 0 0 0 -238967508.10923767 408205812.13929367 0 408205812.13929367 -344520405.71811676 0 0 0 0 37574329.183044434 57961280.370521545 0 57961280.370521545 -115059844.59011841 0 0 0 0 -150676014.64227295 61214331.169628143 0 61214331.169628143 15845041.906742096 0 0 0 0 -5383965.2932052612 137928925.90647888 0 137928925.90647888 9630227.6977386475 0 0 0 0 -5721845.4146118164 100258241.5943718 0 100258241.5943718 -145612068.23235703 0 0 0 0 -78749826.811660767 208096046.54534531 0 208096046.54534531 -171264542.5109787 0 0 0 0 -98528676.597244263 195304794.05763245 0 195304794.05763245 -155602247.36070251 0 0 0 0 -59246712.531982422 236905028.96909523 0 236905028.96909523 -224050341.97486115 0 0 0 0 -152153063.57911682 306570853.18141174 0 306570853.18141174 -260826349.46930695 0 0 0 0 -191208296.04370117 275944408.16139984 0 275944408.16139984 -194409553.29909325 0 0 0 0 -225619020.86627197 323207663.80804062 0 323207663.80804062 -202642020.59614944 0 0 0 0 -332918.30461120605 304730486.53099537 0 304730486.53099537 -573509619.27915764 0 0 0 0 -205434745.03207397 346704315.55005074 0 346704315.55005074 -288426379.50570488 0 0 0 0 -39476931.661529541 477131897.0941925 0 477131897.0941925 -1071492701.3436241 0 0 0 0 -139224605.55857086 386795470.92014122 0 386795470.92014122 -375098394.279953 0 0 0 0 -102315775.7978363 532067681.00369549 0 532067681.00369549 -1098000939.7456906 0 0 0 0 -694602676.8035965 803403305.41312599 0 803403305.41312599 -615032371.05931282 0 0 0 0 -207864394.14541626 694127653.82460403 0 694127653.82460403 -1098256016.1154556 0 0 0 0 -575540998.20098877 522117112.83245468 0 522117112.83245468 -31863519.70314908 0 0 0 0 -284210821.91574097 211350168.03129959 0 211350168.03129959 86846034.018203735 0 0 0 0 -527467916.68709564 -817916109.58498573 0 -817916109.58498573 -1078721602.3931694 0 0 0 0 3532883.8665674701 5533082.7245377749 0 5533082.7245377749 -14769119.343235403 0 0 0 0 -295500021.02953339 -660959440.83360052 0 -660959440.83360052 -554687883.48751068 0 0 0 0 -40067163.193389893 -312923193.23588181 0 -312923193.23588181 -401045742.56461716 0 0 0 0 -241180700.56292725 -154734174.4908247 0 -154734174.4908247 60756926.412731171 0 0 0 0 -348251145.33068848 -429303297.52049017 0 -429303297.52049017 -239666957.2532692 0 0 0 0 210657924.08092499 -655254803.65752697 0 -655254803.65752697 -1386362366.7536392 0 0 0 0 70884772.731781006 -426714772.90521431 0 -426714772.90521431 -659609286.54176903 0 0 0 0 -65397971.933364868 -346136984.42743397 0 -346136984.42743397 -393630264.97101974 0 0 0 0 406307983.58840942 -182128129.70175838 0 -182128129.70175838 -872477153.45963001 0 0 0 0 414705374.25386047 -281341452.69505596 0 -281341452.69505596 -857066374.4581728 0 0 0 0 220765249.0138092 -100560584.49874973 0 -100560584.49874973 -398317875.31901932 0 0 0 0 92795810.578811646 -120423564.90347958 0 -120423564.90347958 -282893828.99526024 0 0 0 0 125932588.1350708 -228974336.26097679 0 -228974336.26097679 -572109519.88185549 0 0 0 0 59601794.155448914 -107571890.74221468 0 -107571890.74221468 -284416075.99348068 0 0 0 0 89543201.886825562 1062657.9807949066 0 1062657.9807949066 -162683381.68713474 0 0 0 0 118818463.43687439 46901520.122191429 0 46901520.122191429 -203104542.05124569 0 0 0 0 102866454.4302063 -54132649.404102325 0 -54132649.404102325 -407738339.85442376 0 0 0 0 415944787.64931488 97622718.3785882 0 97622718.3785882 -90702254.126296997 0 0 0 0 268437785.06396484 -166856067.2888031 0 -166856067.2888031 57305118.632227659 0 0 0 0 12666992.39430514 17934101.808800817 0 17934101.808800817 -37089714.316956937 0 0 0 0 327212187.40380096 46657164.580929279 0 46657164.580929279 -197574168.22144794 0 0 0 0 95529406.778411865 125399377.67822361 0 125399377.67822361 -76928626.343255997 0 0 0 0 150462972.53961182 126684002.83719802 0 126684002.83719802 -71134213.354588985 0 0 0 0 23054487.577546768 43324790.310882553 0 43324790.310882553 -46928852.758710921 0 0 0 0 128945374.9617157 -4206671.8840560913 0 -4206671.8840560913 56624512.106918335 0 0 0 0 131946313.52250671 -13853059.679067612 0 -13853059.679067612 -38858108.532691956 0 0 0 0 94469638.676437378 95525192.164301872 0 95525192.164301872 -14332920.069361925 0 0 0 0 92529646.407726288 62099371.33369422 0 62099371.33369422 -206452482.64777374 0 0 0 0 134657170.49423981 483913.67406272888 0 483913.67406272888 -179330486.13455582 0 0 0 0 103480806.90145874 107377151.02412415 0 107377151.02412415 -94354817.068782806 0 0 0 0 44599404.922370702 59574372.748144284 0 59574372.748144284 -16557904.736235978 0 0 0 0 62359668.075515747 75514099.712043762 0 75514099.712043762 88685718.624217987 0 0 0 0 70822396.418968201 104354913.22830284 0 104354913.22830284 -23002766.878005028 0 0 0 0 191316687.1177597 50362325.568961143 0 50362325.568961143 -17290881.784599304 0 0 0 0 39387728.740466774 11886199.122841299 0 11886199.122841299 -1411147.4190527871 0 0 0 0 10406140.292776901 25478002.367157549 0 25478002.367157549 12689967.616683006 0 0 0 0 47619283.380737305 74692317.976961136 0 74692317.976961136 -59410389.125976562 0 0 0 0 30714614.594907016 48802307.098555446 0 48802307.098555446 -8387680.9047696963 0 0 0 0 3903921.0817260742 22450706.918582916 0 22450706.918582916 20808977.154815674 0 0 0 0 14126310.61172767 40657085.08747448 0 40657085.08747448 15266687.623961926 0 0 0 0 30114441.921819359 30986787.658490613 0 30986787.658490613 -7113290.206075469 0 0 0 0 14015631.136657715 23107522.559368134 0 23107522.559368134 5120031.6778640747 0 0 0 0 33219184.365209103 33978214.119042672 0 33978214.119042672 -6502563.8746436331 0 0 0 0 13708968.116691589 20969896.717786789 0 20969896.717786789 4255823.7517471313 0 0 0 0 -23522826.756149292 43314260.919532776 0 43314260.919532776 45384724.882713199 0 0 0 0 -603958.70707786083 14086279.834499896 0 14086279.834499896 16584750.448502721 0 0 0 0 37792050.0287323 52490024.384628296 0 52490024.384628296 -7090412.3744733334 0 0 0 0 24252434.024866104 29184266.230107069 0 29184266.230107069 35769276.144248962 0 0 0 0 13438154.589867339 15539267.289592415 0 15539267.289592415 4157110.3291582912 0 0 0 0 7528755.2604143023 8510892.5326850861 0 8510892.5326850861 6022514.0287496671 0 0 0 0 88797047.225036621 -3635456.024263382 0 -3635456.024263382 63286521.853977203 0 0 0 0 28679111.350479126 76861653.958999634 0 76861653.958999634 38814189.33881402 0 0 0 0 51661463.339206696 29863268.55200243 0 29863268.55200243 19621079.713569641 0 0 0 0 60899753.6875 13005946.331064224 0 13005946.331064224 -95694201.46887207 0 0 0 0 4999099.14427948 -39173313.258068085 0 -39173313.258068085 53089700.043739319 0 0 0 0 -178147.36725616455 102037416.1486187 0 102037416.1486187 -23121372.741519928 0 0 0 0 -85867743.172744751 250862204.96341705 0 250862204.96341705 -265963736.81772184 0 0 0 0 -87195854.408874512 96871657.2703228 0 96871657.2703228 94570847.099624634 0 0 0 0 476990.93127650023 2379789.8314548433 0 2379789.8314548433 3453162.7176507562 0 0 0 0 -11216417.25617981 155676535.08997726 0 155676535.08997726 -249784098.47475672 0 0 0 0 -94261.696762681007 1911396.7424341887 0 1911396.7424341887 13283673.281699045 0 0 0 0 -17652169.591461182 71955351.752274513 0 71955351.752274513 -74196863.492321014 0 0 0 0 -6468747.4130477905 28936487.862569809 0 28936487.862569809 26652103.008235931 0 0 0 0 -17330093.279251099 43504706.487800598 0 43504706.487800598 131084066.73103237 0 0 0 0 13881.270835876465 64403071.570415497 0 64403071.570415497 61751976.233448029 0 0 0 0 -37917638.300544739 35240466.045936584 0 35240466.045936584 49658886.670101166 0 0 0 0 -16310374.208110809 36825693.588829994 0 36825693.588829994 48037576.704200745 0 0 0 0 -14980763.02835083 52409582.438159943 0 52409582.438159943 57665973.213632584 0 0 0 0 -17359473.314710617 36368903.021569967 0 36368903.021569967 25800172.355178833 0 0 0 0 546503.76954650879 60064914.849248886 0 60064914.849248886 33902218.797580719 0 0 0 0 1456359.4415473938 52870320.054488182 0 52870320.054488182 26292972.938217163 0 0 0 0 -3041237.1636924744 58018155.623945236 0 58018155.623945236 33281507.124832153 0 0 0 0 5558.2045364379883 65026635.374435425 0 65026635.374435425 34685032.421268463 0 0 0 0 782410.68016815186 54327609.083616257 0 54327609.083616257 48247491.571853638 0 0 0 0 2976580.2519989014 60455768.01133728 0 60455768.01133728 21256273.624546051 0 0 0 0 2784063.3742523193 60156361.984487534 0 60156361.984487534 27611597.093070984 0 0 0 0 2562981.6860580444 61149257.46796608 0 61149257.46796608 31842412.644224167 0 0 0 0 9276231.8538284302 82518589.769485474 0 82518589.769485474 -18712572.730816364 0 0 0 0 35757773.740795135 48477726.214601517 0 48477726.214601517 15333300.663650513 0 0 0 0 -20222.651771097193 67207829.413297698 0 67207829.413297698 16229574.543151855 0 0 0 0 -4437563.9013824463 48645795.391849518 0 48645795.391849518 -16615980.669995785 0 0 0 0 6122213.1731758118 46790223.284286499 0 46790223.284286499 21144922.711128235 0 0 0 0 62714545.687374115 90548731.921870232 0 90548731.921870232 23085774.103744507 0 0 0 0 -7069603.5792930946 33994600.463235408 0 33994600.463235408 19545386.11103259 0 0 0 0 -47234515.491786957 38066271.859546661 0 38066271.859546661 34817256.346324921 0 0 0 0 56590595.750358582 63469538.744104385 0 63469538.744104385 -1096372.8715878129 0 0 0 0 18163188.840454102 31667259.677190781 0 31667259.677190781 -2141032.31590271 0 0 0 0 55820389.862503052 95081639.743217468 0 95081639.743217468 30868681.823022842 0 0 0 0 70849207.540308952 76005736.877918959 0 76005736.877918959 52468379.817565918 0 0 0 0 150740436.05371094 180054282.89948273 0 180054282.89948273 142258828.05091858 0 0 0 0 -92347679.157176971 -20223423.668369293 0 -20223423.668369293 83838440.244812012 0 0 0 0 6621919.2779083252 57533788.430711746 0 57533788.430711746 28662451.697547913 0 0 0 0 -5138522.1973160058 35725081.576941118 0 35725081.576941118 29470586.581140727 0 0 0 0 237307716.74744987 -70962845.571942329 0 -70962845.571942329 -12346581.334014893 0 0 0 0 58241230.413612366 46697214.018203735 0 46697214.018203735 63810284.132755876 0 0 0 0 6635811.0182175413 17453445.908189759 0 17453445.908189759 7268372.4658329785 0 0 0 0 5940131.4925689697 204752763.42155838 0 204752763.42155838 144272594.51937103 0 0 0 0 195343150.79236603 79411553.112440109 0 79411553.112440109 -21614685.675412178 0 0 0 0 -2973364.429210268 41863743.637485802 0 41863743.637485802 38014016.522617579 0 0 0 0 13499843.690791488 15782902.587212652 0 15782902.587212652 24687283.290909499 0 0 0 0 56434879.747773647 57543389.414784431 0 57543389.414784431 120214305.83400726 0 0 0 0 71152029.374671936 126689992.09534073 0 126689992.09534073 194816342.53894424 0 0 0 0 4366280.201757431 4831517.5864667445 0 4831517.5864667445 7167091.0789373964 0 0 0 0 13741670.861999512 50917521.240493774 0 50917521.240493774 121852908.05945301 0 0 0 0 76013015.997947693 117483605.11415482 0 117483605.11415482 131698475.19588614 0 0 0 0 56076404.861961365 55926631.279550076 0 55926631.279550076 96976443.86000824 0 0 0 0 30974526.163917542 75804429.703659058 0 75804429.703659058 83315222.449825287 0 0 0 0 30701198.326469421 141467826.01832008 0 141467826.01832008 155874045.84641647 0 0 0 0 78976854.818933487 140476588.70586824 0 140476588.70586824 152108329.74308777 0 0 0 0 63525936.096776009 127868834.77152991 0 127868834.77152991 151324950.09857941 0 0 0 0 91918282.310508728 92500214.425487518 0 92500214.425487518 66976200.914196014 0 0 0 0 45256469.492362976 93321019.062889099 0 93321019.062889099 67298151.547744751 0 0 0 0 98989746.596359253 152505112.01533473 0 152505112.01533473 81177179.144382477 0 0 0 0 34332426.518760681 131909261.46883774 0 131909261.46883774 77585236.268699646 0 0 0 0 30600194.506542206 106591786.93834496 0 106591786.93834496 71477108.773124695 0 0 0 0 17784405.350692749 116330716.70929146 0 116330716.70929146 64547987.336933136 0 0 0 0 23790000.64814949 86031618.155557632 0 86031618.155557632 37984546.768119812 0 0 0 0 70102846.571575165 111841871.50654984 0 111841871.50654984 45572383.225120544 0 0 0 0 7444635.4642410278 175105809.18662262 0 175105809.18662262 128211845.1891098 0 0 0 0 -35971622.462226868 149648269.26404381 0 149648269.26404381 135278963.14667511 0 0 0 0 31893361.10786438 180623300.05299377 0 180623300.05299377 123595191.19971871 0 0 0 0 -11005875.56111145 124706954.568573 0 124706954.568573 91600708.964270592 0 0 0 0 17870077.040472597 142938664.2935276 0 142938664.2935276 101332194.11238861 0 0 0 0 29993588.226615906 159282034.14087677 0 159282034.14087677 93548594.917262554 0 0 0 0 -1585619.4988174438 157035095.68265724 0 157035095.68265724 94095846.836071014 0 0 0 0 42689975.97958374 237918563.94054413 0 237918563.94054413 127253439.21366882 0 0 0 0 9782042.5448493958 161097134.34597015 0 161097134.34597015 172116555.97083282 0 0 0 0 31243402.28944397 163438766.90866089 0 163438766.90866089 7300793.4389686584 0 0 0 0 64626596.456771851 173167066.08272171 0 173167066.08272171 -17313534.514514923 0 0 0 0 32259614.818260193 75324701.152450562 0 75324701.152450562 -35682655.078330994 0 0 0 0 30220766.299102783 131807157.11691475 0 131807157.11691475 50037383.444187164 0 0 0 0 32473116.908416748 54798242.28055191 0 54798242.28055191 34379734.694461823 0 0 0 0 38035345.148735046 98130811.44732666 0 98130811.44732666 79087159.292724609 0 0 0 0 41067172.973442078 95467775.355620384 0 95467775.355620384 -5265867.9848480225 0 0 0 0 38958232.188667297 45710105.404510498 0 45710105.404510498 2018574.4604911804 0 0 0 0 91028688.718673706 -3086235.4853889942 0 -3086235.4853889942 15866011.520258904 0 0 0 0 -73382378.897537231 -54595734.121165276 0 -54595734.121165276 -76332933.527535439 0 0 0 0 42149478.20740509 46162476.525755882 0 46162476.525755882 11031042.858791351 0 0 0 0 -191427729.11859131 122723442.68793678 0 122723442.68793678 16194557.340961874 0 0 0 0 87115156.255142212 22963725.453215122 0 22963725.453215122 8283348.1503095627 0 0 0 0 -39887581.747249603 144936302.38725626 0 144936302.38725626 -136573102.07864571 0 0 0 0 -81022591.229213715 57107359.704960823 0 57107359.704960823 269119178.0301156 0 0 0 0 36751684.801376879 58561480.582189143 0 58561480.582189143 -852397.92311054352 0 0 0 0 44098039.081130981 57282253.620145798 0 57282253.620145798 23108532.760982513 0 0 0 0 39882420.436725676 59289459.565235928 0 59289459.565235928 -6184496.8676285623 0 0 0 0 16845987.559158325 231220145.07032585 0 231220145.07032585 -25077964.755691528 0 0 0 0 72083820.637161255 57274982.789365768 0 57274982.789365768 28958160.347164154 0 0 0 0 -30754439.970001221 99700807.645981789 0 99700807.645981789 176175940.87506592 0 0 0 0 85086446.575645447 140539991.97723866 0 140539991.97723866 -90133830.209715843 0 0 0 0 50867836.344619751 122283931.61113548 0 122283931.61113548 -89849045.471698254 0 0 0 0 94999909.577690125 201349461.15831852 0 201349461.15831852 -309267808.43163776 0 0 0 0 -8473328.1308288574 158419438.07774925 0 158419438.07774925 -52228227.416621685 0 0 0 0 28193608.523635864 228704432.95260477 0 228704432.95260477 -260926192.45148754 0 0 0 0 -82885385.586425781 292109705.58289146 0 292109705.58289146 -257951069.88011169 0 0 0 0 147810834.66618919 274977357.86819702 0 274977357.86819702 -662994847.88232994 0 0 0 0 144350968.82638741 248144845.82505733 0 248144845.82505733 -550353626.64383507 0 0 0 0 -11379758.724868774 414239928.58086681 0 414239928.58086681 -627096496.23233938 0 0 0 0 157811455.42114258 109207257.04727268 0 109207257.04727268 -345969615.83792377 0 0 0 0 152679718.97918701 72358484.968472958 0 72358484.968472958 -485437018.43317795 0 0 0 0 343289866.75994873 157183709.19419384 0 157183709.19419384 -667501458.10931158 0 0 0 0 224320717.04011917 -88004948.452940941 0 -88004948.452940941 -611588387.60181427 0 0 0 0 532073509.56591034 -144257330.37579679 0 -144257330.37579679 -1048895689.3196297 0 0 0 0 397941616.87760925 -21136099.709651947 0 -21136099.709651947 -719429601.31791592 0 0 0 0 375242053.27865982 63089628.023580551 0 63089628.023580551 -958518262.21133995 0 0 0 0 648971547.80488586 -8517675.2005701065 0 -8517675.2005701065 -950202002.65733671 0 0 0 0 398954785.88198853 192212429.64597416 0 192212429.64597416 -994995409.96974897 0 0 0 0 260789625.51333618 353826442.70038986 0 353826442.70038986 -1071401229.5746117 0 0 0 0 523329086.38046265 191235238.13321972 0 191235238.13321972 -1121904255.2563372 0 0 0 0 390131986.36718178 300784962.45527565 0 300784962.45527565 -1550655929.4738026 0 0 0 0 -954335636.1301651 412117833.73967695 0 412117833.73967695 -96224309.901745796 0 0 0 0 228657869.84951782 587907467.3320632 0 587907467.3320632 -1964465712.1488457 0 0 0 0 -441676373.74272156 1065271909.7858601 0 1065271909.7858601 -1435806382.6798687 0 0 0 0 -276295798.19708252 737048594.56026554 0 737048594.56026554 -805653650.17671585 0 0 0 0 -111511349.50767517 -83615205.042604923 0 -83615205.042604923 126305944.89478064 0 0 0 0 -96830924.598434448 1633578721.4417825 0 1633578721.4417825 815646575.69258833 0 0 0 0 -116331654.60417175 14876206.189249516 0 14876206.189249516 -219617898.0125227 0 0 0 0 -43236956.782875061 104740246.24446821 0 104740246.24446821 -110969068.33217907 0 0 0 0 -471904723.23713684 143580759.45845413 0 143580759.45845413 -95886625.527051926 0 0 0 0 -195448103.44841766 457549951.64752865 0 457549951.64752865 -491503195.6317215 0 0 0 0 -4964614.8931884766 387900390.33664656 0 387900390.33664656 -582740182.6602478 0 0 0 0 140378271.95834351 147419146.49329042 0 147419146.49329042 52330556.627690315 0 0 0 0 75655098.098754883 96020367.031411171 0 96020367.031411171 15559691.533905029 0 0 0 0 74075878.669235229 -8707576.0802140236 0 -8707576.0802140236 -104119058.48008156 0 0 0 0 249929373.45378113 89235800.642937183 0 89235800.642937183 -73299146.223962188 0 0 0 0 168275225.27122498 312705865.36768675 0 312705865.36768675 334852155.55811214 0 0 0 0 -10290251.09728688 17249655.96880307 0 17249655.96880307 -2198579.814723738 0 0 0 0 413111384.54810333 187847203.50000143 0 187847203.50000143 -115558559.36426124 0 0 0 0 43810963.237030029 101093433.22009277 0 101093433.22009277 68441563.709480524 0 0 0 0 -15937422.894973695 27370646.105601043 0 27370646.105601043 -27426.817203809507 0 0 0 0 54953416.462966919 86458850.805571795 0 86458850.805571795 36872220.018420219 0 0 0 0 37323073.493347168 227748847.46538579 0 227748847.46538579 -129131887.31054537 0 0 0 0 715331403.01792908 651323489.29207802 0 651323489.29207802 514546460.06869578 0 0 0 0 862046726.42140961 550262294.45979762 0 550262294.45979762 426137968.22292507 0 0 0 0 839461088.52656555 631475187.64589214 0 631475187.64589214 395688346.70986068 0 0 0 0 -76370.434991881251 7617290.6751085967 0 7617290.6751085967 2993750.9574648943 0 0 0 0 93712603.007125854 -8795871.22260952 0 -8795871.22260952 -330477544.39702177 0 0 0 0 7243148.9438443482 3133255.5498043168 0 3133255.5498043168 -4170762.014354418 0 0 0 0 489374217.75999165 602038029.15376937 0 602038029.15376937 -1213581996.5641894 0 0 0 0 -131667787.76537704 100370279.82210827 0 100370279.82210827 62805219.861818314 0 0 0 0 24276982.894299533 35249021.55780071 0 35249021.55780071 -11514204.898496903 0 0 0 0 566598212.76795959 1013872533.8338835 0 1013872533.8338835 954509942.4870491 0 0 0 0 326346513.31233215 920373382.52805805 0 920373382.52805805 1471105454.3903208 0 0 0 0 21479290.176605225 86233177.031119347 0 86233177.031119347 47646437.293861389 0 0 0 0 6471042.5361480713 74975100.842736244 0 74975100.842736244 49277200.580457687 0 0 0 0 35486066.053634644 63985647.189788818 0 63985647.189788818 14921972.627903938 0 0 0 0 73975217.447784424 95772096.208747864 0 95772096.208747864 33662039.039839268 0 0 0 0 40859600.420001842 68321459.236030087 0 68321459.236030087 -7930420.7470161133 0 0 0 0 85232184.06477356 76418353.247415543 0 76418353.247415543 8344651.1134722233 0 0 0 0 81431575.540405273 99431621.103784561 0 99431621.103784561 44678176.269846916 0 0 0 0 -261154627.75312424 -99595925.191583395 0 -99595925.191583395 -93794116.010525703 0 0 0 0 573304439.76390076 513272524.82386589 0 513272524.82386589 147799935.9324131 0 0 0 0 1378297619.3947449 1076309000.7880716 0 1076309000.7880716 294881014.79953194 0 0 0 0 454704243.60629272 134787323.4945507 0 134787323.4945507 -9256553.1537656784 0 0 0 0 213738983.29579163 -575890100.70160007 0 -575890100.70160007 -283787865.14474964 0 0 0 0 1851900772.2094879 41898975.123659134 0 41898975.123659134 -1141700110.37603 0 0 0 0 29358585.909881592 175861532.12356853 0 175861532.12356853 54570910.883083344 0 0 0 0 425725179.26467896 77907348.524073601 0 77907348.524073601 -385820508.48360062 0 0 0 0 381824110.8897934 210086995.45976424 0 210086995.45976424 -87055121.731269836 0 0 0 0 19676994.494516686 2838280.8762558028 0 2838280.8762558028 -27792464.71322339 0 0 0 0 19290211.144031525 216208159.63533735 0 216208159.63533735 -427455569.34480476 0 0 0 0 87509184.800498962 78711218.446182966 0 78711218.446182966 -207293360.82348633 0 0 0 0 47659815.219344303 55406691.833931476 0 55406691.833931476 -16804326.967965633 0 0 0 0 15838050.634570599 60495097.408511609 0 60495097.408511609 30799953.635353196 0 0 0 0 18956756.658172607 66302298.799037933 0 66302298.799037933 -51487107.064324319 0 0 0 0 36027616.603693128 79781049.215092331 0 79781049.215092331 5892112.8659286294 0 0 0 0 -19017624.193878174 95267547.087703705 0 95267547.087703705 -23527712.340498686 0 0 0 0 76801900.774780273 86735773.211086273 0 86735773.211086273 79019632.152869225 0 0 0 0 99265679.720689714 80655493.109929532 0 80655493.109929532 -53869565.75648278 0 0 0 0 109753900.65879822 83374142.79092288 0 83374142.79092288 39314969.768101692 0 0 0 0 92835741.559829712 103515164.46949625 0 103515164.46949625 15658023.535977706 0 0 0 0 94308195.151046753 -13832896.180166245 0 -13832896.180166245 -54540899.031383753 0 0 0 0 105322847.58804464 41723559.769246131 0 41723559.769246131 21944939.294141769 0 0 0 0 35869416.630838633 61303381.111461006 0 61303381.111461006 2378015.4956278354 0 0 0 0 8902511.5867538452 68326870.4269104 0 68326870.4269104 18702196.207873464 0 0 0 0 41103503.003356934 10142188.269346714 0 10142188.269346714 148463572.61208242 0 0 0 0 812569.6778717041 43193953.751716614 0 43193953.751716614 -16713443.025230408 0 0 0 0 19472229.767303467 103045487.87455368 0 103045487.87455368 -53570820.691177368 0 0 0 0 -6019214.4101104736 133041523.68652725 0 133041523.68652725 -71033077.456985474 0 0 0 0 20618010.312805176 109453759.24619675 0 109453759.24619675 -79760821.740760803 0 0 0 0 -25815607.989181519 108474692.61874771 0 108474692.61874771 -69117357.784809113 0 0 0 0 28725308.353790283 80035232.085357666 0 80035232.085357666 -156425604.60790634 0 0 0 0 -42241765.144699097 149166038.10186005 0 149166038.10186005 -103851331.18029785 0 0 0 0 4296161.5058139414 929528.41078069806 0 929528.41078069806 -1050802.2354028672 0 0 0 0 64594246.199554443 161627099.65053177 0 161627099.65053177 -20499908.168411255 0 0 0 0 34397225.11573448 47702668.661837712 0 47702668.661837712 -494424.66488903761 0 0 0 0 -80342267.087097168 51330804.61378479 0 51330804.61378479 -77246281.846496582 0 0 0 0 -203568413.72351074 86358521.276855469 0 86358521.276855469 -14479064.315132141 0 0 0 0 32537622.838851929 173590720.92368698 0 173590720.92368698 -191109592.40363693 0 0 0 0 29249586.985572815 151158968.78059006 0 151158968.78059006 -627341.67056274414 0 0 0 0 109696150.15567017 241804629.91121674 0 241804629.91121674 -53618174.575363159 0 0 0 0 -35834511.971992493 80705294.302459717 0 80705294.302459717 200337680.85681915 0 0 0 0 77289383.404743195 105359970.22933769 0 105359970.22933769 -13221451.353462219 0 0 0 0 -11562721.374993905 2503028.7673250586 0 2503028.7673250586 8890280.2347929478 0 0 0 0 157345966.81258774 10589957.009799957 0 10589957.009799957 38565710.865403175 0 0 0 0 -15323138.167017527 39946094.181615502 0 39946094.181615502 16203099.095716372 0 0 0 0 -44822416.36397171 25162649.713615417 0 25162649.713615417 109800681.27727509 0 0 0 0 57435540.703292847 110356791.21616745 0 110356791.21616745 -2815122.1499404907 0 0 0 0 114901159.90677643 169782224.70414448 0 169782224.70414448 25128394.982292175 0 0 0 0 13548554.291984558 211936930.49204254 0 211936930.49204254 87135026.934867859 0 0 0 0 124926227.60449982 176423619.02814293 0 176423619.02814293 96787319.656238556 0 0 0 0 95829070.66960144 193198277.13228226 0 193198277.13228226 135815303.69102478 0 0 0 0 72940461.896688461 132680625.31996727 0 132680625.31996727 14807690.490306854 0 0 0 0 -49889190.436134338 157250527.67013168 0 157250527.67013168 173955561.85366821 0 0 0 0 -38596876.752037048 245979663.06507874 0 245979663.06507874 129301473.87763214 0 0 0 0 9569942.6251203306 4442687.949689582 0 4442687.949689582 2934536.7862105072 0 0 0 0 -43626645.012639999 242341950.142663 0 242341950.142663 268731286.1879425 0 0 0 0 -21503989.511131674 37816274.636735663 0 37816274.636735663 21915825.168470889 0 0 0 0 -48831772.947747707 168638382.23087764 0 168638382.23087764 238553110.84687805 0 0 0 0 203129726.46101379 -21878129.480514526 0 -21878129.480514526 619751174.32574463 0 0 0 0 -96052958.562343597 94991934.153936386 0 94991934.153936386 130898697.19200897 0 0 0 0 608944522.93450546 172299043.78957176 0 172299043.78957176 -289040118.38381958 0 0 0 0 153162358.4008913 -61338839.116550088 0 -61338839.116550088 116494830.55889893 0 0 0 0 44691935.101999283 78211443.110219002 0 78211443.110219002 -996131.52808380127 0 0 0 0 12226685.618221283 40479716.291915894 0 40479716.291915894 -27415001.195648193 0 0 0 0 54231135.049245834 74475790.997599602 0 74475790.997599602 8295080.3631362915 0 0 0 0 58448453.714874268 72308012.806812286 0 72308012.806812286 -21225318.93817997 0 0 0 0 59723426.06778717 80835321.665582657 0 80835321.665582657 -417678.44097137451 0 0 0 0 35873418.097392164 22027999.186645158 0 22027999.186645158 7745639.2753690779 0 0 0 0 194627353.42660713 36171302.837741852 0 36171302.837741852 -59598313.154209137 0 0 0 0 52266301.862843037 82821232.071234226 0 82821232.071234226 124476930.65037537 0 0 0 0 -62026958.980651855 128740645.91047668 0 128740645.91047668 -73386721.110748291 0 0 0 0 41648991.671156093 43506220.276691824 0 43506220.276691824 -13819064.773671031 0 0 0 0 -50651268.632324219 140727612.07062149 0 140727612.07062149 -65962309.679428101 0 0 0 0 38978181.154460907 131207219.90993118 0 131207219.90993118 -121591330.47044373 0 0 0 0 3573826.5588232875 6088877.8517342508 0 6088877.8517342508 -3475306.7567332163 0 0 0 0 36906766.475002289 109181339.56263924 0 109181339.56263924 109369006.23674774 0 0 0 0 50895596.417163849 81072574.40161705 0 81072574.40161705 12335238.722999573 0 0 0 0 32522752.840712965 24131089.075386226 0 24131089.075386226 24024487.521755338 0 0 0 0 79835500.277069092 63116766.827949524 0 63116766.827949524 -86591953.913764 0 0 0 0 68782050.598163605 80597397.524510384 0 80597397.524510384 -16456006.696418762 0 0 0 0 6152250.114818573 155227639.82860565 0 155227639.82860565 261349337.50189972 0 0 0 0 99521275.018798828 31686441.315343857 0 31686441.315343857 75829349.16696167 0 0 0 0 16275116.314407989 9836926.7181580961 0 9836926.7181580961 11424919.740522765 0 0 0 0 14487743.433692932 31458208.831224442 0 31458208.831224442 -44447008.575263977 0 0 0 0 113233971.4602356 71368922.935848236 0 71368922.935848236 -29203973.686433792 0 0 0 0 138496084.65433884 61346286.993618011 0 61346286.993618011 -25276009.307128906 0 0 0 0 200573.44769643247 405207.31024421751 0 405207.31024421751 103112.55258539319 0 0 0 0 109776366.21730042 70489267.754673004 0 70489267.754673004 58828499.908997059 0 0 0 0 138004620.79247665 182596055.84977722 0 182596055.84977722 48510589.738054276 0 0 0 0 104871104.15087128 42088513.581535339 0 42088513.581535339 -3124926.3626480103 0 0 0 0 163239921.49953079 66352602.952529907 0 66352602.952529907 -4709929.3669509888 0 0 0 0 77461219.387149811 40449009.15631485 0 40449009.15631485 18636960.375982285 0 0 0 0 129118288.08987904 28161202.561954021 0 28161202.561954021 -3396915.4683227539 0 0 0 0 105239218.76241684 33140937.247016907 0 33140937.247016907 29988713.494819641 0 0 0 0 106403008.40869522 9928672.1640949249 0 9928672.1640949249 -60480968.616950989 0 0 0 0 66357505.201618195 41966907.358001709 0 41966907.358001709 -4931911.2797617912 0 0 0 0 69338163.163833618 112815622.1003685 0 112815622.1003685 1720691.0089874268 0 0 0 0 249684661.80473328 85125459.528446198 0 85125459.528446198 -106154933.74726677 0 0 0 0 230066372.78618574 205746839.96695328 0 205746839.96695328 48199143.257385254 0 0 0 0 296081920.97951603 -66661772.012814522 0 -66661772.012814522 -81391573.869186401 0 0 0 0 357761753.48236084 215958747.70510864 0 215958747.70510864 204217420.18214417 0 0 0 0 5260585.3092136979 3252015.3149346262 0 3252015.3149346262 3156506.8097879663 0 0 0 0 135173346.57683754 -43566925.617359161 0 -43566925.617359161 -222514278.23097992 0 0 0 0 88900104.045051575 361493240.24199677 0 361493240.24199677 590992835.21803665 0 0 0 0 8118246.0268325806 110624514.32585907 0 110624514.32585907 435079916.82040787 0 0 0 0 123151360.94935608 200020135.28710938 0 200020135.28710938 85438083.904266357 0 0 0 0 -7951063.5469284058 77822742.921859741 0 77822742.921859741 32835840.626628876 0 0 0 0 5477959.4105606079 -163010504.79460621 0 -163010504.79460621 80805544.317497253 0 0 0 0 9825431.1723692566 16827821.772530675 0 16827821.772530675 25681444.989779621 0 0 0 0 -74594916.23147583 58960527.094997406 0 58960527.094997406 98399229.301010132 0 0 0 0 6351836.3128554001 19229315.418600902 0 19229315.418600902 18475074.953651965 0 0 0 0 49321780.25958252 -13026568.216773987 0 -13026568.216773987 100471744.49996185 0 0 0 0 52804697.432478279 61899320.514946356 0 61899320.514946356 -25521165.144708626 0 0 0 0 54882124.646104813 103464200.20445096 0 103464200.20445096 93623938.778343678 0 0 0 0 46730930.93913269 44983611.915493011 0 44983611.915493011 88630765.915096283 0 0 0 0 -4527268.0235443115 44542327.976737976 0 44542327.976737976 -385512055.86630249 0 0 0 0 15454113.761433542 44839551.630163148 0 44839551.630163148 78128757.091823757 0 0 0 0 92375210.384689331 134635314.31499863 0 134635314.31499863 18932882.38813591 0 0 0 0 39495312.723403931 130315093.59500551 0 130315093.59500551 102733295.54218292 0 0 0 0 23236200.087696075 108252517.72221255 0 108252517.72221255 95151445.047605515 0 0 0 0 18242165.145874023 123622796.84417725 0 123622796.84417725 151128222.87205446 0 0 0 0 37508108.597091675 142875227.45834541 0 142875227.45834541 82054130.595083237 0 0 0 0 35026576.623332977 152981523.78735948 0 152981523.78735948 95350648.569278717 0 0 0 0 25958450.338935852 172723744.34536552 0 172723744.34536552 145943796.58060074 0 0 0 0 31336542.67350769 199336243.11561966 0 199336243.11561966 93776319.61956501 0 0 0 0 54223428.996208072 86947489.776422113 0 86947489.776422113 28173087.642007671 0 0 0 0 71004835.437995911 147811208.06489372 0 147811208.06489372 251471.33344554901 0 0 0 0 52847471.983345032 165590101.2444973 0 165590101.2444973 76014911.236856461 0 0 0 0 141253004.35750008 156923823.11052227 0 156923823.11052227 -124661850.23140335 0 0 0 0 47584898.586151123 153529547.87830067 0 153529547.87830067 80816041.130181789 0 0 0 0 48378828.493103027 163468498.78469467 0 163468498.78469467 90342568.99524641 0 0 0 0 170880.04924462736 3235057.183290273 0 3235057.183290273 9632034.7457920276 0 0 0 0 66768822.417999268 226022067.93259716 0 226022067.93259716 22303721.704677343 0 0 0 0 13843243.539291382 240176551.75326061 0 240176551.75326061 142774918.68679428 0 0 0 0 55072441.377835765 82816667.193873405 0 82816667.193873405 18224237.650636844 0 0 0 0 136014530.24424744 101980163.01817226 0 101980163.01817226 -226403998.40100807 0 0 0 0 156838849.09289551 132985880.94060421 0 132985880.94060421 -253902092.83124924 0 0 0 0 82537113.411014557 100351040.42995834 0 100351040.42995834 -4161601.3115577698 0 0 0 0 -79004321.439819336 241041310.98676968 0 241041310.98676968 687583777.17232037 0 0 0 0 102706064.66773987 492373524.37599087 0 492373524.37599087 193915697.59695911 0 0 0 0 185737320.86804199 385827154.4752779 0 385827154.4752779 213882188.89362884 0 0 0 0 168194319.43351746 287965170.75613499 0 287965170.75613499 680675692.11550999 0 0 0 0 18774415.318466187 173915196.15237522 0 173915196.15237522 198314080.74536324 0 0 0 0 44038084.152542114 151248813.65740299 0 151248813.65740299 188421245.70788336 0 0 0 0 28900120.385317862 18955574.74097161 0 18955574.74097161 2528672.5239603948 0 0 0 0 3134874.8665466309 155941046.44802713 0 155941046.44802713 244345415.21284485 0 0 0 0 -21644287.028461456 47462613.302238464 0 47462613.302238464 265714889.29913425 0 0 0 0 207197087.6011734 -263768190.90763903 0 -263768190.90763903 609463427.36146545 0 0 0 0 12176814.007124931 6147939.382184837 0 6147939.382184837 749982.13526176009 0 0 0 0 1466754097.0504684 144730349.90811038 0 144730349.90811038 -1094973412.4683967 0 0 0 0 -207420891.99459839 235141552.09229851 0 235141552.09229851 1633879174.8188438 0 0 0 0 575368807.99894714 -105029060.33038574 0 -105029060.33038574 -51574229.63995856 0 0 0 0 -386332508.50131989 -122882439.14390199 0 -122882439.14390199 211362963.00868636 0 0 0 0 -184364476.41683674 464817033.36275071 0 464817033.36275071 -661833694.53553426 0 0 0 0 -77892968.862518311 30267674.745861471 0 30267674.745861471 -164061832.77926236 0 0 0 0 38715235.061099827 28573924.892219301 0 28573924.892219301 1415227.6619759221 0 0 0 0 40915534.041030884 184578315.35563093 0 184578315.35563093 -529393679.67065132 0 0 0 0 32429818.672912598 80182383.928237915 0 80182383.928237915 40581315.054911613 0 0 0 0 28426001.02671814 125078051.97042847 0 125078051.97042847 100474943.24178219 0 0 0 0 10676673.182495117 40989611.077936172 0 40989611.077936172 104661510.09863853 0 0 0 0 10805229.390037537 45099993.07793045 0 45099993.07793045 235880788.06698418 0 0 0 0 3495732.8723602295 143736645.48954445 0 143736645.48954445 -20401318.150549233 0 0 0 0 67546558.784622192 70020852.059945107 0 70020852.059945107 36729162.728022099 0 0 0 0 -18238900.109077454 79621077.330587924 0 79621077.330587924 -5826917.1674842834 0 0 0 0 66290600.728439331 203469233.80118358 0 203469233.80118358 102986901.54483724 0 0 0 0 -753461.69325256348 223188082.41037115 0 223188082.41037115 17498818.402967215 0 0 0 0 -143537421.61814117 190270278.57774389 0 190270278.57774389 -170987437.33571434 0 0 0 0 80712320.922370911 116462805.58728078 0 116462805.58728078 -185150586.45493466 0 0 0 0 -132146880.06430054 -84159871.998207629 0 -84159871.998207629 -37109870.061890125 0 0 0 0 -59910732.447845459 62863819.368868947 0 62863819.368868947 -137561676.3631537 0 0 0 0 -36842357.735061646 -217078780.86436212 0 -217078780.86436212 105556801.81476378 0 0 0 0 236579999.21530914 -186754680.22791815 0 -186754680.22791815 -174019787.18759203 0 0 0 0 67839384.622467041 -27802631.923292041 0 -27802631.923292041 -308573422.41240454 0 0 0 0 61697638.92623806 -99831375.452225372 0 -99831375.452225372 -70690617.94552803 0 0 0 0 23251144.104522705 72775627.72624588 0 72775627.72624588 -18881299.924383163 0 0 0 0 -128717383.54871368 39460604.654136419 0 39460604.654136419 -182100365.39984322 0 0 0 0 25961491.378824234 -5209832.8746775389 0 -5209832.8746775389 -84008073.371910334 0 0 0 0 71422411.440635681 -40066487.675816298 0 -40066487.675816298 -180468289.77218986 0 0 0 0 64959447.845367432 70611397.76969111 0 70611397.76969111 9907138.6351058483 0 0 0 0 141313868.47319031 86897417.183586836 0 86897417.183586836 -23098341.715706587 0 0 0 0 101042768.84654999 247762700.69869614 0 247762700.69869614 267405864.89183903 0 0 0 0 177239597.86886215 171997080.30914617 0 171997080.30914617 -183160088.95471954 0 0 0 0 204649768.86868286 449912331.0761261 0 449912331.0761261 119065795.85410476 0 0 0 0 -414121689.6058197 226530885.7005775 0 226530885.7005775 -119031668.24844837 0 0 0 0 -239618970.69696045 401408089.44766283 0 401408089.44766283 -182415062.07793915 0 0 0 0 21665183.823364258 36836710.841426611 0 36836710.841426611 -331074411.34432173 0 0 0 0 -89527816.116043091 149227516.508214 0 149227516.508214 209382254.29112911 0 0 0 0 6860343.0130275637 5796037.6299278289 0 5796037.6299278289 -15736774.319606483 0 0 0 0 -79046326.1913414 505470117.05966663 0 505470117.05966663 -412095368.67661953 0 0 0 0 64261090.580394745 352921015.23701733 0 352921015.23701733 -554179722.89778185 0 0 0 0 4276020.5754699707 688770710.58776045 0 688770710.58776045 -9027965.1324458122 0 0 0 0 136094744.03625488 351830973.67428541 0 351830973.67428541 -1237638192.9917562 0 0 0 0 9277111.0966491699 365503675.51483464 0 365503675.51483464 1545663525.3550854 0 0 0 0 -861341.24853214622 1825823.8123652115 0 1825823.8123652115 -738596.97357907798 0 0 0 0 7382633.3480072021 239346710.85209656 0 239346710.85209656 -2415076303.9586768 0 0 0 0 -10203156.215694427 400189439.39536011 0 400189439.39536011 741509021.09314871 0 0 0 0 5080254.176489234 7349460.8951957524 0 7349460.8951957524 -4330185.8428954948 0 0 0 0 -9490311.5356042981 5924692.0130971894 0 5924692.0130971894 2853284.1147497576 0 0 0 0 1615504.5807800293 2515123.8523387909 0 2515123.8523387909 6240218.8424422741 0 0 0 0 82693791.36907959 87786998.3773036 0 87786998.3773036 337973999.35528898 0 0 0 0 100708307.50128174 219988674.60337192 0 219988674.60337192 211768774.52276659 0 0 0 0 84429545.779266357 247604364.00657439 0 247604364.00657439 280699325.94254518 0 0 0 0 -15108072.838333011 15328373.823052583 0 15328373.823052583 -2340569.3122079084 0 0 0 0 82325145.078245163 241851258.13997117 0 241851258.13997117 203194492.33682489 0 0 0 0 50115625.498687744 118931762.92588735 0 118931762.92588735 220005266.07810974 0 0 0 0 100462887.58945751 223155457.48619109 0 223155457.48619109 308137733.30270672 0 0 0 0 -2689231.5930862427 15718487.969759464 0 15718487.969759464 5355407.6012382507 0 0 0 0 -6635176.9239406586 14087132.616506457 0 14087132.616506457 5065751.347512722 0 0 0 0 8208255.7557378709 13471598.264224857 0 13471598.264224857 -1540594.2512249062 0 0 0 0 -23534370.922110558 333910608.43170488 0 333910608.43170488 -867384731.99862862 0 0 0 0 -46435644.730262756 226189419.81853533 0 226189419.81853533 -630160592.41244411 0 0 0 0 -84975185.593845367 186382049.08330953 0 186382049.08330953 -669060582.55259514 0 0 0 0 51762625.486167908 271157261.69678688 0 271157261.69678688 -627426486.82056952 0 0 0 0 -42134100.742557526 288500095.80091083 0 288500095.80091083 -623312334.90898132 0 0 0 0 -46707602.317527771 279044700.5007472 0 279044700.5007472 -450434239.35203648 0 0 0 0 161782470.57023621 322183003.94736671 0 322183003.94736671 -632186842.56406116 0 0 0 0 178147884.68642426 193956351.16174555 0 193956351.16174555 -418814346.83021688 0 0 0 0 -203701270.94294739 302474945.29569197 0 302474945.29569197 -222682450.83429861 0 0 0 0 -202561116.91907501 280968863.96093416 0 280968863.96093416 -70434168.437208176 0 0 0 0 117320816.45100474 190904603.35591561 0 190904603.35591561 -69532881.766687393 0 0 0 0 -467806085.81356049 220328741.05838156 0 220328741.05838156 -54493614.125043392 0 0 0 0 -480784330.77146101 331757864.95601881 0 331757864.95601881 -13114010.346939087 0 0 0 0 -449932998.94145203 452006231.92024899 0 452006231.92024899 -299114142.28532267 0 0 0 0 -570740045.75044632 469946561.89748192 0 469946561.89748192 -209380920.16770744 0 0 0 0 -450537225.7645753 262526506.16286665 0 262526506.16286665 -722561885.90509415 0 0 0 0 2861415.8051332831 2427207.348235473 0 2427207.348235473 -7570761.4647487421 0 0 0 0 -1329081039.4795265 1183868102.509485 0 1183868102.509485 -658906965.69554901 0 0 0 0 431866300.5782547 -255896588.69799781 0 -255896588.69799781 -358887269.80477905 0 0 0 0 -462996931.34786987 402346287.2321949 0 402346287.2321949 -208772582.47955513 0 0 0 0 -32246049.471229553 234025279.28856659 0 234025279.28856659 -742556226.52545166 0 0 0 0 -165010019.29432678 796750405.48726988 0 796750405.48726988 -644244588.87892818 0 0 0 0 -2042400317.0815201 1049873870.1053863 0 1049873870.1053863 -325738214.89440262 0 0 0 0 -956738788.16788483 753889566.353724 0 753889566.353724 -676271546.40055466 0 0 0 0 2262870229.4799347 229481732.97820672 0 229481732.97820672 -833534261.02838993 0 0 0 0 1100496.1070292639 8958483.8812217116 0 8958483.8812217116 -10694383.887863144 0 0 0 0 2589912.4652579483 22203132.289415374 0 22203132.289415374 -19812541.015505977 0 0 0 0 -248689702.43602371 245221985.23649597 0 245221985.23649597 -472057193.26275969 0 0 0 0 -1261455865.5270424 419453702.52651525 0 419453702.52651525 70905567.081325531 0 0 0 0 -622952323.06222582 94895855.142422199 0 94895855.142422199 107746162.52270317 0 0 0 0 45026505.958747864 931697665.2910831 0 931697665.2910831 43761358.975475609 0 0 0 0 1738458507.4234939 300619244.57574308 0 300619244.57574308 -741192649.58545184 0 0 0 0 2370554.811416626 956918071.0644474 0 956918071.0644474 33307676.262524605 0 0 0 0 1633165.2660013679 28787270.563254222 0 28787270.563254222 -8426307.9487327822 0 0 0 0 272828104.16040802 82010655.781947613 0 82010655.781947613 5680968.6092834473 0 0 0 0 6038486.3225631714 85565834.723945618 0 85565834.723945618 -120098463.68798065 0 0 0 0 -79411503.691482544 24912018.578837395 0 24912018.578837395 -88349462.818120003 0 0 0 0 -286307296.97776794 29146399.919617653 0 29146399.919617653 -36055696.469068527 0 0 0 0 7551177.5229057074 6489789.7487551887 0 6489789.7487551887 -5923961.2005338026 0 0 0 0 -1192030930.8016739 799136256.26046824 0 799136256.26046824 -507259828.99294662 0 0 0 0 -15052148.754928589 881927483.20357132 0 881927483.20357132 1600176489.7549317 0 0 0 0 -157024215.05293274 1173804903.645298 0 1173804903.645298 23106114.432928026 0 0 0 0 256653041.80587769 1253061734.1080685 0 1253061734.1080685 25127213.686974972 0 0 0 0 -971997672.62749481 -357957858.63798988 0 -357957858.63798988 -998146407.45681775 0 0 0 0 223411917.16487885 1620355253.8491416 0 1620355253.8491416 -1702733796.1739068 0 0 0 0 322161184.16021729 290899436.02940679 0 290899436.02940679 -764623725.52379894 0 0 0 0 314409934.49505615 354303391.3373878 0 354303391.3373878 190907618.07086957 0 0 0 0 915869202.14183044 -373133440.16993868 0 -373133440.16993868 -172017770.23379898 0 0 0 0 -717159008.70335388 234178788.4774437 0 234178788.4774437 -106386774.26862097 0 0 0 0 41449842.957073212 125096407.35124183 0 125096407.35124183 -218559753.36056495 0 0 0 0 -129010428.6805687 259450510.62060022 0 259450510.62060022 -201984061.81361461 0 0 0 0 -318157849.34562683 313338849.62553692 0 313338849.62553692 -183675254.25106883 0 0 0 0 37325185.836196899 413498242.11277962 0 413498242.11277962 -349182927.18919325 0 0 0 0 68582911.873695374 412373850.30932462 0 412373850.30932462 -349418258.38932741 0 0 0 0 579016197.16439819 430370180.8780632 0 430370180.8780632 -591401378.94631958 0 0 0 0 452223025.83065796 567391360.33670163 0 567391360.33670163 -620577286.34624064 0 0 0 0 322690913.116539 192265760.76953447 0 192265760.76953447 -331228263.18736625 0 0 0 0 197768554.53702164 286561695.21020859 0 286561695.21020859 -306035356.16559982 0 0 0 0 374475585.10678864 767550089.04465079 0 767550089.04465079 -980690560.18104053 0 0 0 0 -1144017850.0092392 1413321767.5225289 0 1413321767.5225289 -892189443.54950547 0 0 0 0 -857320770.4250412 809321964.13936317 0 809321964.13936317 -654875576.66774595 0 0 0 0 -152779324.41747284 129370026.80744451 0 129370026.80744451 -614669762.23382115 0 0 0 0 -715850023.53322601 707830031.97407115 0 707830031.97407115 -409932624.05128443 0 0 0 0 5819055.7835912853 6133514.1859460473 0 6133514.1859460473 -10937377.914879106 0 0 0 0 -286657454.87340546 587194937.99059486 0 587194937.99059486 -288067879.13660461 0 0 0 0 160420967.55609131 311725180.70466465 0 311725180.70466465 -127620372.63638103 0 0 0 0 1722750.0778379291 2693997.8990487456 0 2693997.8990487456 -2651126.3895555343 0 0 0 0 -1198021969.029129 1321770393.7594497 0 1321770393.7594497 -240393409.79737952 0 0 0 0 1159836335.9512253 -13363638.235738039 0 -13363638.235738039 -352064385.07271868 0 0 0 0 -93290009.250190258 233316357.43804443 0 233316357.43804443 -672288362.796404 0 0 0 0 -560524098.08854675 163823084.49755144 0 163823084.49755144 -372419605.30277801 0 0 0 0 379089453.842659 158764244.61198342 0 158764244.61198342 -454766582.49627805 0 0 0 0 135549917.16795731 85796219.426802635 0 85796219.426802635 53702690.054057837 0 0 0 0 228403642.22846985 -55909450.907908201 0 -55909450.907908201 -55525541.655222058 0 0 0 0 486295212.34243202 564592332.48377693 0 564592332.48377693 798853089.67115712 0 0 0 0 415718998.23406982 45767118.605967522 0 45767118.605967522 -53270317.009685755 0 0 0 0 208792194.05154353 1173166448.4968243 0 1173166448.4968243 -512087979.97776675 0 0 0 0 -155568872.81142712 181166850.71604013 0 181166850.71604013 266968732.94248703 0 0 0 0 139626895.88087463 121041457.45667976 0 121041457.45667976 -854125593.28706193 0 0 0 0 567449435.13322449 756876552.18249512 0 756876552.18249512 -323951215.58263087 0 0 0 0 -5975703.7499847412 136058526.4334141 0 136058526.4334141 -321006131.77290905 0 0 0 0 -121142412.26156616 250903575.32401681 0 250903575.32401681 -584415455.01707995 0 0 0 0 -172564514.41957664 50096273.659026831 0 50096273.659026831 -1118355438.5077271 0 0 0 0 -199416735.35142517 469940566.47922605 0 469940566.47922605 -370015136.35010684 0 0 0 0 144582059.69689941 528434800.73358274 0 528434800.73358274 -790330747.0024848 0 0 0 0 -127549093.10235596 557911871.9905833 0 557911871.9905833 -381818943.53393197 0 0 0 0 234632887.05992889 694048608.62103772 0 694048608.62103772 -361634944.43195236 0 0 0 0 197932555.86231995 386069866.06996226 0 386069866.06996226 -411927430.91719556 0 0 0 0 479443022.143013 -111711412.26468015 0 -111711412.26468015 74771508.226884961 0 0 0 0 -583940011.12025452 449795825.26992726 0 449795825.26992726 -109889561.55060947 0 0 0 0 -229727470.75350952 282858264.94937754 0 282858264.94937754 -203196698.61980766 0 0 0 0 -357299638.10532379 808385828.30762851 0 808385828.30762851 -967430567.24513221 0 0 0 0 151439013.70147705 421466843.03060651 0 421466843.03060651 -2598559087.0385242 0 0 0 0 -597309872.10237122 1251431585.0614526 0 1251431585.0614526 -1075610695.4196424 0 0 0 0 -3911664.8142788708 6133680.0090809874 0 6133680.0090809874 -1393943.948758224 0 0 0 0 -485318105.42717552 669305146.7410568 0 669305146.7410568 752728739.41601634 0 0 0 0 -2241347.5623537302 7946328.903635487 0 7946328.903635487 -10586384.34135236 0 0 0 0 -67624904.808258057 1661414732.2126565 0 1661414732.2126565 -392298867.69260609 0 0 0 0 436130578.06182289 -326589783.17429972 0 -326589783.17429972 -966585401.5172081 0 0 0 0 410150367.25126648 -189334558.75186729 0 -189334558.75186729 -1632801028.6921105 0 0 0 0 383985128.61221313 22693681.366250992 0 22693681.366250992 -19229597.336233124 0 0 0 0 671241464.65207672 67456285.7675457 0 67456285.7675457 -1032404018.5145283 0 0 0 0 -4288281.0164783895 15919113.085789099 0 15919113.085789099 -20914021.905467376 0 0 0 0 879001704.74183655 893232178.84813643 0 893232178.84813643 -1550957.4910445511 0 0 0 0 824256783.68711281 578072190.84144878 0 578072190.84144878 -77941795.969210863 0 0 0 0 222766811.54082489 350674500.54773593 0 350674500.54773593 -35158496.428332835 0 0 0 0 442446028.87376213 79912032.40620783 0 79912032.40620783 -619763295.12537622 0 0 0 0 344691126.4317627 680073800.67530715 0 680073800.67530715 -1186341036.0913703 0 0 0 0 -65543628.32950592 401945369.45213413 0 401945369.45213413 -560446662.60987568 0 0 0 0 342515408.74590302 67638066.055648446 0 67638066.055648446 -331755784.11731339 0 0 0 0 -247534774.66618347 238533771.64431489 0 238533771.64431489 -32426824.923617721 0 0 0 0 -335292027.80626297 329389957.15240884 0 329389957.15240884 -183322537.49689269 0 0 0 0 -199084036.62997437 304258445.10086298 0 304258445.10086298 -181631127.65425506 0 0 0 0 -51978811.84709549 335217782.8633672 0 335217782.8633672 -294768995.50205469 0 0 0 0 -199777502.93356323 470468317.18960321 0 470468317.18960321 -404456114.20503783 0 0 0 0 -373388273.87985611 681663511.38542128 0 681663511.38542128 -559292659.49955177 0 0 0 0 -299059963.28820038 544927205.94663095 0 544927205.94663095 -343843772.20356369 0 0 0 0 -79581311.661518097 772262195.0084424 0 772262195.0084424 -796372387.61270475 0 0 0 0 126194617.62550735 667061447.00436163 0 667061447.00436163 -861558668.40077126 0 0 0 0 -1195130106.060216 979804455.62620163 0 979804455.62620163 -482164991.65390515 0 0 0 0 -210884166.96860886 1157126118.4201963 0 1157126118.4201963 -1563469835.4900198 0 0 0 0 159664750.68051147 -137914456.13102007 0 -137914456.13102007 -1628888102.0867062 0 0 0 0 -10688116.40959549 192834146.6510489 0 192834146.6510489 -192810320.73482037 0 0 0 0 10997050.14742735 19062973.979985978 0 19062973.979985978 -16849893.411589961 0 0 0 0 -3677041.3051452041 13252620.982146129 0 13252620.982146129 -11534722.612887647 0 0 0 0 -40948307.81072998 337771779.95061994 0 337771779.95061994 178987610.86887205 0 0 0 0 4996917.4311431348 14773162.083247086 0 14773162.083247086 -7645108.7388253398 0 0 0 0 152227969.48049164 173696935.09175682 0 173696935.09175682 -634770353.35808253 0 0 0 0 156846176.12108994 804347194.13785017 0 804347194.13785017 -813092542.50453091 0 0 0 0 128983753.09657288 742899557.80518079 0 742899557.80518079 -575171502.73034489 0 0 0 0 327551063.19883728 487782658.96788502 0 487782658.96788502 -603764941.69783092 0 0 0 0 283887698.35945892 847832124.06758738 0 847832124.06758738 -812771322.76145887 0 0 0 0 186239129.58263588 1125542267.3358228 0 1125542267.3358228 -1588913017.9036703 0 0 0 0 -379905331.05455017 476632456.33328366 0 476632456.33328366 -580566035.70380211 0 0 0 0 -309124409.32553864 1163713844.4322147 0 1163713844.4322147 -793806096.35964465 0 0 0 0 103657805.86460114 824292616.12269115 0 824292616.12269115 -342720284.91970372 0 0 0 0 14531224.430797577 646976683.80249679 0 646976683.80249679 -282277270.56204033 0 0 0 0 73538213.86536026 168159561.71913636 0 168159561.71913636 257295601.69747162 0 0 0 0 -35159472.696075439 796200152.4985466 0 796200152.4985466 -99831420.186882019 0 0 0 0 56439006.448540688 351000925.80777919 0 351000925.80777919 149517242.96283913 0 0 0 0 135548570.19223022 681166437.71502376 0 681166437.71502376 475647608.23015761 0 0 0 0 188884944.7585907 100392440.60597467 0 100392440.60597467 827658876.36005259 0 0 0 0 -117574380.98706055 405206465.58458853 0 405206465.58458853 866436835.23687267 0 0 0 0 1706598.7348029912 10374938.787518872 0 10374938.787518872 -2545346.8447101372 0 0 0 0 369038035.26147461 314786675.75797486 0 314786675.75797486 676205739.19319463 0 0 0 0 378501800.76333618 813087282.78412974 0 813087282.78412974 1030657541.7963653 0 0 0 0 -181406967.67182922 405121445.59586382 0 405121445.59586382 1995754263.6343093 0 0 0 0 350760.47076523304 3460526.9000940346 0 3460526.9000940346 -182612.93305171875 0 0 0 0 445982170.98022461 216304851.446008 0 216304851.446008 -779789815.69305587 0 0 0 0 77674020.203764915 214971606.53968757 0 214971606.53968757 736984648.78412676 0 0 0 0 322001767.95733643 546875628.07052851 0 546875628.07052851 68412862.587468863 0 0 0 0 -130221.54347229004 479031471.20830011 0 479031471.20830011 614913461.01611114 0 0 0 0 -13147445.760345459 243353994.3152051 0 243353994.3152051 -97340208.218565226 0 0 0 0 421049.34229278564 665668130.07524037 0 665668130.07524037 -571502407.33857727 0 0 0 0 -47172049.501403809 403033768.87077284 0 403033768.87077284 -859460761.12116146 0 0 0 0 -383606.19401550293 645304456.03376293 0 645304456.03376293 -1006035556.9781919 0 0 0 0 -92821944.163246155 568311022.92707634 0 568311022.92707634 -1063262280.5991993 0 0 0 0 81697912.196628571 641399497.58865654 0 641399497.58865654 -1199198066.377008 0 0 0 0 -329633415.13874722 993913027.26240718 0 993913027.26240718 -899687900.82511044 0 0 0 0 -327972921.06826401 1047707555.6490655 0 1047707555.6490655 768720087.43482971 0 0 0 0 498160233.86019993 160406729.23061764 0 160406729.23061764 -2007586180.4168472 0 0 0 0 -2257851.9381539226 7856213.7535336912 0 7856213.7535336912 -10352006.754218258 0 0 0 0 -309389126.01807404 900271213.21502829 0 900271213.21502829 -1147621692.5910647 0 0 0 0 -959629807.05256653 634768710.94302416 0 634768710.94302416 -293523517.5062933 0 0 0 0 897469221.71759319 269610284.99255782 0 269610284.99255782 -845267820.9718523 0 0 0 0 145532609.92835426 253824095.99450731 0 253824095.99450731 -1247707448.8793278 0 0 0 0 318877001.84989929 -89364065.405292511 0 -89364065.405292511 -580171595.13076019 0 0 0 0 214189792.90058899 234320931.27029896 0 234320931.27029896 -2605720085.9162884 0 0 0 0 -48929482.652252197 754863554.2013073 0 754863554.2013073 -2121314340.6080952 0 0 0 0 -709338001.27611542 -105214546.27565765 0 -105214546.27565765 -1634882086.8621459 0 0 0 0 238239.98452758789 363583509.66989565 0 363583509.66989565 -1604602022.4563613 0 0 0 0 -63924390.442581177 664853089.58612728 0 664853089.58612728 -1239851720.2244158 0 0 0 0 -344521793.2154007 382455587.16069555 0 382455587.16069555 -1095074580.3864737 0 0 0 0 19253163.035896301 99099312.426002502 0 99099312.426002502 144695764.45844463 0 0 0 0 22442004.660560608 89330912.207027435 0 89330912.207027435 127729635.98536873 0 0 0 0 -30609599.381690979 105300637.68718529 0 105300637.68718529 127346545.05329832 0 0 0 0 56635246.804504395 87369856.740600586 0 87369856.740600586 117574239.64876842 0 0 0 0 54674216.385852814 92210129.546800375 0 92210129.546800375 190016928.05281067 0 0 0 0 90669627.352737427 39727407.851761818 0 39727407.851761818 168772886.24458122 0 0 0 0 52705992.380443573 60344000.82769537 0 60344000.82769537 164989015.0638752 0 0 0 0 49028633.875747681 55306385.842077255 0 55306385.842077255 158493251.13121414 0 0 0 0 19750973.617984056 55770947.809335105 0 55770947.809335105 162290963.19569206 0 0 0 0 76657622.437454224 53219990.089712143 0 53219990.089712143 165640125.19407749 0 0 0 0 189226930.50352478 62748901.722286224 0 62748901.722286224 -155040820.62879372 0 0 0 0 51158064.481809318 66029816.521909401 0 66029816.521909401 -15508006.91953948 0 0 0 0 45322159.697303772 54772286.213645935 0 54772286.213645935 167389412.68062687 0 0 0 0 136006868.50374985 68259248.263820648 0 68259248.263820648 -105977335.98090744 0 0 0 0 202781461.06754875 -32348792.112844467 0 -32348792.112844467 -63357217.622383118 0 0 0 0 276967419.35466766 35631460.713256836 0 35631460.713256836 -146691122.47245598 0 0 0 0 360033618.81571198 72707219.046001434 0 72707219.046001434 -151001772.08917093 0 0 0 0 332582939.96016884 104159780.18293571 0 104159780.18293571 -65990290.397697449 0 0 0 0 354487829.13010788 119308499.78099442 0 119308499.78099442 -98561692.132644653 0 0 0 0 -83934702.291885138 69494562.049546957 0 69494562.049546957 12585534.615715027 0 0 0 0 234839395.2362442 271015858.14814758 0 271015858.14814758 21884322.73626709 0 0 0 0 119081259.22293854 58500248.332336426 0 58500248.332336426 -109604080.0106926 0 0 0 0 -49971509.815429688 190952048.70516205 0 190952048.70516205 2710314.3037185669 0 0 0 0 62844323.462501526 83933373.857292175 0 83933373.857292175 144303214.73788854 0 0 0 0 39760994.980209351 50451310.213661194 0 50451310.213661194 164072093.19948769 0 0 0 0 45051482.04679776 68546874.245002225 0 68546874.245002225 -30193452.144375663 0 0 0 0 5278092.1133899689 105235344.96490002 0 105235344.96490002 159698791.08042526 0 0 0 0 -18796273.247430041 68691385.196048349 0 68691385.196048349 3303061.4421617985 0 0 0 0 69870496.002717972 172239968.77105331 0 172239968.77105331 -28106900.531045914 0 0 0 0 8231307.0894298553 110980443.23931694 0 110980443.23931694 -5442286.5554466248 0 0 0 0 10738876.981786221 72716544.87698257 0 72716544.87698257 -26891284.708616275 0 0 0 0 3091984.9919764251 49464908.566848196 0 49464908.566848196 14352833.171227157 0 0 0 0 12439235.413757086 220652795.24838337 0 220652795.24838337 194470162.91878891 0 0 0 0 1935567.8040618896 91308988.000347137 0 91308988.000347137 123838409.41979885 0 0 0 0 -13014617.829559326 102321484.01961613 0 102321484.01961613 160042090.15015984 0 0 0 0 11326990.819793701 116900203.86519909 0 116900203.86519909 82294430.587589264 0 0 0 0 -90144335.65471077 91745384.02008009 0 91745384.02008009 77592263.326940536 0 0 0 0 -193181930.72498512 244974110.78404427 0 244974110.78404427 79053887.295825958 0 0 0 0 132740463.3411026 160248983.18202305 0 160248983.18202305 79653572.723155022 0 0 0 0 152140424.11108017 249711300.38919973 0 249711300.38919973 -249219991.73208427 0 0 0 0 -18796842.881671906 190803444.36369228 0 190803444.36369228 -218756106.48876548 0 0 0 0 -100484665.46321678 -308688.07580113411 0 -308688.07580113411 -134270277.44763565 0 0 0 0 -37330941.378612518 139884069.34187126 0 139884069.34187126 -60679647.318588257 0 0 0 0 28193039.086597443 116574841.80624247 0 116574841.80624247 -100507386.50624466 0 0 0 0 18227743.35398674 47308091.246285439 0 47308091.246285439 83742072.714042664 0 0 0 0 77290973.115718842 94844040.328355312 0 94844040.328355312 28308832.499040604 0 0 0 0 -4078745.8726787567 80280357.319275856 0 80280357.319275856 28606646.107815742 0 0 0 0 57085227.537143707 76688654.759817123 0 76688654.759817123 -28425288.952097893 0 0 0 0 36016622.353881836 45719288.839795113 0 45719288.839795113 31578094.354141712 0 0 0 0 310217871.03062439 269292902.71156931 0 269292902.71156931 146610446.10410941 0 0 0 0 64211075.22511673 41254087.043576717 0 41254087.043576717 97961251.589385867 0 0 0 0 78507469.920351028 30706397.045878887 0 30706397.045878887 49938579.771463394 0 0 0 0 20941506.203539409 20111337.372180387 0 20111337.372180387 14949414.002499264 0 0 0 0 92427180.070453644 33764959.824814796 0 33764959.824814796 25578898.143483877 0 0 0 0 48249913.375383377 49005032.262648582 0 49005032.262648582 63756425.101802826 0 0 0 0 56104656.160747342 73539038.135709777 0 73539038.135709777 33465282.697123922 0 0 0 0 -93430108.762130737 501594675.02367401 0 501594675.02367401 330541164.74783683 0 0 0 0 247596623.6888237 -68096090.159994125 0 -68096090.159994125 -123411010.33498526 0 0 0 0 365053165.40985203 -131036755.50876835 0 -131036755.50876835 -206291257.45963502 0 0 0 0 20512685.763720401 8647839.0813268423 0 8647839.0813268423 -8124777.269470742 0 0 0 0 -100051355.24827194 147778342.72821999 0 147778342.72821999 -37115999.991991043 0 0 0 0 -102081026.44592857 146065573.45463943 0 146065573.45463943 -37913318.013814449 0 0 0 0 -141508301.00708008 78537405.54260397 0 78537405.54260397 42161240.085977554 0 0 0 0 -77707856.774017334 105115015.18173504 0 105115015.18173504 20219465.408723831 0 0 0 0 -163981.20154762268 -27537678.19483757 0 -27537678.19483757 101818377.77917576 0 0 0 0 13737747.216024399 163120437.54686546 0 163120437.54686546 56985261.198502541 0 0 0 0 55527262.671020105 71810175.846823797 0 71810175.846823797 21433390.849439457 0 0 0 0 76366321.272323608 111299789.18308467 0 111299789.18308467 17823696.986801624 0 0 0 0 -82975386.444154859 159587259.52492964 0 159587259.52492964 81090232.060771942 0 0 0 0 213237453.3396616 -59733842.787844658 0 -59733842.787844658 77574700.634840012 0 0 0 0 -2200461.6442204192 47432778.046196729 0 47432778.046196729 10823684.113380548 0 0 0 0 -60269071.231723785 177906943.66013813 0 177906943.66013813 95269377.287136078 0 0 0 0 91676861.908131599 94259475.421017647 0 94259475.421017647 -16950787.748710632 0 0 0 0 98463496.670866013 95516532.442579269 0 95516532.442579269 -75614052.156591415 0 0 0 0 551755361.69696808 -9995400.4799213409 0 -9995400.4799213409 -254064963.7014451 0 0 0 0 461167896.69652557 598256460.48422146 0 598256460.48422146 -1056253265.1743298 0 0 0 0 85403444.807079315 50276723.680512667 0 50276723.680512667 34123887.332710266 0 0 0 0 101713651.82128906 102920224.53160191 0 102920224.53160191 91508937.360109329 0 0 0 0 101963412.31389809 57596329.433048487 0 57596329.433048487 161390206.95309258 0 0 0 0 1071466.3498527631 11555480.443055313 0 11555480.443055313 16319564.658096336 0 0 0 0 87591577.094009399 35616974.150329351 0 35616974.150329351 109012783.48602676 0 0 0 0 155483762.65258026 73792210.317715645 0 73792210.317715645 68050668.961475611 0 0 0 0 58616343.285650402 32015443.506356988 0 32015443.506356988 -6322999.4054355677 0 0 0 0 65729851.363739014 82988409.027701378 0 82988409.027701378 70849571.406593323 0 0 0 0 145494236.76708984 51971153.311021447 0 51971153.311021447 -17024341.150499344 0 0 0 0 40055690.869481415 48773927.125017427 0 48773927.125017427 6479551.1301948354 0 0 0 0 22039895.024550438 36395449.5111444 0 36395449.5111444 -16609850.448245049 0 0 0 0 36559482.547906503 59421236.237679191 0 59421236.237679191 -9988620.4575540572 0 0 0 0 29882491.195022583 13757232.945079803 0 13757232.945079803 -13524277.680289268 0 0 0 0 20292395.194250107 31418455.54678154 0 31418455.54678154 -29376547.324319199 0 0 0 0 26652172.520914078 42893462.625617981 0 42893462.625617981 -28831849.944459915 0 0 0 0 31887280.548488617 34254925.491004944 0 34254925.491004944 -43936345.839757919 0 0 0 0 18007754.866363525 18255883.8795892 0 18255883.8795892 -9085057.3217879459 0 0 0 0 41626542.701812819 91862091.346907318 0 91862091.346907318 23266386.346547306 0 0 0 0 26058172.288549423 45111127.700715065 0 45111127.700715065 -18776509.698213696 0 0 0 0 -123140834.06983948 -13437918.29533577 0 -13437918.29533577 -132006510.41092682 0 0 0 0 46400000.722253144 31952404.097594041 0 31952404.097594041 -41727580.890692458 0 0 0 0 43771767.821116537 22826318.536569726 0 22826318.536569726 -16629867.213542612 0 0 0 0 84926550.419876099 55334909.031273842 0 55334909.031273842 -1001880.7842788696 0 0 0 0 15909277.694007874 15887022.366346359 0 15887022.366346359 -14444593.571582794 0 0 0 0 44798773.141407594 54384683.716781273 0 54384683.716781273 -5233574.9246582147 0 0 0 0 19083060.811988831 95630591.616981506 0 95630591.616981506 -108678530.32134247 0 0 0 0 -950151.56546211243 85086310.132095337 0 85086310.132095337 -33050441.054870605 0 0 0 0 56746504.274226189 137863895.14460945 0 137863895.14460945 -137880506.56227875 0 0 0 0 -1358221.4424057007 81464067.109405518 0 81464067.109405518 -65198928.94029808 0 0 0 0 29825372.9420988 23353595.556508414 0 23353595.556508414 -31129035.532446459 0 0 0 0 4670875.3787536621 -12690144.135959625 0 -12690144.135959625 -145240506.32349038 0 0 0 0 55791713.74051486 87402138.054786205 0 87402138.054786205 -53857225.149520874 0 0 0 0 48207492.347334296 38225212.061150104 0 38225212.061150104 -22233667.128713384 0 0 0 0 1017564.2255252264 52222795.250054993 0 52222795.250054993 -7899978.3198680878 0 0 0 0 249889881.15820885 -33892465.999004364 0 -33892465.999004364 -107084872.63317776 0 0 0 0 8129678.6556275152 8096537.6244533304 0 8096537.6244533304 -10396812.593842983 0 0 0 0 137046078.63832569 23775650.707811356 0 23775650.707811356 -62195379.568878174 0 0 0 0 26497017.77565527 77527701.273165703 0 77527701.273165703 -76356848.868320465 0 0 0 0 -12366417.515791893 23544296.222963333 0 23544296.222963333 25832880.572208405 0 0 0 0 237990595.65398884 -52623197.223470688 0 -52623197.223470688 -59102811.987174988 0 0 0 0 238363804.88659286 137008204.24043846 0 137008204.24043846 -72918407.131362915 0 0 0 0 182355408.99283981 258430467.23598289 0 258430467.23598289 -4982235.0140075684 0 0 0 0 -21977492.26185894 419534788.6632061 0 419534788.6632061 88120140.34715271 0 0 0 0 -217505189.36440486 127525929.19964808 0 127525929.19964808 -34564745.76260376 0 0 0 0 114882231.75090694 99708166.739271164 0 99708166.739271164 -106652155.61636353 0 0 0 0 147408019.76036072 77163819.727313995 0 77163819.727313995 -103517415.49988556 0 0 0 0 -90119416.868143082 149645445.25737762 0 149645445.25737762 206377329.32739687 0 0 0 0 -44559603.94789505 376448790.65865898 0 376448790.65865898 25424908.506128311 0 0 0 0 43179937.669393539 406684176.72281647 0 406684176.72281647 -411404187.34231186 0 0 0 0 -98204263.192588806 270326710.40320778 0 270326710.40320778 18357934.92780304 0 0 0 0 56794254.90779686 144215097.03913879 0 144215097.03913879 -3140620.6677875519 0 0 0 0 97575742.382143021 125494578.61749268 0 125494578.61749268 4645815.1461048126 0 0 0 0 79846407.453655243 184791726.79057503 0 184791726.79057503 -69778370.842029572 0 0 0 0 215315196.94038963 143344228.79943371 0 143344228.79943371 -59437608.058231354 0 0 0 0 -13886792.93328476 73717600.348035812 0 73717600.348035812 134626076.8366127 0 0 0 0 4302149.8105697632 164837269.12977982 0 164837269.12977982 124848876.03589439 0 0 0 0 -10160673.044174671 38982799.111094281 0 38982799.111094281 -506566.0071619302 0 0 0 0 -71113636.365579605 162267798.23468399 0 162267798.23468399 255174360.86762047 0 0 0 0 -105176273.25054359 63407064.056827545 0 63407064.056827545 338592635.08951092 0 0 0 0 -127434238.98915076 148704204.16204858 0 148704204.16204858 252277179.21517563 0 0 0 0 -364370637.59284019 356760264.9853096 0 356760264.9853096 -289977706.87874985 0 0 0 0 -31969281.063801922 4180497.2528430037 0 4180497.2528430037 6008523.2934859917 0 0 0 0 -223556353.11400712 231386756.12876701 0 231386756.12876701 -226851781.24193954 0 0 0 0 44793279.307564974 -37052231.789373398 0 -37052231.789373398 -611566744.44693756 0 0 0 0 1005245.8883180618 35334588.882698059 0 35334588.882698059 -38482141.083190918 0 0 0 0 145698600.2942276 166952390.29755211 0 166952390.29755211 -256643433.95426559 0 0 0 0 -3364671.84716602 3056433.210099455 0 3056433.210099455 1574505.3818943202 0 0 0 0 2653824.249324603 12929107.287699759 0 12929107.287699759 -4700837.0790593922 0 0 0 0 -79920907.495857239 169323255.22497749 0 169323255.22497749 326232497.10804904 0 0 0 0 -198329510.40837979 471099652.52488136 0 471099652.52488136 -111205871.00313759 0 0 0 0 -249551477.76076102 124460788.72535324 0 124460788.72535324 137462046.50037885 0 0 0 0 -228978911.44320381 -50282588.249927819 0 -50282588.249927819 -217749380.94909286 0 0 0 0 -98481799.608756065 258926878.48248672 0 258926878.48248672 -554930726.34217072 0 0 0 0 203851919.16047227 427838234.00724757 0 427838234.00724757 80975234.27677536 0 0 0 0 927851785.17752409 273706681.71058941 0 273706681.71058941 -94516872.761367798 0 0 0 0 669815044.05198288 799483131.37986755 0 799483131.37986755 328107709.84798813 0 0 0 0 204598777.63429499 437656696.54906559 0 437656696.54906559 192187082.72990417 0 0 0 0 528771985.55790806 131867190.16562653 0 131867190.16562653 -127539935.68571472 0 0 0 0 49813930.03417778 -75627436.967027664 0 -75627436.967027664 36539541.572845459 0 0 0 0 467913840.61841393 -145288969.7605257 0 -145288969.7605257 -23631473.279933929 0 0 0 0 1326767.406582851 5015537.0579906143 0 5015537.0579906143 -962601.46236504242 0 0 0 0 263069008.12891817 76149298.604226112 0 76149298.604226112 -211916399.92217636 0 0 0 0 363244831.31822109 655679752.76931763 0 655679752.76931763 176233835.15298843 0 0 0 0 621141128.61966515 401985843.75307846 0 401985843.75307846 371924415.94046783 0 0 0 0 -26841879.065573175 54072691.257757336 0 54072691.257757336 -59754366.535011746 0 0 0 0 119730425.09507751 396047941.68117523 0 396047941.68117523 148323412.81745911 0 0 0 0 22222308.199094296 -83557960.178056717 0 -83557960.178056717 -45375736.027587891 0 0 0 0 -405892316.92484856 -41551332.092544556 0 -41551332.092544556 230638576.63352203 0 0 0 0 174374173.90788078 89308210.651741028 0 89308210.651741028 35917223.36882782 0 0 0 0 136418693.78758049 172814681.88695717 0 172814681.88695717 17749267.906349182 0 0 0 0 107038556.98715973 136498740.47323418 0 136498740.47323418 380911.37870788574 0 0 0 0 58173664.437328339 136653817.60050201 0 136653817.60050201 33231064.588825226 0 0 0 0 -16095316.500974141 48379172.632144779 0 48379172.632144779 -53305131.641873606 0 0 0 0 104072908.87581253 135556161.447258 0 135556161.447258 9221903.4990921021 0 0 0 0 -98827089.967838287 187016324.6643486 0 187016324.6643486 166016090.75652313 0 0 0 0 400829317.0663681 255322023.36448669 0 255322023.36448669 208446603.67405701 0 0 0 0 -22289673.793074138 34705387.415255785 0 34705387.415255785 12892684.60446009 0 0 0 0 -211501398.2454944 360504291.20511031 0 360504291.20511031 84834393.244827271 0 0 0 0 751489612.55070305 33477394.870174408 0 33477394.870174408 -110528881.17185783 0 0 0 0 5520376.0216356665 5417558.2585711628 0 5417558.2585711628 -4925625.8690136075 0 0 0 0 -24644896.885308608 26870083.691441167 0 26870083.691441167 10593379.450505927 0 0 0 0 377721427.60540199 193493774.22956085 0 193493774.22956085 10892645.87097168 0 0 0 0 751965129.22670746 480003166.04083824 0 480003166.04083824 -92806568.776168823 0 0 0 0 43803576.053750992 119482708.98340416 0 119482708.98340416 -3165343.5318145752 0 0 0 0 -13841306.089978222 59321222.218941651 0 59321222.218941651 -28823986.808383651 0 0 0 0 -59777511.293750286 175451680.31624889 0 175451680.31624889 109444361.41120148 0 0 0 0 -383403937.52211046 2658868.9319972992 0 2658868.9319972992 179870520.77655029 0 0 0 0 532347675.76661491 227744331.66329765 0 227744331.66329765 -119751106.55365372 0 0 0 0 -6748007.8403305039 6397049.4479330741 0 6397049.4479330741 2363681.932620272 0 0 0 0 492022148.75569344 100493425.09440422 0 100493425.09440422 -141041455.99539185 0 0 0 0 61924137.806964874 20717444.158603668 0 20717444.158603668 -35870921.18662262 0 0 0 0 446739477.53539467 -41367385.878356934 0 -41367385.878356934 -107503758.06298256 0 0 0 0 391825110.92535591 149897538.00677681 0 149897538.00677681 61134737.085136414 0 0 0 0 8149554.2589321136 118818252.83598709 0 118818252.83598709 11403310.009780884 0 0 0 0 4036652.4522094727 125222694.24093628 0 125222694.24093628 9932336.9803876877 0 0 0 0 50316230.245819092 142175929.61935043 0 142175929.61935043 13522622.757724762 0 0 0 0 7281851.4468803406 153776596.66899514 0 153776596.66899514 12476692.440719604 0 0 0 0 8447396.271697998 144948204.75259972 0 144948204.75259972 23433726.467767715 0 0 0 0 56028814.791232824 154788645.36714983 0 154788645.36714983 13029292.109313965 0 0 0 0 4833931.3542289734 128153319.55476379 0 128153319.55476379 46811956.29605484 0 0 0 0 7188405.8895187378 133686327.53734207 0 133686327.53734207 495942.11781311035 0 0 0 0 1851185.1151046753 124098257.47789669 0 124098257.47789669 -14104655.942913055 0 0 0 0 -52091818.429944992 166243141.15277481 0 166243141.15277481 34398634.979499817 0 0 0 0 -14743720.799476624 173514995.68458176 0 173514995.68458176 -5182148.3625888824 0 0 0 0 -44229636.809719086 130328551.3460083 0 130328551.3460083 89310539.055252075 0 0 0 0 -129369623.59560394 245983800.94812393 0 245983800.94812393 -5584883.6535186768 0 0 0 0 1499736.2288389206 134378263.47217274 0 134378263.47217274 -155842323.29158783 0 0 0 0 -756013.85208112001 1835549.6160992533 0 1835549.6160992533 232297.71820180118 0 0 0 0 -121627159.09769058 132988160.08752441 0 132988160.08752441 191720452.58710098 0 0 0 0 23396628.471166611 215785472.90310097 0 215785472.90310097 -176266124.02026749 0 0 0 0 53118046.922318459 120327277.01214027 0 120327277.01214027 154516733.84363174 0 0 0 0 18693447.29740715 47052335.448215485 0 47052335.448215485 118259317.628685 0 0 0 0 -54567218.034700394 119420198.8704052 0 119420198.8704052 78300755.190917969 0 0 0 0 21309651.591247559 67532441.683984756 0 67532441.683984756 59452047.947755814 0 0 0 0 -25809162.075489044 118283422.44313812 0 118283422.44313812 43219825.419269323 0 0 0 0 -30484611.853084564 147393974.39940071 0 147393974.39940071 50752528.91753006 0 0 0 0 -4560661.8782663345 131875379.02439117 0 131875379.02439117 47456341.296028137 0 0 0 0 -15163496.558280945 90258183.100761414 0 90258183.100761414 89961173.761400223 0 0 0 0 -47520366.897872925 57809494.233398438 0 57809494.233398438 92827232.562547684 0 0 0 0 65877897.67300272 92406928.547575712 0 92406928.547575712 63445633.403022766 0 0 0 0 70796312.251644135 80331691.268550873 0 80331691.268550873 23504658.652462006 0 0 0 0 93474944.533981323 105884174.35616875 0 105884174.35616875 24566190.859481335 0 0 0 0 71178277.525993347 67335355.354488373 0 67335355.354488373 42870204.613082886 0 0 0 0 12907440.102088928 113230459.26844597 0 113230459.26844597 77861715.186328888 0 0 0 0 -9807394.4132041931 -3020561.4238891602 0 -3020561.4238891602 34269769.018455505 0 0 0 0 27043683.497684479 106913823.77550888 0 106913823.77550888 126962098.26533127 0 0 0 0 1546478.8164345846 1677370.1263736188 0 1677370.1263736188 1534734.0977522433 0 0 0 0 -1358977.5456366539 4743479.2373668998 0 4743479.2373668998 1708290.2531250119 0 0 0 0 61777205.717708588 64957867.104459763 0 64957867.104459763 92938038.441486359 0 0 0 0 16302143.548671722 65580532.991695404 0 65580532.991695404 95964323.720319748 0 0 0 0 73401228.220222473 66052971.835899353 0 66052971.835899353 103854169.68883896 0 0 0 0 15352185.229663849 81464756.51077652 0 81464756.51077652 99763923.046327591 0 0 0 0 48550174.332564831 122848535.61419082 0 122848535.61419082 171752556.93667603 0 0 0 0 46120.075388818979 7190809.2336456031 0 7190809.2336456031 5380662.4067569673 0 0 0 0 5208266.8873509094 6388668.1603286564 0 6388668.1603286564 5856512.2571484596 0 0 0 0 19468028.322417021 13267648.754123569 0 13267648.754123569 95156627.96257019 0 0 0 0 3793585.5891035497 10842028.6154062 0 10842028.6154062 12802361.611209914 0 0 0 0 47016454.345405579 126687659.58905363 0 126687659.58905363 152244956.58330536 0 0 0 0 17321648.060352325 38573775.955120087 0 38573775.955120087 131832766.47087574 0 0 0 0 45465669.203842163 126726872.04681778 0 126726872.04681778 94309197.057365417 0 0 0 0 58028910.753349304 66593482.975692749 0 66593482.975692749 121148748.46526337 0 0 0 0 5985379.9679908752 187658255.53836823 0 187658255.53836823 195937212.5119133 0 0 0 0 50568858.657781601 94395895.666905642 0 94395895.666905642 59362907.299683571 0 0 0 0 58508475.323635101 95438776.998817444 0 95438776.998817444 102905455.87905502 0 0 0 0 16913254.389572144 89958772.606113434 0 89958772.606113434 132636298.68932867 0 0 0 0 76532933.842090607 73069102.524084091 0 73069102.524084091 24445696.904941559 0 0 0 0 44397331.725119367 67511037.485522345 0 67511037.485522345 -11753775.032400791 0 0 0 0 21184657.885372162 58539002.102358818 0 58539002.102358818 82217300.208118439 0 0 0 0 31488174.253142357 42918337.528266668 0 42918337.528266668 112906865.53423738 0 0 0 0 62026471.901252747 57323394.224403381 0 57323394.224403381 21070948.922039032 0 0 0 0 35874761.707029134 67907934.970671132 0 67907934.970671132 -6563337.6794034513 0 0 0 0 29199959.556758881 81600745.212292671 0 81600745.212292671 67719383.45333147 0 0 0 0 33583750.55305481 73759060.547507286 0 73759060.547507286 19784816.819038391 0 0 0 0 3103708.1006622314 45398124.403086185 0 45398124.403086185 57760537.693188667 0 0 0 0 32226694.466462135 56452716.835918903 0 56452716.835918903 -46617155.724931717 0 0 0 0 4492915.6609382629 47744126.246402264 0 47744126.246402264 3838488.6668744087 0 0 0 0 18342509.814971924 83106224.772929668 0 83106224.772929668 -33965466.09452343 0 0 0 0 26835321.883499146 64961387.698966026 0 64961387.698966026 -71632832.269199371 0 0 0 0 56777674.46811676 72032377.633358002 0 72032377.633358002 32534082.03320694 0 0 0 0 3674118.3415222168 58970233.364794731 0 58970233.364794731 29996743.071591139 0 0 0 0 29315843.051078796 65324400.614854813 0 65324400.614854813 -18890313.721092224 0 0 0 0 32143849.667813301 81860770.154731393 0 81860770.154731393 -21394698.80488205 0 0 0 0 -1613208.2215118408 64172445.697650909 0 64172445.697650909 -15911321.667568207 0 0 0 0 6702505.8979301453 85106557.285106897 0 85106557.285106897 -21015538.887348175 0 0 0 0 40479850.947135925 90760626.639156342 0 90760626.639156342 -51633317.10909462 0 0 0 0 45206997.543038666 39459879.871380255 0 39459879.871380255 -3402387.7401626958 0 0 0 0 9656939.9830169678 78553150.283991814 0 78553150.283991814 56999258.747827053 0 0 0 0 18392968.221839905 42758986.233243942 0 42758986.233243942 -8705748.9376831055 0 0 0 0 19560742.648361206 55107243.388341904 0 55107243.388341904 59496188.021930695 0 0 0 0 29288161.896835327 59367650.997162819 0 59367650.997162819 60214018.717426538 0 0 0 0 14563078.118206024 57655794.385176182 0 57655794.385176182 100697593.30165911 0 0 0 0 4156538.040561676 92182535.9961586 0 92182535.9961586 40421759.593504906 0 0 0 0 14960465.802249908 52836589.422390699 0 52836589.422390699 97202683.114575863 0 0 0 0 18912829.130535766 68238352.456174612 0 68238352.456174612 -12506023.498449931 0 0 0 0 -860337.31031227112 88551463.224258423 0 88551463.224258423 39595361.833938599 0 0 0 0 25210066.840345383 69950488.039335251 0 69950488.039335251 49007605.523239136 0 0 0 0 27283480.487335756 67664674.039248571 0 67664674.039248571 -6785008.4124270594 0 0 0 0 26118449.775524139 40186378.89119482 0 40186378.89119482 98160194.85216862 0 0 0 0 27542621.923332214 67984958.044919014 0 67984958.044919014 51176411.90058136 0 0 0 0 31878838.355491638 44662309.225021362 0 44662309.225021362 57528351.623327255 0 0 0 0 15440004.637962341 42267092.118046761 0 42267092.118046761 39677603.772319317 0 0 0 0 24653236.076408386 37858134.153505325 0 37858134.153505325 -21202990.88908577 0 0 0 0 30559483.764217377 61745709.949072361 0 61745709.949072361 -478013.12667942047 0 0 0 0 12526955.63787955 37421065.572416499 0 37421065.572416499 -34320631.089887738 0 0 0 0 197222677.86988449 228543632.96703053 0 228543632.96703053 50180322.774249077 0 0 0 0 30690339.971088409 69136853.455182076 0 69136853.455182076 25077926.784852028 0 0 0 0 23543757.255491257 46299297.153777361 0 46299297.153777361 9554285.9975318909 0 0 0 0 179109987.40236664 363103772.8317976 0 363103772.8317976 108417115.16343594 0 0 0 0 11955466.374738172 40135073.63972415 0 40135073.63972415 -22429178.913042221 0 0 0 0 224701878.21255875 108268208.6978364 0 108268208.6978364 -81780391.592404366 0 0 0 0 195331850.93940353 133022040.41808176 0 133022040.41808176 63275448.445534706 0 0 0 0 214912055.96539879 18038729.986157179 0 18038729.986157179 -22565253.202658653 0 0 0 0 183430181.33011627 60783953.693626881 0 60783953.693626881 -30754817.539527893 0 0 0 0 134772953.64927673 81917008.75094223 0 81917008.75094223 -118923650.60055161 0 0 0 0 222089416.2920723 206109962.9603734 0 206109962.9603734 19276328.466128349 0 0 0 0 2125451.9398610294 5178618.9059724212 0 5178618.9059724212 -8341845.9066422656 0 0 0 0 169263251.50002289 122156221.51377201 0 122156221.51377201 109421275.31326294 0 0 0 0 174443748.52760029 110457490.54167712 0 110457490.54167712 -135306935.91719627 0 0 0 0 151137439.72477722 150537292.4088316 0 150537292.4088316 41221775.129514843 0 0 0 0 155412847.19846344 182444195.56051636 0 182444195.56051636 20036490.089108467 0 0 0 0 184766390.40615463 112336361.1343236 0 112336361.1343236 -82605953.687396049 0 0 0 0 80953515.679429293 242124625.09949964 0 242124625.09949964 -239854017.73623371 0 0 0 0 68816457.22089386 30189093.285458565 0 30189093.285458565 -3076255.5223350525 0 0 0 0 12001206.365890503 51690523.868556023 0 51690523.868556023 -26099543.270239353 0 0 0 0 -2047633.4158925563 6892283.1188178994 0 6892283.1188178994 -3450426.6131200697 0 0 0 0 12931138.259969011 39905234.036275163 0 39905234.036275163 -33751910.799958892 0 0 0 0 178876228.45372009 36647935.265053749 0 36647935.265053749 -54166028.793969154 0 0 0 0 24285269.228757858 68505350.564048767 0 68505350.564048767 -52439112.784932137 0 0 0 0 74265047.470846176 82652018.682209373 0 82652018.682209373 -74484479.440892696 0 0 0 0 6583083.1387246251 22955890.253316853 0 22955890.253316853 -13486591.457515744 0 0 0 0 6824777.2339223474 30340096.193470884 0 30340096.193470884 -2260191.2629710301 0 0 0 0 -34532050.386993408 38303856.535002708 0 38303856.535002708 -25128146.012440681 0 0 0 0 25430433.771729946 6562349.8657452762 0 6562349.8657452762 -12248048.215612411 0 0 0 0 113417228.12667084 149360413.64272594 0 149360413.64272594 115328851.54532528 0 0 0 0 473629611.45921326 -50390445.74177742 0 -50390445.74177742 -215649102.4270947 0 0 0 0 -273816105.90782166 -108861959.54769135 0 -108861959.54769135 61976330.221311569 0 0 0 0 1522257.9513659179 6039679.8442835566 0 6039679.8442835566 -3247287.6570704877 0 0 0 0 31749750.624343872 70788781.693683147 0 70788781.693683147 51170687.809103966 0 0 0 0 172658360.18244171 128625099.40088463 0 128625099.40088463 -8615191.9116654396 0 0 0 0 154483053.98210526 129866713.28407383 0 129866713.28407383 -911329.52152061462 0 0 0 0 96700262.281627655 1795511.5413081646 0 1795511.5413081646 -68310104.594237328 0 0 0 0 191975606.76116943 141269399.20318508 0 141269399.20318508 -37230628.905887604 0 0 0 0 -22430615.675182343 42809153.967941761 0 42809153.967941761 -27005222.267778397 0 0 0 0 -11699672.599592716 18811732.825401314 0 18811732.825401314 7063079.7138309237 0 0 0 0 -61407604.96824646 64763262.38556397 0 64763262.38556397 -16802280.095575333 0 0 0 0 -72801074.715415955 31512061.102402687 0 31512061.102402687 9527877.6267204285 0 0 0 0 -94777077.057258606 204817599.79927444 0 204817599.79927444 257389460.82048559 0 0 0 0 35504909.277446747 99748325.369355679 0 99748325.369355679 -118376897.06563473 0 0 0 0 -5985861.7339681536 7711277.0594758019 0 7711277.0594758019 1106503.8446563063 0 0 0 0 -249305234.26629639 25147511.636034966 0 25147511.636034966 447538516.24815845 0 0 0 0 192553895.26808804 220670637.27364931 0 220670637.27364931 105296736.26411819 0 0 0 0 298000004.45964813 264998961.61401176 0 264998961.61401176 91210025.27722168 0 0 0 0 -299153552.81082153 -86117336.650441647 0 -86117336.650441647 257788659.64611244 0 0 0 0 244431737.21925354 111749040.76272821 0 111749040.76272821 -47164135.795404673 0 0 0 0 -4390297.6060485542 6035813.9572666436 0 6035813.9572666436 3684083.7617639825 0 0 0 0 -299848386.41343689 206424131.46313 0 206424131.46313 372072922.61828613 0 0 0 0 249383298.26739502 602734870.27575016 0 602734870.27575016 583569711.58607101 0 0 0 0 586580231.09255981 -209633055.81881332 0 -209633055.81881332 405245655.48642164 0 0 0 0 149066265.56660461 304294537.61349487 0 304294537.61349487 439287292.07899284 0 0 0 0 4542991.0305325985 8491734.2360671535 0 8491734.2360671535 -8843922.6166356206 0 0 0 0 -44359256.905754089 146916536.6035099 0 146916536.6035099 331904166.87230492 0 0 0 0 -43665911.278617859 46017838.256162643 0 46017838.256162643 168249147.148839 0 0 0 0 53430477.376846313 20469455.97772634 0 20469455.97772634 -11616903.502726555 0 0 0 0 111152355.34959412 172957862.8887198 0 172957862.8887198 101532381.05461884 0 0 0 0 21849062.646278381 -14444075.27458477 0 -14444075.27458477 19742158.30903244 0 0 0 0 39092114.488109589 -17759916.853573322 0 -17759916.853573322 -3397671.3796510696 0 0 0 0 34231143.558803558 -8435549.1235170364 0 -8435549.1235170364 -21082014.323947906 0 0 0 0 69725152.498401642 41248121.811169624 0 41248121.811169624 29788630.248495936 0 0 0 0 221672074.27830124 152922083.5529747 0 152922083.5529747 15582905.69821167 0 0 0 0 186870147.80096436 120739830.64028835 0 120739830.64028835 20219786.37260437 0 0 0 0 156633562.54424286 143387115.85128689 0 143387115.85128689 30874055.78811264 0 0 0 0 158838117.35171509 148780285.25181293 0 148780285.25181293 41272812.025028318 0 0 0 0 130698502.3433075 152055225.99667168 0 152055225.99667168 29764941.332651138 0 0 0 0 144253391.26187897 113714907.10130024 0 113714907.10130024 20281196.512681961 0 0 0 0 -55512121.527259827 138990429.26837188 0 138990429.26837188 66916063.103839397 0 0 0 0 27414799.232086182 121018899.30114388 0 121018899.30114388 90847604.596985579 0 0 0 0 -11569437.123895645 228479708.06887788 0 228479708.06887788 151831637.88011408 0 0 0 0 55434290.222000122 159193788.7617619 0 159193788.7617619 -153778256.0591296 0 0 0 0 -51939813.866020203 192263036.61750168 0 192263036.61750168 -145722991.44900846 0 0 0 0 60191742.514122009 170381771.03821075 0 170381771.03821075 -412289539.04695225 0 0 0 0 96633607.606048584 65799310.549717665 0 65799310.549717665 -92374127.354927272 0 0 0 0 -25985470.271310806 395175109.71165389 0 395175109.71165389 -187391085.15895414 0 0 0 0 -132130396.15351868 116644218.85031044 0 116644218.85031044 -91448855.391694784 0 0 0 0 -35871740.720275879 207726417.85874462 0 207726417.85874462 112004658.01222324 0 0 0 0 121473609.50788879 169542426.45290142 0 169542426.45290142 97826371.89871192 0 0 0 0 -9068572.0694843754 3954861.6972361207 0 3954861.6972361207 1012849.1468944307 0 0 0 0 -117494393.0355835 83865813.2785092 0 83865813.2785092 -20742087.803188846 0 0 0 0 -28799988.945632935 -16724676.267532155 0 -16724676.267532155 15872721.145717368 0 0 0 0 -217330393.38823128 136227324.33626798 0 136227324.33626798 17542091.571111441 0 0 0 0 -170360833.77766418 11764961.045116663 0 11764961.045116663 91992123.813251257 0 0 0 0 797834.26373529434 40460981.328208305 0 40460981.328208305 16221372.857058374 0 0 0 0 -19406169.137023926 47653254.569286942 0 47653254.569286942 -40431545.367010355 0 0 0 0 33330375.845100135 25314543.781559959 0 25314543.781559959 -14869974.027477367 0 0 0 0 200355522.94961357 371179346.91985691 0 371179346.91985691 -214640933.11576843 0 0 0 0 8142233.1332564354 34808926.158639103 0 34808926.158639103 -3820356.9160419526 0 0 0 0 2267996.0083770752 28717984.981584385 0 28717984.981584385 -23959806.481417328 0 0 0 0 -2302435.1513748169 27316648.700324625 0 27316648.700324625 -12964666.845429271 0 0 0 0 11967923.905118451 33752297.590323083 0 33752297.590323083 -4789786.9982517753 0 0 0 0 -2361413.4664916992 34437277.131163955 0 34437277.131163955 -20569135.787102312 0 0 0 0 -3272352.8353042603 31230280.720285952 0 31230280.720285952 -15141985.679447055 0 0 0 0 6870712.2328979075 26797999.29701709 0 26797999.29701709 -4614210.3702287264 0 0 0 0 -22556957.804104805 42622523.837784648 0 42622523.837784648 -15107096.076745987 0 0 0 0 11596879.03125 30466373.836454391 0 30466373.836454391 6448052.1000232697 0 0 0 0 -20540305.776103884 23143824.276962437 0 23143824.276962437 2736014.5888551325 0 0 0 0 -10134109.294128418 31676189.473635674 0 31676189.473635674 -195818335.45093107 0 0 0 0 -84046060.616279602 340297418.07390165 0 340297418.07390165 533154159.51760006 0 0 0 0 353676363.98353958 -166768268.45497417 0 -166768268.45497417 -100947100.55506325 0 0 0 0 -260926156.41547394 -89488299.009562016 0 -89488299.009562016 280959719.31925297 0 0 0 0 -318541155.95375824 59203954.001034737 0 59203954.001034737 101071300.02418995 0 0 0 0 3147836.2820396423 18499938.651320934 0 18499938.651320934 -2747500.8464975357 0 0 0 0 462309.99629968405 26195264.862829417 0 26195264.862829417 -1523409.3914715908 0 0 0 0 -102415714.33688354 6183550.939994812 0 6183550.939994812 -117286268.91436768 0 0 0 0 5201448.0613651276 18761513.376026273 0 18761513.376026273 299824.4880490303 0 0 0 0 -19260470.253426552 16050491.151509315 0 16050491.151509315 743556.03634011373 0 0 0 0 1614056.3770141602 17323658.004010201 0 17323658.004010201 -1539470.396314621 0 0 0 0 -5780237.3122399151 37196575.578325137 0 37196575.578325137 -7127989.5515071061 0 0 0 0 9240732.4027113914 35495474.672490805 0 35495474.672490805 -762870.32827245072 0 0 0 0 -30180462.445208088 20696762.766106412 0 20696762.766106412 1564916.1051493138 0 0 0 0 4612724.7354431152 28906522.998861074 0 28906522.998861074 7650557.0737724304 0 0 0 0 10679204.937072754 29762061.510719299 0 29762061.510719299 7716030.5727624893 0 0 0 0 -29089374.657711387 35966023.856614411 0 35966023.856614411 498020.07776072389 0 0 0 0 25646282.600517273 18188412.693696976 0 18188412.693696976 1882226.8876399994 0 0 0 0 -4254843.1984373629 21917888.794615783 0 21917888.794615783 -4892249.1321241139 0 0 0 0 -20955652.809591979 24281916.193283163 0 24281916.193283163 -1152270.2782509346 0 0 0 0 -6196572.661485672 20610724.51390934 0 20610724.51390934 -3091203.3757734299 0 0 0 0 1050139.5926513672 132805944.94760942 0 132805944.94760942 91760978.206988454 0 0 0 0 -1799732.8919219971 21704945.176235437 0 21704945.176235437 3515952.9989150763 0 0 0 0 9826215.0328505635 19759963.666078761 0 19759963.666078761 305259.61981697381 0 0 0 0 -4612894.0242519379 18986640.583325982 0 18986640.583325982 1926149.2928166389 0 0 0 0 -2307391.9182484746 7227038.0910670385 0 7227038.0910670385 -266255.8929027908 0 0 0 0 -28225624.441894531 131056894.51717377 0 131056894.51717377 220310462.20794749 0 0 0 0 -55659766.560630798 159710460.66691864 0 159710460.66691864 505115305.45243454 0 0 0 0 35400116.410751343 418327506.84199905 0 418327506.84199905 -589912564.31499577 0 0 0 0 60714800.902893066 472902034.19887114 0 472902034.19887114 -487051388.59718704 0 0 0 0 2185059.6652946472 329998644.11938167 0 329998644.11938167 -508355069.04662704 0 0 0 0 -95325456.936508179 292210801.97316551 0 292210801.97316551 -521967411.85438728 0 0 0 0 8524076.935664922 22627775.442774147 0 22627775.442774147 1986751.2047945326 0 0 0 0 -83440104.867965698 359408346.13374519 0 359408346.13374519 -502844884.39888 0 0 0 0 -99428430.332397461 354869187.66171837 0 354869187.66171837 -301571484.19611073 0 0 0 0 243946542.53887939 159153668.28085804 0 159153668.28085804 -432411853.65555191 0 0 0 0 2806009.1755010784 1525338.5254977196 0 1525338.5254977196 -279695.93996521458 0 0 0 0 -3011776.6772918701 265272358.89068985 0 265272358.89068985 -222837200.94908714 0 0 0 0 -428558411.48478699 437046682.17556667 0 437046682.17556667 -255669494.35243797 0 0 0 0 -97550938.462409973 601299037.42733383 0 601299037.42733383 -400010468.61646271 0 0 0 0 -451947258.23817444 763242067.3888731 0 763242067.3888731 -443986120.00408936 0 0 0 0 -144381805.11989212 113490533.1223352 0 113490533.1223352 -254903243.24343872 0 0 0 0 -19368247.736156464 180948517.19675684 0 180948517.19675684 -224633260.408638 0 0 0 0 -94663046.836044312 27534736.56907177 0 27534736.56907177 32449498.416360855 0 0 0 0 22054631.076383799 24948736.187368747 0 24948736.187368747 -6086631.0174389835 0 0 0 0 -226284890.38374329 176085358.12751961 0 176085358.12751961 -36309870.052402496 0 0 0 0 369710330.93926239 619560379.87024498 0 619560379.87024498 -532635372.14996338 0 0 0 0 -37943107.901218414 67730857.692617416 0 67730857.692617416 15182237.714291215 0 0 0 0 -7029782.9157307744 25291494.131651774 0 25291494.131651774 4814213.2261393862 0 0 0 0 -20802183.698654175 44015275.66256237 0 44015275.66256237 5654146.9959011078 0 0 0 0 18484624.88269034 35408793.498385951 0 35408793.498385951 1140606.3674021624 0 0 0 0 15751336.692510374 32522482.633347377 0 32522482.633347377 2632225.4567731805 0 0 0 0 -24698322.587137222 30095228.988526583 0 30095228.988526583 -37349120.526492119 0 0 0 0 -483870958.53541565 601422704.22862649 0 601422704.22862649 -285686562.97787666 0 0 0 0 -610900640.85562134 566294735.01443768 0 566294735.01443768 -295164113.48675871 0 0 0 0 -574302861.08115387 348220628.40713024 0 348220628.40713024 215615909.64506721 0 0 0 0 -592091606.83055115 160375618.43777561 0 160375618.43777561 -219119592.1342907 0 0 0 0 -482571703.07186508 657229137.29713202 0 657229137.29713202 -519683936.65684891 0 0 0 0 149796971.22611237 774098552.56143665 0 774098552.56143665 -703641326.02387047 0 0 0 0 -2079100.3949790001 5203781.1543523222 0 5203781.1543523222 -4925244.8083588108 0 0 0 0 851782054.73350525 490449292.0998311 0 490449292.0998311 -602373076.53803873 0 0 0 0 -771584101.73444748 698460483.79590178 0 698460483.79590178 -34505196.086245537 0 0 0 0 108400126.75852203 322533085.14917374 0 322533085.14917374 332224407.0841856 0 0 0 0 528055463.66144562 -18733934.873751163 0 -18733934.873751163 -87122146.368710518 0 0 0 0 430842087.71113586 310349263.984622 0 310349263.984622 -562425518.77037573 0 0 0 0 155273316.70311832 319565559.46898222 0 319565559.46898222 -371117291.60702324 0 0 0 0 -57260931.722694397 147926466.42426014 0 147926466.42426014 -173864704.86073589 0 0 0 0 -82283729.911468506 55159934.793444633 0 55159934.793444633 -14424537.955697536 0 0 0 0 1613397.1610355228 4600996.6180195101 0 4600996.6180195101 -2879137.6976841353 0 0 0 0 16214562.917996466 4121701.5911136568 0 4121701.5911136568 -4474604.0327066034 0 0 0 0 13904963.052185059 6302040.0773992538 0 6302040.0773992538 -19979068.84736824 0 0 0 0 14657573.080726624 7734479.850435257 0 7734479.850435257 -17450551.308986664 0 0 0 0 13897844.574407578 1921438.9263472557 0 1921438.9263472557 -22165050.017408371 0 0 0 0 15038535.655323029 4059943.5124306679 0 4059943.5124306679 -10473778.777481079 0 0 0 0 16224226.135608792 -422826.18133822177 0 -422826.18133822177 -6874419.3233332215 0 0 0 0 13971513.274543762 1215607.6020174026 0 1215607.6020174026 -15498685.202587366 0 0 0 0 11326107.328468323 1370319.6917495728 0 1370319.6917495728 -19873936.194654465 0 0 0 0 16652791.839818716 2026856.3244651044 0 2026856.3244651044 -7333708.7912736554 0 0 0 0 10948064.904953003 6391641.0328865051 0 6391641.0328865051 -19690823.237855911 0 0 0 0 9910507.0250205994 9706268.522424221 0 9706268.522424221 -30087802.615386963 0 0 0 0 11834699.984619141 -6405459.7217559814 0 -6405459.7217559814 -35428228.154546738 0 0 0 0 319989.02627293766 203876.02954640239 0 203876.02954640239 101785.37722603977 0 0 0 0 364004251.23321533 -38684384.590508938 0 -38684384.590508938 -198704182.12891436 0 0 0 0 7945941.5201148987 13265603.527127743 0 13265603.527127743 -28166749.426517487 0 0 0 0 6778694.5828704834 7600190.058016777 0 7600190.058016777 -28167072.530250549 0 0 0 0 15518131.427259237 -60657.295620366931 0 -60657.295620366931 -6397952.1824518386 0 0 0 0 7701109.1892778277 15485381.88326302 0 15485381.88326302 -3003508.8293983443 0 0 0 0 196948656.86585999 206239370.14954233 0 206239370.14954233 -6446816.276722908 0 0 0 0 -28389346.006271362 151571048.34261227 0 151571048.34261227 371938837.64129829 0 0 0 0 -61645773.517688751 149364823.90557504 0 149364823.90557504 -163022599.82797241 0 0 0 0 -70629535.0809021 240588753.38715553 0 240588753.38715553 -645008922.31651497 0 0 0 0 284263.48296242952 842140.79867384583 0 842140.79867384583 -233002.72373348195 0 0 0 0 -75129977.661453247 162758613.490839 0 162758613.490839 269315159.99415827 0 0 0 0 -46845756.07490921 99484901.542179108 0 99484901.542179108 -1099167857.8479815 0 0 0 0 -119982215.26574707 387808487.7381897 0 387808487.7381897 -791504893.5027771 0 0 0 0 -223992515.83252716 74021378.951172352 0 74021378.951172352 608708662.63389528 0 0 0 0 -132201951.32061768 354729329.25374603 0 354729329.25374603 -817719698.25912476 0 0 0 0 -1225488.5385749489 6096896.4086425751 0 6096896.4086425751 725498.6663998263 0 0 0 0 5574769.7303165495 6095150.2778275646 0 6095150.2778275646 -165398.81706249714 0 0 0 0 -148454167.5473938 -1379223.2758998871 0 -1379223.2758998871 427457651.72893906 0 0 0 0 -89816481.84526062 62780145.160026789 0 62780145.160026789 -619625363.06354523 0 0 0 0 -6155458.8243026733 280269582.17807388 0 280269582.17807388 -87283699.664672852 0 0 0 0 -18144253.593780518 66047588.897497177 0 66047588.897497177 104282414.6774826 0 0 0 0 9783218.4309310913 57868509.18001461 0 57868509.18001461 -23267680.662706375 0 0 0 0 20759575.439933777 106930062.67501831 0 106930062.67501831 -47448387.805791855 0 0 0 0 -27173521.743896484 72680520.762269974 0 72680520.762269974 -44637581.045558214 0 0 0 0 -11951364.073246002 71440122.471269608 0 71440122.471269608 -98765475.016260147 0 0 0 0 -1773158.8684844971 38787163.245930672 0 38787163.245930672 -54365220.353298187 0 0 0 0 -22395965.918479919 159901109.72572708 0 159901109.72572708 -197200866.45947456 0 0 0 0 17361508.798530579 53744885.948335648 0 53744885.948335648 -111799929.35658646 0 0 0 0 -69741237.218955994 164383533.88972306 0 164383533.88972306 -141993376.80109024 0 0 0 0 12003875.534194946 69172696.508398056 0 69172696.508398056 -135466997.53688669 0 0 0 0 -7502140.2844619751 56781775.500201225 0 56781775.500201225 -77693173.168186188 0 0 0 0 27383495.372432709 -16999760.037640572 0 -16999760.037640572 -89362969.335144043 0 0 0 0 -15507363.173496246 -1705553.5167078972 0 -1705553.5167078972 34359254.854323387 0 0 0 0 177018389.20746613 86109544.958603859 0 86109544.958603859 188045506.58653164 0 0 0 0 -18039509.765175819 117862949.61360097 0 117862949.61360097 189080487.02781868 0 0 0 0 14262126.540445209 130083145.08517762 0 130083145.08517762 -275044066.48416519 0 0 0 0 -123799965.63514709 -96054623.922982216 0 -96054623.922982216 -92382296.424154282 0 0 0 0 42254115.464963913 205325970.70591474 0 205325970.70591474 112857085.02688217 0 0 0 0 -21273951.220460892 266450389.95491242 0 266450389.95491242 17634991.253091812 0 0 0 0 142769638.4287796 -33146256.762848854 0 -33146256.762848854 -395129486.17300987 0 0 0 0 338691269.07739258 621124529.85911083 0 621124529.85911083 527336616.49760675 0 0 0 0 430942413.33776855 429801867.89710283 0 429801867.89710283 300597319.60595036 0 0 0 0 165542523.55485487 373126293.73087281 0 373126293.73087281 551131952.13529968 0 0 0 0 194974536.36371613 123517067.46530724 0 123517067.46530724 111318024.20199108 0 0 0 0 43429285.854896545 15825576.655635834 0 15825576.655635834 -18330514.0595541 0 0 0 0 41172382.300170898 38857215.672388077 0 38857215.672388077 -10409870.264061928 0 0 0 0 15617698.557533264 3584327.8412666321 0 3584327.8412666321 -8373551.9356784821 0 0 0 0 475337611.79187775 267006772.46040344 0 267006772.46040344 451153622.56075096 0 0 0 0 9836362.9378936738 8662679.1309478804 0 8662679.1309478804 -11125532.605837308 0 0 0 0 605665617.73774719 486160246.56693649 0 486160246.56693649 362764628.07322693 0 0 0 0 308276249.16321564 377884733.25703907 0 377884733.25703907 475033560.71133804 0 0 0 0 518792765.47549438 557592037.21817207 0 557592037.21817207 628388532.54119873 0 0 0 0 718175.22999379039 281219.46370341629 0 281219.46370341629 -911902.63425829913 0 0 0 0 671737703.28705788 157162004.17559838 0 157162004.17559838 497669443.67717361 0 0 0 0 -75910372.746528625 195407075.65525246 0 195407075.65525246 108920834.98349953 0 0 0 0 441140813.59211731 645961779.14109612 0 645961779.14109612 221177920.50756073 0 0 0 0 312288268.3102417 141403885.11445045 0 141403885.11445045 97248530.731056213 0 0 0 0 500529680.36430931 549742215.6097827 0 549742215.6097827 285398191.61671066 0 0 0 0 167220519.06310272 112877758.11676598 0 112877758.11676598 39144936.975252151 0 0 0 0 174341711.53304291 221316352.7121582 0 221316352.7121582 138969536.27017593 0 0 0 0 149701174.79811096 165129011.09322929 0 165129011.09322929 176591160.32681274 0 0 0 0 193311545.47637177 187755152.81993294 0 187755152.81993294 62595517.718662262 0 0 0 0 60265441.147609711 55138098.4111166 0 55138098.4111166 13141211.902553558 0 0 0 0 24055415.686460495 42161814.637607336 0 42161814.637607336 25947044.669719696 0 0 0 0 21611146.853652954 20796310.321363449 0 20796310.321363449 20001498.673956394 0 0 0 0 33642242.687309265 19367741.340209961 0 19367741.340209961 -13365559.982147217 0 0 0 0 -25679977.732215881 47099494.413755417 0 47099494.413755417 9996034.1534080505 0 0 0 0 28388725.665874481 14768355.682252884 0 14768355.682252884 2756383.8851222992 0 0 0 0 13437007.474013388 12460101.591881633 0 12460101.591881633 -10354346.254846901 0 0 0 0 25440108.397102356 31188477.489859581 0 31188477.489859581 -287389.30547714233 0 0 0 0 1144724.0368770957 1118997.8647550642 0 1118997.8647550642 1130184.8983405493 0 0 0 0 -10170405.993724078 10041279.158186816 0 10041279.158186816 5906118.5991171449 0 0 0 0 32237023.282414913 36458487.900880694 0 36458487.900880694 16262484.236997604 0 0 0 0 55592320.107521057 65058361.384013176 0 65058361.384013176 108226319.20441437 0 0 0 0 18339902.468148768 13359120.761402369 0 13359120.761402369 -10808265.608778823 0 0 0 0 119643395.76105499 19428679.709856033 0 19428679.709856033 -182864032.11105919 0 0 0 0 109858500.98496246 136025639.15884686 0 136025639.15884686 -77033102.586521149 0 0 0 0 168033497.19369507 159581211.76486206 0 159581211.76486206 -116633489.63301086 0 0 0 0 151772555.57983398 151982928.81286812 0 151982928.81286812 -315739419.61837769 0 0 0 0 143653017.82202148 -9331576.6661968231 0 -9331576.6661968231 -155546866.06549072 0 0 0 0 96468605.492397308 234125672.40348244 0 234125672.40348244 169456252.18383026 0 0 0 0 187408740.80635071 232779016.69997597 0 232779016.69997597 54855590.760885239 0 0 0 0 172544154.5496521 194908366.56455231 0 194908366.56455231 144523211.71035767 0 0 0 0 -41062364.501911163 83681720.141125679 0 83681720.141125679 100743302.0726738 0 0 0 0 312574519.31798553 361998247.98295593 0 361998247.98295593 308689703.92350769 0 0 0 0 284210356.86987305 375719020.6464119 0 375719020.6464119 305217201.48744965 0 0 0 0 165966725.3349762 296905619.19823837 0 296905619.19823837 255089087.14678383 0 0 0 0 237644951.56251144 272845917.85608006 0 272845917.85608006 263094568.93550491 0 0 0 0 164642742.17501831 223528368.98937559 0 223528368.98937559 479685812.45647049 0 0 0 0 168444162.61884308 331145295.55541611 0 331145295.55541611 284626934.80171967 0 0 0 0 401393774.753479 548228176.40687943 0 548228176.40687943 335985096.9973259 0 0 0 0 90161336.701065063 556655603.6845789 0 556655603.6845789 710378951.70980835 0 0 0 0 176367767.07279968 264287078.55165482 0 264287078.55165482 137731421.60227013 0 0 0 0 83876957.377784729 331385973.05378914 0 331385973.05378914 397777029.31412125 0 0 0 0 96239564.338867188 499035612.47524261 0 499035612.47524261 431900540.54214144 0 0 0 0 237322399.09012604 533213605.21886444 0 533213605.21886444 218782710.95168447 0 0 0 0 117183233.99090385 280508830.41573095 0 280508830.41573095 187864778.08641815 0 0 0 0 101414277.46515656 355959329.37613869 0 355959329.37613869 84062298.699729919 0 0 0 0 3728391.1795287281 420053.72786611319 0 420053.72786611319 -568148.81116398424 0 0 0 0 -66855394.145278931 196021552.42200089 0 196021552.42200089 7311646.7694091797 0 0 0 0 14904196.665478706 5860547.6320312619 0 5860547.6320312619 -10683809.636159897 0 0 0 0 20709256.974365801 8134913.2947129048 0 8134913.2947129048 -9742778.2213077471 0 0 0 0 1665336.5600460619 -1922601.1601579264 0 -1922601.1601579264 -1980178.9287060108 0 0 0 0 -97493162.819496155 -27919252.591436386 0 -27919252.591436386 -20899563.558765411 0 0 0 0 129448112.61523056 191719465.02895069 0 191719465.02895069 -212050457.52140808 0 0 0 0 453781620.86574936 347569517.28279901 0 347569517.28279901 219365256.12327385 0 0 0 0 517071287.13801575 246112859.83355141 0 246112859.83355141 107022882.57999432 0 0 0 0 330251684.27999878 272458539.89678383 0 272458539.89678383 167626627.30214119 0 0 0 0 510363724.58706093 397064216.20819402 0 397064216.20819402 241495141.78309631 0 0 0 0 342518516.34865952 180060530.1903584 0 180060530.1903584 108347767.20091629 0 0 0 0 11914959.807881862 2362335.8436500393 0 2362335.8436500393 -7009779.1723830402 0 0 0 0 9264195.0755767822 4727328.4490070343 0 4727328.4490070343 -18659635.811220169 0 0 0 0 10683329.432247162 996134.92166137695 0 996134.92166137695 -17958912.429300308 0 0 0 0 3033981.6977386475 7205072.6912765503 0 7205072.6912765503 -18936572.725552559 0 0 0 0 19629644.532274913 1734509.205200389 0 1734509.205200389 -8433065.810841918 0 0 0 0 16983232.798778534 3642748.4920959473 0 3642748.4920959473 -14362551.929032326 0 0 0 0 16204602.993595123 1034911.4430823326 0 1034911.4430823326 -19704716.261577606 0 0 0 0 14041513.304229736 -2032384.8935031891 0 -2032384.8935031891 1029568.9991674423 0 0 0 0 37016123.808862686 6911908.4421159029 0 6911908.4421159029 -26697194.681867599 0 0 0 0 7828598.0482288133 1427506.4566935375 0 1427506.4566935375 -2446157.3283008672 0 0 0 0 2353229.4529526271 222584.39618732035 0 222584.39618732035 -736738.96460388601 0 0 0 0 -14022301.922855377 64511463.359854221 0 64511463.359854221 -61692991.486724854 0 0 0 0 -17051308.012786865 54718160.773339272 0 54718160.773339272 -27835246.375252724 0 0 0 0 -14820763.47530365 25728289.32937336 0 25728289.32937336 -8663396.9429244995 0 0 0 0 23651731.425552368 74452772.215233803 0 74452772.215233803 -84434705.582595825 0 0 0 0 -4662413.164188385 72090765.113777161 0 72090765.113777161 -82987868.128225327 0 0 0 0 7312969.5265579224 36370516.110355377 0 36370516.110355377 -55517500.632317543 0 0 0 0 -1614763.3002548218 56249265.142127991 0 56249265.142127991 -97488270.530964851 0 0 0 0 13813101.46960777 6827579.7989050839 0 6827579.7989050839 -6271911.0517285699 0 0 0 0 11971977.462291718 -173060.12080287933 0 -173060.12080287933 -36952584.010242462 0 0 0 0 -3719162.0388641357 20803984.617585659 0 20803984.617585659 -17496476.252514839 0 0 0 0 5125366.3260650635 3558600.0955047607 0 3558600.0955047607 -17175198.565648079 0 0 0 0 -5389199.8665542603 8173664.4354019165 0 8173664.4354019165 -17040023.396286964 0 0 0 0 8237070.4280450791 5277199.7104628803 0 5277199.7104628803 -3807012.2977367174 0 0 0 0 -18346934.838809967 -16565359.234965801 0 -16565359.234965801 -31463917.536493301 0 0 0 0 34460747.157478333 8075982.7531661987 0 8075982.7531661987 -26922250.122149467 0 0 0 0 59081706.398109436 -26799116.799872398 0 -26799116.799872398 -83143459.915205002 0 0 0 0 -26347626.733596802 64206667.385585785 0 64206667.385585785 -215325646.74160767 0 0 0 0 5209136.0190411508 2246989.6640596166 0 2246989.6640596166 -3321256.8779002801 0 0 0 0 198214078.81499481 16311932.785943985 0 16311932.785943985 -99853339.435539246 0 0 0 0 -22786119.759487152 150976383.2347331 0 150976383.2347331 -228816496.64771318 0 0 0 0 -27133276.289974213 108035216.3386178 0 108035216.3386178 -335379241.41178703 0 0 0 0 -142363521.25843811 -25583497.655661583 0 -25583497.655661583 -283770078.32079887 0 0 0 0 -53066535.59513855 86916121.953708172 0 86916121.953708172 -188281044.80860138 0 0 0 0 6691849.2367935181 67563638.736985207 0 67563638.736985207 -231685474.48252296 0 0 0 0 27327780.913817406 24544798.857903004 0 24544798.857903004 -145378609.69454765 0 0 0 0 10100436.268241882 115005278.38140392 0 115005278.38140392 -198676383.2228775 0 0 0 0 -25869282.645765305 136759193.56543779 0 136759193.56543779 -83877379.95018959 0 0 0 0 -23659115.367641449 151487073.24678421 0 151487073.24678421 -132154890.84330654 0 0 0 0 -67912653.533664703 180302322.62577629 0 180302322.62577629 -80746361.753837585 0 0 0 0 -64526888.110221863 199491608.5350771 0 199491608.5350771 -112646880.30669308 0 0 0 0 -20563454.569235802 155300278.41140342 0 155300278.41140342 -95012415.272429466 0 0 0 0 -69402123.263027191 148136204.67798615 0 148136204.67798615 -24729593.209522247 0 0 0 0 -41200652.996332169 194707769.36458611 0 194707769.36458611 -96046323.580699921 0 0 0 0 -111867173.64494705 241396220.83937216 0 241396220.83937216 -120546137.26886463 0 0 0 0 244751386.01429367 49318331.684906483 0 49318331.684906483 -156516836.05590963 0 0 0 0 -190088706.57646561 80351564.647140503 0 80351564.647140503 60797952.537485123 0 0 0 0 -202964562.72097111 166322971.91298038 0 166322971.91298038 153589.00760650635 0 0 0 0 739062.68506886065 1828146.9789811894 0 1828146.9789811894 -3906327.3790948913 0 0 0 0 62024411.116828918 -84069770.452955246 0 -84069770.452955246 48639040.728506744 0 0 0 0 -46684172.174285889 33914143.998481989 0 33914143.998481989 -79023743.479204178 0 0 0 0 -33871989.300070763 68132930.096119881 0 68132930.096119881 -31361342.087738037 0 0 0 0 -29380025.451488495 82862711.675368309 0 82862711.675368309 -67938779.777271748 0 0 0 0 -29699296.174537659 120902625.25664043 0 120902625.25664043 -116768566.12202692 0 0 0 0 147150861.87835693 137733883.17417336 0 137733883.17417336 -62238886.503965855 0 0 0 0 135483072.13717175 162322366.25894356 0 162322366.25894356 5006860.8576126099 0 0 0 0 303593275.60704041 141160729.15956497 0 141160729.15956497 -81459955.74838829 0 0 0 0 -30395436.868495941 83644786.795824051 0 83644786.795824051 -4433464.6465220451 0 0 0 0 -23596244.451450348 132207115.16342354 0 132207115.16342354 -25756098.806615829 0 0 0 0 160844583.5364418 94255636.715078354 0 94255636.715078354 -44841776.541268349 0 0 0 0 -236391472.01821136 176876386.3096242 0 176876386.3096242 34270939.699926376 0 0 0 0 -155322595.01720524 -33835962.984549999 0 -33835962.984549999 24249021.377542496 0 0 0 0 432455934.28330994 210829988.97577214 0 210829988.97577214 -62754709.441356659 0 0 0 0 173568537.18678379 64897595.750431061 0 64897595.750431061 -55451166.393110275 0 0 0 0 301951144.19794083 123436708.58125019 0 123436708.58125019 83993241.646648884 0 0 0 0 10283671.332510713 8688045.1421382278 0 8688045.1421382278 6143477.9365035221 0 0 0 0 284748257.30005646 212316978.66957092 0 212316978.66957092 32340284.413785934 0 0 0 0 97768076.675678253 60871046.87671423 0 60871046.87671423 -16164011.773914337 0 0 0 0 -522.00102996826172 32009659.136427879 0 32009659.136427879 26531902.382652283 0 0 0 0 2904829.9509845115 3117148.4012058601 0 3117148.4012058601 1450431.6809098832 0 0 0 0 -58861151.311323166 196549224.7327342 0 196549224.7327342 -306254134.55081558 0 0 0 0 -189810665.04551697 181644939.97475243 0 181644939.97475243 -44101041.141473532 0 0 0 0 550408153.81620789 139864432.41463709 0 139864432.41463709 -212174151.54170322 0 0 0 0 329861301.55109406 263737824.35414445 0 263737824.35414445 10728990.706480026 0 0 0 0 293840483.85665035 401799544.67338598 0 401799544.67338598 -414375524.5626297 0 0 0 0 337791137.31199646 137128903.13965416 0 137128903.13965416 -752093739.2436409 0 0 0 0 179005215.70567322 -83381564.807607651 0 -83381564.807607651 -802508702.46716309 0 0 0 0 -73695240.667694092 103174825.50627899 0 103174825.50627899 -312520710.92831957 0 0 0 0 38739687.394714355 500282867.26288033 0 500282867.26288033 1000093982.9849787 0 0 0 0 2830899.4759942144 2193357.4835168319 0 2193357.4835168319 -1243838.6126050726 0 0 0 0 120205422.31735229 325108536.59598064 0 325108536.59598064 879185043.74763107 0 0 0 0 187581250.93141365 363396301.15283346 0 363396301.15283346 404132545.97402954 0 0 0 0 161906055.47476196 345583762.70056534 0 345583762.70056534 874407506.87901402 0 0 0 0 396790943.3828125 198709475.71258163 0 198709475.71258163 473262136.87177849 0 0 0 0 406892967.87222099 452265057.64986849 0 452265057.64986849 239725138.87184143 0 0 0 0 168569077.99456787 136999843.99239492 0 136999843.99239492 32062251.945077896 0 0 0 0 169400482.86819458 617057428.87883377 0 617057428.87883377 792009604.17697334 0 0 0 0 95068427.251876831 203992666.63894796 0 203992666.63894796 1063256.8757095337 0 0 0 0 -9772427.8397102356 128201277.10520458 0 128201277.10520458 46692767.356887341 0 0 0 0 100241703.05666351 185790641.31145954 0 185790641.31145954 98939935.039689064 0 0 0 0 106722680.78901052 160580854.54482663 0 160580854.54482663 23429521.925004959 0 0 0 0 -9991695.3650817871 124642086.72144222 0 124642086.72144222 42331396.724007607 0 0 0 0 -23787937.237815857 146097503.31092501 0 146097503.31092501 38016222.77182579 0 0 0 0 -54465943.497467041 110030077.04199409 0 110030077.04199409 30850998.67226696 0 0 0 0 -81070055.904777527 121714076.33695984 0 121714076.33695984 50315639.698083878 0 0 0 0 -117176303.40322304 163146887.55978203 0 163146887.55978203 6664899.2372207642 0 0 0 0 -8713616.4881668091 134429168.00734425 0 134429168.00734425 9877380.2208023071 0 0 0 0 -4797224.0148429871 112983383.39723873 0 112983383.39723873 -36634782.452894211 0 0 0 0 -94377268.358501434 213757704.17649937 0 213757704.17649937 -149931795.01120567 0 0 0 0 123606624.30587006 173205533.38068962 0 173205533.38068962 -349826633.13729858 0 0 0 0 -12578772.757785797 151887441.61106396 0 151887441.61106396 -10945668.747395992 0 0 0 0 758024.80510675907 2439252.7453486566 0 2439252.7453486566 159175.6510743238 0 0 0 0 67209144.260391235 279102518.38451195 0 279102518.38451195 504194786.59734821 0 0 0 0 156513522.72064829 317226218.58461618 0 317226218.58461618 211048062.31371689 0 0 0 0 142614923.83646393 232578270.47338009 0 232578270.47338009 4549640.7374782562 0 0 0 0 11850900.019615173 227987836.91043472 0 227987836.91043472 -80032996.750509262 0 0 0 0 -27477802.001541138 107263872.59144974 0 107263872.59144974 46366555.096120834 0 0 0 0 76629346.138114929 127238220.28599262 0 127238220.28599262 -132122439.03710938 0 0 0 0 158777198.41830444 178334563.02336121 0 178334563.02336121 -80475797.621593475 0 0 0 0 25053550.935386658 284631603.87806988 0 284631603.87806988 147387477.38805962 0 0 0 0 247777014.6636734 397215178.74198151 0 397215178.74198151 258333508.09195328 0 0 0 0 275680940.25288773 254910649.38378203 0 254910649.38378203 137213307.96242142 0 0 0 0 111015946.49781036 227499553.57696915 0 227499553.57696915 419617355.06864095 0 0 0 0 179774464.11917114 229173315.06765842 0 229173315.06765842 -108671278.58273697 0 0 0 0 100983995.80832672 9064935.3519954681 0 9064935.3519954681 -133328145.57346439 0 0 0 0 223744728.20798492 280645217.68112326 0 280645217.68112326 23386053.009908676 0 0 0 0 18052261.649101257 67076202.132743835 0 67076202.132743835 132370367.26918888 0 0 0 0 58238576.861782074 -171115415.79843712 0 -171115415.79843712 -653099225.56158447 0 0 0 0 77213798.218926668 145761254.87839308 0 145761254.87839308 -270297158.05067062 0 0 0 0 1920110.6363591403 9290908.2603633385 0 9290908.2603633385 232426.33389713988 0 0 0 0 16706180.77230835 26826041.919021606 0 26826041.919021606 -538078864.70291364 0 0 0 0 134297928.02560425 -18060370.767911911 0 -18060370.767911911 -539527784.16882896 0 0 0 0 96613418.754478455 140663113.23031616 0 140663113.23031616 133972800.3732729 0 0 0 0 -178151241.19991302 111847482.64139938 0 111847482.64139938 -207528612.61576843 0 0 0 0 -13943731.443450928 -2359405.093460083 0 -2359405.093460083 -180757263.17718124 0 0 0 0 104095.71406067908 1048350.7553229183 0 1048350.7553229183 489726.81654214859 0 0 0 0 -134566813.90296173 -236660499.85376358 0 -236660499.85376358 -572316507.24382401 0 0 0 0 -1686745.7013931274 100924816.65143967 0 100924816.65143967 -155729896.56790161 0 0 0 0 23733068.002716064 215889975.5130806 0 215889975.5130806 -507104609.8192091 0 0 0 0 84735313.600875854 42181788.430925369 0 42181788.430925369 -198712325.43476486 0 0 0 0 -39344014.362167358 298962343.95494843 0 298962343.95494843 -152035631.57416916 0 0 0 0 70402870.033719063 150596493.07309079 0 150596493.07309079 154020876.58223343 0 0 0 0 79065786.942070007 138658585.24562836 0 138658585.24562836 170249676.24677658 0 0 0 0 138687303.77748871 174357201.61996841 0 174357201.61996841 143837705.36458778 0 0 0 0 108071096.11262894 193969880.26203632 0 193969880.26203632 188736875.9958477 0 0 0 0 100920595.75712585 134872511.25030327 0 134872511.25030327 140761414.70496368 0 0 0 0 69146810.073701859 160888175.31774569 0 160888175.31774569 224242512.08707237 0 0 0 0 148449681.61016464 214084760.21898937 0 214084760.21898937 189030197.40659332 0 0 0 0 157625245.91913223 221693417.43910885 0 221693417.43910885 199849553.40200043 0 0 0 0 165047785.8735199 225880378.1687851 0 225880378.1687851 175884745.88894653 0 0 0 0 138408455.41940689 205665303.4458909 0 205665303.4458909 197285938.05078506 0 0 0 0 177137214.31620026 195609475.24368668 0 195609475.24368668 136029966.57444763 0 0 0 0 101039588.8520546 162734181.77633095 0 162734181.77633095 159821158.81544113 0 0 0 0 -1981113.1155738831 146066360.58152866 0 146066360.58152866 257883561.30311537 0 0 0 0 -2350306.6165008545 150485884.36507702 0 150485884.36507702 205068078.85910797 0 0 0 0 1348159.7953033447 70607011.443222046 0 70607011.443222046 241281234.28926086 0 0 0 0 39534634.178733826 88602049.543859482 0 88602049.543859482 122607901.74645996 0 0 0 0 39287814.574707031 142445024.31383514 0 142445024.31383514 63013386.194484711 0 0 0 0 -2593378.8654823303 124397088.56969357 0 124397088.56969357 161669690.67419434 0 0 0 0 9340830.2963466644 98303667.015012264 0 98303667.015012264 163397784.35547638 0 0 0 0 26184136.016586304 167014973.01944542 0 167014973.01944542 228328951.14382339 0 0 0 0 134495506.52475929 224631265.98072577 0 224631265.98072577 208653701.4066124 0 0 0 0 42640149.679859161 137394379.83016109 0 137394379.83016109 206186831.88957405 0 0 0 0 -12980751.434196636 7258289.175542295 0 7258289.175542295 8914667.9040485993 0 0 0 0 173694279.20906067 331220741.52078342 0 331220741.52078342 160183129.06222153 0 0 0 0 187073988.68304062 253543950.52392197 0 253543950.52392197 200340966.10832119 0 0 0 0 -36986383.670095384 50413912.162963882 0 50413912.162963882 -27305046.348052274 0 0 0 0 -157996469.18357849 43267295.630674362 0 43267295.630674362 140101657.86983681 0 0 0 0 -58008930.051269531 401673707.97806549 0 401673707.97806549 409545943.76894903 0 0 0 0 141479724.48969841 474910147.60249996 0 474910147.60249996 418286399.34060287 0 0 0 0 -45896510.872235015 53713324.596473336 0 53713324.596473336 -21938381.37019828 0 0 0 0 28538352.354955673 322665819.02461624 0 322665819.02461624 551267875.22444916 0 0 0 0 179243303.90881157 282300715.43366194 0 282300715.43366194 98867216.975746155 0 0 0 0 -2844816.8139953613 120394962.67956924 0 120394962.67956924 332535759.38650322 0 0 0 0 -9667118.396692276 459226569.26202393 0 459226569.26202393 -3291087.6204338074 0 0 0 0 180180279.84639227 260783364.77678537 0 260783364.77678537 -133450229.7113266 0 0 0 0 230203059.67485571 237766565.62485695 0 237766565.62485695 68347801.712661743 0 0 0 0 228943090.07472229 239698311.44360733 0 239698311.44360733 93266886.453094482 0 0 0 0 175695102.67782784 271842950.11863899 0 271842950.11863899 77612219.463935852 0 0 0 0 263503451.62411618 269111029.4845624 0 269111029.4845624 55665227.184516907 0 0 0 0 276777711.09787083 214784792.07661724 0 214784792.07661724 79671332.044700623 0 0 0 0 26995179.61833024 83189494.297734737 0 83189494.297734737 -7263079.1380004883 0 0 0 0 111557028.64843845 221726889.5551796 0 221726889.5551796 217120547.88055038 0 0 0 0 148813236.28784752 156092420.47495031 0 156092420.47495031 305627445.16129875 0 0 0 0 208354918.59354019 192774883.29678345 0 192774883.29678345 199503656.4396677 0 0 0 0 99427614.069572449 4611269.936457634 0 4611269.936457634 -14040929.096097946 0 0 0 0 -29047716.660727631 33871540.236072131 0 33871540.236072131 -23553217.082554981 0 0 0 0 171694521.44392395 231991930.21253395 0 231991930.21253395 203194235.63343525 0 0 0 0 10500768.497978672 14999993.873343375 0 14999993.873343375 -16763442.610080674 0 0 0 0 400260097.6746521 267571390.97396278 0 267571390.97396278 101613761.09275818 0 0 0 0 -386924781.76797867 59055514.259233475 0 59055514.259233475 251871487.00320244 0 0 0 0 -792203617.30997467 136195682.02353859 0 136195682.02353859 237389102.55339527 0 0 0 0 439689411.72750092 -19101193.363702774 0 -19101193.363702774 25118241.137310028 0 0 0 0 -398693805.85798836 112981021.08684254 0 112981021.08684254 4870922.4906654358 0 0 0 0 -1298986223.9027834 -673719138.70595837 0 -673719138.70595837 387357365.4300766 0 0 0 0 602816111.59385681 174210105.75982571 0 174210105.75982571 -16930223.876132965 0 0 0 0 544846981.70084381 247894159.49147034 0 247894159.49147034 -95606489.946606636 0 0 0 0 -351139090.38924789 577333029.92504311 0 577333029.92504311 -56423171.441001892 0 0 0 0 -18003370.963761717 24531885.45283895 0 24531885.45283895 -25980748.397973254 0 0 0 0 -473735720.34899902 541338804.23075676 0 541338804.23075676 -811661690.48983002 0 0 0 0 433829001.71129227 327356422.13399315 0 327356422.13399315 151712447.26147461 0 0 0 0 378815592.01023483 309578279.95660019 0 309578279.95660019 180566016.39604568 0 0 0 0 426337391.25600052 356399953.37953568 0 356399953.37953568 271944385.95019531 0 0 0 0 341264648.41863775 475161353.06999636 0 475161353.06999636 358718218.01371765 0 0 0 0 591832131.38061905 533002616.29260254 0 533002616.29260254 338782279.41030884 0 0 0 0 760486755.39965439 447921463.52360535 0 447921463.52360535 169856588.95901489 0 0 0 0 656612582.93966675 393596812.25483704 0 393596812.25483704 205792323.18975449 0 0 0 0 -1362761823.4026451 -445656312.94234085 0 -445656312.94234085 -25904069.071678162 0 0 0 0 -3435390.213165924 5172076.5684233233 0 5172076.5684233233 -6691766.8543023467 0 0 0 0 -11615920.235588633 16074284.824442133 0 16074284.824442133 -17434720.451463133 0 0 0 0 770629648.93965936 545982414.24165297 0 545982414.24165297 294512440.025177 0 0 0 0 -48881036.669079304 334979608.31168056 0 334979608.31168056 494918504.82632065 0 0 0 0 -27023569.831377983 275201050.14769936 0 275201050.14769936 351521810.82086945 0 0 0 0 185328698.32622528 298170531.40572929 0 298170531.40572929 256547484.49647713 0 0 0 0 196228316.2350626 314728361.98136139 0 314728361.98136139 238566808.06460571 0 0 0 0 369992444.19171977 395760094.95608902 0 395760094.95608902 276243409.56187439 0 0 0 0 -4451381.5287628174 372462245.99575615 0 372462245.99575615 441966101.44807243 0 0 0 0 138831648.77554274 383196196.13182282 0 383196196.13182282 420157622.70121765 0 0 0 0 143774112.32327461 371933873.70803452 0 371933873.70803452 327531762.87414551 0 0 0 0 -14664731.438020229 382348657.55243206 0 382348657.55243206 454457037.66038132 0 0 0 0 -168279449.73497295 404504808.86479378 0 404504808.86479378 452259490.29246902 0 0 0 0 -193787024.95497513 488735167.55008173 0 488735167.55008173 210641110.89011383 0 0 0 0 4740637.899230957 404806071.0136776 0 404806071.0136776 231121049.66151047 0 0 0 0 -13936775.993069649 430071762.39980125 0 430071762.39980125 404373441.6864996 0 0 0 0 212372993.08286619 594508276.47175598 0 594508276.47175598 222540379.63870239 0 0 0 0 146408274.199543 512541033.65534782 0 512541033.65534782 370262448.59601212 0 0 0 0 258364580.83679962 402205725.22604561 0 402205725.22604561 392740965.13032436 0 0 0 0 377722750.43631744 555912831.0243969 0 555912831.0243969 418176029.33652115 0 0 0 0 590034807.01974869 463981080.55714035 0 463981080.55714035 322447525.45877075 0 0 0 0 551471930.30162811 479832308.18525696 0 479832308.18525696 320760323.4425087 0 0 0 0 634676781.6825161 562307382.56862259 0 562307382.56862259 415593962.05235291 0 0 0 0 725586603.43013 441923038.4246254 0 441923038.4246254 447929525.29293823 0 0 0 0 899424535.03236389 341499047.64388657 0 341499047.64388657 420222390.18769836 0 0 0 0 850747722.42470551 486806351.47262573 0 486806351.47262573 342904263.92074776 0 0 0 0 552313602.42203903 544522614.44361687 0 544522614.44361687 421688761.83697891 0 0 0 0 1354855262.0349617 530354735.43495178 0 530354735.43495178 184825226.66291428 0 0 0 0 1338152183.6077275 981070478.64253438 0 981070478.64253438 149603974.0892601 0 0 0 0 831575772.95354462 670077436.13409805 0 670077436.13409805 219056186.0452652 0 0 0 0 866327650.81967926 564869248.60048962 0 564869248.60048962 252466625.54904938 0 0 0 0 543892050.03316307 584285680.97172546 0 584285680.97172546 293542668.60583115 0 0 0 0 803478580.54496765 728341192.88538742 0 728341192.88538742 301302706.51651764 0 0 0 0 768614716.51467133 715566216.49422264 0 715566216.49422264 224839940.29791641 0 0 0 0 499768578.75397873 620267456.82558823 0 620267456.82558823 239496551.92034101 0 0 0 0 839316557.5830183 1060973616.2350831 0 1060973616.2350831 363831844.21328354 0 0 0 0 363360980.18624926 470221010.3070879 0 470221010.3070879 70787348.000364304 0 0 0 0 287928640.73616028 472920787.62669373 0 472920787.62669373 372984527.96873283 0 0 0 0 579863961.34589195 554096143.3009882 0 554096143.3009882 210758325.88826752 0 0 0 0 317835300.21841049 497873464.41884422 0 497873464.41884422 250630332.45810509 0 0 0 0 400617907.68247414 475250524.36338949 0 475250524.36338949 25203889.843032837 0 0 0 0 119914809.34415627 358355110.10377789 0 358355110.10377789 123723384.36061478 0 0 0 0 349626130.37402725 454631183.71195221 0 454631183.71195221 173913560.51221597 0 0 0 0 358702690.03463817 527702850.22322381 0 527702850.22322381 412173637.76488876 0 0 0 0 594875414.09646988 804624563.99108696 0 804624563.99108696 360314167.23950958 0 0 0 0 538858960.99375153 619966920.4637661 0 619966920.4637661 162199990.86839676 0 0 0 0 238468961.2527523 284028011.16702509 0 284028011.16702509 -328799974.04596519 0 0 0 0 209954724.76610565 267160170.99423361 0 267160170.99423361 173503444.88209724 0 0 0 0 37719691.375899315 537080979.7136097 0 537080979.7136097 -547734782.77813148 0 0 0 0 49701647.98134613 5132782.980682373 0 5132782.980682373 -306129435.62042212 0 0 0 0 -608201607.17962122 357291969.18098354 0 357291969.18098354 175576175.87756348 0 0 0 0 49292524.518327713 405586181.80058289 0 405586181.80058289 111346289.24317169 0 0 0 0 -10025633.532880783 223057952.98717427 0 223057952.98717427 47172606.392435074 0 0 0 0 -3498683.4513311386 453612970.5669775 0 453612970.5669775 98577397.573059082 0 0 0 0 -118037338.34811401 417418542.09191132 0 417418542.09191132 195445741.80823994 0 0 0 0 -33379388.863601685 405584478.60252285 0 405584478.60252285 196861648.40890169 0 0 0 0 -33377078.716964722 405369392.12211132 0 405369392.12211132 180699878.28677893 0 0 0 0 117968542.18611908 380081484.81833076 0 380081484.81833076 156178662.09114647 0 0 0 0 116899165.21521378 353493658.0502342 0 353493658.0502342 131050981.35864639 0 0 0 0 1561889.2238998413 428798898.21634674 0 428798898.21634674 143797247.21686554 0 0 0 0 193750241.87398529 400512185.76467323 0 400512185.76467323 74515325.629619598 0 0 0 0 6160657.1667327881 505656883.40193844 0 505656883.40193844 70913777.179100037 0 0 0 0 180891792.90882492 376899899.9196167 0 376899899.9196167 103382828.09500504 0 0 0 0 267154669.51780319 454384707.5290637 0 454384707.5290637 86265718.091331482 0 0 0 0 336312164.61091614 306703713.18199921 0 306703713.18199921 92305697.846889496 0 0 0 0 359873759.55827332 348233676.60222054 0 348233676.60222054 43639931.559938431 0 0 0 0 211308039.69772339 392071429.65892792 0 392071429.65892792 41489864.709786892 0 0 0 0 -354321256.08306098 82521544.920450747 0 82521544.920450747 32518430.945419312 0 0 0 0 -71930979.25592804 428335017.12529755 0 428335017.12529755 39595353.374891281 0 0 0 0 -1192540512.9316254 121489809.8022337 0 121489809.8022337 360827096.43559265 0 0 0 0 -331852859.31404114 567085529.92279816 0 567085529.92279816 132172444.69967175 0 0 0 0 -67496100.341064453 390174299.44909191 0 390174299.44909191 116364964.50195312 0 0 0 0 1131451906.4255371 398057931.75810242 0 398057931.75810242 283353484.29275131 0 0 0 0 1555684.4555280656 2720606.2412654907 0 2720606.2412654907 -9847034.9582726508 0 0 0 0 588910658.78609848 317747832.18793201 0 317747832.18793201 490354668.32742119 0 0 0 0 367966696.80064392 264889392.07936001 0 264889392.07936001 413673607.60312033 0 0 0 0 511931858.43410492 481044914.81305122 0 481044914.81305122 288685736.25434494 0 0 0 0 942436654.84956169 591823682.23315144 0 591823682.23315144 266761519.99126053 0 0 0 0 747375105.2522049 156455426.82423115 0 156455426.82423115 14492882.298274994 0 0 0 0 170357685.79441833 671794264.87771988 0 671794264.87771988 322250923.44602585 0 0 0 0 -2368727.2375402451 11235995.422766499 0 11235995.422766499 -21449695.013113685 0 0 0 0 186049928.5751791 332978147.48830527 0 332978147.48830527 138518073.9078331 0 0 0 0 187441068.43059921 343691703.58009815 0 343691703.58009815 81559344.572002411 0 0 0 0 97877202.909545898 303635327.55228329 0 303635327.55228329 161598059.30022621 0 0 0 0 291276116.48801422 211214165.50360203 0 211214165.50360203 219121984.05080795 0 0 0 0 198014155.48774719 379730927.09285545 0 379730927.09285545 107118990.39093399 0 0 0 0 -2376812563.4044075 245197709.56678963 0 245197709.56678963 809502826.39720917 0 0 0 0 -955244899.45414352 -834905408.8638401 0 -834905408.8638401 -223380671.33127594 0 0 0 0 313188060.2225647 930849855.71839333 0 930849855.71839333 331977441.55587769 0 0 0 0 -664067147.43101883 -182336441.85186768 0 -182336441.85186768 -491160964.04693222 0 0 0 0 -3261611.2955124043 4880328.5279065911 0 4880328.5279065911 -6385323.5702667832 0 0 0 0 649746931.87396908 386998563.55441999 0 386998563.55441999 27902592.889255524 0 0 0 0 -6743024.8576350734 13294197.155735549 0 13294197.155735549 -18787088.714578062 0 0 0 0 581295633.11501312 206483826.42748547 0 206483826.42748547 43547470.339296341 0 0 0 0 192124304.36903381 387016484.45551205 0 387016484.45551205 66065933.750595093 0 0 0 0 299449671.90276337 266115601.99633026 0 266115601.99633026 141535783.65592146 0 0 0 0 400152051.84527588 363092172.30358791 0 363092172.30358791 30428892.180919647 0 0 0 0 400490172.47484589 277049227.78903961 0 277049227.78903961 45655190.020987988 0 0 0 0 351581229.77768707 346837740.41178513 0 346837740.41178513 -9169285.9650268555 0 0 0 0 238087805.34965515 290774025.600811 0 290774025.600811 39730951.734376431 0 0 0 0 119845574.03340149 362830259.59414101 0 362830259.59414101 32075028.956249237 0 0 0 0 218717159.33672333 356987027.34739113 0 356987027.34739113 -58713250.991176605 0 0 0 0 -62974436.356056213 424963764.98888969 0 424963764.98888969 59405761.127512932 0 0 0 0 119828157.55773163 397509073.56027603 0 397509073.56027603 -155093807.96995926 0 0 0 0 -7068421.6999664307 453847297.83042908 0 453847297.83042908 49835601.153102875 0 0 0 0 192268944.31890869 382813515.34619951 0 382813515.34619951 292042.07089233398 0 0 0 0 26715611.529249191 415384789.3574791 0 415384789.3574791 140346743.77888489 0 0 0 0 41132106.182945251 381521098.27010632 0 381521098.27010632 158016101.03046989 0 0 0 0 -148449436.67987442 412430778.21983528 0 412430778.21983528 179043741.62552452 0 0 0 0 71273998.616882324 341330353.80320263 0 341330353.80320263 194278676.0800209 0 0 0 0 -10429974.446922302 412736559.01350212 0 412736559.01350212 23744650.586956024 0 0 0 0 -56721010.340576172 384556076.75942039 0 384556076.75942039 32436603.054925442 0 0 0 0 -137696203.51622009 493314073.33910751 0 493314073.33910751 -104731509.8870163 0 0 0 0 -91402824.798751831 328589984.91773248 0 328589984.91773248 -292464343.69065094 0 0 0 0 -211914940.36778259 440824767.7243433 0 440824767.7243433 -456062053.53536224 0 0 0 0 -584053697.69599152 222011184.29574013 0 222011184.29574013 -261427456.43494034 0 0 0 0 31160275.425819397 204513677.74386406 0 204513677.74386406 -567690040.91421413 0 0 0 0 18350890.542022705 265505685.64634895 0 265505685.64634895 -325725688.04362869 0 0 0 0 118723270.49078369 261448304.7372551 0 261448304.7372551 -112167273.83384037 0 0 0 0 69882707.949258804 359251780.68055248 0 359251780.68055248 -292698975.27443314 0 0 0 0 252447786.19217682 297017693.07460022 0 297017693.07460022 -104216549.4242363 0 0 0 0 123384578.71781921 282962280.82620239 0 282962280.82620239 -37443144.516609669 0 0 0 0 143077088.13800049 122114046.69871044 0 122114046.69871044 -44067340.803726196 0 0 0 0 141770388.33375549 155205748.80207062 0 155205748.80207062 -162742430.77920151 0 0 0 0 65837175.484542847 86658945.840633392 0 86658945.840633392 -218845159.30460167 0 0 0 0 -17563613.342826843 -34060666.617265701 0 -34060666.617265701 -17402723.225205421 0 0 0 0 79518937.036964417 31673994.537791252 0 31673994.537791252 27105948.728788376 0 0 0 0 23852122.811705291 8764913.9918608814 0 8764913.9918608814 -8612618.8323741443 0 0 0 0 -21304069.781791687 -70343155.375400543 0 -70343155.375400543 -340466329.37681389 0 0 0 0 50760729.755729675 127635670.37337112 0 127635670.37337112 131558421.92517281 0 0 0 0 -218695382.53358459 86494666.4944067 0 86494666.4944067 -18954289.981300354 0 0 0 0 2644770.4817994982 10963677.461586501 0 10963677.461586501 -4367145.8077515252 0 0 0 0 2550389.2688933909 3247731.9457834736 0 3247731.9457834736 -4485065.5269147456 0 0 0 0 602951342.91648483 176740937.22432899 0 176740937.22432899 30287361.345649719 0 0 0 0 623116061.70702934 189387720.39099121 0 189387720.39099121 -23611508.607978821 0 0 0 0 573111249.71272278 197683064.23436928 0 197683064.23436928 119642736.50364304 0 0 0 0 503772005.42781067 311065329.50853539 0 311065329.50853539 161617861.00880432 0 0 0 0 644811679.65699768 245737771.06246567 0 245737771.06246567 958654.03238487244 0 0 0 0 520645583.68076324 271626775.32937336 0 271626775.32937336 20447122.890930176 0 0 0 0 283709993.04286194 212249916.75447083 0 212249916.75447083 52578667.102920532 0 0 0 0 408532964.23298264 315797169.32156467 0 315797169.32156467 11999773.122550964 0 0 0 0 501712718.67671967 340062857.26983261 0 340062857.26983261 14446260.186771393 0 0 0 0 471772447.84455109 236530675.49912167 0 236530675.49912167 57913234.581321716 0 0 0 0 280408633.81355286 235782713.13897514 0 235782713.13897514 19234662.112352848 0 0 0 0 257467667.56482697 235400712.80577374 0 235400712.80577374 60933347.659862518 0 0 0 0 51133867.728630066 24666828.111246109 0 24666828.111246109 102100498.01635885 0 0 0 0 166509352.58074951 247430250.7128315 0 247430250.7128315 314318720.18150902 0 0 0 0 536476026.71905136 398352276.70338249 0 398352276.70338249 134979917.56555557 0 0 0 0 553759182.15346527 609725189.25358772 0 609725189.25358772 574166676.37732697 0 0 0 0 660793433.16333771 246886429.74909592 0 246886429.74909592 -6485869.693031311 0 0 0 0 668769395.32722092 257997355.53986931 0 257997355.53986931 -1173294.5304260254 0 0 0 0 1034420635.8218918 198859265.96375656 0 198859265.96375656 -254061481.29849625 0 0 0 0 1014466001.5438995 476135810.16358185 0 476135810.16358185 4504060.2403914332 0 0 0 0 617170960.01570892 98452031.504495621 0 98452031.504495621 -24280974.878498077 0 0 0 0 736256869.36081314 199903916.95247078 0 199903916.95247078 -26939583.110351562 0 0 0 0 8386014.617515862 2790044.3684809469 0 2790044.3684809469 -2624800.3219913542 0 0 0 0 1589155.4855384678 3366700.7315221764 0 3366700.7315221764 -3166704.895701699 0 0 0 0 1280452974.0991058 -132941335.21268272 0 -132941335.21268272 -925583216.02807617 0 0 0 0 -382511844.2490387 430267926.64698029 0 430267926.64698029 -866921800.8171196 0 0 0 0 303995339.44380188 531412499.99582291 0 531412499.99582291 398267143.68180084 0 0 0 0 525340657.47819519 442504638.80722237 0 442504638.80722237 60852371.950935364 0 0 0 0 108754692.42962265 69912060.479963303 0 69912060.479963303 -37861412.187038422 0 0 0 0 359681065.70367622 83345733.858948708 0 83345733.858948708 -717314434.52296448 0 0 0 0 169638998.13020706 204184395.70251083 0 204184395.70251083 77878980.566924095 0 0 0 0 120292815.19378281 108049254.50368023 0 108049254.50368023 126997353.98743248 0 0 0 0 -11584057.615587801 12896038.32474551 0 12896038.32474551 -476237.15849975497 0 0 0 0 222393444.98622894 358958165.99713516 0 358958165.99713516 447517565.16406441 0 0 0 0 175422916.90913391 171159897.75635338 0 171159897.75635338 152050268.12639093 0 0 0 0 143843698.74784088 230817501.7010994 0 230817501.7010994 240070902.43349457 0 0 0 0 42759454.576000214 55104812.567150116 0 55104812.567150116 34985307.205821037 0 0 0 0 67962458.942523956 74500024.303474426 0 74500024.303474426 -50302075.754570007 0 0 0 0 52404337.957344055 80183402.435772896 0 80183402.435772896 15704006.783601761 0 0 0 0 -10312394.720148697 16656338.403053567 0 16656338.403053567 -7328363.414785549 0 0 0 0 104699041.50267792 60562770.52376461 0 60562770.52376461 -40392174.213409424 0 0 0 0 45444872.903745651 25725532.472146988 0 25725532.472146988 5876570.8766441345 0 0 0 0 30697740.193916321 34549744.623696327 0 34549744.623696327 24315676.952547073 0 0 0 0 30052838.120101929 40882639.309419632 0 40882639.309419632 6644256.1618766785 0 0 0 0 21642661.613672733 -8978867.4272562861 0 -8978867.4272562861 -69123338.068145752 0 0 0 0 3993874.7463170886 6844475.9153918996 0 6844475.9153918996 -7912523.8743818104 0 0 0 0 -10981368.990764618 50253654.528778076 0 50253654.528778076 7150659.5543937683 0 0 0 0 104167832.01688385 69110298.991140366 0 69110298.991140366 -11858198.002655983 0 0 0 0 361891744.26184845 520472941.32876444 0 520472941.32876444 301167739.69314194 0 0 0 0 25753567.64590168 -181180628.78643739 0 -181180628.78643739 -333484147.72821045 0 0 0 0 563274.81809130311 2604067.7846127674 0 2604067.7846127674 -2363848.2442908548 0 0 0 0 51199092.364894867 191479895.05263805 0 191479895.05263805 359199539.04598618 0 0 0 0 78066027.601837158 98281454.397063255 0 98281454.397063255 41360155.853416979 0 0 0 0 -3829674.2029037476 94452780.75525856 0 94452780.75525856 82036889.266846657 0 0 0 0 12205296.994453363 28667653.365176462 0 28667653.365176462 4392165.7233273834 0 0 0 0 167137049.74195862 250099371.8184247 0 250099371.8184247 -59353323.294399261 0 0 0 0 238639123.19453812 111655186.35519028 0 111655186.35519028 -12484639.153194427 0 0 0 0 429446553.79798889 120320508.54147625 0 120320508.54147625 -181436154.24658823 0 0 0 0 7524968.0119357631 20180521.967379004 0 20180521.967379004 1540718.9592709765 0 0 0 0 -1569157317.8263855 695000517.14289427 0 695000517.14289427 47020000.035160065 0 0 0 0 -1387518054.3727932 254433825.04050183 0 254433825.04050183 -136584827.82736969 0 0 0 0 2910714.3592629954 8970519.0300817639 0 8970519.0300817639 -4625012.2966915518 0 0 0 0 -1543536992.1636047 401718370.8667891 0 401718370.8667891 55445749.92061615 0 0 0 0 732286092.22949219 -254530652.50630093 0 -254530652.50630093 -109367462.79955292 0 0 0 0 979073902.38228607 -183208617.54308033 0 -183208617.54308033 -201288351.66377258 0 0 0 0 463481267.27357483 131258857.47189522 0 131258857.47189522 -152899403.30720139 0 0 0 0 441207473.84317017 69809787.868904114 0 69809787.868904114 -302572732.64463615 0 0 0 0 377883600.92654228 291878750.96586061 0 291878750.96586061 -473268643.35799408 0 0 0 0 40024434.871437073 520620728.24131966 0 520620728.24131966 -353865692.19421101 0 0 0 0 161732949.50611115 243346091.28554916 0 243346091.28554916 -238996712.09241676 0 0 0 0 166203463.66275787 338986247.51002884 0 338986247.51002884 -523328742.08250046 0 0 0 0 -451817178.12460327 111393704.81739235 0 111393704.81739235 -476016177.96376419 0 0 0 0 -178866600.26924133 415217203.85437775 0 415217203.85437775 -250827303.33584213 0 0 0 0 -92292235.856521606 362190726.24121475 0 362190726.24121475 -655564591.21356297 0 0 0 0 -87217617.270965576 415319664.37377739 0 415319664.37377739 -424014014.28050804 0 0 0 0 126027.96458438039 3441427.2432586718 0 3441427.2432586718 -1362982.5545187369 0 0 0 0 47316594.882949829 353069751.11565447 0 353069751.11565447 -843196748.10383415 0 0 0 0 -40039967.758460999 260741015.25850105 0 260741015.25850105 486287092.46964264 0 0 0 0 131050927.41433334 488393048.63517952 0 488393048.63517952 -736567189.82344055 0 0 0 0 -38053750.581420898 398433722.53336334 0 398433722.53336334 -632476673.57473564 0 0 0 0 190873716.9973526 404196079.10704803 0 404196079.10704803 -373696267.23190522 0 0 0 0 237402015.91381669 404352768.23200363 0 404352768.23200363 -432642356.22241974 0 0 0 0 104457821.56323242 292858985.18645668 0 292858985.18645668 -168569592.16307449 0 0 0 0 394162500.30840683 466428447.4027648 0 466428447.4027648 157966237.37662888 0 0 0 0 -4231137.3837900907 10079630.338282928 0 10079630.338282928 -8121513.7445218079 0 0 0 0 670582192.61076355 622886539.73837662 0 622886539.73837662 65876223.935468674 0 0 0 0 190004545.97167778 161776449.61320829 0 161776449.61320829 -31499117.205242157 0 0 0 0 121402212.09338379 169376355.20310783 0 169376355.20310783 259157951.31328177 0 0 0 0 -372809366.12026978 218277845.82997704 0 218277845.82997704 248033388.82811928 0 0 0 0 -364221281.10269165 475520320.55000496 0 475520320.55000496 -316267375.05508232 0 0 0 0 -959123194.71502686 381907747.46987057 0 381907747.46987057 150485787.49844265 0 0 0 0 -1176789713.3177986 776006344.23220372 0 776006344.23220372 -193938449.87913132 0 0 0 0 -1033372544.9541702 198921865.82666874 0 198921865.82666874 -89267676.131073713 0 0 0 0 -872035894.09724998 516827714.40015602 0 516827714.40015602 237684297.23039627 0 0 0 0 -579344178.66056824 81520244.838634491 0 81520244.838634491 39135199.584825516 0 0 0 0 -855240961.84307861 613382869.36565399 0 613382869.36565399 -189855334.99355125 0 0 0 0 -8114899.2625250425 2714841.4254467189 0 2714841.4254467189 4391474.4291472882 0 0 0 0 -14796222.84526062 90362798.81306839 0 90362798.81306839 -161578032.06285667 0 0 0 0 -18654624.295822144 22564511.42048645 0 22564511.42048645 8481679.6811103821 0 0 0 0 -4444051.9553871155 131562623.20861661 0 131562623.20861661 198415895.48812675 0 0 0 0 -2633207.180571638 -60089.409539416432 0 -60089.409539416432 1285913.0357487053 0 0 0 0 -375636471.78105927 192034981.12043858 0 192034981.12043858 -126883832.90136242 0 0 0 0 91549152.676979065 302774965.84183884 0 302774965.84183884 88420067.567171097 0 0 0 0 -35899156.803586006 119246126.62997329 0 119246126.62997329 388785644.77805519 0 0 0 0 4917723.3986968994 -8151698.4084854126 0 -8151698.4084854126 33267729.923636436 0 0 0 0 -9037040.4483146071 12508870.928171441 0 12508870.928171441 7191996.5949739236 0 0 0 0 -341367145.69136047 389345210.65143776 0 389345210.65143776 -380331989.28609562 0 0 0 0 347556679.05727386 249088964.64389038 0 249088964.64389038 157792395.68731117 0 0 0 0 597599602.32823181 309906119.34597969 0 309906119.34597969 189739618.75917244 0 0 0 0 -577270613.70302582 552200172.48648834 0 552200172.48648834 -112381212.3562088 0 0 0 0 -618289701.14812088 486980123.12004948 0 486980123.12004948 -138694029.70006752 0 0 0 0 -445741271.8589859 546789085.35934162 0 546789085.35934162 -460162224.23168564 0 0 0 0 -144578074.48762512 274200794.36448383 0 274200794.36448383 -221724179.97480392 0 0 0 0 -243017755.04371452 103739865.05652165 0 103739865.05652165 -6781889.6465969086 0 0 0 0 -14133414.803678185 16467565.909860596 0 16467565.909860596 11239207.723670907 0 0 0 0 -125540463.83712006 128817268.89286137 0 128817268.89286137 -145085465.51396942 0 0 0 0 -13404074.485836845 11749749.641049817 0 11749749.641049817 21091384.555316798 0 0 0 0 -14539542.226685762 53914929.810180441 0 53914929.810180441 77526531.744966507 0 0 0 0 -192396933.31790161 270927832.06409359 0 270927832.06409359 -289776047.42282772 0 0 0 0 -32095741.374488771 3815190.3461487889 0 3815190.3461487889 11329374.742671991 0 0 0 0 -399291387.19129944 99226689.847798347 0 99226689.847798347 10797312.077110291 0 0 0 0 -37207204.81476593 147260126.50952768 0 147260126.50952768 -115129248.03961182 0 0 0 0 -394942840.43360138 -70633917.08809185 0 -70633917.08809185 27847815.035603046 0 0 0 0 22045562.681702375 -7071959.9574037641 0 -7071959.9574037641 -8323061.3811244965 0 0 0 0 -338195301.99756622 68300057.609132767 0 68300057.609132767 87045308.105854988 0 0 0 0 -7604930.2989574159 10283453.563180581 0 10283453.563180581 13831886.874749333 0 0 0 0 -569196518.7107054 273394359.92361957 0 273394359.92361957 -96737248.100156784 0 0 0 0 -593645427.76880264 489863975.77750969 0 489863975.77750969 -153733910.05406284 0 0 0 0 -492606966.89373016 163453337.56917 0 163453337.56917 26732882.465176582 0 0 0 0 -919138676.37784195 282410207.25765276 0 282410207.25765276 -37003678.029771328 0 0 0 0 -902839693.03233337 581328142.13852978 0 581328142.13852978 -124843681.66566849 0 0 0 0 -668228267.84931183 452758096.06825638 0 452758096.06825638 -114528135.28815651 0 0 0 0 1471272518.5320587 170298731.60697365 0 170298731.60697365 66528439.448690414 0 0 0 0 867812743.40072632 237983531.50207901 0 237983531.50207901 125257738.39938354 0 0 0 0 27274500.945264816 217140963.33062458 0 217140963.33062458 166848368.32718468 0 0 0 0 332110734.68164825 185570300.65367889 0 185570300.65367889 138045018.77452612 0 0 0 0 301916187.58075333 160794550.09889221 0 160794550.09889221 -203374550.88201654 0 0 0 0 -181671191.72009087 341068883.69517326 0 341068883.69517326 95667080.471855164 0 0 0 0 2195944.3241596073 463961.68362876773 0 463961.68362876773 -3598374.4411482364 0 0 0 0 349664106.57907104 -24741087.446540356 0 -24741087.446540356 72229561.415061951 0 0 0 0 492180226.03259277 83194593.683097839 0 83194593.683097839 -308249877.38137913 0 0 0 0 522638000.15423584 191559900.03164864 0 191559900.03164864 66911681.261791229 0 0 0 0 345924524.70820999 -17158979.385661602 0 -17158979.385661602 182068113.70651245 0 0 0 0 815366600.87589264 -99528592.242261887 0 -99528592.242261887 -182929862.02004123 0 0 0 0 763716003.88456345 -55177197.867567062 0 -55177197.867567062 177203319.4366951 0 0 0 0 1012042791.2783213 -466662158.8179003 0 -466662158.8179003 200341218.39505768 0 0 0 0 -416637447.50380707 -441441682.45211601 0 -441441682.45211601 26356917.608308315 0 0 0 0 -1556638531.8760071 1127372695.4759879 0 1127372695.4759879 -743829963.72952652 0 0 0 0 -12322418.481538445 1057186.6367438883 0 1057186.6367438883 3298123.5858646808 0 0 0 0 -2442940709.2522659 130698775.64696598 0 130698775.64696598 153562431.28156662 0 0 0 0 -402595559.44416046 -20749746.809556961 0 -20749746.809556961 -18652983.00372982 0 0 0 0 -1754679416.9725571 44385974.006192207 0 44385974.006192207 103086690.27728653 0 0 0 0 1631513595.9051437 -325257043.84259987 0 -325257043.84259987 -11587050.543534279 0 0 0 0 -1403296943.7810402 768241836.4861927 0 768241836.4861927 -193993973.81753731 0 0 0 0 -1534702106.3345871 1083007418.4423847 0 1083007418.4423847 -946766583.08572102 0 0 0 0 574474.61326938868 1878699.2202939093 0 1878699.2202939093 -4073704.5439492241 0 0 0 0 -747180158.76568413 707772297.04901659 0 707772297.04901659 -392281188.17129135 0 0 0 0 356999417.20521545 -188822737.25858307 0 -188822737.25858307 315318300.12753898 0 0 0 0 -969999434.7935648 63272186.929830551 0 63272186.929830551 183839716.0797348 0 0 0 0 -586793245.82549524 316651115.8426435 0 316651115.8426435 173419145.59050751 0 0 0 0 -330659954.0986557 167009818.89741421 0 167009818.89741421 198491459.47210479 0 0 0 0 -570681570.98043823 424616887.17100954 0 424616887.17100954 335930267.78151423 0 0 0 0 451954948.28943503 323966754.76077777 0 323966754.76077777 80795133.474775314 0 0 0 0 910058.84682890773 1932579.9743925557 0 1932579.9743925557 -4569280.6008990258 0 0 0 0 451125657.25168228 187327533.08131695 0 187327533.08131695 116326050.86792374 0 0 0 0 443664850.02274323 198508481.72649956 0 198508481.72649956 102080529.61761093 0 0 0 0 424996431.89506912 209634436.07654476 0 209634436.07654476 95696830.367406845 0 0 0 0 415406563.69609833 180698910.99784946 0 180698910.99784946 173291515.43586349 0 0 0 0 388370592.51069641 211624188.8608017 0 211624188.8608017 138314772.57091713 0 0 0 0 3249299.4834317863 2415730.2146318182 0 2415730.2146318182 -8193985.6550713032 0 0 0 0 351671712.17233276 249760093.03544617 0 249760093.03544617 191507547.72553015 0 0 0 0 410496528.97553253 310324414.19716167 0 310324414.19716167 115859152.50255013 0 0 0 0 755202815.41227722 685293278.22382736 0 685293278.22382736 -281639646.41712952 0 0 0 0 263813016.40483093 276710394.61145592 0 276710394.61145592 154114478.95271969 0 0 0 0 65828639.012180328 324542196.08290768 0 324542196.08290768 148977060.01466179 0 0 0 0 308307510.23591614 305511803.15360069 0 305511803.15360069 122346225.35365677 0 0 0 0 351023570.43217468 244106376.11848831 0 244106376.11848831 144562220.18501282 0 0 0 0 289388550.27494812 298317636.39784241 0 298317636.39784241 115735248.55088043 0 0 0 0 296083380.08380127 301905485.13948059 0 301905485.13948059 105035767.66210938 0 0 0 0 396412050.77931213 264917630.0968914 0 264917630.0968914 87703117.831757545 0 0 0 0 389952603.0232029 233504983.13989913 0 233504983.13989913 106946294.89345551 0 0 0 0 435174469.9703064 224697252.69660568 0 224697252.69660568 106019082.98411655 0 0 0 0 371385293.95574951 236096331.83170319 0 236096331.83170319 113916696.29754829 0 0 0 0 324087052.46110153 287159503.13090515 0 287159503.13090515 99094088.730941772 0 0 0 0 454568317.35284424 271987644.84328461 0 271987644.84328461 86364270.68065834 0 0 0 0 501501357.80799866 302154131.67635345 0 302154131.67635345 122448624.78654099 0 0 0 0 426667717.09240723 260776835.45365143 0 260776835.45365143 223953325.01075363 0 0 0 0 486961843.42495728 237653300.58169365 0 237653300.58169365 132200021.39247894 0 0 0 0 400826038.93740082 237007761.55045128 0 237007761.55045128 132248764.86867523 0 0 0 0 474087180.26689911 183524265.01220036 0 183524265.01220036 311745649.17740631 0 0 0 0 402364870.54550934 252972490.49916744 0 252972490.49916744 261986164.15858459 0 0 0 0 604824108.12101746 270669066.91831779 0 270669066.91831779 223912605.67711642 0 0 0 0 546933979.15459442 219064759.50929737 0 219064759.50929737 529711971.85064507 0 0 0 0 409885465.94865417 345530151.63460732 0 345530151.63460732 419038676.50020981 0 0 0 0 389921860.96917343 245958185.49930525 0 245958185.49930525 316885425.18159533 0 0 0 0 -122477067.12462521 274905389.37204766 0 274905389.37204766 642453076.00720787 0 0 0 0 213900823.69670105 284175970.48190784 0 284175970.48190784 312667865.31381607 0 0 0 0 398210617.99859619 282102691.94597816 0 282102691.94597816 108389769.7975769 0 0 0 0 107815568.15201569 579687938.48717594 0 579687938.48717594 -23468855.905569553 0 0 0 0 -151450238.2785759 230967101.35280418 0 230967101.35280418 119297832.11016345 0 0 0 0 -446993851.77452469 353966217.69461203 0 353966217.69461203 547611655.31736374 0 0 0 0 -123572946.88909912 285595117.49718761 0 285595117.49718761 550634136.46165466 0 0 0 0 -86180431.813011169 256382080.42585421 0 256382080.42585421 523576037.00851345 0 0 0 0 -317984960.86641693 346637336.26813698 0 346637336.26813698 600172962.55701685 0 0 0 0 -361549302.15829468 284664482.12099099 0 284664482.12099099 517442443.07493305 0 0 0 0 -222244473.73711777 354115636.16831589 0 354115636.16831589 350972189.39932823 0 0 0 0 -250775630.5663681 346631887.04057693 0 346631887.04057693 526641244.57727116 0 0 0 0 299430377.76676178 252408049.48976636 0 252408049.48976636 161450387.95075607 0 0 0 0 324693041.01361847 304381960.98927021 0 304381960.98927021 252994799.78820419 0 0 0 0 1020179883.8036423 700722170.40881729 0 700722170.40881729 456714337.16854 0 0 0 0 1270082640.3117065 132411345.96333504 0 132411345.96333504 536238218.76459885 0 0 0 0 252599541.29553032 273170170.3560648 0 273170170.3560648 903442125.76469517 0 0 0 0 183069347.24866104 421213658.94076061 0 421213658.94076061 594297243.65750217 0 0 0 0 -1128931751.7999496 525863733.02605629 0 525863733.02605629 9070820.0872182846 0 0 0 0 -899021678.70426559 586658603.61611223 0 586658603.61611223 -83543907.120515823 0 0 0 0 -865461863.30508804 558957957.2943902 0 558957957.2943902 -126655359.71370125 0 0 0 0 -1091001923.803833 378824756.85576344 0 378824756.85576344 -72402819.630770683 0 0 0 0 -2037762.7431858866 2311353.9752304554 0 2311353.9752304554 4115754.5429683328 0 0 0 0 -1211796088.4120293 435901099.37811184 0 435901099.37811184 -37816401.286376953 0 0 0 0 -4813667.4053827813 7143663.289977476 0 7143663.289977476 9774667.7897767127 0 0 0 0 153109540.7730217 116327903.12540197 0 116327903.12540197 55509912.750566006 0 0 0 0 644515990.80570602 539899069.3589282 0 539899069.3589282 328069185.34570169 0 0 0 0 -169535214.09722805 186572001.93401814 0 186572001.93401814 175001416.85412598 0 0 0 0 -516620640.5598917 613832556.75824523 0 613832556.75824523 646959179.45343399 0 0 0 0 -668399369.47748566 397281493.84344006 0 397281493.84344006 386665430.78195 0 0 0 0 -682382705.42047882 816743242.49992037 0 816743242.49992037 290888127.76898909 0 0 0 0 -2010668048.8621621 384402022.50995541 0 384402022.50995541 329884638.69972038 0 0 0 0 -1264344107.1974564 701879464.42734718 0 701879464.42734718 464787811.81576157 0 0 0 0 -1098886606.4228287 705801560.47184896 0 705801560.47184896 272872648.01603699 0 0 0 0 -1131812821.4412003 726753809.13416576 0 726753809.13416576 108147708.17420387 0 0 0 0 -1137344661.2916794 569258081.90435791 0 569258081.90435791 300489010.9322834 0 0 0 0 -1255472720.218128 534393472.60167837 0 534393472.60167837 302966037.2434063 0 0 0 0 -940453994.52694702 639262614.75297642 0 639262614.75297642 77239116.225319862 0 0 0 0 -70699502.555381775 61440551.859586 0 61440551.859586 -95967720.285017014 0 0 0 0 -4743295.0302816853 10424485.755226001 0 10424485.755226001 -5532775.5350441597 0 0 0 0 -125326743.29889488 205498623.06002522 0 205498623.06002522 54336733.20863533 0 0 0 0 -1406398520.7352505 33613970.850813627 0 33613970.850813627 31275759.114122391 0 0 0 0 -1193984608.7778778 700564488.45636177 0 700564488.45636177 99518479.458610535 0 0 0 0 -1097492184.0971928 662994259.08520842 0 662994259.08520842 91274739.69839859 0 0 0 0 -1064969982.6594391 746984666.47500658 0 746984666.47500658 -146296527.15830803 0 0 0 0 -1039260925.1539841 837387567.24498749 0 837387567.24498749 83601362.743357897 0 0 0 0 -958979917.07892609 769184939.39453125 0 769184939.39453125 -143819348.29954243 0 0 0 0 -999998611.01879883 734737327.9674952 0 734737327.9674952 -54889618.189216614 0 0 0 0 -1046225709.6008453 923734448.58744621 0 923734448.58744621 -92972722.722625017 0 0 0 0 -845350939.96444321 892957373.99180794 0 892957373.99180794 103629747.24508667 0 0 0 0 -717274403.01463318 701559994.39670181 0 701559994.39670181 266446794.23812342 0 0 0 0 -845390307.55791318 561185118.31064951 0 561185118.31064951 120666904.11631775 0 0 0 0 -1075828395.6766357 824620645.88655663 0 824620645.88655663 19824191.456498623 0 0 0 0 -984927080.32657146 721490377.37525058 0 721490377.37525058 -180944224.89593124 0 0 0 0 -2091437673.4354553 1131793763.8873549 0 1131793763.8873549 -318317333.07730389 0 0 0 0 -24785254.318431005 6283427.259831246 0 6283427.259831246 7510475.1371991672 0 0 0 0 -596759874.49056625 1086701517.779222 0 1086701517.779222 -1656816294.1017704 0 0 0 0 -928514630.61677551 809725122.18273544 0 809725122.18273544 -540404644.10173416 0 0 0 0 -26782090.405875951 13804878.131078295 0 13804878.131078295 13286587.647420794 0 0 0 0 -26581340.001617432 16824687.015574455 0 16824687.015574455 -3022025.7170448303 0 0 0 0 -23028215.481074631 26353648.291313313 0 26353648.291313313 5276133.8159854189 0 0 0 0 -49221834.918348312 40577528.221094608 0 40577528.221094608 34958807.229118347 0 0 0 0 -331952297.80189896 374665729.43158102 0 374665729.43158102 -463667074.39742398 0 0 0 0 -30712253.232837677 39567202.806589127 0 39567202.806589127 26785567.557193756 0 0 0 0 -39656015.048519135 32431083.62938261 0 32431083.62938261 21438768.307830811 0 0 0 0 -44831201.038425446 53199106.033079147 0 53199106.033079147 10382894.545490265 0 0 0 0 -28312444.638308242 17445558.622959368 0 17445558.622959368 24315310.785083517 0 0 0 0 829232993.15807724 210180867.41717339 0 210180867.41717339 -162291862.79914379 0 0 0 0 836138880.95483017 249021311.53312969 0 249021311.53312969 16790891.345898628 0 0 0 0 426197468.63028908 98959728.188603878 0 98959728.188603878 -35831202.214596748 0 0 0 0 246598700.22860146 323196205.79462767 0 323196205.79462767 160637848.49495506 0 0 0 0 -718184492.20103705 302822363.89192355 0 302822363.89192355 359095506.51439285 0 0 0 0 -431348141.68787384 420199808.17620277 0 420199808.17620277 147398208.36017704 0 0 0 0 -1167247541.3167801 251807383.00411415 0 251807383.00411415 120309226.78397655 0 0 0 0 -452753235.98518372 233286432.45026302 0 233286432.45026302 45047025.768199563 0 0 0 0 -164657933.7071991 34217070.396285534 0 34217070.396285534 34611180.117034912 0 0 0 0 -450627440.2534008 184189936.47322679 0 184189936.47322679 -199840587.84872627 0 0 0 0 -1173140252.1122665 312337786.44159222 0 312337786.44159222 -144500711.87233734 0 0 0 0 -1623257999.2639256 -224113955.43430281 0 -224113955.43430281 -766972765.77994347 0 0 0 0 -833069972.06336212 717849618.67440128 0 717849618.67440128 -2034312596.515172 0 0 0 0 -288706423.22523451 222369648.13581061 0 222369648.13581061 -34923532.81681633 0 0 0 0 -823930162.3730545 570554048.31828213 0 570554048.31828213 -241893968.83112144 0 0 0 0 -276386865.87516785 262455315.8527813 0 262455315.8527813 -937301376.42256165 0 0 0 0 229056523.1945343 404567461.13953686 0 404567461.13953686 -422423163.55702591 0 0 0 0 417482108.67911148 22257040.505187988 0 22257040.505187988 255274654.85076141 0 0 0 0 372901755.16057587 124688028.01943302 0 124688028.01943302 -418156495.29556847 0 0 0 0 384374191.31761146 259149086.0208067 0 259149086.0208067 122309574.1221199 0 0 0 0 -579992.36924109608 36123516.85457053 0 36123516.85457053 -16371992.402445003 0 0 0 0 881448727.22194672 379713203.6412487 0 379713203.6412487 -182325047.69592285 0 0 0 0 961618305.60849762 686161543.18392849 0 686161543.18392849 376246536.74687958 0 0 0 0 65262607.106081009 53746951.707910538 0 53746951.707910538 -36715636.833303452 0 0 0 0 51339954.276809692 49452310.450125813 0 49452310.450125813 -23403548.270141602 0 0 0 0 55793444.501163483 29773280.925216675 0 29773280.925216675 -70029934.679786682 0 0 0 0 47074311.809318542 39488221.101428986 0 39488221.101428986 -44559012.570485115 0 0 0 0 57324618.344074249 37623356.528809547 0 37623356.528809547 -50021060.776287079 0 0 0 0 76667031.769264221 48654944.984161377 0 48654944.984161377 -56777065.972028732 0 0 0 0 61742911.837097168 66348825.015244484 0 66348825.015244484 -6142001.690990448 0 0 0 0 123334839.79537964 174476040.77335453 0 174476040.77335453 -29504034.607391357 0 0 0 0 10016825.600723267 73466164.721624374 0 73466164.721624374 -2269227.0254964828 0 0 0 0 -752292.08298141137 33912185.01541023 0 33912185.01541023 -24175342.523254044 0 0 0 0 -55670819.192752838 26657766.527828217 0 26657766.527828217 23830197.768463135 0 0 0 0 -2188688.4692998677 5894176.3217670247 0 5894176.3217670247 -1804523.5681415498 0 0 0 0 230534292.57127571 16623415.378381252 0 16623415.378381252 -48846036.61530304 0 0 0 0 124775690.30247498 212299401.54967976 0 212299401.54967976 -125617983.83452702 0 0 0 0 780380.74297873676 40666764.760211185 0 40666764.760211185 -25061383.118172273 0 0 0 0 -91289082.377773285 -29871659.162434578 0 -29871659.162434578 55131111.784000874 0 0 0 0 -18416545.867302388 60680395.561472103 0 60680395.561472103 33258252.424749557 0 0 0 0 -5744102.8543319702 166264051.02929974 0 166264051.02929974 -81707154.18249625 0 0 0 0 -163694353.22325897 92972678.960255623 0 92972678.960255623 52282334.631027222 0 0 0 0 -136945816.60501862 29688967.291856766 0 29688967.291856766 62234476.271343231 0 0 0 0 -145889383.51361084 108167191.06044102 0 108167191.06044102 1117800.8760261536 0 0 0 0 -70863874.597835541 95027255.469602585 0 95027255.469602585 11236163.093849182 0 0 0 0 -152225113.72423935 88186331.09435463 0 88186331.09435463 45497887.795619965 0 0 0 0 -166178812.55367279 56221502.65571022 0 56221502.65571022 19762835.12966013 0 0 0 0 6860091.117488645 4956213.879229039 0 4956213.879229039 -26530.996831558645 0 0 0 0 66974180.281053543 91365948.682998657 0 91365948.682998657 13564523.140808105 0 0 0 0 -30808992.014102552 67797864.394695371 0 67797864.394695371 7679076.5635921061 0 0 0 0 136086239.40650177 -54122049.172595024 0 -54122049.172595024 27362838.651359558 0 0 0 0 98404821.991735458 184783294.00477982 0 184783294.00477982 169202671.20663261 0 0 0 0 -244045035.28709412 356799954.55090332 0 356799954.55090332 6865533.0400738716 0 0 0 0 50067122.777453899 262586780.13655472 0 262586780.13655472 -50243280.451499939 0 0 0 0 -27184084.978843052 88018608.426024765 0 88018608.426024765 -27525416.079796061 0 0 0 0 -64362588.183698654 212951960.52923203 0 212951960.52923203 164709213.96484375 0 0 0 0 48237314.488840103 206487352.99274063 0 206487352.99274063 -17402767.03263855 0 0 0 0 55622091.550426483 40632631.109824181 0 40632631.109824181 -55277364.557235718 0 0 0 0 89695108.435462952 34213006.892467499 0 34213006.892467499 -105939639.45136261 0 0 0 0 -1475310.8924420476 25130326.108548328 0 25130326.108548328 -13069292.916369028 0 0 0 0 41216562.302897096 38166516.27773267 0 38166516.27773267 -41370028.660772435 0 0 0 0 25997828.894582748 39137213.904684067 0 39137213.904684067 -45294481.943809509 0 0 0 0 45706515.647743225 19301129.488121033 0 19301129.488121033 -70680567.891148567 0 0 0 0 30220419.037822455 54803495.228311419 0 54803495.228311419 -72028800.802057311 0 0 0 0 41150853.423072815 253808745.46891022 0 253808745.46891022 -198959320.18842316 0 0 0 0 -77040120.42735064 246575639.93698382 0 246575639.93698382 -61027288.2940979 0 0 0 0 -81144630.648780793 338570854.97960663 0 338570854.97960663 -149074744.32023621 0 0 0 0 114263794.16054821 147966718.54748535 0 147966718.54748535 -60617019.231378555 0 0 0 0 159296191.68377447 63584054.060653687 0 63584054.060653687 -200197782.59616089 0 0 0 0 147584518.28025019 73127153.030395508 0 73127153.030395508 -175249330.75627899 0 0 0 0 249321302.48052979 -73898786.829833984 0 -73898786.829833984 -434766870.82288313 0 0 0 0 78243094.991600037 247137468.91586304 0 247137468.91586304 -331568031.67349243 0 0 0 0 260006318.7142868 45860817.168304443 0 45860817.168304443 -374657934.36242676 0 0 0 0 -20243028.433820724 411775884.45676422 0 411775884.45676422 -502600832.59405518 0 0 0 0 -40405525.880805969 410770476.92883301 0 410770476.92883301 -496371801.42221069 0 0 0 0 256925590.93479156 105008656.33279419 0 105008656.33279419 -743431411.9715271 0 0 0 0 161851664.29730415 124948374.39526367 0 124948374.39526367 -426446903.23983765 0 0 0 0 -343416861.0280304 511188589.94638062 0 511188589.94638062 -407590442.76499939 0 0 0 0 95086021.110822678 -25740503.487850189 0 -25740503.487850189 -495475908.82442856 0 0 0 0 -363521040.46355367 239767778.60366607 0 239767778.60366607 -25188894.441864014 0 0 0 0 -4926275.3178078197 15473027.643595643 0 15473027.643595643 2761541.3108837008 0 0 0 0 -193283033.52297211 -606867702.23330688 0 -606867702.23330688 -718427141.92949677 0 0 0 0 170843879.89793205 303642446.91937256 0 303642446.91937256 -1177007134.4428101 0 0 0 0 -88518654.113098145 567670505.10328674 0 567670505.10328674 -890389001.80250549 0 0 0 0 -249295969.40141869 337136421.24513245 0 337136421.24513245 -104624663.00546265 0 0 0 0 74762825.303268433 -26807071.347011566 0 -26807071.347011566 -137553235.56090927 0 0 0 0 114686403.24464035 373404920.27212524 0 373404920.27212524 -767648510.48617554 0 0 0 0 142231547.15572548 222671229.43373108 0 222671229.43373108 -265990532.2353363 0 0 0 0 73516839.717018127 125294562.69019699 0 125294562.69019699 -104570363.36011505 0 0 0 0 110400833.07983017 138872742.71357727 0 138872742.71357727 -150173021.93190002 0 0 0 0 111355757.16529846 171965891.42279816 0 171965891.42279816 -346663019.60709381 0 0 0 0 44619393.779268265 79389112.52349472 0 79389112.52349472 -24501940.990795135 0 0 0 0 48009802.270154715 50647237.720277548 0 50647237.720277548 -43777122.938392639 0 0 0 0 83485417.826860428 86790179.464321136 0 86790179.464321136 -17590530.697841644 0 0 0 0 44369976.70535624 70607237.769041061 0 70607237.769041061 -1823445.0890350342 0 0 0 0 -7100039.4039014094 40151010.51343222 0 40151010.51343222 4125670.1420146227 0 0 0 0 138092344.61697388 45999227.530700684 0 45999227.530700684 7910241.9398193359 0 0 0 0 1762209.424737338 3062851.6671575755 0 3062851.6671575755 5492077.1343652606 0 0 0 0 -15309077.09797287 156687061.85097122 0 156687061.85097122 78622271.392364502 0 0 0 0 -90260583.511384964 46978293.688407898 0 46978293.688407898 129585938.33905029 0 0 0 0 -218527519.59384537 230091080.25243378 0 230091080.25243378 52485527.963500977 0 0 0 0 -195857340.89207602 80947844.349637032 0 80947844.349637032 125230935.02069092 0 0 0 0 105616422.91436005 232836747.80015564 0 232836747.80015564 -82658282.67011261 0 0 0 0 48792264.131802082 133829838.85384035 0 133829838.85384035 -31627008.217407227 0 0 0 0 99425702.010088444 149917337.01188421 0 149917337.01188421 -47203475.129600525 0 0 0 0 61289326.498306662 107093300.07713002 0 107093300.07713002 -14428101.836494744 0 0 0 0 50034012.673129082 142787856.5550673 0 142787856.5550673 -101457074.50675964 0 0 0 0 38992813.875467345 85008193.54928495 0 85008193.54928495 -20357968.160448208 0 0 0 0 131932866.73097992 222544918.11305428 0 222544918.11305428 44159250.807479858 0 0 0 0 54357032.260704041 95715075.593509674 0 95715075.593509674 -49384576.508476734 0 0 0 0 128068034.70553017 102792029.04346466 0 102792029.04346466 41941126.074836731 0 0 0 0 17138698.521336555 108242079.25149536 0 108242079.25149536 -5175925.434387207 0 0 0 0 60772187.949539185 179896769.19935608 0 179896769.19935608 22658656.126976013 0 0 0 0 -65581333.104452372 180201880.93433559 0 180201880.93433559 -43863044.734237671 0 0 0 0 -67716462.022342682 163052764.23815536 0 163052764.23815536 52601273.187278748 0 0 0 0 -60999358.851696968 76010974.093257904 0 76010974.093257904 -27005158.329704285 0 0 0 0 -199662107.62265015 -20868558.073825836 0 -20868558.073825836 268572416.69728136 0 0 0 0 -4734977.964247549 6603444.3649765421 0 6603444.3649765421 16339234.50083176 0 0 0 0 -28778765.324676577 75645015.736541271 0 75645015.736541271 -35857374.931519918 0 0 0 0 -79187060.684425354 80547810.918048859 0 80547810.918048859 42242704.927108765 0 0 0 0 123839307.95582008 147907315.84195518 0 147907315.84195518 19155409.338624954 0 0 0 0 -41774055.185162544 149490183.82770538 0 149490183.82770538 65320200.098236084 0 0 0 0 64806497.589661539 33002095.076554541 0 33002095.076554541 -62083268.525911205 0 0 0 0 103770106.68610573 69234882.83584404 0 69234882.83584404 -28681089.475318909 0 0 0 0 107651781.4686203 83147197.672492981 0 83147197.672492981 113711967.64661247 0 0 0 0 80673547.430015564 92645746.003713608 0 92645746.003713608 34250115.368076324 0 0 0 0 78265526.972931862 221410223.71624756 0 221410223.71624756 115060745.1807251 0 0 0 0 12057219.438591458 72932986.356048346 0 72932986.356048346 -48115369.585397445 0 0 0 0 43875840.25333786 65043580.438522339 0 65043580.438522339 8615674.1413650513 0 0 0 0 18370701.462154958 22014219.996374309 0 22014219.996374309 -5925063.827129975 0 0 0 0 107043187.103302 91234947.907997131 0 91234947.907997131 32981389.42666626 0 0 0 0 12305499.040385246 56195230.226736069 0 56195230.226736069 75897225.378067017 0 0 0 0 -14388553.297574075 47962785.924225397 0 47962785.924225397 27948093.491693944 0 0 0 0 5454721.6843566895 31581542.917945862 0 31581542.917945862 10587910.492446899 0 0 0 0 -21234768.593524266 81004205.928933039 0 81004205.928933039 -27543197.270850152 0 0 0 0 -10873794.174210945 65786202.404472664 0 65786202.404472664 -40363836.401255168 0 0 0 0 -4224943.8653065469 23050339.691814471 0 23050339.691814471 17924009.003811873 0 0 0 0 -3299866.0854377747 69126329.663215637 0 69126329.663215637 62630829.891090393 0 0 0 0 137144893.91986275 128043440.70985985 0 128043440.70985985 48393767.639972687 0 0 0 0 3853487.128315758 2011459.5655380152 0 2011459.5655380152 -5581230.5504243374 0 0 0 0 32756268.356596947 168412269.7961483 0 168412269.7961483 171266230.51746368 0 0 0 0 171232236.6983614 148826732.07092094 0 148826732.07092094 26105082.450057983 0 0 0 0 -17433309.738574982 26835739.0977211 0 26835739.0977211 27901610.954124451 0 0 0 0 -23879976.209064197 32896412.783192325 0 32896412.783192325 63208520.517935827 0 0 0 0 -9693723.1221222207 31722027.162833933 0 31722027.162833933 20140601.221908271 0 0 0 0 -8186410.3168785349 59129524.514516436 0 59129524.514516436 -30130171.985608343 0 0 0 0 88791102.127119064 98785406.957706451 0 98785406.957706451 40242139.24530983 0 0 0 0 88529480.135286331 100819058.88515663 0 100819058.88515663 24464851.070048332 0 0 0 0 -3407191.2658563852 126349388.91509078 0 126349388.91509078 -58629883.55145359 0 0 0 0 119158861.26431704 160168666.69239044 0 160168666.69239044 47385035.538944244 0 0 0 0 216238638.26345062 142229557.11095428 0 142229557.11095428 -15362636.099963188 0 0 0 0 104847922.12899017 88598214.778431535 0 88598214.778431535 -63347506.711783886 0 0 0 0 57630879.93671608 85903840.008621097 0 85903840.008621097 -36517320.63117218 0 0 0 0 203291474.92827892 75955012.290894508 0 75955012.290894508 109356846.11035156 0 0 0 0 150744907.30648232 168289895.59152126 0 168289895.59152126 30632068.319549561 0 0 0 0 189194746.34819031 113673299.06483746 0 113673299.06483746 51995762.528226376 0 0 0 0 170898604.52779949 144197700.50524366 0 144197700.50524366 38117744.735275269 0 0 0 0 1500951.6771702394 30308946.848186214 0 30308946.848186214 -37086650.425542176 0 0 0 0 136690653.23332977 60575031.401762962 0 60575031.401762962 -64960976.095727921 0 0 0 0 95622189.624120712 42012411.654785633 0 42012411.654785633 -49312847.552268505 0 0 0 0 123789745.92477417 53395617.417081833 0 53395617.417081833 11050555.279196739 0 0 0 0 172634253.82411194 101759563.30832201 0 101759563.30832201 -43346217.820839882 0 0 0 0 85065138.169811249 93816204.622337222 0 93816204.622337222 -43952461.889733315 0 0 0 0 -179571182.85550117 129889219.41446161 0 129889219.41446161 355607435.85731697 0 0 0 0 -52803111.770483315 70864641.958424419 0 70864641.958424419 -43895853.779170156 0 0 0 0 132465694.26227176 484193871.52987838 0 484193871.52987838 266214941.27837467 0 0 0 0 -12669106.837491989 143947137.08838415 0 143947137.08838415 96584706.994394302 0 0 0 0 -191599554.07634735 -23570276.289237976 0 -23570276.289237976 23368686.915955544 0 0 0 0 225834.87967666052 5189923.8651680946 0 5189923.8651680946 3752553.4160183296 0 0 0 0 309527636.74402547 241173499.21021414 0 241173499.21021414 -64517132.536184311 0 0 0 0 -439180918.12478733 -40132455.896050453 0 -40132455.896050453 175258331.33323669 0 0 0 0 -371896566.17564774 125789890.30678558 0 125789890.30678558 214302763.65788078 0 0 0 0 -164852060.30193228 200304611.37618327 0 200304611.37618327 151341595.5503521 0 0 0 0 -168270864.37797642 152607004.33099318 0 152607004.33099318 174249066.65522766 0 0 0 0 -193026261.18353152 65701216.852518559 0 65701216.852518559 61223646.485425949 0 0 0 0 -333940455.67985153 28118055.639051437 0 28118055.639051437 92036068.228776932 0 0 0 0 -203621999.88925457 -14737711.020281792 0 -14737711.020281792 -37159113.020233154 0 0 0 0 3255957.3981013559 14202671.185734089 0 14202671.185734089 -27024551.673893746 0 0 0 0 -131705761.59259987 62334722.923998833 0 62334722.923998833 44608708.629656792 0 0 0 0 -140920730.09810162 91955684.555961609 0 91955684.555961609 177925977.23752689 0 0 0 0 56209944.289942503 58106792.700156808 0 58106792.700156808 25093517.334341049 0 0 0 0 2625345.4786342196 3479274.4012802001 0 3479274.4012802001 -11301272.016252697 0 0 0 0 -759186942.60326433 -73316662.692831993 0 -73316662.692831993 11645274.961631775 0 0 0 0 172672752.15369415 69523019.863706112 0 69523019.863706112 105925651.84707889 0 0 0 0 156606736.45635605 115051625.8881979 0 115051625.8881979 14820605.753552437 0 0 0 0 39301570.219436646 9754731.7595243454 0 9754731.7595243454 43919036.062240601 0 0 0 0 62514374.612007141 95116961.123443127 0 95116961.123443127 7915160.6266269684 0 0 0 0 136187831.40674973 38106362.831128478 0 38106362.831128478 41612631.12818718 0 0 0 0 128357432.44887352 112480597.51509666 0 112480597.51509666 87040121.870922565 0 0 0 0 122203315.68760681 49390754.633595467 0 49390754.633595467 -1293179.922334671 0 0 0 0 318508439.29627609 246259665.93674755 0 246259665.93674755 40627085.964294434 0 0 0 0 317761842.99632967 363379730.01836121 0 363379730.01836121 249635874.56290436 0 0 0 0 151666754.03866386 89211529.909339905 0 89211529.909339905 106240424.91040993 0 0 0 0 256799786.92908478 174435346.56464481 0 174435346.56464481 104749345.11856712 0 0 0 0 233975593.31994247 138342110.21269035 0 138342110.21269035 245064173.08355331 0 0 0 0 546566218.78126907 419145206.74475908 0 419145206.74475908 250247447.79532814 0 0 0 0 279801244.80376434 275497750.35448551 0 275497750.35448551 390650160.04617691 0 0 0 0 368189324.58753586 214879728.62674093 0 214879728.62674093 161586864.22548676 0 0 0 0 210878897.03173828 135512221.22721958 0 135512221.22721958 164760199.87456822 0 0 0 0 169608593.38665771 309780571.20326281 0 309780571.20326281 207822872.46359444 0 0 0 0 398994934.86222839 310109392.0769372 0 310109392.0769372 192961327.42027092 0 0 0 0 299644144.65429688 224804403.06702042 0 224804403.06702042 68159078.086578369 0 0 0 0 182899178.25010681 159822249.71166706 0 159822249.71166706 35134675.692595005 0 0 0 0 241128037.06184769 158695038.47303414 0 158695038.47303414 44611641.501055717 0 0 0 0 -354961308.04652405 336483666.46396685 0 336483666.46396685 291938644.03049636 0 0 0 0 -91432768.986503601 180406956.17509604 0 180406956.17509604 28997347.566321373 0 0 0 0 65876095.317428589 240109526.63677883 0 240109526.63677883 161319594.75422192 0 0 0 0 109005537.04650116 317751059.38350153 0 317751059.38350153 122337623.48055077 0 0 0 0 152064640.46817017 473268819.70692253 0 473268819.70692253 371430786.90618992 0 0 0 0 -174067687.63916016 342070635.08016968 0 342070635.08016968 337109188.53294373 0 0 0 0 -712967002.54431152 400034238.46420002 0 400034238.46420002 614346495.15743923 0 0 0 0 -144528071.84567642 385227780.70579815 0 385227780.70579815 302943845.4343605 0 0 0 0 -142227342.61220551 779084134.05902958 0 779084134.05902958 858581500.39463425 0 0 0 0 -503689843.9957428 954736393.78509903 0 954736393.78509903 773333779.16739845 0 0 0 0 114451596.06415939 1084342105.9425526 0 1084342105.9425526 800417219.01860619 0 0 0 0 1324634979.3127832 1198872426.2986224 0 1198872426.2986224 425952485.89093781 0 0 0 0 721712998.58209991 542896747.69987488 0 542896747.69987488 328546203.46755028 0 0 0 0 136481025.68685913 479457927.54984665 0 479457927.54984665 415241894.30083084 0 0 0 0 465948089.21025658 564841092.84237814 0 564841092.84237814 560194970.98654938 0 0 0 0 -756169202.6630249 957916769.24673414 0 957916769.24673414 313944016.27145004 0 0 0 0 373888128.69012451 1043144666.3144855 0 1043144666.3144855 -170698841.56454849 0 0 0 0 8991236.0419235229 643712752.50107479 0 643712752.50107479 469434644.24963379 0 0 0 0 407484684.90077209 703917893.09720039 0 703917893.09720039 460386110.66869545 0 0 0 0 624074536.07545471 208881733.49513626 0 208881733.49513626 71050368.239480019 0 0 0 0 -459643817.43869019 1143283118.4371901 0 1143283118.4371901 1242938558.147644 0 0 0 0 433237978.21600342 422483098.94096756 0 422483098.94096756 185723246.7612915 0 0 0 0 351852969.02912903 328995510.76548862 0 328995510.76548862 124184486.28879929 0 0 0 0 -35603145.212303162 521500134.7709074 0 521500134.7709074 137645315.85224915 0 0 0 0 245535223.00663757 341287752.02805328 0 341287752.02805328 154849815.52397728 0 0 0 0 312410347.93743896 543925108.89762497 0 543925108.89762497 51668188.028499603 0 0 0 0 583737685.47003174 536642158.33010864 0 536642158.33010864 463594383.09454155 0 0 0 0 398778064.12387085 577494554.34882927 0 577494554.34882927 357914548.4618187 0 0 0 0 167995890.59211731 378447131.95945835 0 378447131.95945835 187665884.51911926 0 0 0 0 339899392.37727356 447712371.66682243 0 447712371.66682243 573407350.77176476 0 0 0 0 345330805.49021339 341707961.90966487 0 341707961.90966487 373866022.40143967 0 0 0 0 531332425.2591362 424126562.64119816 0 424126562.64119816 344041803.75186157 0 0 0 0 385240915.21295929 304327921.75591087 0 304327921.75591087 267940808.78982162 0 0 0 0 736334705.62911224 792096180.88997984 0 792096180.88997984 484824590.7822628 0 0 0 0 471819259.98080444 385018442.5359602 0 385018442.5359602 421664556.79342461 0 0 0 0 954377827.78900146 657828253.20963287 0 657828253.20963287 520125725.85005856 0 0 0 0 370489324.32623291 668020156.57507515 0 668020156.57507515 941593825.44987488 0 0 0 0 922601739.49436951 985309653.60698032 0 985309653.60698032 674481555.94004869 0 0 0 0 -1659902.4961133339 -460499.224974446 0 -460499.224974446 7866789.8759460263 0 0 0 0 1041617690.5282822 1455167334.3139963 0 1455167334.3139963 1076663694.2311888 0 0 0 0 -1414168004.4749451 1191936.7733845711 0 1191936.7733845711 679852948.57712936 0 0 0 0 -813243018.51959229 618205447.43809509 0 618205447.43809509 1183125823.2842276 0 0 0 0 191244229.55307007 604942291.11455059 0 604942291.11455059 1445660951.1693859 0 0 0 0 -602116605.35784149 -59855849.002840519 0 -59855849.002840519 -18892519.235508919 0 0 0 0 -11934793.623359181 8543782.2567036599 0 8543782.2567036599 26538075.997720107 0 0 0 0 -226420312.90296555 193089195.16651177 0 193089195.16651177 -40515678.426608086 0 0 0 0 -351215569.54464722 139638352.40557629 0 139638352.40557629 24978307.745741129 0 0 0 0 32582867.679450989 282368453.56193495 0 282368453.56193495 861755161.45544434 0 0 0 0 980466836.57178307 801739106.38444805 0 801739106.38444805 471636424.08696556 0 0 0 0 -4577667.7345659435 9442896.4738664404 0 9442896.4738664404 6518147.0393448956 0 0 0 0 1215641612.5916338 1396066.967952013 0 1396066.967952013 -42439359.848182678 0 0 0 0 567629289.07015991 -41183522.677705765 0 -41183522.677705765 41259476.571479797 0 0 0 0 -177527736.77215576 134446507.35928416 0 134446507.35928416 11803076.62165308 0 0 0 0 -30166079.105929732 43925665.368242458 0 43925665.368242458 42812674.475889102 0 0 0 0 -71189839.683643341 145299103.66713488 0 145299103.66713488 -41671194.253038168 0 0 0 0 -111841398.02385902 221793392.55697387 0 221793392.55697387 -5223276.5309460163 0 0 0 0 15196908.078754425 140072685.49757838 0 140072685.49757838 -79548311.185893655 0 0 0 0 18623308.307561874 146029471.59194493 0 146029471.59194493 -69331895.202007294 0 0 0 0 101509664.36465836 104641821.4501245 0 104641821.4501245 -56626938.542602599 0 0 0 0 53652001.188847542 191339280.63255885 0 191339280.63255885 -50902014.8944484 0 0 0 0 137260202.41067886 91044312.499987602 0 91044312.499987602 20014392.934403896 0 0 0 0 168717532.79898834 210450550.57569683 0 210450550.57569683 -1010323.9623003006 0 0 0 0 44532741.367038727 150070086.19568521 0 150070086.19568521 -25885775.379361212 0 0 0 0 -16346714.655895233 303724005.93105537 0 303724005.93105537 6782671.7590590119 0 0 0 0 -219640986.5789814 175013986.67752692 0 175013986.67752692 -97399.080041408539 0 0 0 0 -145277916.99038029 976342806.33263505 0 976342806.33263505 16599456.972208023 0 0 0 0 -554900.9362411499 835644086.09643078 0 835644086.09643078 -370916107.0859375 0 0 0 0 -1512684.399772644 1172348692.4052396 0 1172348692.4052396 -584799083.63768959 0 0 0 0 -101212869.92124939 797950449.44073868 0 797950449.44073868 -209187614.37802982 0 0 0 0 108117687.77792358 1070903792.0718637 0 1070903792.0718637 -25547097.82333374 0 0 0 0 -257772034.84267426 1002476680.9119158 0 1002476680.9119158 570160240.69508934 0 0 0 0 1037314.1055297852 1096242529.0409026 0 1096242529.0409026 898544087.15888214 0 0 0 0 -319633942.79632568 779203817.72310448 0 779203817.72310448 45093080.975119591 0 0 0 0 -155191546.28422928 646231576.30600023 0 646231576.30600023 77043801.416309357 0 0 0 0 99503913.07069397 664872679.82689667 0 664872679.82689667 -151620942.45150948 0 0 0 0 -154286621.97439575 618156465.69085884 0 618156465.69085884 -128514731.06023788 0 0 0 0 114964631.25371933 529978956.60259694 0 529978956.60259694 -253715434.67474365 0 0 0 0 292535868.18913269 549211219.53158855 0 549211219.53158855 -321775137.16804552 0 0 0 0 11853000.311279297 746727208.54968739 0 746727208.54968739 -222913017.41418457 0 0 0 0 195078649.16378021 110214570.92367268 0 110214570.92367268 -843162273.22785378 0 0 0 0 163044412.53277588 774474670.75974894 0 774474670.75974894 -710942595.35739326 0 0 0 0 222434865.493927 305984573.82252502 0 305984573.82252502 -205672507.11147738 0 0 0 0 514200234.94148254 762730502.96197367 0 762730502.96197367 -260986184.20756149 0 0 0 0 199073577.04351807 786438967.21418619 0 786438967.21418619 713395510.6902771 0 0 0 0 120261631.64612579 208027533.42411327 0 208027533.42411327 -169563202.75041008 0 0 0 0 387666685.09803772 385857771.58738422 0 385857771.58738422 -226612759.27461624 0 0 0 0 100921783.00772095 30200443.59472847 0 30200443.59472847 -436076811.08477187 0 0 0 0 270044689.99446487 312860962.61930275 0 312860962.61930275 -420245319.02434921 0 0 0 0 126617399.04875946 63889816.985639095 0 63889816.985639095 -518938006.84160614 0 0 0 0 104407905.87403107 58668163.82130909 0 58668163.82130909 -517312364.89157486 0 0 0 0 82994364.986984253 835131426.80770779 0 835131426.80770779 -373097657.254807 0 0 0 0 192929002.15587234 880826831.3829875 0 880826831.3829875 -1558987775.1060247 0 0 0 0 5743.7012126507407 51015640.134084836 0 51015640.134084836 31721274.474234581 0 0 0 0 -61740420.911880493 -474377869.86778355 0 -474377869.86778355 -2041860458.2098048 0 0 0 0 -2326835.2748021781 6132740.8025460467 0 6132740.8025460467 -4308445.6910835132 0 0 0 0 37269307.17313385 68882751.680265427 0 68882751.680265427 37890194.771821499 0 0 0 0 -55280246.604278564 -167359372.43416214 0 -167359372.43416214 -451792960.98793411 0 0 0 0 -9362985.7056808472 17210715.752667099 0 17210715.752667099 -10383300.27043823 0 0 0 0 37960389.87767601 35378110.506040663 0 35378110.506040663 7384035.8418464661 0 0 0 0 -5574418.2707672119 35401777.728702068 0 35401777.728702068 14314730.384668827 0 0 0 0 222611.06758880615 76582696.081584096 0 76582696.081584096 43188942.960618973 0 0 0 0 83132785.918411255 147975092.27793145 0 147975092.27793145 101432299.35852242 0 0 0 0 113117999.09031677 19050950.042790174 0 19050950.042790174 -11703818.970089436 0 0 0 0 -21350655.71572876 -8324713.9978255033 0 -8324713.9978255033 18006944.39528203 0 0 0 0 279809756.45685768 98963023.744741634 0 98963023.744741634 -99688512.975511551 0 0 0 0 3691332.6933712661 4212248.3576716483 0 4212248.3576716483 -2508010.6288445317 0 0 0 0 -1677137.0449676514 -33920540.328022264 0 -33920540.328022264 -283841979.58424628 0 0 0 0 1251996460.1591187 1141116349.7303481 0 1141116349.7303481 -129355288.80577904 0 0 0 0 326202338.65477753 353834483.38012397 0 353834483.38012397 122161730.51029366 0 0 0 0 149593.21221923828 265074540.85410166 0 265074540.85410166 730573801.80798864 0 0 0 0 -71190168.202270508 456867234.31229472 0 456867234.31229472 301313621.21037531 0 0 0 0 -32038366.12713623 122483894.3918768 0 122483894.3918768 -235868558.74290091 0 0 0 0 -39769638.462127686 72492298.603245571 0 72492298.603245571 -137435300.40246996 0 0 0 0 -151239050.81548309 111312556.55266683 0 111312556.55266683 -76720372.372247711 0 0 0 0 -28204514.053070068 -87728118.889915258 0 -87728118.889915258 -384812904.99520469 0 0 0 0 -44579233.077575684 7685726.6387434006 0 7685726.6387434006 -17789008.366889685 0 0 0 0 -55228234.035348892 71323820.913639963 0 71323820.913639963 -7801001.9768400192 0 0 0 0 6391038.9240063131 14555088.06322524 0 14555088.06322524 -4138903.2909336351 0 0 0 0 -23757136.9915905 104833961.22031023 0 104833961.22031023 -103938332.62490158 0 0 0 0 -78993780.681533813 10132782.297229901 0 10132782.297229901 38948639.904734939 0 0 0 0 -5692408.5663898289 1530858.4099358171 0 1530858.4099358171 7957886.1291291313 0 0 0 0 -8716896.968834877 50523423.717090607 0 50523423.717090607 -83674468.672893524 0 0 0 0 -14064589.85068208 28430043.337384485 0 28430043.337384485 15520243.651276488 0 0 0 0 -37037357.022171021 105888010.68120766 0 105888010.68120766 -141767454.71663857 0 0 0 0 -9368413.7344512939 23823683.522705078 0 23823683.522705078 -1138329.9440572858 0 0 0 0 -9459896.9116342068 37369677.265033215 0 37369677.265033215 -134251078.24369621 0 0 0 0 -16756969.423226833 29905965.938281268 0 29905965.938281268 -9847449.7121521793 0 0 0 0 29833606.979141235 -3661516.8338546753 0 -3661516.8338546753 -139223172.32696629 0 0 0 0 90653486.166191101 112149558.42887402 0 112149558.42887402 -148374860.93773651 0 0 0 0 54638640.619155884 39239674.133045197 0 39239674.133045197 -268622243.94565582 0 0 0 0 203620091.55314636 158168484.53069401 0 158168484.53069401 -284887906.60990334 0 0 0 0 118786947.05319214 209192487.31963539 0 209192487.31963539 -164340708.76841354 0 0 0 0 49941376.543075562 145608179.84179115 0 145608179.84179115 -175451446.736022 0 0 0 0 -233465387.69973755 225437162.88185883 0 225437162.88185883 -12466730.641742706 0 0 0 0 -275966949.42910767 189393134.76726151 0 189393134.76726151 -66563313.135536194 0 0 0 0 -5636877.8874667883 2937904.5436683893 0 2937904.5436683893 5333674.6311204284 0 0 0 0 72007610.48538208 238720222.07103157 0 238720222.07103157 -113150341.23273659 0 0 0 0 1320949251.4333649 293938772.71737003 0 293938772.71737003 -26111592.021469116 0 0 0 0 555690968.21994019 66788555.192667007 0 66788555.192667007 378724422.51038694 0 0 0 0 102541513.00106812 735178404.86966705 0 735178404.86966705 454170602.38026762 0 0 0 0 1056530.2775671184 5253515.8261164278 0 5253515.8261164278 -1550188.2212981731 0 0 0 0 -22540788.287002563 9955485.9703598022 0 9955485.9703598022 327677928.25642967 0 0 0 0 689017506.66837311 600795501.6070385 0 600795501.6070385 524389663.78807068 0 0 0 0 671248113.3780899 276934881.46453762 0 276934881.46453762 7437016.5122928619 0 0 0 0 5694028.0480308533 79293004.335870132 0 79293004.335870132 726805.95284602046 0 0 0 0 -6139946.3147324026 33583768.978369072 0 33583768.978369072 -27275634.710908547 0 0 0 0 -37218975.043167114 124807255.40622711 0 124807255.40622711 -54706057.643859386 0 0 0 0 -14999448.415543556 26623006.365609452 0 26623006.365609452 15891111.355039373 0 0 0 0 188787.00792503357 52349681.273687109 0 52349681.273687109 9882931.4704421759 0 0 0 0 -29516959.353515625 55785596.755887941 0 55785596.755887941 9668373.531706959 0 0 0 0 1444308.4589157104 61975497.643011734 0 61975497.643011734 -86989531.956451207 0 0 0 0 -56852136.870491028 85833764.334106654 0 85833764.334106654 -22705889.879892886 0 0 0 0 48735186.819957733 72004979.811930075 0 72004979.811930075 -27966645.552013546 0 0 0 0 8981246.1608886719 37867983.87955299 0 37867983.87955299 -22019087.988336489 0 0 0 0 -12780169.891921997 82646780.930538312 0 82646780.930538312 949750.93606412411 0 0 0 0 5109742.9698944092 16608903.796314031 0 16608903.796314031 -25280842.243286699 0 0 0 0 -27214288.455293655 16883438.442373488 0 16883438.442373488 -63977952.709031641 0 0 0 0 11215883.765571594 26068354.347365439 0 26068354.347365439 -85480727.878426254 0 0 0 0 539052946.04523468 554871986.94364643 0 554871986.94364643 455110476.61029911 0 0 0 0 455984798.22650909 667467486.29841089 0 667467486.29841089 413338363.24364376 0 0 0 0 -8976993.4066713154 27738042.531711459 0 27738042.531711459 -14995357.623020222 0 0 0 0 35063655.497070312 31741332.207894802 0 31741332.207894802 -37045772.586873621 0 0 0 0 -6964679.6231166273 29577782.128960237 0 29577782.128960237 -24644562.008438669 0 0 0 0 796255819.72735596 643687048.53394222 0 643687048.53394222 182046998.53636169 0 0 0 0 748777187.43065643 495318015.27857399 0 495318015.27857399 46155833.196481705 0 0 0 0 479131931.44836807 516088149.83090401 0 516088149.83090401 -78086562.682300568 0 0 0 0 568064239.85970306 377235950.02373028 0 377235950.02373028 138445969.5112009 0 0 0 0 770340648.66291809 448172190.65998363 0 448172190.65998363 186669877.09197769 0 0 0 0 628563780.21982384 580197012.02152896 0 580197012.02152896 92699520.76467514 0 0 0 0 441688854.35327148 340215729.19370222 0 340215729.19370222 246320457.24522018 0 0 0 0 537202243.69624329 319645400.35711861 0 319645400.35711861 57470209.100783825 0 0 0 0 366261857.97177887 96166170.979158998 0 96166170.979158998 -85786774.452404022 0 0 0 0 321755388.24941254 163168276.66289711 0 163168276.66289711 -184294876.226789 0 0 0 0 498313168.49771881 105472286.87765503 0 105472286.87765503 -187430827.29398918 0 0 0 0 333936295.2537384 618338087.697896 0 618338087.697896 571626181.59505939 0 0 0 0 367184904.33686066 -209479600.27159214 0 -209479600.27159214 -802911719.26865578 0 0 0 0 4595443.8732222915 2083930.6715241466 0 2083930.6715241466 -1197631.0643492416 0 0 0 0 68748982.748168945 31343082.594651699 0 31343082.594651699 -74918328.765907288 0 0 0 0 593518348.23550415 167883649.53117085 0 167883649.53117085 -139922572.21606445 0 0 0 0 1136150605.017437 637345856.51440144 0 637345856.51440144 -51748722.366170883 0 0 0 0 285975264.23323822 416524999.88763905 0 416524999.88763905 -105575443.17158127 0 0 0 0 280703196.91624451 556236246.63209534 0 556236246.63209534 -38147689.401611328 0 0 0 0 75489290.796543121 437477037.63059306 0 437477037.63059306 119482657.47019577 0 0 0 0 332736636.30192566 585792428.28700256 0 585792428.28700256 -21670824.226539612 0 0 0 0 229965886.13843536 398363455.32659721 0 398363455.32659721 59494462.241063118 0 0 0 0 392765441.86011887 489843282.13647795 0 489843282.13647795 -229810029.90877342 0 0 0 0 8291337.0652263761 4812940.5219617989 0 4812940.5219617989 -2671297.6980469376 0 0 0 0 301707879.15016937 232653223.39924622 0 232653223.39924622 -513779597.60277748 0 0 0 0 168939793.09230042 275004351.37091827 0 275004351.37091827 -288382601.09054732 0 0 0 0 142848675.83176422 212861603.31555939 0 212861603.31555939 -988088204.62395048 0 0 0 0 3774308.9073356986 2946890.4147221446 0 2946890.4147221446 -1423303.8202034533 0 0 0 0 56904147.065398216 358281086.77933979 0 358281086.77933979 -50087809.902528763 0 0 0 0 293440367.01875305 591876775.82258415 0 591876775.82258415 60036930.45233202 0 0 0 0 412906852.43373871 397208534.58212459 0 397208534.58212459 154191057.43766785 0 0 0 0 439315485.27075958 484197454.99812984 0 484197454.99812984 11158048.155810356 0 0 0 0 652729297.06536102 494442862.75865269 0 494442862.75865269 191833519.62034893 0 0 0 0 132153272.1866188 378888251.65640306 0 378888251.65640306 323101459.91075706 0 0 0 0 177844558.01973724 297706070.5110178 0 297706070.5110178 258420042.46858692 0 0 0 0 462163601.39959335 244881947.72439909 0 244881947.72439909 112281347.17126751 0 0 0 0 333632789.51999664 438352910.71987724 0 438352910.71987724 133873888.80710602 0 0 0 0 326795251.89439392 389964915.75152016 0 389964915.75152016 311882188.91878796 0 0 0 0 419430406.60387421 462641613.28870773 0 462641613.28870773 337071906.23220015 0 0 0 0 145007263.82724762 490324652.27316141 0 490324652.27316141 349937587.49923134 0 0 0 0 85614498.723274231 407946703.76104832 0 407946703.76104832 284663480.71953392 0 0 0 0 244143920.33206558 439683846.75333357 0 439683846.75333357 216185489.74064064 0 0 0 0 -37944202.15007019 532432504.06103611 0 532432504.06103611 16072786.591986656 0 0 0 0 170673855.77521896 346175526.02998209 0 346175526.02998209 130838178.38066483 0 0 0 0 -97517826.511387348 836414257.48529363 0 836414257.48529363 -136828335.9789505 0 0 0 0 -150408196.79332399 470744757.17712975 0 470744757.17712975 -17048916.086496353 0 0 0 0 -117474130.84394836 559828039.26750374 0 559828039.26750374 -120895893.72323513 0 0 0 0 -226540164.5047226 253755486.35594559 0 253755486.35594559 -35583937.796471596 0 0 0 0 200977752.5344677 253946857.7126956 0 253946857.7126956 -62868812.494815826 0 0 0 0 163856329.86510468 286912347.54071426 0 286912347.54071426 136261069.09933209 0 0 0 0 197466851.72525024 21622205.658354044 0 21622205.658354044 -261601615.70087624 0 0 0 0 -8989316.1133995056 325651060.99802017 0 325651060.99802017 -189660289.30722809 0 0 0 0 59828046.856698036 383131001.39411271 0 383131001.39411271 -884097845.66089439 0 0 0 0 -492508690.7075882 98459888.428199768 0 98459888.428199768 -248269254.55327034 0 0 0 0 70345908.686813354 470622012.31457043 0 470622012.31457043 -284784897.94262218 0 0 0 0 521560014.87303162 714481564.90707016 0 714481564.90707016 -273243795.4908278 0 0 0 0 303908365.72738838 245178963.32019377 0 245178963.32019377 -124922617.99489021 0 0 0 0 -584488302.38799286 350405809.84702587 0 350405809.84702587 -478201816.45480251 0 0 0 0 -366753413.01338196 1143909549.9760914 0 1143909549.9760914 -871645796.83489609 0 0 0 0 -44026850.112411499 802865024.18543243 0 802865024.18543243 -513036912.34813881 0 0 0 0 -330589672.72800827 1328992840.1973686 0 1328992840.1973686 -84229799.946838379 0 0 0 0 -73958526.186920166 788768936.60511768 0 788768936.60511768 311095204.18752575 0 0 0 0 131635432.74583435 1455231236.2208986 0 1455231236.2208986 187174896.27551651 0 0 0 0 13620046.153095156 21285936.627316542 0 21285936.627316542 889149.89719680697 0 0 0 0 -225277817.17435455 68677922.76086998 0 68677922.76086998 4381220.0866866112 0 0 0 0 -117841944.85208893 133930352.93485641 0 133930352.93485641 -24423698.726366997 0 0 0 0 -2946913.8026518822 1654026.058550477 0 1654026.058550477 1484536.5180407465 0 0 0 0 -399061111.80735493 701147118.20899844 0 701147118.20899844 -59429278.024665833 0 0 0 0 -1615139938.2732239 878972431.81220055 0 878972431.81220055 -54707533.730509758 0 0 0 0 -1426193773.4680634 588557166.77168179 0 588557166.77168179 -485365145.75709724 0 0 0 0 -2545516243.0903463 1093934183.1033361 0 1093934183.1033361 -128105817.1362648 0 0 0 0 3642157.9308035905 7369372.1281998605 0 7369372.1281998605 -11153312.488130413 0 0 0 0 -823586910.94187927 1107346129.9229946 0 1107346129.9229946 -2200152546.2511044 0 0 0 0 2821352.9828027487 -114662730.07142158 0 -114662730.07142158 -785039749.95483208 0 0 0 0 -53088597.356124878 693604354.71375275 0 693604354.71375275 -1146681201.2559776 0 0 0 0 -726090857.76151466 1058314684.8775535 0 1058314684.8775535 -558779825.09649467 0 0 0 0 -1243333222.240387 298329019.9374814 0 298329019.9374814 -399170110.80300903 0 0 0 0 -545284680.51055145 610217408.51944923 0 610217408.51944923 -271746183.50241661 0 0 0 0 -469502940.63394356 460778197.64251769 0 460778197.64251769 -142294414.85912323 0 0 0 0 -408584249.55279064 922498111.54301453 0 922498111.54301453 -208518130.43247223 0 0 0 0 -271709579.57801056 822353279.45431137 0 822353279.45431137 -75941450.516544342 0 0 0 0 -307775125.53943634 952578892.51698875 0 952578892.51698875 -194852733.48794079 0 0 0 0 -337459797.06245422 939191656.06511307 0 939191656.06511307 322144463.25725174 0 0 0 0 -164882826.90922165 575039817.24765134 0 575039817.24765134 -400879449.60985374 0 0 0 0 -126460652.23493767 433221412.69431996 0 433221412.69431996 122563475.29078865 0 0 0 0 -275591881.7325592 778832851.07157707 0 778832851.07157707 -396372652.27646923 0 0 0 0 -94882873.941917419 499002981.23148346 0 499002981.23148346 -362892892.97118092 0 0 0 0 7027113.1166630983 14630157.146122351 0 14630157.146122351 3754165.810849268 0 0 0 0 -363485867.13755035 404373677.94029093 0 404373677.94029093 -294129217.21608877 0 0 0 0 -433910136.66502762 314570367.84723353 0 314570367.84723353 -131275466.2511034 0 0 0 0 -384801974.06711769 255707078.25858819 0 255707078.25858819 -65223884.184939384 0 0 0 0 -123057275.04745102 180766287.96317267 0 180766287.96317267 -89555193.619255066 0 0 0 0 -318667235.07720184 352023482.0661149 0 352023482.0661149 149857032.66469955 0 0 0 0 -298159860.18099213 391149785.68797636 0 391149785.68797636 -88258210.420992374 0 0 0 0 255245478.77290726 154888255.5802381 0 154888255.5802381 -64672393.774530411 0 0 0 0 -317336526.94895172 633537580.82685852 0 633537580.82685852 117463061.90243196 0 0 0 0 687409304.65300083 682317005.71544909 0 682317005.71544909 537758485.69673729 0 0 0 0 -2388240.3486228436 5099406.8544430882 0 5099406.8544430882 -2899150.7769725099 0 0 0 0 -913550117.9940033 428689497.62968636 0 428689497.62968636 1268505057.4235802 0 0 0 0 2496095.5074078739 5731681.1715665683 0 5731681.1715665683 2161000.7859686054 0 0 0 0 -191389254.39365387 829566309.01091862 0 829566309.01091862 -854787343.03915977 0 0 0 0 -507367084.8137207 763487747.20366096 0 763487747.20366096 2144300017.6800184 0 0 0 0 -443758747.73498917 1297936054.9999576 0 1297936054.9999576 -478008085.17699432 0 0 0 0 -156824175.37426758 1110258056.6715641 0 1110258056.6715641 1553501712.6529484 0 0 0 0 -282830831.73146057 1172707237.3258514 0 1172707237.3258514 -1610684981.5874453 0 0 0 0 -850035414.78012085 -28113475.243190765 0 -28113475.243190765 1619262202.164763 0 0 0 0 206959226.7660675 10022666.171443939 0 10022666.171443939 983800620.67387962 0 0 0 0 -3539345.5298645794 5719104.5137811154 0 5719104.5137811154 2927446.7964212392 0 0 0 0 -526389235.44443512 580717840.49044466 0 580717840.49044466 -171171612.39410973 0 0 0 0 -623469524.6183548 888338352.11551476 0 888338352.11551476 -556417309.95605659 0 0 0 0 -345680625.70466423 434425486.75859737 0 434425486.75859737 -834909159.5967865 0 0 0 0 -699632992.18624115 658681275.78677177 0 658681275.78677177 -177734824.1983403 0 0 0 0 -587183216.09788132 744086479.15255165 0 744086479.15255165 -288738326.26439285 0 0 0 0 -271602407.79571533 962116029.98224115 0 962116029.98224115 -141123334.42238998 0 0 0 0 -125634194.20755005 855242944.66727066 0 855242944.66727066 -187627175.87995577 0 0 0 0 -204211994.52330017 953438085.992836 0 953438085.992836 -231277124.18354797 0 0 0 0 -244210701.03788757 808528855.79554272 0 808528855.79554272 -135092506.04954529 0 0 0 0 331187332.70381165 724850514.3730135 0 724850514.3730135 -127791197.16241741 0 0 0 0 -180890380.00930786 788559793.03391075 0 788559793.03391075 -54500881.042488098 0 0 0 0 -645052139.72140121 728128148.40257835 0 728128148.40257835 17135919.077117443 0 0 0 0 -157593612.22035217 1058485970.2398112 0 1058485970.2398112 198806156.23681355 0 0 0 0 1334097605.4353104 1026122313.4420199 0 1026122313.4420199 195650887.33699596 0 0 0 0 -4050601.7825703025 5103979.302117601 0 5103979.302117601 -763223.60303467512 0 0 0 0 -1307402130.7588081 847981924.75437593 0 847981924.75437593 -111016961.44022822 0 0 0 0 -954620680.89105225 529449135.49919987 0 529449135.49919987 -121655994.45157433 0 0 0 0 -850442166.56804657 581214381.94334507 0 581214381.94334507 -114830090.86934471 0 0 0 0 -767151301.56790352 748286963.99167347 0 748286963.99167347 -132965187.52520752 0 0 0 0 -625483005.48781586 711700169.90304804 0 711700169.90304804 -155116424.4876976 0 0 0 0 -928792344.52033234 237782393.30565453 0 237782393.30565453 47289973.73449707 0 0 0 0 -824318649.63274384 647277185.645648 0 647277185.645648 -57771037.110387802 0 0 0 0 -891082971.5287962 562519599.08481538 0 562519599.08481538 -143822506.03040886 0 0 0 0 -2066117045.4776058 -59331350.054005384 0 -59331350.054005384 7986199.1375846863 0 0 0 0 303599378.30020142 582369324.99212027 0 582369324.99212027 619863502.85035133 0 0 0 0 948881938.60639191 789112482.74569893 0 789112482.74569893 470513102.29741669 0 0 0 0 -12153346.715094358 13425363.389620841 0 13425363.389620841 2770218.7968089432 0 0 0 0 -608931736.70477295 -79534486.117654324 0 -79534486.117654324 -114260611.64370346 0 0 0 0 -552706942.67702484 36484281.778985023 0 36484281.778985023 5048577.6677291095 0 0 0 0 -324761389.830966 -27245725.062019229 0 -27245725.062019229 -146471368.2598629 0 0 0 0 -404891718.92114449 245436961.82840943 0 245436961.82840943 292757400.47603035 0 0 0 0 -136768990.08075714 293463099.49741364 0 293463099.49741364 137265993.22723389 0 0 0 0 -179624935.61169815 348028932.73081398 0 348028932.73081398 531774094.33166504 0 0 0 0 -381052781.30755234 118399891.98993969 0 118399891.98993969 825485920.68060303 0 0 0 0 -360211319.15943146 53005892.208055496 0 53005892.208055496 1030560350.2191238 0 0 0 0 -347925677.5097332 220156693.29701233 0 220156693.29701233 273522914.39707947 0 0 0 0 -423643594.92362976 66956844.537641525 0 66956844.537641525 499003561.44109344 0 0 0 0 -332976364.92654419 69551465.804418564 0 69551465.804418564 493212030.06068802 0 0 0 0 -393645923.38444519 94656529.710195541 0 94656529.710195541 654684872.60810661 0 0 0 0 -267833585.60452271 225315447.26035213 0 225315447.26035213 511058096.40631866 0 0 0 0 -248602579.29267883 54366624.000312805 0 54366624.000312805 437601489.14068127 0 0 0 0 91456529.377983093 330935600.23532677 0 330935600.23532677 162564489.05929184 0 0 0 0 -626731038.04051208 404422629.67139816 0 404422629.67139816 226374515.19245148 0 0 0 0 -283586213.65524292 266639420.93852711 0 266639420.93852711 38897466.101295471 0 0 0 0 -481452366.512146 702910352.43182659 0 702910352.43182659 142678111.85703754 0 0 0 0 -951109861.36800861 580106067.54063165 0 580106067.54063165 129785330.7842083 0 0 0 0 -1128991225.9594116 713049888.11651456 0 713049888.11651456 433352370.14886284 0 0 0 0 -186263869.17440033 999068799.20281124 0 999068799.20281124 366475932.5720005 0 0 0 0 282647612.24433136 160738714.98139572 0 160738714.98139572 301004502.99165154 0 0 0 0 44060101.727859497 267325273.46111679 0 267325273.46111679 785665519.83544159 0 0 0 0 -9483677.3513539284 3988502.8680801094 0 3988502.8680801094 5624764.9035092779 0 0 0 0 568753005.14324951 398955691.10266113 0 398955691.10266113 75113384.392240524 0 0 0 0 -2010430.1387205273 4078016.3504279852 0 4078016.3504279852 1720931.0583679378 0 0 0 0 16916137.837844849 488844684.90611076 0 488844684.90611076 1008771299.1166048 0 0 0 0 3993836.9936256409 -39038171.18170166 0 -39038171.18170166 767967579.39545822 0 0 0 0 -158764483.70093536 161703686.22582817 0 161703686.22582817 400844460.74906731 0 0 0 0 112280484.42546129 273437765.43541962 0 273437765.43541962 335206689.08140945 0 0 0 0 29227692.270450592 115001178.58046722 0 115001178.58046722 62259924.332431793 0 0 0 0 -25063450.256408691 46476702.981157303 0 46476702.981157303 1363059.5541992188 0 0 0 0 -13871599.893861845 30836294.480028644 0 30836294.480028644 -11180553.517831527 0 0 0 0 129594373.94120789 56317790.536578178 0 56317790.536578178 65829533.866102844 0 0 0 0 -24639131.846093446 15003564.301135093 0 15003564.301135093 18975078.787405297 0 0 0 0 -22644897.315341949 33734501.295385361 0 33734501.295385361 3593610.6052877903 0 0 0 0 -7071965.9739875793 49438918.100597382 0 49438918.100597382 18148725.381420135 0 0 0 0 47604599.960643768 122022083.240242 0 122022083.240242 63064052.726564407 0 0 0 0 -16017508.045215607 32637251.767048936 0 32637251.767048936 -10676484.167809524 0 0 0 0 -9308215.632774353 39975551.870574951 0 39975551.870574951 16941133.431934357 0 0 0 0 -5135218.0825440884 48038482.245104492 0 48038482.245104492 29578248.903850555 0 0 0 0 -30986156.671619415 41624632.648115158 0 41624632.648115158 43065966.335681915 0 0 0 0 -12747250.750891887 28472771.786299944 0 28472771.786299944 39777272.7592173 0 0 0 0 -553529735.05823517 75939549.070652962 0 75939549.070652962 -116860004.59772491 0 0 0 0 -445927957.20016098 -77708553.134041786 0 -77708553.134041786 -1558190.9329681396 0 0 0 0 -73986306.112258911 124609205.67161274 0 124609205.67161274 33943136.128423691 0 0 0 0 -22137528.642970532 39457633.5315357 0 39457633.5315357 382405.79822664708 0 0 0 0 -5239930.2407114506 46116949.643259764 0 46116949.643259764 27197831.128353119 0 0 0 0 9678468.1206817627 50328367.291952133 0 50328367.291952133 -8362187.3732361794 0 0 0 0 -5003204.5459309369 18562893.894820616 0 18562893.894820616 29973201.562478594 0 0 0 0 -933939324.6193676 215390823.65024185 0 215390823.65024185 501445691.86364365 0 0 0 0 -44378217.60319519 55381191.452411652 0 55381191.452411652 7591416.9766616821 0 0 0 0 -242975692.33354187 119059196.20952439 0 119059196.20952439 101291749.387537 0 0 0 0 -66917437.174316406 92579177.859314919 0 92579177.859314919 380894065.88817596 0 0 0 0 -249672443.3556366 -1415510.140504837 0 -1415510.140504837 371984730.10935116 0 0 0 0 -222525596.53263855 -86431864.115170002 0 -86431864.115170002 635094723.65251923 0 0 0 0 -181968110.90178299 147180864.29241133 0 147180864.29241133 644870861.57838249 0 0 0 0 -323703.41078831255 8086483.7711538523 0 8086483.7711538523 11389836.09626466 0 0 0 0 -22076911.101078033 -344217965.20317936 0 -344217965.20317936 636526879.05933952 0 0 0 0 -55342570.81652832 -209041926.03356552 0 -209041926.03356552 214984415.12161446 0 0 0 0 -281522759.48756409 -98414145.120649338 0 -98414145.120649338 652813266.02100182 0 0 0 0 -282656832.47285128 -148473275.26054579 0 -148473275.26054579 1034714628.2554703 0 0 0 0 74132963.035797119 1357627133.9019499 0 1357627133.9019499 572178967.735672 0 0 0 0 460903386.92604065 894316865.26741028 0 894316865.26741028 268201613.04133606 0 0 0 0 -64215094.386238098 922740671.48281002 0 922740671.48281002 485787989.56026649 0 0 0 0 -27288366.872435868 29981584.616631791 0 29981584.616631791 1019038.1962027252 0 0 0 0 120024622.35322952 287097735.41482735 0 287097735.41482735 272237169.56889153 0 0 0 0 -101564328.27542877 207442992.53794289 0 207442992.53794289 -372163073.69207954 0 0 0 0 -104053347.7921524 485020288.71587944 0 485020288.71587944 1045115297.508461 0 0 0 0 -404739221.15595245 242354326.93275642 0 242354326.93275642 353056001.72385406 0 0 0 0 -401415553.93175507 -60117475.295703888 0 -60117475.295703888 -20021768.543832779 0 0 0 0 623695571.52011871 -181525227.60650826 0 -181525227.60650826 306370838.63259506 0 0 0 0 1528236815.3420334 943314224.41674948 0 943314224.41674948 115280114.49655151 0 0 0 0 1312653145.0466442 2167406990.0961461 0 2167406990.0961461 73778640.478256226 0 0 0 0 -1152079475.3148041 702807121.11721802 0 702807121.11721802 304306657.31585026 0 0 0 0 -385064222.17549133 2197146917.3487525 0 2197146917.3487525 601425206.78281784 0 0 0 0 -454114953.75952911 181880697.29679489 0 181880697.29679489 -4954342.0977630615 0 0 0 0 -515834653.54985809 433469848.02882195 0 433469848.02882195 -722872430.50313568 0 0 0 0 -458742680.80049896 -177154475.1843996 0 -177154475.1843996 -323997511.54450989 0 0 0 0 -11921534.118307114 3874359.8469390254 0 3874359.8469390254 2920406.968071837 0 0 0 0 -1836923185.0835571 -487120530.56868172 0 -487120530.56868172 887234853.55459023 0 0 0 0 -1577228706.6957092 -629763057.41020489 0 -629763057.41020489 795720721.86688232 0 0 0 0 115059724.83001709 -118665256.27008247 0 -118665256.27008247 274224844.781147 0 0 0 0 -2292179301.9120941 -548056220.77271461 0 -548056220.77271461 819092932.41371346 0 0 0 0 1970202347.2887306 -117076234.95666027 0 -117076234.95666027 -1001113617.1414385 0 0 0 0 -1895493386.678772 -313673889.9846611 0 -313673889.9846611 436369997.72049332 0 0 0 0 -437086590.01145172 173856614.14465427 0 173856614.14465427 9861905.5289878845 0 0 0 0 -789473412.22074127 -999098267.19462967 0 -999098267.19462967 -1553866369.3662796 0 0 0 0 -23642065.963100582 32100814.638538867 0 32100814.638538867 -18188699.578112349 0 0 0 0 -131307927.3919754 450973759.35495853 0 450973759.35495853 -810329990.76743126 0 0 0 0 -1026412753.9572067 720323532.12811852 0 720323532.12811852 18280522.857606888 0 0 0 0 -412988880.51186633 637566203.19810164 0 637566203.19810164 351135288.96154785 0 0 0 0 -420821651.54448855 354755968.8604188 0 354755968.8604188 228205872.30930328 0 0 0 0 -481548901.728508 533333695.87240791 0 533333695.87240791 480950780.01243782 0 0 0 0 -454292394.77531433 -29308083.508922577 0 -29308083.508922577 154791356.48265648 0 0 0 0 -228013930.79551697 336931364.88346767 0 336931364.88346767 403104509.59187508 0 0 0 0 107887270.88405609 269243949.8385601 0 269243949.8385601 311797063.41260529 0 0 0 0 -289713485.14929962 488649204.44131279 0 488649204.44131279 476756849.83568382 0 0 0 0 -255955849.60258198 767619005.87438583 0 767619005.87438583 737416221.88104248 0 0 0 0 -147372791.13046265 619721779.34317017 0 619721779.34317017 583499947.17723465 0 0 0 0 -28995523.966603279 638428631.22274017 0 638428631.22274017 501937991.46059418 0 0 0 0 1311748.5955505371 637538125.1801033 0 637538125.1801033 478140452.86790133 0 0 0 0 158719287.58800507 610287961.02003193 0 610287961.02003193 482829108.39644051 0 0 0 0 135602788.80909729 666879432.96196556 0 666879432.96196556 367121505.28052521 0 0 0 0 132500215.08351898 552625086.53529167 0 552625086.53529167 473147044.78593826 0 0 0 0 93216559.287574768 495395101.1815362 0 495395101.1815362 460961888.64576912 0 0 0 0 95531836.346389771 486048921.46725273 0 486048921.46725273 465916427.0583992 0 0 0 0 485536307.02272797 428042200.97644901 0 428042200.97644901 317834813.50035763 0 0 0 0 171779558.77305984 295483544.55499411 0 295483544.55499411 261995751.51210213 0 0 0 0 -19754602.767744452 19709805.885182194 0 19709805.885182194 8715084.202741459 0 0 0 0 504193096.04368591 -932591471.76813173 0 -932591471.76813173 119810045.80679321 0 0 0 0 546382185.52133942 580175955.78872871 0 580175955.78872871 383560744.40910912 0 0 0 0 207841933.99855804 474570447.19503403 0 474570447.19503403 454808800.06803513 0 0 0 0 208795556.23563385 532921941.19906235 0 532921941.19906235 453999578.10510063 0 0 0 0 426973843.35324097 515989871.58828735 0 515989871.58828735 419730198.06162453 0 0 0 0 259154794.68508911 550971604.19315243 0 550971604.19315243 507559044.11400986 0 0 0 0 434544971.62498474 484782762.96964169 0 484782762.96964169 461426419.88408041 0 0 0 0 240294374.2922287 420862615.82454205 0 420862615.82454205 491666559.30448151 0 0 0 0 248205054.67896557 407650800.77177989 0 407650800.77177989 315215865.43730927 0 0 0 0 257289745.09392166 555785808.36964464 0 555785808.36964464 366977534.80379105 0 0 0 0 219498016.15696716 517542850.51492023 0 517542850.51492023 403062409.68550873 0 0 0 0 238592445.5215168 499053531.89276123 0 499053531.89276123 420879958.8819046 0 0 0 0 306654773.54589081 698966669.68756104 0 698966669.68756104 46566994.706586838 0 0 0 0 280214739.88408661 653035125.95760727 0 653035125.95760727 246508599.48799229 0 0 0 0 256353484.75464249 615973163.26268053 0 615973163.26268053 191587965.28071213 0 0 0 0 336645449.10185242 503766089.64015865 0 503766089.64015865 226566399.61839199 0 0 0 0 232128251.42845535 552379564.94167519 0 552379564.94167519 91538871.622634888 0 0 0 0 117192684.01284027 569178490.00824642 0 569178490.00824642 -17430088.89358139 0 0 0 0 253336681.56910706 537387783.70828915 0 537387783.70828915 -159834222.03947544 0 0 0 0 80381778.287483215 400006977.9593811 0 400006977.9593811 -156984037.47879028 0 0 0 0 296938592.47908211 557220147.54916728 0 557220147.54916728 -156111690.20956802 0 0 0 0 264481091.39807892 719854385.56260681 0 719854385.56260681 100185473.07651329 0 0 0 0 60930364.230941772 482811525.41634369 0 482811525.41634369 -49603061.583733559 0 0 0 0 310235912.49890137 660323524.46233177 0 660323524.46233177 -63815760.091459751 0 0 0 0 250042753.81012726 680572610.03010273 0 680572610.03010273 145523957.82205582 0 0 0 0 303219834.00714493 685946782.68909836 0 685946782.68909836 129041942.09840775 0 0 0 0 361878043.01159668 782311952.82484436 0 782311952.82484436 120593164.42125487 0 0 0 0 425244884.29315186 791103962.76474571 0 791103962.76474571 10160733.930175781 0 0 0 0 332413631.40129852 761556662.70660877 0 761556662.70660877 390870690.63873672 0 0 0 0 448257699.14809418 873756129.32074165 0 873756129.32074165 233950101.08060646 0 0 0 0 277922025.99813843 870707815.79869366 0 870707815.79869366 518428660.56579018 0 0 0 0 338393613.42985535 844387340.75887012 0 844387340.75887012 324564211.20145607 0 0 0 0 189416092.95532227 885110383.9370079 0 885110383.9370079 526551919.35595703 0 0 0 0 268365940.56669998 799455059.5058217 0 799455059.5058217 332542066.79948807 0 0 0 0 263094301.70282745 765845732.74501133 0 765845732.74501133 230312468.92898059 0 0 0 0 182152806.45804977 741989705.45674658 0 741989705.45674658 416383102.04280853 0 0 0 0 150211854.41648102 807826653.22412872 0 807826653.22412872 432066773.21014595 0 0 0 0 -28103747.155226797 795642587.74122846 0 795642587.74122846 587409175.04440308 0 0 0 0 40129513.518758774 895540868.78902721 0 895540868.78902721 749356820.75819778 0 0 0 0 10035985.539520264 774430163.65976143 0 774430163.65976143 565030437.73262501 0 0 0 0 365795772.77651215 649437811.2333225 0 649437811.2333225 855090210.81285858 0 0 0 0 251803679.04199219 914835268.39623451 0 914835268.39623451 794313606.73736572 0 0 0 0 262076477.62362671 868031766.12704277 0 868031766.12704277 522207858.0853529 0 0 0 0 332249309.21317291 873620580.26223373 0 873620580.26223373 658747962.98256111 0 0 0 0 -232184511.81695557 481844794.20656013 0 481844794.20656013 484947285.02767849 0 0 0 0 -162241870.82513428 783462095.55448818 0 783462095.55448818 1091072243.2461205 0 0 0 0 -15795404.47076416 149076702.23251057 0 149076702.23251057 -144831827.14469051 0 0 0 0 -9278624.6384735107 194063269.03354263 0 194063269.03354263 128825447.7949543 0 0 0 0 -210567345.32099915 37997839.977649689 0 37997839.977649689 481486479.39890671 0 0 0 0 -273015859.69924164 -135416575.24919462 0 -135416575.24919462 94467647.978122711 0 0 0 0 -650489.22556047142 -109224.95865270495 0 -109224.95865270495 8630102.9360146597 0 0 0 0 4272944.5668067932 59591807.191884041 0 59591807.191884041 60950943.048500061 0 0 0 0 -25850942.143617392 13194727.793074921 0 13194727.793074921 9077491.1960785575 0 0 0 0 -36326079.623905182 115254499.96844482 0 115254499.96844482 39509030.449777603 0 0 0 0 18981464.596893311 448486281.91562462 0 448486281.91562462 746206277.18336773 0 0 0 0 80878033.565625429 752959327.57263279 0 752959327.57263279 -58634852.484523773 0 0 0 0 2724547.9704245329 12131961.644419596 0 12131961.644419596 9725379.9809320122 0 0 0 0 260955027.57597351 -58834416.177362442 0 -58834416.177362442 60640478.866508484 0 0 0 0 60083810.526859283 311731742.76621366 0 311731742.76621366 1951286715.0290298 0 0 0 0 2750565.8661908507 8023617.348838944 0 8023617.348838944 -430794.81390128285 0 0 0 0 -30873895.303702295 21343600.68843285 0 21343600.68843285 20275137.178837374 0 0 0 0 -44060451.383102417 -104536467.88012218 0 -104536467.88012218 766360204.1128006 0 0 0 0 -9640319.4487694055 2991971.2550705075 0 2991971.2550705075 29470991.096817113 0 0 0 0 -93184462.867721558 24917706.894571304 0 24917706.894571304 129742071.53333187 0 0 0 0 423446529.14372253 1144091716.6408653 0 1144091716.6408653 1426709842.5626297 0 0 0 0 293028556.64741516 931649171.23744965 0 931649171.23744965 1087995880.1890655 0 0 0 0 553340099.98931885 1231262718.8385258 0 1231262718.8385258 1664325469.6003952 0 0 0 0 245562879.40595245 912597365.19519615 0 912597365.19519615 1364432964.3317642 0 0 0 0 477748166.05513191 803912813.36381042 0 803912813.36381042 1108671009.9123268 0 0 0 0 446216177.79247284 1066476970.556406 0 1066476970.556406 1270343132.6776648 0 0 0 0 366553860.3075676 846170609.32515287 0 846170609.32515287 894563732.78264618 0 0 0 0 231049261.02893066 861175776.53987503 0 861175776.53987503 1441617321.8713932 0 0 0 0 335252299.76033783 921976527.28910923 0 921976527.28910923 885967847.35917091 0 0 0 0 444831646.54669189 860744715.29419708 0 860744715.29419708 518749985.59722203 0 0 0 0 532153492.37767792 907902020.79548359 0 907902020.79548359 445870016.23059273 0 0 0 0 739595146.50045776 881362385.20619202 0 881362385.20619202 765443833.45282269 0 0 0 0 355675706.16642761 724912898.44323158 0 724912898.44323158 712859091.31560135 0 0 0 0 681883244.64227867 639716389.58635044 0 639716389.58635044 538700281.6857605 0 0 0 0 387432963.07221985 417700027.80111504 0 417700027.80111504 494842383.67925072 0 0 0 0 971587187.20973969 512715528.5176754 0 512715528.5176754 1242426147.5980535 0 0 0 0 466725602.63549042 753785468.15125275 0 753785468.15125275 1191309574.5714912 0 0 0 0 1078835126.8529358 1066739786.5852432 0 1066739786.5852432 1217072253.1705551 0 0 0 0 158350050.73338318 1125539237.1429749 0 1125539237.1429749 1922250345.2225833 0 0 0 0 376506672.63372421 772731402.11877012 0 772731402.11877012 1274543579.4608727 0 0 0 0 421261195.71826935 605758948.72338676 0 605758948.72338676 1853644594.2439651 0 0 0 0 212313485.27890015 955314944.59743118 0 955314944.59743118 1148966773.1169052 0 0 0 0 413307055.14471436 1130316522.1568794 0 1130316522.1568794 1223255101.6297112 0 0 0 0 292116590.54728699 1153917306.3518028 0 1153917306.3518028 866190073.02913284 0 0 0 0 421777506.00192261 756990296.99433517 0 756990296.99433517 407258268.36357117 0 0 0 0 843349761.5710907 1413539691.9959888 0 1413539691.9959888 1018402986.5505676 0 0 0 0 1019306653.52948 704696243.83189201 0 704696243.83189201 156243217.27656555 0 0 0 0 275787436.9929657 711537067.99384308 0 711537067.99384308 591247546.53272629 0 0 0 0 96511071.743610382 1362276987.0043983 0 1362276987.0043983 1429620261.0994987 0 0 0 0 7274948.289855957 1240736355.2719784 0 1240736355.2719784 1268617165.1163559 0 0 0 0 502178323.72180176 1283194847.1903248 0 1283194847.1903248 1013864186.449791 0 0 0 0 619651435.92325306 1601960838.2600763 0 1601960838.2600763 1480511353.4342461 0 0 0 0 562333740.35063171 941274168.91309357 0 941274168.91309357 1404362605.1392746 0 0 0 0 108208.69805145264 44921343.702095032 0 44921343.702095032 58053023.137832642 0 0 0 0 -5355353.803230837 13461085.746951059 0 13461085.746951059 16412681.903039813 0 0 0 0 1931698903.5743561 1582133910.5479965 0 1582133910.5479965 1139933356.365757 0 0 0 0 -92361.925216674805 44743795.743963242 0 44743795.743963242 58217473.338338852 0 0 0 0 686774186.75919342 873345029.51357555 0 873345029.51357555 1095827948.7357492 0 0 0 0 687660438.49525452 877737462.55436039 0 877737462.55436039 762054193.84788322 0 0 0 0 -7759990.3300067633 13059483.106135353 0 13059483.106135353 18545873.558102682 0 0 0 0 46279541.853477478 22252237.398651123 0 22252237.398651123 -49251472.518032074 0 0 0 0 53425322.915336609 69884920.994373322 0 69884920.994373322 16112084.368507385 0 0 0 0 8667753.8651599661 -95767053.712665617 0 -95767053.712665617 -82934843.451346457 0 0 0 0 -36403183.91267395 7846756.3267650604 0 7846756.3267650604 26644054.038024902 0 0 0 0 12429352.159515381 -189635.10287094116 0 -189635.10287094116 25699641.265815258 0 0 0 0 -7628842.381111145 -3343832.1270465851 0 -3343832.1270465851 2843425.4748764038 0 0 0 0 9559595.6265090778 12186608.039231241 0 12186608.039231241 954036.20433761179 0 0 0 0 -352875723.6001358 39867421.809440613 0 39867421.809440613 -947585.79286193848 0 0 0 0 4697239.4025268555 15924614.628452301 0 15924614.628452301 -6639864.0079498291 0 0 0 0 17902648.503250122 6851645.0219516754 0 6851645.0219516754 -8803908.6069488525 0 0 0 0 -156187077.38381195 146247713.3655014 0 146247713.3655014 -86709487.020212173 0 0 0 0 -690090.03805783764 12972619.54092972 0 12972619.54092972 15492522.8792665 0 0 0 0 -49361308.878334045 1754645.3165502548 0 1754645.3165502548 2794995.6647386551 0 0 0 0 106285.11005151272 -1307096.9973780662 0 -1307096.9973780662 11787028.949405167 0 0 0 0 8577178.6768786907 8845445.74017708 0 8845445.74017708 4085318.6713250596 0 0 0 0 -85703239.919708252 51534122.804037094 0 51534122.804037094 22923576.798542023 0 0 0 0 -73101964.436523438 361766706.37129593 0 361766706.37129593 -343207502.63892746 0 0 0 0 -107582752.27708435 278238136.03636742 0 278238136.03636742 -171295184.36754417 0 0 0 0 36774228.019424438 187407727.00413322 0 187407727.00413322 -297771886.99356079 0 0 0 0 14411435.992977291 9929909.4188932627 0 9929909.4188932627 228656.93989922851 0 0 0 0 -81522999.452835083 104249726.79798126 0 104249726.79798126 -138712689.29231644 0 0 0 0 11924247.621990204 13131920.929070473 0 13131920.929070473 11545951.359546661 0 0 0 0 49058648.09595108 16519543.223406792 0 16519543.223406792 -1453571.5532054901 0 0 0 0 -7788503.6126381159 11500228.440370515 0 11500228.440370515 17964980.030060261 0 0 0 0 460927112.94316864 475778557.5213213 0 475778557.5213213 522584815.522686 0 0 0 0 267939236.20219421 383151755.86448097 0 383151755.86448097 563779012.20940781 0 0 0 0 339829117.38890076 481607558.16666412 0 481607558.16666412 645722326.40019608 0 0 0 0 -811428.49220407009 3266122.0338259339 0 3266122.0338259339 3803127.4868413191 0 0 0 0 434386419.8870697 862230960.49397469 0 862230960.49397469 379226259.72577286 0 0 0 0 299322905.81132507 605225596.25933266 0 605225596.25933266 138219749.78691864 0 0 0 0 188170006.04957581 712522803.75801849 0 712522803.75801849 37340273.40807724 0 0 0 0 205468941.65959167 442446186.5246067 0 442446186.5246067 -403488501.5303669 0 0 0 0 225687927.49671936 615098643.59495163 0 615098643.59495163 29290672.864296317 0 0 0 0 149693678.97570801 -25072839.869125366 0 -25072839.869125366 -725811875.9319706 0 0 0 0 -1237105.5348010212 3016495.9438644499 0 3016495.9438644499 1302855.6443422288 0 0 0 0 -319565729.49987793 481100868.20709229 0 481100868.20709229 -630384954.15727615 0 0 0 0 210853877.67283821 598976262.93818557 0 598976262.93818557 -729665575.68291092 0 0 0 0 -326947562.54626465 232955755.48248672 0 232955755.48248672 -300499223.71988297 0 0 0 0 -256940350.70513916 566274225.47715378 0 566274225.47715378 -559199369.77729702 0 0 0 0 -491945191.60069275 377009922.63182259 0 377009922.63182259 -277385297.17957306 0 0 0 0 -60440400.758468628 340714860.45004654 0 340714860.45004654 -170471547.24880636 0 0 0 0 -165325938.30950928 390882746.44209099 0 390882746.44209099 -276837785.43257654 0 0 0 0 -293011999.59671021 462421334.98587227 0 462421334.98587227 -156749939.99563217 0 0 0 0 -242214421.38493347 238505784.54407883 0 238505784.54407883 -300682117.75440788 0 0 0 0 -203156755.69567108 445616074.79658413 0 445616074.79658413 -57122955.514442444 0 0 0 0 43433077.516952515 444366952.2557354 0 444366952.2557354 -159691037.68221474 0 0 0 0 79512644.830858231 434593838.22267747 0 434593838.22267747 -160208851.43860245 0 0 0 0 89534069.01600647 441944924.62364197 0 441944924.62364197 -257270515.31301171 0 0 0 0 8649195.0156707764 423898963.12257576 0 423898963.12257576 -157541738.68730164 0 0 0 0 -173536593.19119263 458185536.24390411 0 458185536.24390411 -57530959.166824341 0 0 0 0 -53456825.279716492 517807709.83880186 0 517807709.83880186 -69820257.836368561 0 0 0 0 -258201830.31808472 504988037.21199989 0 504988037.21199989 53122921.546103954 0 0 0 0 -309538817.88869476 461312492.29609871 0 461312492.29609871 40782260.73677063 0 0 0 0 -298971625.9805603 414968216.50136566 0 414968216.50136566 39407837.795497894 0 0 0 0 -909740241.00835419 203580855.10692787 0 203580855.10692787 270361543.66592026 0 0 0 0 -415992.58399613947 4701226.7543941289 0 4701226.7543941289 5558509.090500772 0 0 0 0 -602285403.0736084 492341542.17021751 0 492341542.17021751 525524881.03490758 0 0 0 0 617999232.74874115 607843887.66262245 0 607843887.66262245 418822038.51509857 0 0 0 0 -374434709.80575562 180078180.41641808 0 180078180.41641808 -64225086.940963745 0 0 0 0 666254.8572717252 -107476715.29270977 0 -107476715.29270977 -48170734.715011597 0 0 0 0 -142100521.16267395 161965620.28946304 0 161965620.28946304 -69282807.551971436 0 0 0 0 -202772206.96859741 309332682.71643257 0 309332682.71643257 -180195334.33060265 0 0 0 0 -221283621.44764709 386071443.06729698 0 386071443.06729698 -123241320.15269089 0 0 0 0 -212228165.07923126 429265538.15735626 0 429265538.15735626 -86587359.495857239 0 0 0 0 -362521417.08468628 351318503.94225121 0 351318503.94225121 -23523367.724945068 0 0 0 0 -222102648.84613132 373794325.92317998 0 373794325.92317998 -74298757.709007263 0 0 0 0 -261622860.24362183 217486873.78026772 0 217486873.78026772 -174583704.54330826 0 0 0 0 -176240643.26279449 424591875.44190979 0 424591875.44190979 -592705020.08681881 0 0 0 0 258912.53249359131 336112251.21118164 0 336112251.21118164 -473111159.04840469 0 0 0 0 -47105152.586837769 254423012.4420166 0 254423012.4420166 -589699410.91045785 0 0 0 0 -91458424.393127441 590387709.03353119 0 590387709.03353119 -987186318.17360687 0 0 0 0 199670905.88692856 361557.36708259583 0 361557.36708259583 -530385634.48656464 0 0 0 0 -935651957.48052216 714473470.27149582 0 714473470.27149582 -520350558.04761124 0 0 0 0 219485324.05680084 -153470986.11853981 0 -153470986.11853981 -77201036.864486694 0 0 0 0 1312329.3149482161 1730749.6032128781 0 1730749.6032128781 -10300569.596546292 0 0 0 0 287273293.71096039 1240006.1330223083 0 1240006.1330223083 -140795472.39103699 0 0 0 0 129199570.63200378 102467529.79906464 0 102467529.79906464 -104100396.9800334 0 0 0 0 4531658.485980913 3919701.786854431 0 3919701.786854431 -28226092.606033981 0 0 0 0 10789843.571327209 48587062.728790283 0 48587062.728790283 -51471435.301925659 0 0 0 0 -21857171.469842911 161348830.74437428 0 161348830.74437428 -200244974.51042175 0 0 0 0 -3550869.5174021125 38433292.435742766 0 38433292.435742766 34884253.549120098 0 0 0 0 21122241.053443909 136151351.18616104 0 136151351.18616104 -142539726.38189697 0 0 0 0 -76398943.760154724 129864057.25063705 0 129864057.25063705 61382424.811576843 0 0 0 0 65386611.368377686 20595282.811901093 0 20595282.811901093 -35056303.77898407 0 0 0 0 -182109200.00003815 92892342.371715546 0 92892342.371715546 -49337689.594673157 0 0 0 0 -265084417.66550446 201035441.04331875 0 201035441.04331875 -190282518.22562408 0 0 0 0 -264927.82363128662 205101691.47467804 0 205101691.47467804 -318998406.49650192 0 0 0 0 27971.032859802246 103613689.19010735 0 103613689.19010735 -120949426.91054535 0 0 0 0 -115476060.13928986 232710088.53383255 0 232710088.53383255 -262908521.36992264 0 0 0 0 -72412710.810218811 90567662.794676304 0 90567662.794676304 -53152850.281410217 0 0 0 0 -77918252.937065125 57999683.714287281 0 57999683.714287281 -71139432.468170166 0 0 0 0 10095822.874099731 155301629.04479218 0 155301629.04479218 -34885634.754375458 0 0 0 0 10954069.814835101 10453975.574784517 0 10453975.574784517 -45165063.378212214 0 0 0 0 -91043138.945098877 75084471.355554581 0 75084471.355554581 -93345051.454315186 0 0 0 0 46723323.042215347 180219392.91300011 0 180219392.91300011 389769671.60173798 0 0 0 0 114635449.26290131 -244958962.8318882 0 -244958962.8318882 234888535.97869873 0 0 0 0 177137954.60648346 -470218071.63558769 0 -470218071.63558769 777874342.68681335 0 0 0 0 661179.75786875188 8977761.8736743033 0 8977761.8736743033 3138978.1813586205 0 0 0 0 -496466623.53790283 305417851.08519745 0 305417851.08519745 1853012745.8243027 0 0 0 0 -45320129.285514832 1312473.1950244904 0 1312473.1950244904 537772337.31797981 0 0 0 0 -325502.75364685059 79208747.992036819 0 79208747.992036819 349103364.28546906 0 0 0 0 -38672078.641235352 97162228.049480438 0 97162228.049480438 -89562701.288444519 0 0 0 0 316516.49794474244 826418.86204278469 0 826418.86204278469 -4913471.5509893298 0 0 0 0 560794101.67697144 -437277820.80667114 0 -437277820.80667114 -369266802.46895599 0 0 0 0 17449130.97265625 1043489411.6086502 0 1043489411.6086502 1498601775.5839872 0 0 0 0 -142198536.73995972 402240855.20658112 0 402240855.20658112 1579568537.1634293 0 0 0 0 6498275.1589953005 594458.97910484672 0 594458.97910484672 1658073.7561016455 0 0 0 0 -225630365.57689667 42129027.299034119 0 42129027.299034119 576669540.17137909 0 0 0 0 -30861835.861351013 -212068126.12430668 0 -212068126.12430668 -309937673.26515198 0 0 0 0 92841704.387382507 275930734.9008007 0 275930734.9008007 31334611.839485168 0 0 0 0 107215729.38381958 828384634.1849823 0 828384634.1849823 827371708.61101341 0 0 0 0 -307231833.5144043 332052630.45051193 0 332052630.45051193 911459293.08877563 0 0 0 0 72888973.630699158 1028274171.5438328 0 1028274171.5438328 971748569.31264496 0 0 0 0 -109421433.4200058 604343583.46743011 0 604343583.46743011 625971504.36696625 0 0 0 0 285543422.59953308 1033029363.4351559 0 1033029363.4351559 728035081.05657196 0 0 0 0 -2474495.1705099721 1152048160.1374104 0 1152048160.1374104 1297369561.9570923 0 0 0 0 208919099.83695984 1160811034.2718792 0 1160811034.2718792 1053348967.2079773 0 0 0 0 127898572.00239563 1213646350.8980865 0 1213646350.8980865 1274645577.1898327 0 0 0 0 8122854.2154159546 857798658.04690552 0 857798658.04690552 1125346814.4200058 0 0 0 0 94599160.176849365 143976467.06604385 0 143976467.06604385 42066223.78012085 0 0 0 0 322423084.42637634 7997104.3635025024 0 7997104.3635025024 -205691137.54509354 0 0 0 0 662562989.77352142 556726950.92712021 0 556726950.92712021 195740162.00422668 0 0 0 0 78041730.242828369 171489422.53314972 0 171489422.53314972 6296982.5913314819 0 0 0 0 -147243101.56246567 672410242.28093147 0 672410242.28093147 463831847.18099213 0 0 0 0 44000448.749664307 710760523.29499435 0 710760523.29499435 587179114.10538864 0 0 0 0 216567481.72098541 839538933.8702755 0 839538933.8702755 220170403.5604248 0 0 0 0 -28062638.625549316 589372403.99584579 0 589372403.99584579 -97305649.709602356 0 0 0 0 43450025.301712036 437197000.90735245 0 437197000.90735245 53625467.358478546 0 0 0 0 112533663.57470703 270608575.28158569 0 270608575.28158569 -16763699.268650055 0 0 0 0 197048129.19798279 700909351.17293549 0 700909351.17293549 238200935.14195251 0 0 0 0 271161453.05796814 441915567.12773895 0 441915567.12773895 -525151500.37368774 0 0 0 0 304022279.57572937 169167030.15997314 0 169167030.15997314 -542485292.71747708 0 0 0 0 -3165105.5306124389 9373518.1843843609 0 9373518.1843843609 -791827.63628348708 0 0 0 0 -873003277.71660614 99293694.666356087 0 99293694.666356087 58951568.932262421 0 0 0 0 -161918584.33718109 872398492.34866524 0 872398492.34866524 -692089777.23135376 0 0 0 0 -479090677.11500168 727285246.7909832 0 727285246.7909832 -453503768.41996765 0 0 0 0 302519765.15968323 252179872.40419769 0 252179872.40419769 -972931888.31575394 0 0 0 0 -815994317.1456337 -45979709.450697899 0 -45979709.450697899 362662674.16517639 0 0 0 0 80571859.281066895 -194114848.06365585 0 -194114848.06365585 225370929.54365158 0 0 0 0 305689799.73222351 175577321.8442421 0 175577321.8442421 -530733409.88367844 0 0 0 0 -96870283.170059204 122703937.5681057 0 122703937.5681057 629825778.2925415 0 0 0 0 5432771.6166811883 1918047.3622480482 0 1918047.3622480482 1424418.3445718884 0 0 0 0 311426491.16436768 26545403.084344864 0 26545403.084344864 236667841.89624786 0 0 0 0 175078980.17996216 27318376.742500305 0 27318376.742500305 641696003.6499157 0 0 0 0 243900015.06924438 -44799724.958656311 0 -44799724.958656311 189996861.48387337 0 0 0 0 1951864.9246634543 28790911.306433886 0 28790911.306433886 23664050.221893281 0 0 0 0 77300387.740097046 77794021.874902725 0 77794021.874902725 -106587637.30037689 0 0 0 0 106969976.72288513 -136765499.71913147 0 -136765499.71913147 204126062.9998827 0 0 0 0 -163500786.15328979 -3151667.6863327026 0 -3151667.6863327026 272280763.76410675 0 0 0 0 -295573882.95450497 276203573.98245406 0 276203573.98245406 -30315714.328689575 0 0 0 0 -339598476.58433247 -60939996.929656982 0 -60939996.929656982 277153102.41975403 0 0 0 0 102502654.83544922 -89295452.995956421 0 -89295452.995956421 184859984.64743423 0 0 0 0 -38561010.300987244 121620846.31098747 0 121620846.31098747 -90746731.616943359 0 0 0 0 91702371.621200562 121847993.04890442 0 121847993.04890442 -192683483.54219818 0 0 0 0 18176109.434585571 -9390011.3039627075 0 -9390011.3039627075 108089671.09402466 0 0 0 0 -546760441.70470428 -459607768.32792854 0 -459607768.32792854 -2220661.167011261 0 0 0 0 31111586.039657593 381756202.59350967 0 381756202.59350967 -853046703.02865982 0 0 0 0 -514843563.49086428 598901767.85803664 0 598901767.85803664 -281954378.04441833 0 0 0 0 -122587076.54481506 308424345.16215134 0 308424345.16215134 -102916979.42276764 0 0 0 0 -146369245.87466431 371559071.82461357 0 371559071.82461357 -257416685.56735229 0 0 0 0 -305526458.36807251 224601796.91339111 0 224601796.91339111 -77577605.00983429 0 0 0 0 -76816118.426940918 393622581.34192276 0 393622581.34192276 -307893140.0706892 0 0 0 0 -60040422.191070557 312822986.63406181 0 312822986.63406181 -70096522.858730316 0 0 0 0 34957528.621688843 51065666.502305984 0 51065666.502305984 -58156315.398067474 0 0 0 0 136006897.91930389 187111218.53342819 0 187111218.53342819 -658354712.92899513 0 0 0 0 -17497508.519989014 96376984.636558533 0 96376984.636558533 -2497241.3338527679 0 0 0 0 -27363732.362533569 202744244.46846008 0 202744244.46846008 -282781258.83796501 0 0 0 0 -90282862.787004471 63115833.828682899 0 63115833.828682899 -15308459.56943512 0 0 0 0 10122535.419593811 47849607.601401329 0 47849607.601401329 42775981.514091492 0 0 0 0 -52652874.468683243 39728303.88176012 0 39728303.88176012 48206159.454109192 0 0 0 0 2929782.2745865881 48149430.432286307 0 48149430.432286307 18956017.292068407 0 0 0 0 146756929.32821655 119921441.46542072 0 119921441.46542072 62518597.861377716 0 0 0 0 -228607520.74473572 62890537.703052521 0 62890537.703052521 41308738.519412994 0 0 0 0 34783535.381900787 113397005.21486712 0 113397005.21486712 25034429.885879517 0 0 0 0 -9986404.3857171834 30081314.963654079 0 30081314.963654079 2199340.0799413025 0 0 0 0 -14334045.823524475 133006993.13651323 0 133006993.13651323 19269709.959602356 0 0 0 0 -206476645.56835938 -16839959.551185608 0 -16839959.551185608 101188345.59010696 0 0 0 0 353201589.713974 180513003.8762598 0 180513003.8762598 -151867519.86048508 0 0 0 0 287075989.82652283 449327005.22809315 0 449327005.22809315 -687686519.0617981 0 0 0 0 369447046.25076294 215411352.54337358 0 215411352.54337358 -96569145.085025787 0 0 0 0 136868192.94309235 198993324.15631008 0 198993324.15631008 23983635.320224762 0 0 0 0 2845051.8847408295 -7792895.9552409649 0 -7792895.9552409649 10268303.11749649 0 0 0 0 717869526.68930483 171567125.66761154 0 171567125.66761154 -1110340551.503582 0 0 0 0 -2218729.7935754061 44274276.825899005 0 44274276.825899005 16925642.116661176 0 0 0 0 698961760.41889191 -594419576.3842411 0 -594419576.3842411 -128680659.49745935 0 0 0 0 -4322480.5253448486 88796889.636745453 0 88796889.636745453 -226729214.95493698 0 0 0 0 -560727.02477297187 22871968.138368659 0 22871968.138368659 -4980071.5076004714 0 0 0 0 74809052.286132812 77419137.678619385 0 77419137.678619385 13028222.688156605 0 0 0 0 -87305187.905395508 -26241520.059513092 0 -26241520.059513092 47303031.366363525 0 0 0 0 -497193046.5586648 177042333.25688094 0 177042333.25688094 82656363.081886292 0 0 0 0 129682559.00715637 646209026.12997818 0 646209026.12997818 -653959209.98773384 0 0 0 0 1635236.2688727081 8047185.5196733959 0 8047185.5196733959 -4717845.4481326193 0 0 0 0 83212952.990707397 -177302706.50548935 0 -177302706.50548935 -1013743002.0927582 0 0 0 0 63903228.810470581 125107379.79527092 0 125107379.79527092 -344087538.2683754 0 0 0 0 122366376.40528774 59408130.023529053 0 59408130.023529053 -286831531.96017456 0 0 0 0 -59030656.593391418 119556264.23988533 0 119556264.23988533 280613480.93484116 0 0 0 0 123339420.59078598 72398578.310614586 0 72398578.310614586 78077822.044155121 0 0 0 0 -54347575.332448959 30701024.003844261 0 30701024.003844261 68358434.197193146 0 0 0 0 45101276.111431122 183349288.98836994 0 183349288.98836994 -34205925.215496063 0 0 0 0 27569822.657340169 49532097.316093281 0 49532097.316093281 29705484.729168251 0 0 0 0 -33107963.83605957 145125329.63108063 0 145125329.63108063 -111963304.90723038 0 0 0 0 -13349845.11636287 21846464.102048546 0 21846464.102048546 9497800.2528526876 0 0 0 0 27038169.468399048 -23819113.899185181 0 -23819113.899185181 56370898.309225082 0 0 0 0 -103441825.07476044 440005022.95038795 0 440005022.95038795 248444986.15842819 0 0 0 0 -16837046.938261479 24284298.722303316 0 24284298.722303316 25540152.982524432 0 0 0 0 -253321097.79663086 150432805.38590813 0 150432805.38590813 654839530.15024185 0 0 0 0 -24263363.497266769 99299696.880601406 0 99299696.880601406 109324725.73868179 0 0 0 0 19418856.100445092 46211373.320145532 0 46211373.320145532 25908889.031955957 0 0 0 0 634283.44042786956 6020778.9307349175 0 6020778.9307349175 10401001.218372613 0 0 0 0 -42776701.600097656 -254635930.11274338 0 -254635930.11274338 326073506.65893316 0 0 0 0 21008294.468963623 123858589.01245117 0 123858589.01245117 -325480184.82766724 0 0 0 0 179424637.3699646 -180395214.54505157 0 -180395214.54505157 -81489830.059868336 0 0 0 0 -13213391.226173401 123228051.94283676 0 123228051.94283676 -148617976.59527588 0 0 0 0 -7466425.6535797119 124613359.37722588 0 124613359.37722588 -203851347.32949829 0 0 0 0 44899867.370956421 170242701.81619263 0 170242701.81619263 -194209505.71757412 0 0 0 0 10297745.047134399 152815355.36569977 0 152815355.36569977 -167352676.96496582 0 0 0 0 -32409813.554122925 148661527.74650574 0 148661527.74650574 -162289420.69928741 0 0 0 0 5664705.002166748 190165452.13355637 0 190165452.13355637 -119357374.05050659 0 0 0 0 -40127023.072395325 169329919.01706314 0 169329919.01706314 -116191157.43716574 0 0 0 0 -36863049.076377869 163589393.07103729 0 163589393.07103729 -108534132.49750519 0 0 0 0 219690171.05831146 96852824.58523941 0 96852824.58523941 -161728571.12750816 0 0 0 0 71347438.107940674 243717951.97403336 0 243717951.97403336 -119262065.05390167 0 0 0 0 -77423837.138000488 219544285.98736954 0 219544285.98736954 -92956936.709009171 0 0 0 0 -114070477.02433777 110511965.36300659 0 110511965.36300659 -148999470.04870605 0 0 0 0 -101489026.46365356 117425658.15136337 0 117425658.15136337 -112852061.77815247 0 0 0 0 -72685959.269790649 165858095.49583817 0 165858095.49583817 -104278439.65565109 0 0 0 0 -20892718.080337524 93973134.648452759 0 93973134.648452759 -156337466.41114044 0 0 0 0 -10424084.481092453 128960034.96473598 0 128960034.96473598 -111663689.58166504 0 0 0 0 -23256735.452543259 92568240.603565216 0 92568240.603565216 -104220499.23234558 0 0 0 0 -54832428.951721191 151453958.91827393 0 151453958.91827393 -113475007.84037018 0 0 0 0 44449725.586228013 53106523.423475087 0 53106523.423475087 20744976.367208518 0 0 0 0 132548676.5320816 -13802668.524175644 0 -13802668.524175644 -20110976.264094353 0 0 0 0 138990870.27197266 -3962499.9919204712 0 -3962499.9919204712 -5236632.7164955139 0 0 0 0 124715403.01417542 -48519002.030437469 0 -48519002.030437469 -19464215.693901062 0 0 0 0 75746770.106407166 -4684751.9290351868 0 -4684751.9290351868 -21491079.618765831 0 0 0 0 35316983.353966177 52036831.793934703 0 52036831.793934703 28604791.613854744 0 0 0 0 -2526984.3472824097 116920525.30656052 0 116920525.30656052 -127869285.64023972 0 0 0 0 14240166.517044067 89899119.528280258 0 89899119.528280258 -161905824.1368103 0 0 0 0 8878917.3307342529 82914410.421485901 0 82914410.421485901 -145914233.41947365 0 0 0 0 19968718.954658508 86267840.762817383 0 86267840.762817383 -183912853.13620758 0 0 0 0 10387017.671192169 88667825.850897789 0 88667825.850897789 -138987809.09664917 0 0 0 0 -772360.98016357422 48185559.691833496 0 48185559.691833496 -182005932.59371948 0 0 0 0 -70053274.542053223 56194207.636444092 0 56194207.636444092 -84446204.379882812 0 0 0 0 -7595205.5884094238 77125621.866859436 0 77125621.866859436 -123662451.72233582 0 0 0 0 731426.33679199219 114246952.96086121 0 114246952.96086121 -87732991.273971558 0 0 0 0 -10116330.737005234 107435499.32946014 0 107435499.32946014 -75928747.909515381 0 0 0 0 -18271243.260375977 9750140.7956695557 0 9750140.7956695557 296237932.88497925 0 0 0 0 -18886457.440887451 114870811.51463318 0 114870811.51463318 -60972897.326385498 0 0 0 0 18123990.179046631 148821210.03625488 0 148821210.03625488 -46789487.401885986 0 0 0 0 40223281.449751139 60919890.7651674 0 60919890.7651674 21193846.951587439 0 0 0 0 57139362.24949646 156848904.96910858 0 156848904.96910858 -58723235.726150513 0 0 0 0 114067650.72909546 174525498.29527283 0 174525498.29527283 -53309018.759963989 0 0 0 0 18834446.360069364 -4874154.6480534822 0 -4874154.6480534822 -15525278.611187533 0 0 0 0 -20526489.421600342 -61269241.504302979 0 -61269241.504302979 283224198.46815491 0 0 0 0 -51418542.26348877 63246748.888885498 0 63246748.888885498 -101501135.2006073 0 0 0 0 -3279332.7671508789 105008631.32649231 0 105008631.32649231 -90399648.124450684 0 0 0 0 -21979372.648651123 107363947.10577393 0 107363947.10577393 -63422390.415222168 0 0 0 0 -25174392.249816895 110967835.07019043 0 110967835.07019043 -67284437.574905396 0 0 0 0 12170786.564605713 139180386.44792175 0 139180386.44792175 -56281070.466316223 0 0 0 0 10912819.291915894 135518070.20824432 0 135518070.20824432 -59685969.812408447 0 0 0 0 6502337.0668640137 147193295.33655167 0 147193295.33655167 -37240781.510864258 0 0 0 0 71144636.848510742 179866395.52844238 0 179866395.52844238 -29561939.098892212 0 0 0 0 48945734.790588379 147731116.52574158 0 147731116.52574158 -42671769.073226929 0 0 0 0 47199266.877746582 158363698.78338623 0 158363698.78338623 -31098235.216497421 0 0 0 0 105104060.69958496 155568965.93095398 0 155568965.93095398 -12178597.997741699 0 0 0 0 52766512.307861328 156123804.66737366 0 156123804.66737366 -46961212.213867188 0 0 0 0 1583373.655960083 143426474.28177643 0 143426474.28177643 -45337343.650878906 0 0 0 0 -40628586.782165527 -40850104.307601929 0 -40850104.307601929 265853135.3014617 0 0 0 0 -36421003.615600586 -59538266.865005493 0 -59538266.865005493 242399341.16344452 0 0 0 0 -23359838.419158936 -32937057.599189758 0 -32937057.599189758 198619446.35159302 0 0 0 0 -22239980.676025391 -27013267.368782043 0 -27013267.368782043 211651250.54386902 0 0 0 0 -26043129.817962646 -25349492.823242188 0 -25349492.823242188 249443277.83593559 0 0 0 0 -8328208.0563964844 14836987.795013428 0 14836987.795013428 266768090.32654762 0 0 0 0 3343661.7255249023 10640531.471557617 0 10640531.471557617 228239606.95484924 0 0 0 0 43654715.290222168 64040917.32963562 0 64040917.32963562 271649275.06784821 0 0 0 0 78150811.375976562 75972427.373031616 0 75972427.373031616 245636321.69407654 0 0 0 0 -75878756.062011719 74837012.114768982 0 74837012.114768982 -81354904.592346191 0 0 0 0 -43747678.475402832 108854087.74777222 0 108854087.74777222 -67288153.372131348 0 0 0 0 431594771.75030518 -83929202.76864624 0 -83929202.76864624 -641307147.0027771 0 0 0 0 128548284.80627441 104264051.93539429 0 104264051.93539429 169314166.39779663 0 0 0 0 -487964345.37825775 362938135.82109833 0 362938135.82109833 567734747.01358032 0 0 0 0 -588454134.11608887 -4211427.000289917 0 -4211427.000289917 1080404835.405426 0 0 0 0 153147897.09817505 -56129453.20980835 0 -56129453.20980835 193635778.822052 0 0 0 0 196309232.62915039 17830095.55676651 0 17830095.55676651 159035962.24887085 0 0 0 0 165611690.25534058 181463671.88639832 0 181463671.88639832 -53372591.852600098 0 0 0 0 255705159.28564453 184831566.11471558 0 184831566.11471558 -53887931.315948486 0 0 0 0 119784672.78637695 170807437.70282745 0 170807437.70282745 -24972643.042541504 0 0 0 0 74930059.2265625 -84003564.573730469 0 -84003564.573730469 220112947.93118286 0 0 0 0 -26579527.027838588 -40203188.6133039 0 -40203188.6133039 201883167.96011353 0 0 0 0 -26755466.012573242 -60230321.657348633 0 -60230321.657348633 231868448.87521362 0 0 0 0 28262702.188842773 -46103538.198196411 0 -46103538.198196411 185924623.57479858 0 0 0 0 -29883457.877044678 -50260233.811508179 0 -50260233.811508179 220584878.56280518 0 0 0 0 29608353.296905518 -83137684.267913818 0 -83137684.267913818 226918282.06098747 0 0 0 0 45365341.459739685 -24768915.417013168 0 -24768915.417013168 184988307.11608887 0 0 0 0 50672353.395217896 36527776.340076447 0 36527776.340076447 161067512.95669556 0 0 0 0 87780965.947387695 -11202490.006774902 0 -11202490.006774902 176063349.60035706 0 0 0 0 -13838932.113891602 8370516.8917160034 0 8370516.8917160034 175691718.02368736 0 0 0 0 20565738.300605774 33657543.451839447 0 33657543.451839447 162833369.00248718 0 0 0 0 -45923419.46585083 73100653.914932251 0 73100653.914932251 171467322.62535763 0 0 0 0 -12640700.004623413 126955149.49519348 0 126955149.49519348 172762262.60227966 0 0 0 0 83987934.248779297 65566013.57623291 0 65566013.57623291 171832781.85988808 0 0 0 0 -106991141.10656738 17218228.705039978 0 17218228.705039978 138900952.74402618 0 0 0 0 -70923179.326507568 28389654.444818497 0 28389654.444818497 102113905.46337128 0 0 0 0 -70455210.592224121 45974684.377494812 0 45974684.377494812 161171899.89358902 0 0 0 0 -18732175.679924011 -17511172.495780945 0 -17511172.495780945 145582497.77494812 0 0 0 0 -92424097.097290039 10211680.823677063 0 10211680.823677063 135433811.04697037 0 0 0 0 -42140740.334068298 -37940815.231513977 0 -37940815.231513977 75488022.297897339 0 0 0 0 -24695366.504272461 -52869351.000656128 0 -52869351.000656128 191389418.25006866 0 0 0 0 -37245405.867095947 -11925888.533432007 0 -11925888.533432007 168861260.48078156 0 0 0 0 -20880366.188018799 -24656198.316604614 0 -24656198.316604614 145694414.15505981 0 0 0 0 -27647573.144451141 -41722228.63747406 0 -41722228.63747406 192332424.22538757 0 0 0 0 -28452396.482421875 -48583289.397249222 0 -48583289.397249222 114052886.71734619 0 0 0 0 -42869364.154937744 -17638866.689094543 0 -17638866.689094543 147259793.72588444 0 0 0 0 -39708492.575241089 -78279426.114341736 0 -78279426.114341736 -6418312.6385345459 0 0 0 0 -83105910.869903564 -13451570.883575439 0 -13451570.883575439 70216940.676354408 0 0 0 0 -168447856.48538208 11548378.029888153 0 11548378.029888153 99340833.882400513 0 0 0 0 -74818255.745651245 -26520291.414493561 0 -26520291.414493561 4135881.4029159546 0 0 0 0 149559755.4894104 34367665.541460037 0 34367665.541460037 81481012.415985107 0 0 0 0 68793604.863555908 -6171886.9417266846 0 -6171886.9417266846 90335842.717544556 0 0 0 0 109093757.0987854 13695567.18145752 0 13695567.18145752 51637134.691871643 0 0 0 0 122753439.66552734 -18771444.942741394 0 -18771444.942741394 -1400634.456325531 0 0 0 0 118439486.67050171 76006404.160861969 0 76006404.160861969 179174187.04464722 0 0 0 0 101347910.3258667 43799755.711868286 0 43799755.711868286 118762583.87640381 0 0 0 0 52106348.867980957 30621408.449577332 0 30621408.449577332 166689483.98910522 0 0 0 0 42552516.65625 41478131.726676941 0 41478131.726676941 206965515.05459595 0 0 0 0 15274356.431732178 13149512.051294327 0 13149512.051294327 197327053.63679504 0 0 0 0 22482805.87322998 -1336286.4010620117 0 -1336286.4010620117 146418023.73220825 0 0 0 0 -3661945.06640625 -12687351.531280518 0 -12687351.531280518 147644774.27178192 0 0 0 0 -6201703.5181884766 -23004579.374343872 0 -23004579.374343872 162635739.66822815 0 0 0 0 45958896.93989563 -5021969.1627731323 0 -5021969.1627731323 94783833.503509521 0 0 0 0 13419737.971496582 -30473581.468666077 0 -30473581.468666077 86304619.319591522 0 0 0 0 55547060.288574219 17764314.313694 0 17764314.313694 142172030.07278442 0 0 0 0 81571837.188232422 -31393842.735546112 0 -31393842.735546112 9750093.3090438843 0 0 0 0 -18321380.564910889 -43310556.310401917 0 -43310556.310401917 50755219.968315125 0 0 0 0 21526003.117095947 -22735631.548828125 0 -22735631.548828125 57510742.416641235 0 0 0 0 47588312.431686401 -54686174.337295532 0 -54686174.337295532 -22481800.888626099 0 0 0 0 40701848.564483643 -58554882.513011932 0 -58554882.513011932 -52780.629165649414 0 0 0 0 94038870.017715454 -46049152.61946106 0 -46049152.61946106 -43747228.67741394 0 0 0 0 125848321.54907227 -42467097.966705322 0 -42467097.966705322 -38189980.708312988 0 0 0 0 83294602.792205811 -23458725.503723145 0 -23458725.503723145 33070485.304397583 0 0 0 0 97517217.770355225 -54443084.679840088 0 -54443084.679840088 -9743489.784942627 0 0 0 0 151068583.25678253 -47661354.996906281 0 -47661354.996906281 -97739633.431510925 0 0 0 0 100183768.13440514 -75405462.224472523 0 -75405462.224472523 -75605712.111221313 0 0 0 0 55338575.979629517 -84980389.194026947 0 -84980389.194026947 -82508304.255195618 0 0 0 0 -4238420.8624725342 -57593210.28629303 0 -57593210.28629303 -22620629.182185173 0 0 0 0 57807745.236801147 -58939949.395584106 0 -58939949.395584106 -90650506.925329208 0 0 0 0 34251057.790641785 -92892923.474468231 0 -92892923.474468231 -136934101.7986908 0 0 0 0 -62716591.364151001 -67227491.331195831 0 -67227491.331195831 -121347091.91641045 0 0 0 0 101986700.12503052 -97607819.833892822 0 -97607819.833892822 -143275524.01335144 0 0 0 0 186898551.98933411 -38163478.246231079 0 -38163478.246231079 -148050011.56160975 0 0 0 0 -148477293.86825562 44670370.412872314 0 44670370.412872314 -42359918.703170776 0 0 0 0 -202813780.71141434 -41248142.183523178 0 -41248142.183523178 5046880.4619598389 0 0 0 0 -86259968.035110474 -73182251.338356018 0 -73182251.338356018 -48715619.096969604 0 0 0 0 -65271820.090766907 -49139372.485813141 0 -49139372.485813141 -100664701.76273346 0 0 0 0 5687657.8735427856 -44717655.665130615 0 -44717655.665130615 -42035484.273895264 0 0 0 0 -198071494.248703 -59564876.084411621 0 -59564876.084411621 -89947543.460586548 0 0 0 0 -48736540.467926025 -60457279.074310303 0 -60457279.074310303 -189179957.96990204 0 0 0 0 -164771075.05205917 -29557153.803499222 0 -29557153.803499222 -237270227.74785614 0 0 0 0 -502074005.47025299 94549027.165794373 0 94549027.165794373 -166971406.227005 0 0 0 0 -242944031.43209982 112307810.86254621 0 112307810.86254621 -271142591.01716614 0 0 0 0 -214292057.55873108 44551318.991767883 0 44551318.991767883 -207558763.62468719 0 0 0 0 -222286832.81857872 -56771446.814695597 0 -56771446.814695597 -137296521.80275726 0 0 0 0 -283106889.04840088 11811600.091899872 0 11811600.091899872 -210998342.44365692 0 0 0 0 244493205.81326294 -108863772.45070648 0 -108863772.45070648 -215846736.92026043 0 0 0 0 223886167.27658844 -31217170.016622543 0 -31217170.016622543 -213914742.12244415 0 0 0 0 65570623.635429382 -141147284.12443161 0 -141147284.12443161 -207375310.66159821 0 0 0 0 233203457.21425629 -201115734.66311264 0 -201115734.66311264 -136451062.35043526 0 0 0 0 -122010827.98317146 -201026602.50611401 0 -201026602.50611401 -112369551.22212219 0 0 0 0 634557887.57949829 -109806334.55928802 0 -109806334.55928802 -259199545.94733429 0 0 0 0 477676027.2096405 317617549.41109085 0 317617549.41109085 -651580161.57233858 0 0 0 0 211455125.57200241 71388065.156347275 0 71388065.156347275 -44695751.63734436 0 0 0 0 231007302.66934967 341244425.6580143 0 341244425.6580143 -91304796.993217468 0 0 0 0 203471015.91925049 -35357232.077306747 0 -35357232.077306747 -214505401.09861755 0 0 0 0 153167496.61181116 23143193.468826294 0 23143193.468826294 -57366749.440170288 0 0 0 0 247948616.81491852 30256486.585216522 0 30256486.585216522 -129380000.43832397 0 0 0 0 146590550.58699131 -36623004.73850584 0 -36623004.73850584 -79007566.459243774 0 0 0 0 150712787.84375 -45858382.792667389 0 -45858382.792667389 -105454427.57241726 0 0 0 0 122714777.96622467 162917960.60552406 0 162917960.60552406 -98392085.172094345 0 0 0 0 227594006.94248962 78082788.273948669 0 78082788.273948669 -53235438.321154118 0 0 0 0 56199138.463218689 116662292.74930382 0 116662292.74930382 308369710.56965637 0 0 0 0 88059084.3515625 371390267.05887604 0 371390267.05887604 512611803.68470955 0 0 0 0 -3902042.5750443935 10914750.949014455 0 10914750.949014455 1525336.8297773171 0 0 0 0 224113353.74176025 370392592.04783249 0 370392592.04783249 -903794152.06746674 0 0 0 0 63894481.428426504 124609714.06977111 0 124609714.06977111 -372110288.87211609 0 0 0 0 -92099129.183006287 198350640.36813736 0 198350640.36813736 150314770.81441402 0 0 0 0 -92427201.24886322 209856379.4569931 0 209856379.4569931 -250280788.92850876 0 0 0 0 739712821.55925751 -702539896.78927422 0 -702539896.78927422 421873814.65859222 0 0 0 0 1465001726.6760101 -211299773.80052185 0 -211299773.80052185 -606717184.77094269 0 0 0 0 243224315.20278931 952649324.04338074 0 952649324.04338074 -2901123.0681228638 0 0 0 0 2141184.7702637166 10492640.27538459 0 10492640.27538459 4171997.4036063552 0 0 0 0 1425190257.3406754 289912706.19353485 0 289912706.19353485 -175672356.1307373 0 0 0 0 412007857.62794495 254916245.72269821 0 254916245.72269821 911778651.97367859 0 0 0 0 806147579.73295593 -53155020.476528168 0 -53155020.476528168 -275387894.64543152 0 0 0 0 1339767040.3384027 -558697790.65444243 0 -558697790.65444243 29087987.83000946 0 0 0 0 609916876.7509079 -155142358.82923126 0 -155142358.82923126 -67315560.871107101 0 0 0 0 895085627.73783112 41441379.689191818 0 41441379.689191818 -377331435.83943176 0 0 0 0 404720563.32345581 241380467.5579834 0 241380467.5579834 -291399044.8404007 0 0 0 0 282805259.69146729 83767110.613220215 0 83767110.613220215 8113897.9451255798 0 0 0 0 -4983551.1261012554 79093535.985224724 0 79093535.985224724 -145641347.96453094 0 0 0 0 6267019.1315231323 31754554.390409216 0 31754554.390409216 8599251.6245633811 0 0 0 0 600931114.92154694 219539843.07870293 0 219539843.07870293 -6801483.4909288883 0 0 0 0 -14579378.080966741 41120157.040837333 0 41120157.040837333 -17337266.156395607 0 0 0 0 -2433993089.1646729 1533762639.165947 0 1533762639.165947 -25813607.782775879 0 0 0 0 601121041.93985748 137206615.44055939 0 137206615.44055939 -168725791.01581955 0 0 0 0 419838609.50941467 303998309.38352966 0 303998309.38352966 -322128206.77714539 0 0 0 0 -6836249.4954773188 15319630.859874107 0 15319630.859874107 -8583616.98744151 0 0 0 0 101652513.08494568 234677756.67222023 0 234677756.67222023 379439069.73820114 0 0 0 0 1798233951.3708229 18632004.960936546 0 18632004.960936546 494476797.44644165 0 0 0 0 -9362963.5971084535 13841848.374615073 0 13841848.374615073 -13210581.128637791 0 0 0 0 -2485928819.6844406 -214988211.81121254 0 -214988211.81121254 940010173.11959076 0 0 0 0 -2493492551.9262695 859202315.21247864 0 859202315.21247864 186243430.96829987 0 0 0 0 -2000008247.795929 548472079.33465195 0 548472079.33465195 76591665.222064972 0 0 0 0 -1221514794.5792236 1220517608.0555496 0 1220517608.0555496 -1003305472.504818 0 0 0 0 -950664639.34436798 325792762.07138634 0 325792762.07138634 -9484612.3926620483 0 0 0 0 -999477399.62482452 773846485.20194244 0 773846485.20194244 79005462.914627075 0 0 0 0 -1002863769.4998693 392560482.63902539 0 392560482.63902539 218708203.84340668 0 0 0 0 -263900333.85556793 848437637.086689 0 848437637.086689 -163457094.28085709 0 0 0 0 -305959800.29679108 972707611.56388092 0 972707611.56388092 429137662.89340591 0 0 0 0 -292414167.44272232 906137050.50792503 0 906137050.50792503 -373513312.79097748 0 0 0 0 -728062832.33466339 708511668.01464081 0 708511668.01464081 19198845.09916687 0 0 0 0 -203387633.03504944 619915214.00290298 0 619915214.00290298 -33864687.35105896 0 0 0 0 272798263.55128479 197641483.1043129 0 197641483.1043129 -200776647.48667145 0 0 0 0 94479104.932224274 517547449.37608719 0 517547449.37608719 -564227573.31666565 0 0 0 0 -259092339.54368591 479629591.90478897 0 479629591.90478897 -415060120.94271088 0 0 0 0 -1478496003.6663818 1354362623.5514469 0 1354362623.5514469 -532416191.27064514 0 0 0 0 -346804735.764534 825076499.65118408 0 825076499.65118408 -1615881608.4417839 0 0 0 0 -2064239532.2663498 653953134.46110153 0 653953134.46110153 314072862.1028595 0 0 0 0 -2017340386.3072395 332474522.83974266 0 332474522.83974266 -199057359.11851501 0 0 0 0 -806186225.40533447 -224271404.30065346 0 -224271404.30065346 -1036704955.4702988 0 0 0 0 428679451.93782043 340295202.0379982 0 340295202.0379982 -723533109.83762741 0 0 0 0 -262116480.24546051 327360936.78080368 0 327360936.78080368 -480322452.22140503 0 0 0 0 372336982.02622986 399466846.71326447 0 399466846.71326447 -98819072.664873123 0 0 0 0 -79292551.477897644 43477947.138597488 0 43477947.138597488 -336863303.09223938 0 0 0 0 167528124.17835999 -213346259.00262451 0 -213346259.00262451 69846919.367438316 0 0 0 0 -146270246.56700897 141902775.9401741 0 141902775.9401741 18064462.874977112 0 0 0 0 -775496741.09131622 -197304310.65893173 0 -197304310.65893173 -105298917.0002079 0 0 0 0 -345717284.28497314 -199339950.84137726 0 -199339950.84137726 119023999.77933121 0 0 0 0 248075004.53762817 -156376505.11978912 0 -156376505.11978912 -184342694.93654633 0 0 0 0 -791010951.80683136 289296553.03407669 0 289296553.03407669 -71479100.574287415 0 0 0 0 -891801385.48040915 459600152.60703301 0 459600152.60703301 -202488072.41378021 0 0 0 0 -534544288.27001381 283909676.98356676 0 283909676.98356676 -226366204.04354095 0 0 0 0 -1005209654.6782303 745184712.23140907 0 745184712.23140907 -376455266.76673889 0 0 0 0 -959109466.89064026 751947255.58722687 0 751947255.58722687 -457115772.00587845 0 0 0 0 -960668771.8033905 711217708.49665833 0 711217708.49665833 -417195641.69278336 0 0 0 0 -354000341.37480545 463035258.85961342 0 463035258.85961342 -570251762.70612907 0 0 0 0 639177412.66763115 339448221.84665585 0 339448221.84665585 8575749.9719085693 0 0 0 0 -4570434.6466056332 17377695.524029031 0 17377695.524029031 -29239630.55023326 0 0 0 0 -863428578.62687683 1005316858.6503344 0 1005316858.6503344 -1113284643.481369 0 0 0 0 -1151803961.1220856 -263676769.36349773 0 -263676769.36349773 -72080840.110614777 0 0 0 0 -14434546.352417529 16744940.074071229 0 16744940.074071229 -493329.06177011132 0 0 0 0 -22242354.436900176 57811656.976864204 0 57811656.976864204 12593863.213981494 0 0 0 0 -234196.18083953857 51238048.545889854 0 51238048.545889854 31500807.719837189 0 0 0 0 74173050.126701355 36594703.526079178 0 36594703.526079178 -2332158.0707292557 0 0 0 0 2083811.9100060314 5098833.7093742415 0 5098833.7093742415 9349012.228518635 0 0 0 0 -935977252.30969262 -52274343.609277129 0 -52274343.609277129 29355540.259391785 0 0 0 0 -17882289.475083351 56232257.389746875 0 56232257.389746875 55102201.01292038 0 0 0 0 -29947739.01967144 57062545.054317266 0 57062545.054317266 1622145.0666542053 0 0 0 0 -17401400.217224121 46017404.221170425 0 46017404.221170425 36217378.365285873 0 0 0 0 8211561.7992897034 227143909.05920029 0 227143909.05920029 68725138.731149673 0 0 0 0 -7764532.5472755432 54894265.063866615 0 54894265.063866615 43378556.866970062 0 0 0 0 -10949639.834678888 59052409.053601921 0 59052409.053601921 -13398761.374116741 0 0 0 0 -158275645.44594574 126942013.78266144 0 126942013.78266144 299716962.4497261 0 0 0 0 -10854821.014465332 245999703.04653549 0 245999703.04653549 394743010.2640686 0 0 0 0 -635560550.90700531 319307539.78465271 0 319307539.78465271 388596402.03312778 0 0 0 0 -312440243.49783516 40416964.176057816 0 40416964.176057816 129375910.52387238 0 0 0 0 33847764.977237701 693687940.78194046 0 693687940.78194046 137051037.14031982 0 0 0 0 -956730989.10559464 647332705.38049316 0 647332705.38049316 158009541.35759878 0 0 0 0 -1238390489.3414598 -352145642.81307936 0 -352145642.81307936 -17567422.774620056 0 0 0 0 -1182184479.9919624 1463437587.4635391 0 1463437587.4635391 -1775557988.2398987 0 0 0 0 -3215563696.6035776 40685232.770888329 0 40685232.770888329 12642964.429763794 0 0 0 0 1635307.1610048562 12852873.960119136 0 12852873.960119136 -19803002.962164357 0 0 0 0 -2849741497.9945374 1273721730.1101065 0 1273721730.1101065 -388077858.74862671 0 0 0 0 -1443107556.3580856 -181152040.26727295 0 -181152040.26727295 -76730004.201496124 0 0 0 0 -1349353776.3010864 824854278.05106735 0 824854278.05106735 -319141983.15622711 0 0 0 0 -1928954261.181942 679996794.23670578 0 679996794.23670578 112417558.69285583 0 0 0 0 1228964413.8726006 315225855.34437466 0 315225855.34437466 -1469350477.2307663 0 0 0 0 -57706008.631725311 116575462.79916 0 116575462.79916 329567216.44800568 0 0 0 0 -4352718.1637466103 -606836.08616390824 0 -606836.08616390824 -8740731.9626755714 0 0 0 0 2150068405.8170776 458781813.20330048 0 458781813.20330048 -1775290627.6407585 0 0 0 0 23717953.360404968 659418127.59565735 0 659418127.59565735 -1563384253.2674637 0 0 0 0 -1691088257.9707184 1498651959.9010162 0 1498651959.9010162 -867121960.86960602 0 0 0 0 -403384213.26465607 386704520.63611221 0 386704520.63611221 -653877616.40969658 0 0 0 0 -987814211.6228714 688672957.8027153 0 688672957.8027153 -324619676.91033173 0 0 0 0 -247945425.25108337 149817283.26371002 0 149817283.26371002 -324866542.70028305 0 0 0 0 -411195791.41845703 87977416.775104523 0 87977416.775104523 -346302753.32896423 0 0 0 0 -295509134.78858948 -42474502.908926964 0 -42474502.908926964 -10495073.281150818 0 0 0 0 -327195974.00876617 -13395406.71075058 0 -13395406.71075058 -60245772.624534607 0 0 0 0 163878736.73754883 15174946.576591492 0 15174946.576591492 -957143617.90566635 0 0 0 0 -544281193.36096573 477980399.22238827 0 477980399.22238827 -543330704.92445374 0 0 0 0 -174213475.09958649 77757734.951438904 0 77757734.951438904 -369364334.91257286 0 0 0 0 -344447507.94241714 55758043.484297752 0 55758043.484297752 124762163.06568909 0 0 0 0 -314271931.33438873 191337685.50588226 0 191337685.50588226 161238296.66114807 0 0 0 0 96484019.089324951 246154283.26829338 0 246154283.26829338 77552684.454734802 0 0 0 0 158551312.33178711 98490980.586200714 0 98490980.586200714 405746524.54885101 0 0 0 0 -177968596.42671013 123365138.10659122 0 123365138.10659122 189129223.52427673 0 0 0 0 -220502884.08495331 252443636.19786072 0 252443636.19786072 423598662.45545197 0 0 0 0 40986872.591262817 323649831.09669495 0 323649831.09669495 279155240.57387543 0 0 0 0 -77131633.072143555 240205814.36001968 0 240205814.36001968 224207026.68714142 0 0 0 0 -81605744.048339844 311657750.14850235 0 311657750.14850235 318163657.77970123 0 0 0 0 -1785561.6975822449 454947557.13227558 0 454947557.13227558 607432919.16286469 0 0 0 0 458990460.76412201 577304706.10061264 0 577304706.10061264 275945648.06155014 0 0 0 0 -156812518.75195312 -17367490.33297348 0 -17367490.33297348 429244.36352157593 0 0 0 0 -268303444.89655685 74134184.592803955 0 74134184.592803955 152596232.78688049 0 0 0 0 -259687838.5461731 167707981.90648651 0 167707981.90648651 165560755.09658051 0 0 0 0 -190892334.33892822 74891733.830566406 0 74891733.830566406 14753915.994821548 0 0 0 0 -203154020.19705963 131511400.70560646 0 131511400.70560646 219875249.89874268 0 0 0 0 -171432590.6835022 234184564.62567139 0 234184564.62567139 292674671.67928696 0 0 0 0 -132044324.91383362 100950412.76841736 0 100950412.76841736 144197447.26283836 0 0 0 0 -144528335.45306396 109605209.35840225 0 109605209.35840225 186414927.29914856 0 0 0 0 55797284.018035412 72936390.497033864 0 72936390.497033864 547876.87611613423 0 0 0 0 -11555322.064697266 165452419.82119751 0 165452419.82119751 160965295.23338699 0 0 0 0 -96358295.604858398 358477335.4072876 0 358477335.4072876 -81512911.76474762 0 0 0 0 -5141723.4445037842 167324537.26087952 0 167324537.26087952 161158020.60009432 0 0 0 0 -62532842.065841675 154989178.39590073 0 154989178.39590073 197738708.2966156 0 0 0 0 -26304213.336639404 120140349.27401733 0 120140349.27401733 183924983.59080505 0 0 0 0 -40960278.422704697 124364405.95469093 0 124364405.95469093 182715591.17118835 0 0 0 0 -75585994.835388184 109387887.31331635 0 109387887.31331635 182479612.1409874 0 0 0 0 -123008578.90277863 152798572.3348465 0 152798572.3348465 210902452.61126709 0 0 0 0 -49516092.784576416 159441173.5514679 0 159441173.5514679 195438481.15182877 0 0 0 0 -60041518.642608643 162200591.72342682 0 162200591.72342682 211990385.33450317 0 0 0 0 -45344433.967468262 171894126.2270813 0 171894126.2270813 197779413.91639328 0 0 0 0 -65446636.375606537 196195910.46040821 0 196195910.46040821 200084604.62454224 0 0 0 0 -25707275.404541016 204182682.27192688 0 204182682.27192688 197346601.11617661 0 0 0 0 -71834569.522003174 174139205.49423218 0 174139205.49423218 200001242.90510178 0 0 0 0 -94427531.967025757 189014488.52581787 0 189014488.52581787 236085431.27060318 0 0 0 0 -84806608.003768921 195058324.18839645 0 195058324.18839645 207444661.79793549 0 0 0 0 -75102965.646286011 252820467.97665834 0 252820467.97665834 234987614.12724304 0 0 0 0 -8795077.4454345703 206833585.09253693 0 206833585.09253693 143186620.39857483 0 0 0 0 -10039163.011749268 225351859.54513168 0 225351859.54513168 154879362.75822449 0 0 0 0 -26176707.092330933 212724761.89958191 0 212724761.89958191 170945720.77145386 0 0 0 0 -10286258.014465332 198196345.32318115 0 198196345.32318115 166236420.28514099 0 0 0 0 -23388777.563728333 185944179.62657547 0 185944179.62657547 181846524.95854187 0 0 0 0 -52228672.759429932 183318331.94051361 0 183318331.94051361 182161494.25250244 0 0 0 0 19388735.105285645 142580869.29051208 0 142580869.29051208 167485200.88126373 0 0 0 0 114900156.64769745 101718304.29703903 0 101718304.29703903 -27771688.321334839 0 0 0 0 253888854.72686005 73024403.333983898 0 73024403.333983898 -89037176.692214966 0 0 0 0 93019200.897005081 210394215.11082268 0 210394215.11082268 30383389.559631348 0 0 0 0 213513626.02445984 286672319.63539124 0 286672319.63539124 76592508.395168304 0 0 0 0 113026341.22279358 309942181.13089371 0 309942181.13089371 76020701.618560791 0 0 0 0 96697828.684768677 351429649.38236237 0 351429649.38236237 202380505.13541412 0 0 0 0 2307885.4733123779 255037126.34830475 0 255037126.34830475 172363290.98695374 0 0 0 0 3748724.0445861816 275569996.13357544 0 275569996.13357544 142861771.58451843 0 0 0 0 81352295.166534424 269826079.70684242 0 269826079.70684242 114756911.87519836 0 0 0 0 30617464.113067627 219565341.83850861 0 219565341.83850861 81662699.136573792 0 0 0 0 21621770.445892334 145690512.16111755 0 145690512.16111755 117696051.49512863 0 0 0 0 46243237.095855713 212193739.49162292 0 212193739.49162292 85041964.97454834 0 0 0 0 25706277.317199707 224178787.27157593 0 224178787.27157593 151621398.24012756 0 0 0 0 32547608.551620483 229157260.49941254 0 229157260.49941254 114551357.7769165 0 0 0 0 18352461.523986816 194907472.477005 0 194907472.477005 147040070.48431778 0 0 0 0 29926713.157104492 187860154.60374451 0 187860154.60374451 111340989.01015186 0 0 0 0 60082054.941650391 184868352.72204971 0 184868352.72204971 36260624.176361084 0 0 0 0 19300446.038146973 130183526.85999298 0 130183526.85999298 70788721.503486633 0 0 0 0 22420047.192550659 96666842.600219727 0 96666842.600219727 -21348071.804626465 0 0 0 0 34681028.238578796 184822278.73642349 0 184822278.73642349 43511285.348480225 0 0 0 0 120363416.15553284 165438288.27038383 0 165438288.27038383 -78705198.994171143 0 0 0 0 47533477.94026947 173647701.12540436 0 173647701.12540436 44570326.594039917 0 0 0 0 34479504.617911324 44733527.592618674 0 44733527.592618674 -49038053.080051646 0 0 0 0 523887046.26275253 140551710.58581924 0 140551710.58581924 -243039785.95105743 0 0 0 0 16042701.93391379 45034786.90811839 0 45034786.90811839 -23950703.404887319 0 0 0 0 222010733.75878143 95620933.639755249 0 95620933.639755249 -67250467.331977844 0 0 0 0 -1391100178.2254944 519139397.87565422 0 519139397.87565422 38007526.141540527 0 0 0 0 538148430.67748189 -83311062.95871973 0 -83311062.95871973 -174596563.17298889 0 0 0 0 -1182497571.9996071 633956201.32246399 0 633956201.32246399 32817550.413864136 0 0 0 0 6659296.5478216447 10770270.722390592 0 10770270.722390592 -3240073.0587206483 0 0 0 0 -1194097132.6128807 593730736.53083801 0 593730736.53083801 -3514053.3501605988 0 0 0 0 -1272604241.931057 507057997.17446709 0 507057997.17446709 156395221.56684875 0 0 0 0 -342048578.19165134 79419728.45013237 0 79419728.45013237 -223394037.55224609 0 0 0 0 -1105667689.9320526 527424516.37319946 0 527424516.37319946 17261327.92339325 0 0 0 0 7029796.6821424663 40496493.199955024 0 40496493.199955024 -47203971.757888362 0 0 0 0 -361380246.04235458 50739872.330505371 0 50739872.330505371 251934541.82752991 0 0 0 0 637022928.96854782 641841464.45331955 0 641841464.45331955 410038900.68865204 0 0 0 0 465303551.72914124 803928964.6665535 0 803928964.6665535 257591435.57482815 0 0 0 0 804887905.36568451 231554184.38269806 0 231554184.38269806 -122183967.90768433 0 0 0 0 7822243.139181301 13266951.423161969 0 13266951.423161969 -9404696.818885088 0 0 0 0 16221795.808490753 56890485.230875015 0 56890485.230875015 -30657717.490249634 0 0 0 0 20277771.652351379 63795864.717895508 0 63795864.717895508 -24551252.63130188 0 0 0 0 23044706.748908997 45850640.712150574 0 45850640.712150574 -15225783.410217285 0 0 0 0 26758699.117191315 51639408.047296524 0 51639408.047296524 -49490485.799530029 0 0 0 0 20181789.712417603 85112687.116722107 0 85112687.116722107 -76799693.7004776 0 0 0 0 21860130.321426392 67080503.682094574 0 67080503.682094574 -17823676.136459351 0 0 0 0 28445985.69342041 52483291.26701355 0 52483291.26701355 -49073667.146598816 0 0 0 0 118523242.47594535 158213094.46155536 0 158213094.46155536 125389667.28257751 0 0 0 0 25654324.893710367 48435170.164010391 0 48435170.164010391 -22900934.073678434 0 0 0 0 136485566.02905655 119402531.75553417 0 119402531.75553417 -124862388.39198303 0 0 0 0 131823284.5177803 135914865.65037918 0 135914865.65037918 -10064566.626964569 0 0 0 0 13350954.319521822 21220748.888933741 0 21220748.888933741 -4901360.4949245453 0 0 0 0 107833677.96540368 -229674986.62057626 0 -229674986.62057626 89619714.620910645 0 0 0 0 -6518131.651207462 12541280.894868761 0 12541280.894868761 2283486.3573051617 0 0 0 0 -1044472009.0062332 347054503.25800705 0 347054503.25800705 -290004427.39068604 0 0 0 0 246707166.52707672 -147394660.03339767 0 -147394660.03339767 27774230.250022888 0 0 0 0 -528060.9271812439 35069963.716293335 0 35069963.716293335 -5036165.7644424438 0 0 0 0 14265607.851387024 30061331.185089111 0 30061331.185089111 10727495.139686584 0 0 0 0 3624857.5980555862 35289005.511265844 0 35289005.511265844 -8411437.0612640232 0 0 0 0 24919977.695724487 26969514.292480469 0 26969514.292480469 -14763433.177688599 0 0 0 0 -21852304.126403809 4867389.8616600037 0 4867389.8616600037 40571265.552146912 0 0 0 0 -7095417.6629460454 47182901.341565542 0 47182901.341565542 3410976.7727766335 0 0 0 0 -11972213.205834851 84448947.821491778 0 84448947.821491778 32878276.338881537 0 0 0 0 111209905.20455933 105816543.30780792 0 105816543.30780792 -239794624.61236572 0 0 0 0 6388656.702911377 123175370.73114014 0 123175370.73114014 -97192960.992847443 0 0 0 0 -11941323.841651917 80033669.729316711 0 80033669.729316711 -35965613.615631104 0 0 0 0 -14006027.327911377 144321296.19486237 0 144321296.19486237 -9757342.0863342285 0 0 0 0 -17825490.480010986 65934925.750520706 0 65934925.750520706 18429478.458557129 0 0 0 0 46349230.848464966 102140448.02875519 0 102140448.02875519 488997.27970123291 0 0 0 0 -3499553.1399092823 8928436.6854564995 0 8928436.6854564995 4989606.7247494757 0 0 0 0 28970056.5487957 39925479.480243683 0 39925479.480243683 -54311066.711502075 0 0 0 0 -57283518.910018921 212931276.1668663 0 212931276.1668663 16110810.790405273 0 0 0 0 -173289315.99176025 -103020335.80347443 0 -103020335.80347443 25914609.368681908 0 0 0 0 -109092131.67689514 164763312.27194214 0 164763312.27194214 -76337995.482997894 0 0 0 0 23969275.970443726 73012352.004096985 0 73012352.004096985 -97501324.777832031 0 0 0 0 -20209465.26725769 81907394.480735779 0 81907394.480735779 370596.34840393066 0 0 0 0 -18765616.868431091 47888967.984176636 0 47888967.984176636 84920912.972831726 0 0 0 0 28937564.482200623 48218902.844852448 0 48218902.844852448 10076059.434059143 0 0 0 0 134762458.9966507 29671518.333942413 0 29671518.333942413 13587282.666835785 0 0 0 0 -60325642.613948822 94153496.253908157 0 94153496.253908157 31043088.771629333 0 0 0 0 -31873261.456231721 57422997.917968258 0 57422997.917968258 7455715.4165675342 0 0 0 0 4617961.6976574063 51334982.14299649 0 51334982.14299649 -18614421.105224431 0 0 0 0 -7124803.6984710693 87072342.71238327 0 87072342.71238327 14687447.445501328 0 0 0 0 -7926334.8895492554 83943566.433280945 0 83943566.433280945 59386336.742790222 0 0 0 0 -10742980.116065979 72764756.018344879 0 72764756.018344879 46617179.998390198 0 0 0 0 -15291908.81526947 95481840.526855469 0 95481840.526855469 55878748.996337891 0 0 0 0 -3789297.8044967651 69760593.750366211 0 69760593.750366211 16785018.617393494 0 0 0 0 -12980395.787978992 45790116.220874101 0 45790116.220874101 -2560291.8332969695 0 0 0 0 7895595.2108306885 84904144.761459351 0 84904144.761459351 -17898031.069168091 0 0 0 0 300668442.42396927 -130149965.72058678 0 -130149965.72058678 -167578870.81132507 0 0 0 0 32024720.605389901 45231946.396166682 0 45231946.396166682 -34185231.971859574 0 0 0 0 -17478054.114379883 35919329.817466736 0 35919329.817466736 -15209991.152503967 0 0 0 0 -181475902.52109146 79084231.830928802 0 79084231.830928802 62368434.687835693 0 0 0 0 -73126540.282871246 133581051.09097672 0 133581051.09097672 88476600.081787109 0 0 0 0 -27567182.08921814 41408725.156738281 0 41408725.156738281 111178051.29501343 0 0 0 0 -8768349.9005349278 44797990.362651035 0 44797990.362651035 25666432.522098482 0 0 0 0 27869335.568183899 112698622.02931213 0 112698622.02931213 45020050.756484985 0 0 0 0 2103479.4191741943 115805587.16744995 0 115805587.16744995 79546993.758342743 0 0 0 0 -2377127.8717838749 -3756436.0116021633 0 -3756436.0116021633 2826878.4583947062 0 0 0 0 46110763.293979645 71841916.927030563 0 71841916.927030563 612771.21852111816 0 0 0 0 16842454.250030518 94949412.667736053 0 94949412.667736053 17791002.523101807 0 0 0 0 -32462191.002960205 82539287.456108093 0 82539287.456108093 16086752.017604828 0 0 0 0 1381907.6806335449 39667998.368133545 0 39667998.368133545 -22462150.424629211 0 0 0 0 -24196153.162548065 97472641.833602905 0 97472641.833602905 34321299.894180298 0 0 0 0 -15421464.867194712 104384254.42459926 0 104384254.42459926 36188965.008621216 0 0 0 0 -13291726.359237671 94715285.233894348 0 94715285.233894348 -99867.58235168457 0 0 0 0 -26047712.07106781 96077297.098526001 0 96077297.098526001 11625315.737503052 0 0 0 0 -43085413.198001862 71437461.44039917 0 71437461.44039917 -1457176.2585906982 0 0 0 0 -146332663.69765091 61311319.903820038 0 61311319.903820038 6452480.9015274048 0 0 0 0 -105128439.10482788 21973215.499801636 0 21973215.499801636 -5725489.1482543945 0 0 0 0 -48816247.501972198 77890430.854598999 0 77890430.854598999 -7455431.1939239502 0 0 0 0 -95416172.513946533 50161625.358779907 0 50161625.358779907 -6918355.1129623652 0 0 0 0 -96121733.201450825 54702014.52750349 0 54702014.52750349 -27961524.78868103 0 0 0 0 -52331201.304641724 82326336.003894806 0 82326336.003894806 -6676132.4858474731 0 0 0 0 -31244093.513679504 66168047.427082062 0 66168047.427082062 -4706146.3518981934 0 0 0 0 -38409489.75328064 84214404.447406769 0 84214404.447406769 16621.853748558377 0 0 0 0 -92063782.482276917 44702623.516260147 0 44702623.516260147 -13481773.486671448 0 0 0 0 -119621309.77326107 76161448.468197823 0 76161448.468197823 -46881.602722167969 0 0 0 0 15863908.004011154 86735189.21680069 0 86735189.21680069 -75786.980560302734 0 0 0 0 -7876455.7760105133 63583157.844772339 0 63583157.844772339 -3992995.4349060059 0 0 0 0 -13469277.609237671 93909007.989551544 0 93909007.989551544 9857072.98944664 0 0 0 0 23273483.18819046 71595921.014123917 0 71595921.014123917 44672223.897239685 0 0 0 0 19851282.154495239 85729691.122097015 0 85729691.122097015 4619588.1075134277 0 0 0 0 -13223271.151694536 99269078.999172211 0 99269078.999172211 34793595.191558838 0 0 0 0 -12804466.291919708 93660895.228710175 0 93660895.228710175 9925680.8078231812 0 0 0 0 16235244.354042053 99429993.621135712 0 99429993.621135712 21220588.722099304 0 0 0 0 -105661941.72429466 37720235.27312851 0 37720235.27312851 151085378.90077972 0 0 0 0 22719671.545612335 111384153.8572979 0 111384153.8572979 36296508.367172241 0 0 0 0 -16714126.266605243 21424581.953239471 0 21424581.953239471 16932707.445755631 0 0 0 0 -41435417.893505096 35685410.079349518 0 35685410.079349518 27244871.537109375 0 0 0 0 586258.62659832835 908511.36036645994 0 908511.36036645994 -796860.31663158536 0 0 0 0 -327213782.6368885 4168128.9533729553 0 4168128.9533729553 57500806.338310242 0 0 0 0 147010455.15663147 135917793.18969727 0 135917793.18969727 -3001253.1388702393 0 0 0 0 -121596435.98681641 85569070.508806229 0 85569070.508806229 56263.610656738281 0 0 0 0 -48559178.836566925 140941974.43146896 0 140941974.43146896 1861771.2264232635 0 0 0 0 -83215253.82716465 102729293.06238222 0 102729293.06238222 -24967.53507232666 0 0 0 0 -90387116.298286438 78858255.148983002 0 78858255.148983002 -37246438.087692261 0 0 0 0 -105846959.60443497 106204309.53873062 0 106204309.53873062 23532187.968330383 0 0 0 0 -120989445.22783661 147490525.53191376 0 147490525.53191376 -51874954.634233475 0 0 0 0 -32575312.322120667 108244484.26023865 0 108244484.26023865 -33668419.902908325 0 0 0 0 -25914423.706477642 136672804.41634876 0 136672804.41634876 37063763.579101562 0 0 0 0 -24852785.955986023 93437080.207759857 0 93437080.207759857 15112517.703086853 0 0 0 0 -105965624.39870453 121907071.90701675 0 121907071.90701675 184106652.21767426 0 0 0 0 14243513.918167114 264448388.10412121 0 264448388.10412121 340015349.27498627 0 0 0 0 -9976.1693303287029 3169574.9207369089 0 3169574.9207369089 2758779.0640858412 0 0 0 0 108318592.32423174 269022480.29408807 0 269022480.29408807 -256817461.52018356 0 0 0 0 104304764.27688599 383409728.27121735 0 383409728.27121735 65120579.14257431 0 0 0 0 -61723666.185539246 161962202.42618561 0 161962202.42618561 259789785.86476135 0 0 0 0 106916637.94640541 136454909.12283897 0 136454909.12283897 115579032.88946915 0 0 0 0 -49993340.703278184 52610874.08798416 0 52610874.08798416 -15215833.461686205 0 0 0 0 -50373817.927557111 64139317.421798751 0 64139317.421798751 -15132883.638090387 0 0 0 0 -21738362.255905151 112336619.18930435 0 112336619.18930435 10564454.64358139 0 0 0 0 -61002098.282012939 122552475.76066589 0 122552475.76066589 42232962.530418396 0 0 0 0 49491206.676498413 228458779.00075054 0 228458779.00075054 -34129977.41153717 0 0 0 0 55479230.911958694 211571656.33811569 0 211571656.33811569 -8090809.6309051514 0 0 0 0 104565320.83869934 180484763.2149353 0 180484763.2149353 -18327073.420646667 0 0 0 0 55961786.377876282 190962687.39974785 0 190962687.39974785 -43851490.392089844 0 0 0 0 10488453.668716431 180227051.1788826 0 180227051.1788826 70726537.6294384 0 0 0 0 13220165.412239075 101917461.87161255 0 101917461.87161255 4109181.7011222839 0 0 0 0 127056437.27264404 87410826.899345398 0 87410826.899345398 -31430913.255691528 0 0 0 0 164942266.9987793 108058910.66566467 0 108058910.66566467 -21664587.021270752 0 0 0 0 98959747.727111816 174435196.03614235 0 174435196.03614235 -22165759.967651367 0 0 0 0 231840093.47405243 169530278.45486641 0 169530278.45486641 -26045606.360870361 0 0 0 0 129328046.4066925 173715855.44006348 0 173715855.44006348 32898783.330192566 0 0 0 0 268705466.51089478 150214024.65777588 0 150214024.65777588 -23230823.817970276 0 0 0 0 328420719.10263062 185880079.50621033 0 185880079.50621033 -58746540.736427307 0 0 0 0 25109320.711826324 4102556.1662883759 0 4102556.1662883759 145535932.35482788 0 0 0 0 174771640.78540039 81100788.305473328 0 81100788.305473328 35915664.424957275 0 0 0 0 613630298.94628906 -22236983.799926758 0 -22236983.799926758 -3921929.9831848145 0 0 0 0 190392338.62442017 -416213106.92459106 0 -416213106.92459106 611221102.94996643 0 0 0 0 33699705.987426758 -17450828.898925781 0 -17450828.898925781 161074530.86593628 0 0 0 0 56785830.019348145 183435566.00919342 0 183435566.00919342 -53850691.124740601 0 0 0 0 70108356.458381653 210709462.36601639 0 210709462.36601639 -27878984.745391846 0 0 0 0 52891535.413452148 180750508.1451416 0 180750508.1451416 -9378347.3314666748 0 0 0 0 122635021.64024353 198141810.13220215 0 198141810.13220215 -28608420.909637451 0 0 0 0 103775842.74865723 177935527.71632385 0 177935527.71632385 -29000457.008575439 0 0 0 0 89425609.238067627 195784898.93128967 0 195784898.93128967 -4269953.6670837402 0 0 0 0 62718980.849304199 162441276.09653473 0 162441276.09653473 -21775214.44418335 0 0 0 0 27723192.54145813 146562783.10013962 0 146562783.10013962 -50274600.872924805 0 0 0 0 16699833.288726807 161510385.19091034 0 161510385.19091034 -31187278.250091553 0 0 0 0 44638788.441802979 175838917.6574707 0 175838917.6574707 -25406425.226860046 0 0 0 0 22278002.067649841 128738500.23480606 0 128738500.23480606 -134930336.2355957 0 0 0 0 31870771.962310791 153813935.193367 0 153813935.193367 -63580309.786430359 0 0 0 0 14350238.709087372 117014532.73676491 0 117014532.73676491 -102753885.98117065 0 0 0 0 55635374.02406311 171400057.4945755 0 171400057.4945755 -84815566.121026993 0 0 0 0 34501695.186767578 191309375.30017853 0 191309375.30017853 -36134373.308174133 0 0 0 0 11848703.162948608 116097697.50574493 0 116097697.50574493 -99868167.32477951 0 0 0 0 2059034.2268676758 130951229.61743164 0 130951229.61743164 -122364640.51133728 0 0 0 0 -22956768.969266891 64952673.084494591 0 64952673.084494591 -191001637.52577972 0 0 0 0 12422753.544570923 103600683.36292267 0 103600683.36292267 -151372613.25560379 0 0 0 0 44651890.196746826 117896556.45218468 0 117896556.45218468 -266193213.98509979 0 0 0 0 121406465.56123734 229331392.22273254 0 229331392.22273254 -117949071.82552338 0 0 0 0 38888162.950363159 218016271.30929947 0 218016271.30929947 -37717699.627811432 0 0 0 0 1164728.745988816 5795988.2051485479 0 5795988.2051485479 4201472.9810986966 0 0 0 0 -95016984.036727905 301604674.8364048 0 301604674.8364048 -250896211.82643127 0 0 0 0 -118457781.97715759 133200647.29842758 0 133200647.29842758 -154726333.26445234 0 0 0 0 -75673580.677566528 183515442.73470688 0 183515442.73470688 -268236609.34666443 0 0 0 0 623952.68935233355 2938187.9606378525 0 2938187.9606378525 1878581.441393733 0 0 0 0 133981778.99884033 339067137.48227692 0 339067137.48227692 -443599141.03899765 0 0 0 0 14000896.95110321 266432176.03124237 0 266432176.03124237 -20184762.624671936 0 0 0 0 -119742116.33098602 238660811.44091415 0 238660811.44091415 -25469173.823486328 0 0 0 0 -33643266.264129639 126613138.3221817 0 126613138.3221817 -364433188.47915649 0 0 0 0 -193457804.41134644 113955182.92078209 0 113955182.92078209 21881750.290031433 0 0 0 0 -126326328.60071014 216909430.18915012 0 216909430.18915012 121980278.27774811 0 0 0 0 -126022966.5973053 105212148.42491913 0 105212148.42491913 218812061.30634308 0 0 0 0 -209254572.75796509 134044000.38426208 0 134044000.38426208 359415095.18927765 0 0 0 0 -150116691.4486618 76519068.17792511 0 76519068.17792511 365923651.21308136 0 0 0 0 -133930189.39266205 32752237.119255066 0 32752237.119255066 448490733.96495056 0 0 0 0 -66411243.13923645 47573342.83644104 0 47573342.83644104 239473040.71072006 0 0 0 0 -76780960.17489624 175677553.96163559 0 175677553.96163559 360449243.22097778 0 0 0 0 -99556237.198104858 65491405.047943115 0 65491405.047943115 553421529.61390686 0 0 0 0 -6113592.5469665527 176794601.98923874 0 176794601.98923874 357358588.13655853 0 0 0 0 -81337993.112220764 258657997.95526218 0 258657997.95526218 305084388.82033539 0 0 0 0 -19554746.88458252 159706991.81581116 0 159706991.81581116 394902780.35732841 0 0 0 0 -178373163.22639465 128468993.96285629 0 128468993.96285629 389418788.66271019 0 0 0 0 -141927490.49703979 246386569.84304428 0 246386569.84304428 363951488.36723328 0 0 0 0 -181119956.03927612 59677710.805137634 0 59677710.805137634 165839365.55963898 0 0 0 0 -104018927.25924683 257401999.23875427 0 257401999.23875427 418700675.95796585 0 0 0 0 -45658996.01655674 50068009.153051242 0 50068009.153051242 -18162455.463532746 0 0 0 0 -37294706.252700806 115814017.17146301 0 115814017.17146301 104015491.57485199 0 0 0 0 -17326644.847682953 91798696.894630432 0 91798696.894630432 759659.72686767578 0 0 0 0 -38402899.213889897 51155047.794225842 0 51155047.794225842 -24986190.41508618 0 0 0 0 -79182158.935798645 141126822.52713776 0 141126822.52713776 549272442.64013672 0 0 0 0 -27236876.375488281 93821637.11006546 0 93821637.11006546 14605812.985977173 0 0 0 0 -11600139.486564636 113148936.09127045 0 113148936.09127045 14162606.2711941 0 0 0 0 -5440610.26121521 110432551.79719543 0 110432551.79719543 -8284065.8250656128 0 0 0 0 -32742365.470184326 102882509.17827225 0 102882509.17827225 -1028582.5592765808 0 0 0 0 6286544.4706344604 109083659.11110306 0 109083659.11110306 -7983840.410697937 0 0 0 0 -13399915.116439819 103508434.08998489 0 103508434.08998489 -9266801.5585327148 0 0 0 0 -10964730.421161652 121110414.79754639 0 121110414.79754639 -8393.7153854370117 0 0 0 0 132695114.78129959 43087977.817979813 0 43087977.817979813 -39898677.90246582 0 0 0 0 -23641707.312475801 11244933.14251408 0 11244933.14251408 -3692405.708917588 0 0 0 0 3199460.7236328125 105913375.82822037 0 105913375.82822037 -4573853.4113693237 0 0 0 0 56610265.227745056 127324932.30712128 0 127324932.30712128 -18670.55248260498 0 0 0 0 -3608476.3866882324 35827326.823886871 0 35827326.823886871 -40193873.030136108 0 0 0 0 -11412571.637275696 63187703.507949829 0 63187703.507949829 -25393535.210844994 0 0 0 0 62338306.288795471 83292633.27911377 0 83292633.27911377 -28539048.272666931 0 0 0 0 -31680693.541081518 42138884.450255975 0 42138884.450255975 -16782504.773170337 0 0 0 0 -21909948.90586853 59722072.330383301 0 59722072.330383301 -25320517.075485229 0 0 0 0 -29330720.72366333 160448465.28983307 0 160448465.28983307 -113300722.246521 0 0 0 0 -8950361.9216575623 96017724.915973663 0 96017724.915973663 2720807.8717575073 0 0 0 0 -106805801.17874146 11226538.462562561 0 11226538.462562561 480798539.97919464 0 0 0 0 23374223.344309807 301667083.13216209 0 301667083.13216209 651337491.95337677 0 0 0 0 -9574484.1718280911 -3310885.2613941878 0 -3310885.2613941878 14016470.714352131 0 0 0 0 -100675762.08071899 123891119.37834167 0 123891119.37834167 485549781.66848755 0 0 0 0 2430780.93076545 7856519.5218355581 0 7856519.5218355581 -8796029.7413207367 0 0 0 0 -116062924.80841064 175013890.65969849 0 175013890.65969849 386445630.67700195 0 0 0 0 -916275.27848339081 87819236.043646812 0 87819236.043646812 429530590.1893158 0 0 0 0 -83111122.610778809 110684690.80484772 0 110684690.80484772 445668404.04956675 0 0 0 0 -152009433.60282898 58029706.608551025 0 58029706.608551025 424553991.34712219 0 0 0 0 -158069916.91455078 84581209.49892807 0 84581209.49892807 320847810.92770386 0 0 0 0 -140799942.92433167 -1574705.8281860352 0 -1574705.8281860352 423510320.50228119 0 0 0 0 -136516598.6179657 -14100122.842788696 0 -14100122.842788696 283507649.39764404 0 0 0 0 -57759133.211776733 51302172.093299866 0 51302172.093299866 124990367.72120667 0 0 0 0 -27716676.689483643 -22898210.136615753 0 -22898210.136615753 272170675.2293396 0 0 0 0 -72681177.097625732 47347954.275886536 0 47347954.275886536 302511505.21729279 0 0 0 0 -97133550.080337524 165387965.13161278 0 165387965.13161278 42029931.855804443 0 0 0 0 18680315.380599976 24185983.598052979 0 24185983.598052979 80929212.352287292 0 0 0 0 71387029.339797974 -159554490.00875092 0 -159554490.00875092 190392793.20088959 0 0 0 0 -21822352.852476001 3783784.56569013 0 3783784.56569013 -4994730.1752775609 0 0 0 0 -35025243.831016541 45860295.02368927 0 45860295.02368927 110834834.0657959 0 0 0 0 -46580498.093193054 15100925.671401978 0 15100925.671401978 -32768615.610088348 0 0 0 0 -126506453.18978119 80487571.75296402 0 80487571.75296402 20510540.460647583 0 0 0 0 -5083458.5235257 26466587.400812522 0 26466587.400812522 7017422.3914254904 0 0 0 0 -23775365.169658422 40337764.607623823 0 40337764.607623823 -18732008.87909922 0 0 0 0 -28134790.239822388 -1902211.4857330322 0 -1902211.4857330322 80620093.465791464 0 0 0 0 -20256733.627630234 24195893.223203182 0 24195893.223203182 -37725646.674812317 0 0 0 0 -36188844.575248718 1332522.3535423279 0 1332522.3535423279 96557904.961219788 0 0 0 0 -29201605.555770874 17016332.323699951 0 17016332.323699951 80488636.077438354 0 0 0 0 -42206689.585647583 3744445.3227453232 0 3744445.3227453232 67039537.357635498 0 0 0 0 -35487446.137237549 15533253.082588196 0 15533253.082588196 127681982.83107185 0 0 0 0 -15415797.277084351 39914166.918571472 0 39914166.918571472 -30012587.536071777 0 0 0 0 -34574413.793670654 76259047.0610466 0 76259047.0610466 -15225991.150985718 0 0 0 0 -22899925.722045451 17317194.826053649 0 17317194.826053649 -11292209.613119721 0 0 0 0 -70129659.783500671 65572941.787233353 0 65572941.787233353 -5004235.242477417 0 0 0 0 -8452498.1954193115 7220081.8565559387 0 7220081.8565559387 95588.10807800293 0 0 0 0 -14910130.455129266 33977711.335059777 0 33977711.335059777 -12832799.861249208 0 0 0 0 -39984305.466659546 25125861.831741333 0 25125861.831741333 -56889302.174377441 0 0 0 0 -21238831.323791504 23951981.222946167 0 23951981.222946167 10336157.739608765 0 0 0 0 -550359.15040022135 792951.50863820314 0 792951.50863820314 -1036440.4945687652 0 0 0 0 -13885795.458185077 13438250.917627081 0 13438250.917627081 -882855.0741365999 0 0 0 0 -22304767.785522461 32860217.84262085 0 32860217.84262085 -10231892.974990845 0 0 0 0 -69446.986709594727 53239692.85697937 0 53239692.85697937 -16984692.177024841 0 0 0 0 -11519304.30406189 28808917.031440735 0 28808917.031440735 -9589339.7936439514 0 0 0 0 -49862453.908096313 52212509.699630737 0 52212509.699630737 -8464100.3815612793 0 0 0 0 33510507.523948669 22588925.927452087 0 22588925.927452087 -31055004.411804199 0 0 0 0 -20181917.832723133 10544150.202462003 0 10544150.202462003 -4154402.1870975196 0 0 0 0 -29178237.508651733 66829160.693336487 0 66829160.693336487 -59690.018547058105 0 0 0 0 -91278239.535980225 44916172.882743835 0 44916172.882743835 -5826403.6858978271 0 0 0 0 -20373335.378395081 70949025.599384308 0 70949025.599384308 -20445566.589431763 0 0 0 0 -2244166009.0618286 1201221033.8709717 0 1201221033.8709717 251334.68951660229 0 0 0 0 186052.92593383789 417625949.854105 0 417625949.854105 -241538224.2621994 0 0 0 0 -1773716895.9909744 2270796752.8107872 0 2270796752.8107872 -817952088.10493469 0 0 0 0 -480826860.14811707 -239704065.95366669 0 -239704065.95366669 -29157781.378181458 0 0 0 0 -4758471.0083845854 4795622.5665897653 0 4795622.5665897653 -1425307.1056285501 0 0 0 0 -55005814.062969208 80257807.972742081 0 80257807.972742081 -75506780.295822144 0 0 0 0 33543722.196182251 -1835274.6507034302 0 -1835274.6507034302 -204363881.68766975 0 0 0 0 -12635874.006082147 14499673.851210073 0 14499673.851210073 -4233816.6447829604 0 0 0 0 -12721398.47985588 18391182.992165357 0 18391182.992165357 -5234849.8391017616 0 0 0 0 -184520314.76029205 77362370.73384285 0 77362370.73384285 -2413272.7906036377 0 0 0 0 -55775116.023162842 -2124607.855304718 0 -2124607.855304718 -17773245.686496735 0 0 0 0 -149748732.48730469 13945995.189506531 0 13945995.189506531 8808749.9198608398 0 0 0 0 -87490750.184570312 50253453.97681427 0 50253453.97681427 -15882430.200366974 0 0 0 0 -190479737.85210085 229863165.76940084 0 229863165.76940084 -163228532.89035034 0 0 0 0 -182001907.06512356 91538648.486546278 0 91538648.486546278 -18545294.550140381 0 0 0 0 -4568742.4877164364 7144534.0094888508 0 7144534.0094888508 -12721168.968905985 0 0 0 0 -2896220.6410196424 6245910.8026154339 0 6245910.8026154339 -3332631.0817370415 0 0 0 0 -94285300.125011444 34984972.856947899 0 34984972.856947899 -216403406.54980469 0 0 0 0 51165503.761978149 52953153.855731964 0 52953153.855731964 2975578.8401908875 0 0 0 0 -29245270.61240387 138567780.94970322 0 138567780.94970322 303168756.35609055 0 0 0 0 262545.86843779683 4038809.3522976935 0 4038809.3522976935 -14457858.640775278 0 0 0 0 -110021602.88310242 508590489.65101242 0 508590489.65101242 1199490323.5328865 0 0 0 0 -8478.4363003671551 110633534.56615697 0 110633534.56615697 325102450.95214844 0 0 0 0 317508966.15353394 -157995507.50247574 0 -157995507.50247574 917197848.12559891 0 0 0 0 294746314.85813141 509247115.59808731 0 509247115.59808731 608254580.35786438 0 0 0 0 -114331362.3848877 479519219.49865723 0 479519219.49865723 1156164274.0033493 0 0 0 0 225111433.89066315 -480260697.34009552 0 -480260697.34009552 822942658.43338776 0 0 0 0 -163614631.14834595 262348130.35002136 0 262348130.35002136 166183865.68807983 0 0 0 0 -101899.69544509053 8206743.7759486437 0 8206743.7759486437 3762615.9319103956 0 0 0 0 -203443314.34355164 -65427158.309288025 0 -65427158.309288025 1300720139.2845764 0 0 0 0 -85748646.441345215 -150407755.32603073 0 -150407755.32603073 519327604.86903381 0 0 0 0 -202209754.32575989 22596028.881568909 0 22596028.881568909 587801681.59955978 0 0 0 0 -120835378.77480698 -35379629.874174118 0 -35379629.874174118 619805113.55181122 0 0 0 0 -184717006.01512146 31348864.152046204 0 31348864.152046204 442598015.77158737 0 0 0 0 -183588375.74116516 23182074.422546387 0 23182074.422546387 458825698.70880127 0 0 0 0 -177048875.15400696 130885689.88681412 0 130885689.88681412 271866204.15873718 0 0 0 0 -208066651.45508575 152761525.75061607 0 152761525.75061607 509095496.97453308 0 0 0 0 -201444309.20032501 252059370.88625717 0 252059370.88625717 321421323.01790619 0 0 0 0 -179131898.63330078 239048808.41853714 0 239048808.41853714 278197516.58057094 0 0 0 0 -87352325.169029236 185325105.83203506 0 185325105.83203506 583183167.43405151 0 0 0 0 -251779873.31820679 246544979.16161728 0 246544979.16161728 734082724.52742577 0 0 0 0 -202255641.30036926 477602685.79006577 0 477602685.79006577 455564031.77393341 0 0 0 0 -83690415.181648254 337439906.29073334 0 337439906.29073334 41196455.603721619 0 0 0 0 -225769249.09194946 451459881.80046844 0 451459881.80046844 130678146.45178604 0 0 0 0 -17132151.748565674 387785903.42563438 0 387785903.42563438 -304530002.4192276 0 0 0 0 -156379980.68609619 213200817.71649551 0 213200817.71649551 276948047.2149086 0 0 0 0 -41809740.898651123 683814624.32601929 0 683814624.32601929 -542378677.97468138 0 0 0 0 176129504.08993149 443672917.2369957 0 443672917.2369957 -296653024.16217804 0 0 0 0 -496901911.04847336 505630541.46492195 0 505630541.46492195 -25861201.282989502 0 0 0 0 -144257637.68360901 104389698.63585663 0 104389698.63585663 -582577725.63022423 0 0 0 0 90873282.436859131 18969433.306381226 0 18969433.306381226 -170630975.9979744 0 0 0 0 -19162.361154651015 271144162.35219306 0 271144162.35219306 359291653.2051239 0 0 0 0 90537779.880401611 192450309.60057068 0 192450309.60057068 205627323.16378784 0 0 0 0 -62057632.082170486 387908502.70771027 0 387908502.70771027 67267679.430961609 0 0 0 0 93528894.636118412 528068900.78860474 0 528068900.78860474 559327019.54277039 0 0 0 0 -50819889.24833487 95243887.526830852 0 95243887.526830852 -88072882.368486643 0 0 0 0 720461098.70094681 638837172.17108154 0 638837172.17108154 342840385.98004532 0 0 0 0 520329618.30211449 138085729.1341629 0 138085729.1341629 196515304.27959442 0 0 0 0 613768142.09519196 491059453.5092926 0 491059453.5092926 462653075.54919434 0 0 0 0 2100014038.7790604 562246970.62023163 0 562246970.62023163 -1417976.8114624023 0 0 0 0 712538919.74623013 688541199.8478756 0 688541199.8478756 679901542.03251648 0 0 0 0 512452944.14368439 608415564.60714149 0 608415564.60714149 133079087.07861233 0 0 0 0 455824321.26133728 222026182.20736122 0 222026182.20736122 -78116524.235897064 0 0 0 0 -15933542.915353388 21209012.685158081 0 21209012.685158081 11585361.765289068 0 0 0 0 603506042.98049927 474200266.0731144 0 474200266.0731144 -217167717.41675377 0 0 0 0 251336100.39083862 261619555.28337479 0 261619555.28337479 -44267905.657159805 0 0 0 0 264482210.51245117 252065084.2730732 0 252065084.2730732 -404371803.52902222 0 0 0 0 -115747168.68694401 156037397.74575686 0 156037397.74575686 -397322616.12329483 0 0 0 0 -84578312.213279724 315450027.4889183 0 315450027.4889183 -131662620.75778961 0 0 0 0 -55582304.406990051 539609247.49550629 0 539609247.49550629 418463563.45254707 0 0 0 0 -1868978.312412262 232226562.42612171 0 232226562.42612171 286142031.80337906 0 0 0 0 47627881.251693726 195383119.01002502 0 195383119.01002502 -218412662.21398926 0 0 0 0 22532480.331100464 534481117.63415527 0 534481117.63415527 -39421614.892112732 0 0 0 0 481164093.01317978 220008187.16835594 0 220008187.16835594 -187962257.7700882 0 0 0 0 620899043.82363796 759116055.25388908 0 759116055.25388908 686383146.07891083 0 0 0 0 -65172776.643397518 76514019.108347863 0 76514019.108347863 -50610229.635959685 0 0 0 0 600983934.62778783 628428773.83769751 0 628428773.83769751 388136228.80647278 0 0 0 0 650463919.25876617 883855445.59959412 0 883855445.59959412 110270938.70668793 0 0 0 0 724123118.42584229 1201584291.7328911 0 1201584291.7328911 1239760158.7625046 0 0 0 0 434992105.94688797 534823180.91719055 0 534823180.91719055 827498321.35464096 0 0 0 0 403262252.18538189 385014394.14478683 0 385014394.14478683 510868018.95602417 0 0 0 0 76675388.390422821 907261036.66938782 0 907261036.66938782 722785680.54956341 0 0 0 0 435470536.65071678 386011568.24334717 0 386011568.24334717 461631260.24378967 0 0 0 0 140285141.88735962 1014490707.1010132 0 1014490707.1010132 716757180.70076752 0 0 0 0 7888453.9510682039 9593907.942652747 0 9593907.942652747 -3910547.671878621 0 0 0 0 512384385.56459045 506171835.95753479 0 506171835.95753479 557932704.96072769 0 0 0 0 331019112.45876122 404439198.37520599 0 404439198.37520599 464556224.72099304 0 0 0 0 798262694.6408987 425219700.02656174 0 425219700.02656174 244542591.78530884 0 0 0 0 541114338.85471725 418194802.86500549 0 418194802.86500549 360890899.42182922 0 0 0 0 390503311.61885452 314533839.7348175 0 314533839.7348175 296130657.12730408 0 0 0 0 32237251.868171692 94922108.397644043 0 94922108.397644043 436434368.92783356 0 0 0 0 118820731.62901402 429566884.53865623 0 429566884.53865623 1830099648.7351112 0 0 0 0 233243208.48030472 364658162.63108444 0 364658162.63108444 450934994.88365173 0 0 0 0 435946412.94050026 466401784.1623764 0 466401784.1623764 1601942897.8933563 0 0 0 0 325399054.97581673 978882310.16834259 0 978882310.16834259 156038108.95191956 0 0 0 0 253681265.60077667 1268793241.4535065 0 1268793241.4535065 519804421.48855591 0 0 0 0 -656941.62211608887 944161467.53765869 0 944161467.53765869 433622918.8222084 0 0 0 0 290965446.75228333 932849612.0448103 0 932849612.0448103 85092509.977233887 0 0 0 0 147834347.05587387 646929645.31942749 0 646929645.31942749 -67822971.02394104 0 0 0 0 -311719306.05727005 470277131.15972519 0 470277131.15972519 -175161930.95901489 0 0 0 0 -160901361.48813629 219424103.94087219 0 219424103.94087219 2209059563.6339836 0 0 0 0 1037903.6690968983 7661122.1792563945 0 7661122.1792563945 4611411.9958970323 0 0 0 0 40899642.754338503 276169387.85693359 0 276169387.85693359 563813356.39979553 0 0 0 0 68400812.063196182 256467559.99983406 0 256467559.99983406 530845400.29164124 0 0 0 0 4859054.3627958298 422909993.16903305 0 422909993.16903305 637333782.07816887 0 0 0 0 3378529.3011554405 4928462.6023878008 0 4928462.6023878008 -1615126.3213336468 0 0 0 0 50726570.257367849 96031645.540718079 0 96031645.540718079 292371103.13143158 0 0 0 0 16206075.764430761 87057280.643024445 0 87057280.643024445 454003397.66993713 0 0 0 0 17521061.14145425 108055099.77266598 0 108055099.77266598 184389177.31510925 0 0 0 0 39462530.978492975 169337952.89058685 0 169337952.89058685 255950651.07891083 0 0 0 0 -45614231.05059576 131451642.47934341 0 131451642.47934341 720687134.35401535 0 0 0 0 6041392.4094059616 18977326.16497615 0 18977326.16497615 8805428.8502972201 0 0 0 0 -11102849.001340389 490661497.60293579 0 490661497.60293579 358342736.52478027 0 0 0 0 27086149.516560078 254059091.2570343 0 254059091.2570343 538279826.31776428 0 0 0 0 -11045613.93967694 358392193.41012192 0 358392193.41012192 308420398.61950684 0 0 0 0 104464966.21907908 331759979.23417664 0 331759979.23417664 143783352.60464478 0 0 0 0 81955251.084239513 366914936.24052429 0 366914936.24052429 260126415.53359985 0 0 0 0 243362412.4983936 430857620.69486618 0 430857620.69486618 -38480406.37267971 0 0 0 0 82924686.350541592 516179813.58733749 0 516179813.58733749 857471.49231719971 0 0 0 0 354865154.06433392 480810171.52996445 0 480810171.52996445 -393065551.67015076 0 0 0 0 243242093.48512197 -326359326.49193382 0 -326359326.49193382 -430876342.35218811 0 0 0 0 -716121387.65597153 -31509193.633262634 0 -31509193.633262634 364597599.75811386 0 0 0 0 -454663898.78340101 953070098.59458923 0 953070098.59458923 40376685.562088013 0 0 0 0 661996677.09915066 1038435227.1038399 0 1038435227.1038399 -917684488.05264282 0 0 0 0 511912848.07085705 1526317712.5404434 0 1526317712.5404434 -237588845.64647675 0 0 0 0 -1029832689.2670994 -86996611.238248825 0 -86996611.238248825 190931483.14823914 0 0 0 0 -5543025.8192246407 13674002.982486583 0 13674002.982486583 -8692784.5178461075 0 0 0 0 -320395538.83638096 115412735.77729416 0 115412735.77729416 137423618.41269684 0 0 0 0 -104095653.54671288 358204554.55045319 0 358204554.55045319 252062801.39422894 0 0 0 0 149320628.00582314 338415745.57675934 0 338415745.57675934 113743825.5258255 0 0 0 0 258616339.50177175 329900131.63868523 0 329900131.63868523 180096776.97560883 0 0 0 0 -11045354.762225853 41974429.615000293 0 41974429.615000293 -26610373.395356059 0 0 0 0 204246811.66799355 262474927.70480728 0 262474927.70480728 168980575.26028824 0 0 0 0 188882113.27943444 227646469.51644135 0 227646469.51644135 94675994.044815063 0 0 0 0 -2223780.8148447741 75972499.957896829 0 75972499.957896829 -43219108.48326233 0 0 0 0 432917155.80989814 86620695.000701904 0 86620695.000701904 102092527.74841309 0 0 0 0 24844679.328343511 170308123.13279212 0 170308123.13279212 -15995432.591049194 0 0 0 0 50366058.636135101 192992930.91175461 0 192992930.91175461 -28633828.013479233 0 0 0 0 24163576.564692855 159767626.78752649 0 159767626.78752649 -46339621.398254395 0 0 0 0 169194992.73585081 227226642.44171143 0 227226642.44171143 48944595.806060791 0 0 0 0 14354638.092865596 7928878.0540995896 0 7928878.0540995896 -18678256.922142804 0 0 0 0 367568889.37117624 183967595.41497993 0 183967595.41497993 -95382432.326980591 0 0 0 0 103594776.04374504 396784725.62895203 0 396784725.62895203 114490094.33511913 0 0 0 0 -35833257.007278442 216337014.79217529 0 216337014.79217529 74265698.29732132 0 0 0 0 -60251014.060083389 262950420.45440674 0 262950420.45440674 35610538.527832031 0 0 0 0 28125700.258759499 246576011.28871155 0 246576011.28871155 -65479913.826965332 0 0 0 0 40067294.583312988 233320364.58268738 0 233320364.58268738 -170409238.13412476 0 0 0 0 -20726714.964477539 368860081.81192017 0 368860081.81192017 -241148886.40809441 0 0 0 0 48464194.814502716 315677270.06059265 0 315677270.06059265 -9877589.7872695923 0 0 0 0 107754052.15737009 177053764.62656403 0 177053764.62656403 -72217362.743591309 0 0 0 0 41848294.067188263 114204389.34799957 0 114204389.34799957 -106909002.88059998 0 0 0 0 -19043930.761562347 140621074.46832275 0 140621074.46832275 -56796173.599834442 0 0 0 0 -63716054.894134045 222236731.11906052 0 222236731.11906052 83167350.266769409 0 0 0 0 -423773365.34974289 743065278.32394409 0 743065278.32394409 -192041611.82659912 0 0 0 0 -178419837.64956856 -152856909.81498718 0 -152856909.81498718 342421603.76312256 0 0 0 0 1123548.0451566838 10319718.216294095 0 10319718.216294095 -5500054.401533423 0 0 0 0 -9203928.4575550556 102642488.56626797 0 102642488.56626797 -45489741.045822144 0 0 0 0 58006922.715759501 18433405.334782399 0 18433405.334782399 -60087330.965687722 0 0 0 0 162672911.03732759 -109514300.7170372 0 -109514300.7170372 761980.94415283203 0 0 0 0 -1542096.3250236511 31978260.648353577 0 31978260.648353577 -15199251.38021493 0 0 0 0 141162420.65050125 36092042.326784134 0 36092042.326784134 -98821913.531410217 0 0 0 0 10711928.255769633 69101992.252713785 0 69101992.252713785 -65791122.198432297 0 0 0 0 -21240347.361058235 90230157.569683075 0 90230157.569683075 -58172541.525695801 0 0 0 0 9436860.4119479861 47795532.939050898 0 47795532.939050898 -47772638.7642515 0 0 0 0 190101979.45961761 11180653.858634949 0 11180653.858634949 -112918855.66715813 0 0 0 0 75026268.2842668 22975801.180419438 0 22975801.180419438 -64424750.036783248 0 0 0 0 240340290.74928284 -13258320.842298508 0 -13258320.842298508 -122935810.38204575 0 0 0 0 233677310.67416 5601251.8649501801 0 5601251.8649501801 -170996288.43746948 0 0 0 0 284484251.44297028 98298652.867053986 0 98298652.867053986 -91497206.292815685 0 0 0 0 324632534.41262817 65112121.433532715 0 65112121.433532715 -160329218.4178133 0 0 0 0 66639267.092519283 366221331.11000824 0 366221331.11000824 104790395.42980194 0 0 0 0 372919220.40731812 94864119.481863022 0 94864119.481863022 -172988151.49469757 0 0 0 0 -3598515.0606633313 21846257.799440056 0 21846257.799440056 -18159718.390983135 0 0 0 0 -16653448.443532592 100461314.99364358 0 100461314.99364358 -99977296.45398888 0 0 0 0 136442050.81237715 430039653.16820049 0 430039653.16820049 -8394806.5735626221 0 0 0 0 339521034.49565887 51972617.167137146 0 51972617.167137146 -161654405.66111755 0 0 0 0 274838399.62578583 -18859188.745044708 0 -18859188.745044708 -211660696.61889648 0 0 0 0 382653790.95187759 154191485.95400858 0 154191485.95400858 -293831286.95030975 0 0 0 0 358265583.9858017 211370699.05988503 0 211370699.05988503 -26745988.667785645 0 0 0 0 549197318.91842842 283784265.50164795 0 283784265.50164795 -213603725.95266724 0 0 0 0 -45263021.452382766 113506707.93287478 0 113506707.93287478 -99146949.769713968 0 0 0 0 425259515.25291681 -44416958.923774719 0 -44416958.923774719 -532126259.53199768 0 0 0 0 36307572.499721803 -4012125.2635962963 0 -4012125.2635962963 -28606535.415886492 0 0 0 0 510065313.97125912 1496981740.1561813 0 1496981740.1561813 203517601.19529724 0 0 0 0 -125529226.81867218 278662862.21169662 0 278662862.21169662 -410189706.54312897 0 0 0 0 -199816743.06748772 145196670.0881815 0 145196670.0881815 -500600165.03731537 0 0 0 0 31486452.080913544 94411681.628353119 0 94411681.628353119 -281042844.83539581 0 0 0 0 296159895.61865234 125748804.27218819 0 125748804.27218819 -219800006.21381187 0 0 0 0 299374062.05741119 142917478.93035507 0 142917478.93035507 -454013033.16416168 0 0 0 0 456102273.23539925 252277905.67095184 0 252277905.67095184 -318032043.10691833 0 0 0 0 126506034.31089783 99654904.891635895 0 99654904.891635895 -308478993.59199142 0 0 0 0 218862221.45176697 -66403871.622837067 0 -66403871.622837067 -377366165.42738152 0 0 0 0 125086527.97718048 69683950.019409657 0 69683950.019409657 -573783570.52033997 0 0 0 0 -28872605.962799072 3036492.2973365784 0 3036492.2973365784 -402833609.38623047 0 0 0 0 10695644.119426727 -167168160.93192291 0 -167168160.93192291 -274990157.31362534 0 0 0 0 124709147.43682861 42199982.132667542 0 42199982.132667542 -425744341.17964935 0 0 0 0 250429397.50791931 -6350005.3284912109 0 -6350005.3284912109 -174712261.71303177 0 0 0 0 174330482.51216125 -94331635.05090332 0 -94331635.05090332 -222222983.11202121 0 0 0 0 251440760.72559357 6086192.4369382858 0 6086192.4369382858 -224024538.30367661 0 0 0 0 168360865.43661499 -139831798.32445717 0 -139831798.32445717 -110030686.84926605 0 0 0 0 53817658.180309832 16246655.894817423 0 16246655.894817423 -37054744.195790358 0 0 0 0 219722990.91786194 88968997.844640732 0 88968997.844640732 -107732489.5319252 0 0 0 0 100790464.83712769 -32121903.272407532 0 -32121903.272407532 -115315690.41184473 0 0 0 0 100853502.89476101 -89787987.737971783 0 -89787987.737971783 -78703107.491210938 0 0 0 0 23005326.008677363 3934827.5270727128 0 3934827.5270727128 -16321804.412427843 0 0 0 0 47592136.62179938 12917292.369094715 0 12917292.369094715 -32734566.004354678 0 0 0 0 5373907.2039604187 -32923871.347135544 0 -32923871.347135544 -64754226.811691284 0 0 0 0 -40754313.053913116 -19373203.048693657 0 -19373203.048693657 20297435.203666687 0 0 0 0 56427616.562812805 -86465473.476360321 0 -86465473.476360321 -10632476.140212059 0 0 0 0 -512379.55473136902 14227175.927724838 0 14227175.927724838 -87633469.629428864 0 0 0 0 20260109.673202515 -22576189.315748215 0 -22576189.315748215 -59072823.006240845 0 0 0 0 7768886.1217311621 12117984.990297474 0 12117984.990297474 -14175638.431659907 0 0 0 0 300393757.32160568 291139339.04294491 0 291139339.04294491 -89664189.151809692 0 0 0 0 1382878788.3518372 9181055.844367981 0 9181055.844367981 -154654861.1891191 0 0 0 0 2097626.8155578673 4374339.0286262333 0 4374339.0286262333 -1902556.652902538 0 0 0 0 605381.24020580202 6604146.9997911751 0 6604146.9997911751 -4262873.648068592 0 0 0 0 83074497.205741882 128487537.46232414 0 128487537.46232414 -1138931700.324585 0 0 0 0 -76994771.986328125 33148044.038196087 0 33148044.038196087 -79981733.780735016 0 0 0 0 -133137404.05503082 -142307669.47492409 0 -142307669.47492409 -342655346.31958389 0 0 0 0 -398360372.25086975 546967301.53037071 0 546967301.53037071 45696830.674158096 0 0 0 0 -1115256579.1756744 1066139275.9018669 0 1066139275.9018669 -283018731.56412315 0 0 0 0 592311145.35084534 592412821.1961174 0 592412821.1961174 -122867956.66265106 0 0 0 0 467709267.32948303 956380383.29449844 0 956380383.29449844 326230277.18323016 0 0 0 0 -305333233.02243805 994902963.5957489 0 994902963.5957489 -76805382.719119072 0 0 0 0 -127764706.36360741 528021814.29376698 0 528021814.29376698 37229444.815677643 0 0 0 0 -720934474.15677643 1222502212.6363468 0 1222502212.6363468 -853759380.47984695 0 0 0 0 -558175580.22245026 836302575.05560303 0 836302575.05560303 -35911735.607906342 0 0 0 0 -1681998642.0738525 1612154863.0387621 0 1612154863.0387621 -825947999.28324318 0 0 0 0 -1219451435.370388 1018945349.3274536 0 1018945349.3274536 -77314675.857120514 0 0 0 0 -712501651.26125336 850319077.47458649 0 850319077.47458649 -65749475.155220032 0 0 0 0 -942533697.6397686 957980552.42095757 0 957980552.42095757 -77672884.960227966 0 0 0 0 -567697229.29716682 1224703237.3880219 0 1224703237.3880219 -335516829.95379257 0 0 0 0 -763858130.85792923 1091526374.5480785 0 1091526374.5480785 -422985971.91787529 0 0 0 0 -646658617.13063049 911608585.83742142 0 911608585.83742142 -253106425.54654694 0 0 0 0 -642610693.24112701 806556908.27600527 0 806556908.27600527 -368614568.43932343 0 0 0 0 -722791601.76843262 560727058.49019623 0 560727058.49019623 -268163909.66102028 0 0 0 0 -294647259.04980469 485091873.37875366 0 485091873.37875366 -30495041.550849915 0 0 0 0 -951132253.23236847 739773310.90477753 0 739773310.90477753 -108909422.35005188 0 0 0 0 -654206748.00518608 808032647.52222443 0 808032647.52222443 -87474124.735496521 0 0 0 0 -536287639.64403534 383479532.77038574 0 383479532.77038574 55470132.102493286 0 0 0 0 -117734514.10689926 269359555.20873642 0 269359555.20873642 81128797.024772644 0 0 0 0 145405598.85411072 863499683.81622887 0 863499683.81622887 140159175.29425812 0 0 0 0 -131589130.70983887 275794434.97191811 0 275794434.97191811 97726981.845306396 0 0 0 0 -1060610377.3015633 891435946.98283005 0 891435946.98283005 284637372.1935091 0 0 0 0 -856788855.90625763 550265798.64697266 0 550265798.64697266 -23022290.166053772 0 0 0 0 -740139376.45175171 631970626.71306229 0 631970626.71306229 81191025.467494965 0 0 0 0 -866271705.55561447 492783132.7241044 0 492783132.7241044 -354805319.98170471 0 0 0 0 -1325159222.93396 672151217.66543579 0 672151217.66543579 -358663549.38446045 0 0 0 0 -2162527430.3872681 823271830.83273697 0 823271830.83273697 -151821434.95219994 0 0 0 0 -811576062.91847229 375096804.90620422 0 375096804.90620422 -448501993.25530243 0 0 0 0 -798724225.75133514 211530549.24930573 0 211530549.24930573 -264057754.36252975 0 0 0 0 -1386792575.4602737 363310270.39376068 0 363310270.39376068 -262518230.28759766 0 0 0 0 -681652515.31565857 298733811.14561653 0 298733811.14561653 -389277910.97769547 0 0 0 0 -684739066.08372653 456121358.89203072 0 456121358.89203072 -408967215.07780457 0 0 0 0 -51449494.47984314 258663411.5733521 0 258663411.5733521 -832047121.18847656 0 0 0 0 -1327152972.0817947 803549503.50548553 0 803549503.50548553 -546531727.05662155 0 0 0 0 -571030932.66126633 805890762.82974768 0 805890762.82974768 -1020640358.4718971 0 0 0 0 -1260269528.1044693 381773870.78306198 0 381773870.78306198 -382252220.78092957 0 0 0 0 20796565.873348236 -167370840.56451893 0 -167370840.56451893 384943228.05753326 0 0 0 0 -178534077.7861557 77610216.277355194 0 77610216.277355194 66425981.925027847 0 0 0 0 -14473560.404902622 40506181.635182746 0 40506181.635182746 38492695.301427513 0 0 0 0 -40972608.381584167 47299492.645291328 0 47299492.645291328 40065325.316928864 0 0 0 0 -106409863.72492218 37558507.592166901 0 37558507.592166901 15565977.254226685 0 0 0 0 -54850457.49938789 17120766.113856282 0 17120766.113856282 47681804.977352858 0 0 0 0 -40053509.307779789 4763441.1240749136 0 4763441.1240749136 40872594.897127509 0 0 0 0 -18619176.234443579 17367696.343269669 0 17367696.343269669 11555513.163379215 0 0 0 0 -18352315.130468369 -36395055.46041584 0 -36395055.46041584 46074042.625682831 0 0 0 0 -173950699.06459045 -17660040.260818481 0 -17660040.260818481 126851743.49953461 0 0 0 0 -222791021.7600193 -21138428.525117874 0 -21138428.525117874 49260797.426067352 0 0 0 0 -415393600.16005325 101737102.76578522 0 101737102.76578522 7370480.4211158752 0 0 0 0 -811978453.81076622 -441181703.72846508 0 -441181703.72846508 -242060138.87283516 0 0 0 0 -51793470.235450745 -16242932.773086548 0 -16242932.773086548 2891578.3409423828 0 0 0 0 -9278279.4787699431 2793163.2790656835 0 2793163.2790656835 6798894.2458690107 0 0 0 0 -2254790402.4394436 522414415.56623936 0 522414415.56623936 317875454.90499496 0 0 0 0 -677283243.81930542 24389953.069385529 0 24389953.069385529 323740181.62681079 0 0 0 0 -517381759.66199875 310013170.47023392 0 310013170.47023392 146619144.68493271 0 0 0 0 -1401411876.4953671 477739536.1943264 0 477739536.1943264 146686836.62031555 0 0 0 0 -551735754.57683182 253790771.8792305 0 253790771.8792305 64175890.626277924 0 0 0 0 -376284439.85416412 204634134.06074142 0 204634134.06074142 74916976.34459877 0 0 0 0 -402732084.24156189 120029448.56530571 0 120029448.56530571 192470407.41697693 0 0 0 0 -389788654.13022804 90378776.591160774 0 90378776.591160774 257897287.2612915 0 0 0 0 -460580336.44007111 194896635.4304924 0 194896635.4304924 206154997.46459198 0 0 0 0 -2356747.0475001782 8726490.6554699019 0 8726490.6554699019 866071.42211161554 0 0 0 0 -119088787.94300652 -356057203.29469013 0 -356057203.29469013 239631140.60497284 0 0 0 0 -449360222.6269989 105971670.21591568 0 105971670.21591568 6848600.2535271645 0 0 0 0 -392508121.8988533 163690758.11042023 0 163690758.11042023 57357627.571086884 0 0 0 0 -5574379.1652726755 22657183.613553971 0 22657183.613553971 29454588.194608465 0 0 0 0 -306258956.37061834 215043948.21362877 0 215043948.21362877 9263796.6819343567 0 0 0 0 410436420.84176636 -692226382.84525681 0 -692226382.84525681 95201495.391462326 0 0 0 0 -169919374.47468567 -25429503.943199158 0 -25429503.943199158 297542361.80277824 0 0 0 0 -401181574.59332848 18357390.474533081 0 18357390.474533081 456848791.11056519 0 0 0 0 -1353242495.5523567 812674115.72603226 0 812674115.72603226 -113238154.85066223 0 0 0 0 -620876357.09237385 939451464.31864452 0 939451464.31864452 -683356469.28971863 0 0 0 0 -791109034.46173096 489754738.53351974 0 489754738.53351974 -529370503.73625374 0 0 0 0 -365559118.79592514 36208682.950000763 0 36208682.950000763 -1709971903.3780518 0 0 0 0 -331806205.12668371 -449946669.46571064 0 -449946669.46571064 -483117573.37097168 0 0 0 0 -169010258.01324844 632536810.04547882 0 632536810.04547882 -946125810.92720032 0 0 0 0 -44470013.756072044 109644513.36650848 0 109644513.36650848 -171206535.66640472 0 0 0 0 632272299.79867554 189403879.03209305 0 189403879.03209305 -498925578.79547119 0 0 0 0 90497490.142532349 479543229.38341522 0 479543229.38341522 -545391337.59669113 0 0 0 0 -476908102.1143322 497968033.00874043 0 497968033.00874043 -121185375.37718964 0 0 0 0 65875152.890749335 61973434.075904846 0 61973434.075904846 210906779.43278503 0 0 0 0 49981342.149559021 366778927.58294678 0 366778927.58294678 -140446355.24949265 0 0 0 0 260338611.43873405 -177420793.0950489 0 -177420793.0950489 526006761.75913239 0 0 0 0 857548204.914505 -458752251.84558535 0 -458752251.84558535 -176674532.96312714 0 0 0 0 -453897222.70742416 11935659.853740692 0 11935659.853740692 175230042.08241272 0 0 0 0 -426468765.78050995 716309345.00091553 0 716309345.00091553 -216810667.65374947 0 0 0 0 4525393.7208328992 15507923.156444378 0 15507923.156444378 12837277.429566711 0 0 0 0 -72576906.809791565 242001193.39929199 0 242001193.39929199 -385738332.18169022 0 0 0 0 -346492449.40542603 -28922765.862680435 0 -28922765.862680435 -9794851.0539016724 0 0 0 0 -158545254.91398621 157230352.88134003 0 157230352.88134003 167434010.28915596 0 0 0 0 -273924153.68722916 649431173.42523575 0 649431173.42523575 -154954890.80247688 0 0 0 0 5851082.9237357974 7375749.5479096323 0 7375749.5479096323 836332.42309646308 0 0 0 0 -199385435.17021561 421729483.30227661 0 421729483.30227661 503052707.88214874 0 0 0 0 -288504777.03675842 609474691.7303009 0 609474691.7303009 532766144.66983795 0 0 0 0 35991446.29813385 740030132.67386627 0 740030132.67386627 119446263.49031067 0 0 0 0 225536766.96522713 -221063945.28069973 0 -221063945.28069973 -120051092.43891144 0 0 0 0 -1048935011.8745804 -82528970.91954422 0 -82528970.91954422 79687131.744888306 0 0 0 0 -585555092.48128128 582646622.45698166 0 582646622.45698166 -153705076.09285355 0 0 0 0 -70106656.655326843 480147817.10451508 0 480147817.10451508 -146535861.98708725 0 0 0 0 -360721512.29809189 701858301.99624634 0 701858301.99624634 3351835.4772033691 0 0 0 0 -342271712.58501434 605329761.97012711 0 605329761.97012711 -189973847.00548553 0 0 0 0 -113744547.94537354 452676206.6678772 0 452676206.6678772 79043390.863576889 0 0 0 0 -469359769.29230118 750906410.02213669 0 750906410.02213669 -250196596.68875504 0 0 0 0 -366842193.22338295 713068434.52515221 0 713068434.52515221 -32437851.552932739 0 0 0 0 -261534181.66831589 331966321.11501122 0 331966321.11501122 164155422.07743835 0 0 0 0 -562353994.50277328 679345851.87894821 0 679345851.87894821 -6018790.5906486511 0 0 0 0 -564829238.01607656 658417847.19485426 0 658417847.19485426 -170879455.50761414 0 0 0 0 -798694380.8626442 597211532.45794678 0 597211532.45794678 -154448969.4796524 0 0 0 0 -787813842.82452393 575414246.52962494 0 575414246.52962494 -168862322.65966034 0 0 0 0 -1163110824.0706482 533716493.00284576 0 533716493.00284576 -38037167.755088806 0 0 0 0 -961005317.37430573 593274939.96788788 0 593274939.96788788 -21050301.177562714 0 0 0 0 -1148924534.0789948 666393177.78482437 0 666393177.78482437 91063623.031188965 0 0 0 0 -865463148.19240952 740450652.86757278 0 740450652.86757278 24075349.995918274 0 0 0 0 -789154753.07834625 587909123.73839951 0 587909123.73839951 -14707114.567192078 0 0 0 0 -964980368.98214722 825551879.97001266 0 825551879.97001266 -121816979.59119606 0 0 0 0 -1372120761.3807621 648789434.011343 0 648789434.011343 91175745.662071228 0 0 0 0 -1918174204.0605974 -423830430.57918072 0 -423830430.57918072 -241961546.81894684 0 0 0 0 -1656906207.6063232 169931752.33478928 0 169931752.33478928 -230233120.40310746 0 0 0 0 -1529867548.9277573 -76062894.330055237 0 -76062894.330055237 99244041.655654907 0 0 0 0 -908365732.58081818 353826469.07239151 0 353826469.07239151 -138285948.3427763 0 0 0 0 -585824000.11302185 -49231761.179307938 0 -49231761.179307938 46323138.016044617 0 0 0 0 -887429023.54196167 -108125921.86123657 0 -108125921.86123657 -180137153.06815982 0 0 0 0 -754083747.3883667 356845583.85430145 0 356845583.85430145 -157957346.54048538 0 0 0 0 -1617809874.3643036 43739123.870613098 0 43739123.870613098 -165371491.15858459 0 0 0 0 -3064442617.6290264 68280565.17858696 0 68280565.17858696 263816929.14782715 0 0 0 0 -1571055524.8369026 361983139.52431107 0 361983139.52431107 -190343587.74648285 0 0 0 0 -7157728.6915374584 17300999.068079695 0 17300999.068079695 3518012.5534810424 0 0 0 0 393749633.70543671 84048492.267217636 0 84048492.267217636 -159409725.89935303 0 0 0 0 -6758640.0071586743 12432524.671222344 0 12432524.671222344 6078872.3074558526 0 0 0 0 884804522.33570862 681178474.35199165 0 681178474.35199165 -158489117.87393188 0 0 0 0 706148954.85711288 116170325.25921059 0 116170325.25921059 -77337195.27457428 0 0 0 0 172134604.90726089 53310159.558992386 0 53310159.558992386 301197018.35157776 0 0 0 0 267796295.33467102 404111624.84521484 0 404111624.84521484 116694362.32351875 0 0 0 0 -32567344.039951324 24019726.385074615 0 24019726.385074615 137107090.46434021 0 0 0 0 -62298508.135540009 317518522.10288477 0 317518522.10288477 144513496.11533356 0 0 0 0 -54534035.842775345 253600137.52856636 0 253600137.52856636 73738812.547851562 0 0 0 0 -166933548.40776825 393815203.21621895 0 393815203.21621895 119148518.71966362 0 0 0 0 -12269467.683559787 21580599.016509783 0 21580599.016509783 11439680.077372223 0 0 0 0 -56221465.230010986 241453392.62330627 0 241453392.62330627 4311116.3885707855 0 0 0 0 -95761704.646617889 221613833.14493752 0 221613833.14493752 92175946.818546295 0 0 0 0 -94482750.504283905 234984488.30878258 0 234984488.30878258 147237462.95048904 0 0 0 0 -14510083.120139563 37037577.483741581 0 37037577.483741581 3215361.1647715867 0 0 0 0 502228282.54761887 349918340.45302773 0 349918340.45302773 -207326038.33443451 0 0 0 0 -6947629.8996640816 11652050.789393768 0 11652050.789393768 6830942.121393621 0 0 0 0 164559355.06750488 -82597413.312874794 0 -82597413.312874794 -81400849.894477844 0 0 0 0 -1157312375.0666275 414702840.02870178 0 414702840.02870178 89361166.474345207 0 0 0 0 -1478897355.3753433 -297398291.82439232 0 -297398291.82439232 -63505705.953479767 0 0 0 0 -815665682.22940445 267597203.66708374 0 267597203.66708374 -28762455.230849266 0 0 0 0 -2177418715.3650045 -35310775.797798157 0 -35310775.797798157 306101020.39221191 0 0 0 0 -842673526.7732048 413426711.42436218 0 413426711.42436218 336077084.86153793 0 0 0 0 -102802404.90004158 -69888094.243585587 0 -69888094.243585587 507921745.80384064 0 0 0 0 -442998931.76859283 709767878.11623383 0 709767878.11623383 344009266.83151054 0 0 0 0 -54826764.391442478 51940606.412730306 0 51940606.412730306 -24628915.085520238 0 0 0 0 859903317.26412201 853381607.64832306 0 853381607.64832306 754809223.95863342 0 0 0 0 444189240.17140961 697978382.34566116 0 697978382.34566116 885777221.09986115 0 0 0 0 753180527.61526299 419465351.90012741 0 419465351.90012741 259370558.39514923 0 0 0 0 603714535.06119537 720475960.0162735 0 720475960.0162735 -148986641.31333923 0 0 0 0 -23878219.816046357 18918884.359163165 0 18918884.359163165 -5828179.6233389676 0 0 0 0 768316276.83824515 995020087.32835126 0 995020087.32835126 -443944456.65604401 0 0 0 0 -2449637636.3328171 -896620429.58287048 0 -896620429.58287048 955205029.26662445 0 0 0 0 -482095452.30122876 97408445.710030794 0 97408445.710030794 124593929.2623291 0 0 0 0 -1300807209.55056 61970473.152557373 0 61970473.152557373 364823529.3251152 0 0 0 0 -15350328.394585706 43371567.220354781 0 43371567.220354781 -12591850.884305596 0 0 0 0 -1640971701.7849541 212221253.90096283 0 212221253.90096283 475113802.2952652 0 0 0 0 -566166162.44805145 66453094.478187561 0 66453094.478187561 161718821.7069931 0 0 0 0 -116959568.04821205 437686098.17341232 0 437686098.17341232 44364480.054885864 0 0 0 0 -854018950.97627831 189020612.78293228 0 189020612.78293228 -38540874.676231384 0 0 0 0 710604050.91808891 982469863.91832256 0 982469863.91832256 -2829681169.7272034 0 0 0 0 -1088068775.4573288 302738702.13082504 0 302738702.13082504 -57190873.485740662 0 0 0 0 -1982771962.6360703 1449199506.7964172 0 1449199506.7964172 758104203.74690247 0 0 0 0 -10947486.439008955 34082295.942207351 0 34082295.942207351 -26887505.024595439 0 0 0 0 -1319033962.7121086 149010192.72546768 0 149010192.72546768 -99944537.380126953 0 0 0 0 -1325662450.9775467 849344141.06380963 0 849344141.06380963 -267379068.17216492 0 0 0 0 -3409322046.9544506 457785317.02347183 0 457785317.02347183 122387248.04454422 0 0 0 0 -892402738.76028442 746780599.77306747 0 746780599.77306747 -544895603.21368408 0 0 0 0 -4506038.6329656942 12312964.065365385 0 12312964.065365385 -14195318.708586156 0 0 0 0 782887568.04833412 107269512.19589233 0 107269512.19589233 566203912.81620789 0 0 0 0 1343427762.1185513 325421770.3339119 0 325421770.3339119 -278454920.39125824 0 0 0 0 -331948394.64906693 859225375.67590714 0 859225375.67590714 59132386.580673218 0 0 0 0 -40464225.457710266 1041283489.8887711 0 1041283489.8887711 172064163.74707794 0 0 0 0 -365150296.80269241 782746192.32405853 0 782746192.32405853 71931709.61113739 0 0 0 0 -140081713.69259644 894777886.99282837 0 894777886.99282837 -32633395.238449097 0 0 0 0 339207249.14142227 817475179.44058228 0 817475179.44058228 -35636046.182661057 0 0 0 0 269100183.93680191 877969849.18565559 0 877969849.18565559 -82056209.893859863 0 0 0 0 428946688.47571564 1209788144.1708527 0 1209788144.1708527 -186908020.67094421 0 0 0 0 -677437035.14189148 678637085.32282257 0 678637085.32282257 1109842825.1866112 0 0 0 0 -39779742.674224854 1657955590.7358475 0 1657955590.7358475 -606948153.44092751 0 0 0 0 -480761444.55628586 1364456150.6771088 0 1364456150.6771088 -58414525.336715698 0 0 0 0 -742237051.0361805 458114310.9957695 0 458114310.9957695 -199611278.0663147 0 0 0 0 -785156056.87695503 558239589.29734802 0 558239589.29734802 -196341274.88537598 0 0 0 0 -772302203.27938843 500492577.87851715 0 500492577.87851715 -296960855.45381165 0 0 0 0 -879057421.92415619 552082324.32814026 0 552082324.32814026 -172196667.72091675 0 0 0 0 -679818119.90101624 660293629.55292511 0 660293629.55292511 -186700701.01883316 0 0 0 0 -715661391.96879578 537574946.27003479 0 537574946.27003479 -310217557.86564636 0 0 0 0 -720505868.48390198 605210460.8675766 0 605210460.8675766 -236667486.52505493 0 0 0 0 -694138699.7438221 587771246.32455063 0 587771246.32455063 -271290227.62890625 0 0 0 0 -475521697.13525772 611172920.59525681 0 611172920.59525681 -284486233.72076416 0 0 0 0 -485085872.53973627 652253576.46999454 0 652253576.46999454 -272008743.57969666 0 0 0 0 -397278129.45503235 674434884.67878342 0 674434884.67878342 -293814474.49595642 0 0 0 0 -452344034.48598099 640228735.73662949 0 640228735.73662949 -310276230.7688446 0 0 0 0 -434142150.94379807 561138080.35350037 0 561138080.35350037 -274426934.17953491 0 0 0 0 -369899802.26781845 625425911.80806732 0 625425911.80806732 -322010934.10865784 0 0 0 0 -418471851.89523697 721983006.4655571 0 721983006.4655571 -322767648.27856445 0 0 0 0 -346431932.86410141 672729324.04884338 0 672729324.04884338 -337012023.23300648 0 0 0 0 -398118885.07282257 686207310.26154327 0 686207310.26154327 -338490715.06166744 0 0 0 0 -427825445.40048981 703116892.89095306 0 703116892.89095306 -227458957.1812458 0 0 0 0 -371420640.29764175 595377902.0856905 0 595377902.0856905 -248099817.7329483 0 0 0 0 -482681410.08482742 634221138.16670799 0 634221138.16670799 -244968502.47761536 0 0 0 0 -628148767.00232697 682959244.97582626 0 682959244.97582626 -249244820.70246887 0 0 0 0 -547782428.36172485 553787690.23118782 0 553787690.23118782 -194271180.501091 0 0 0 0 -685007951.91096115 952783145.89064026 0 952783145.89064026 -444346930.21934509 0 0 0 0 -861025539.27988052 538700379.03913116 0 538700379.03913116 -194994203.5248909 0 0 0 0 -880131360.43037415 812005065.22399902 0 812005065.22399902 -356353329.72362518 0 0 0 0 -182239977.35166645 875899340.2935257 0 875899340.2935257 -695751375.82402802 0 0 0 0 -148844040.01419449 477195919.22302246 0 477195919.22302246 -287863854.98297501 0 0 0 0 -198361891.87189865 760578043.99189758 0 760578043.99189758 -517565651.02441406 0 0 0 0 -400374576.93091393 679652249.64451981 0 679652249.64451981 -301839757.06034088 0 0 0 0 -69218645.337551117 455500897.55625534 0 455500897.55625534 -263414063.65062332 0 0 0 0 -262856005.9076767 607891828.68886185 0 607891828.68886185 -369081604.96526337 0 0 0 0 201632102.31138229 21040816.855484009 0 21040816.855484009 49476637.595359802 0 0 0 0 -108561175.33216667 443910410.73606491 0 443910410.73606491 -222812922.02885437 0 0 0 0 -109147794.49876404 226386274.27611542 0 226386274.27611542 134106818.14739609 0 0 0 0 14409868.562779605 20872123.985625684 0 20872123.985625684 -5293760.9613928795 0 0 0 0 -4794325.2531452179 300424017.04004478 0 300424017.04004478 -248564805.30321503 0 0 0 0 -31142800.329730988 -91690895.00812149 0 -91690895.00812149 70607242.352096558 0 0 0 0 -280080516.67766416 308902686.5081017 0 308902686.5081017 -151582018.9473877 0 0 0 0 -118441797.14003372 104329028.79722595 0 104329028.79722595 23466741.174030304 0 0 0 0 -4529384.9825497791 -6867998.8835333437 0 -6867998.8835333437 5023796.4326433837 0 0 0 0 -5064684.061901547 9949066.2371699661 0 9949066.2371699661 11130554.974160492 0 0 0 0 -155904021.49289608 -28004804.869679451 0 -28004804.869679451 -25584051.496643066 0 0 0 0 53327793.767696381 -216092418.36418915 0 -216092418.36418915 -269181350.82780457 0 0 0 0 -6727234.0311456509 24512369.614893883 0 24512369.614893883 20257839.842900872 0 0 0 0 11618875.947267044 14235427.165201873 0 14235427.165201873 -4551056.4790446758 0 0 0 0 841657163.41018677 -68459875.411705017 0 -68459875.411705017 -305161505.97996902 0 0 0 0 -142954223.14023972 244940836.95796776 0 244940836.95796776 313100199.00119019 0 0 0 0 548767136.99343681 318661299.78567886 0 318661299.78567886 -122277427.864151 0 0 0 0 157867286.01373672 -233853111.7071991 0 -233853111.7071991 -540490053.20363617 0 0 0 0 667903002.73248672 -253657883.08041382 0 -253657883.08041382 276143554.36859512 0 0 0 0 606677338.86597061 523505413.08378983 0 523505413.08378983 -150381221.02407074 0 0 0 0 335435223.25532532 140714525.15679932 0 140714525.15679932 -253564721.94535828 0 0 0 0 221560492.40618324 531313033.15423894 0 531313033.15423894 -488957706.54840088 0 0 0 0 194095170.88692665 644376427.50293446 0 644376427.50293446 -598285771.7250824 0 0 0 0 -383697042.00961304 484527072.65083313 0 484527072.65083313 -516923994.66397476 0 0 0 0 -99570372.078670502 188047879.01901627 0 188047879.01901627 -166277572.3099556 0 0 0 0 -285524853.51049948 818016398.03157473 0 818016398.03157473 -848401995.78060913 0 0 0 0 31809837.283045292 743916896.15730619 0 743916896.15730619 -64593432.544136047 0 0 0 0 209997295.15860367 166169833.76692772 0 166169833.76692772 152104533.46237183 0 0 0 0 126359446.87064457 352279222.50629902 0 352279222.50629902 103256392.39218903 0 0 0 0 283865924.52626419 595880076.92294502 0 595880076.92294502 248924805.33066559 0 0 0 0 1229502569.4489365 492433033.4619751 0 492433033.4619751 301735.85687255859 0 0 0 0 1282219535.5479126 656012527.0582962 0 656012527.0582962 17185914.770965576 0 0 0 0 1970394816.5243759 -291166537.04664612 0 -291166537.04664612 -258643000.92733765 0 0 0 0 4753734.6610386223 4595831.0981171429 0 4595831.0981171429 -1585505.9328082502 0 0 0 0 -207241381.29297638 205529459.27537918 0 205529459.27537918 542734602.95526123 0 0 0 0 -108662126.87906075 144780360.65735054 0 144780360.65735054 8808.9798889160156 0 0 0 0 1480123170.346611 430239115.04611206 0 430239115.04611206 -689051518.45982361 0 0 0 0 -5326058.5188925713 1783541.1035666019 0 1783541.1035666019 4449340.1000107825 0 0 0 0 -5146192.8591545448 -7877144.8982830495 0 -7877144.8982830495 4714748.1589213014 0 0 0 0 -203666020.07411194 47351009.123657227 0 47351009.123657227 7428523.9309768677 0 0 0 0 -1103586.8005142212 8405916.1456565857 0 8405916.1456565857 -38310549.769668579 0 0 0 0 -91487837.589567184 57358330.792476654 0 57358330.792476654 -30484889.586502075 0 0 0 0 -672924240.23529625 1251779351.4965553 0 1251779351.4965553 -452781339.64008331 0 0 0 0 -296157396.97500992 755842284.89404678 0 755842284.89404678 -388503627.92743683 0 0 0 0 -71956295.29909873 615234220.9624548 0 615234220.9624548 -303457420.69885254 0 0 0 0 -212754019.31974602 862999846.09580231 0 862999846.09580231 -87840762.667381287 0 0 0 0 5859714.3625407219 1116475609.1078928 0 1116475609.1078928 -636360450.95490265 0 0 0 0 1010804504.1278038 578675316.21372604 0 578675316.21372604 -426817682.49991608 0 0 0 0 -2432968422.7066708 1457878154.8239117 0 1457878154.8239117 -351266011.10527802 0 0 0 0 -1065377399.2767963 1426518609.251545 0 1426518609.251545 -898141416.29315948 0 0 0 0 -792445224.14659882 452543592.57488632 0 452543592.57488632 -144085478.62298203 0 0 0 0 -1128696311.9564714 1016389363.9072714 0 1016389363.9072714 17541954.694038391 0 0 0 0 -512558542.14097977 806932930.14942932 0 806932930.14942932 393082.76780700684 0 0 0 0 -561946708.62157154 769689650.67193222 0 769689650.67193222 42103455.96320343 0 0 0 0 -621806577.20806313 830877447.60059929 0 830877447.60059929 -37064.138000488281 0 0 0 0 -227610192.30924702 869377459.17349434 0 869377459.17349434 -240313247.18670654 0 0 0 0 -497476679.65424538 682390183.96664429 0 682390183.96664429 -221949.45297241211 0 0 0 0 -564622463.54744148 811358994.85953331 0 811358994.85953331 -232957178.81484222 0 0 0 0 -484188840.56663799 661263903.8006916 0 661263903.8006916 -166622417.75878906 0 0 0 0 -458991587.06141376 577313403.94543076 0 577313403.94543076 -69352.915855407715 0 0 0 0 -442887455.04291344 733150029.02685547 0 733150029.02685547 -283280472.97750092 0 0 0 0 -593589416.08111382 530762817.9380188 0 530762817.9380188 -217313024.64273453 0 0 0 0 -340906905.56390238 420748495.12260437 0 420748495.12260437 -162986.88730621338 0 0 0 0 -408760790.84375858 550120574.85400772 0 550120574.85400772 -209277642.01883698 0 0 0 0 -113970433.88746834 529159371.52211761 0 529159371.52211761 -212629179.54692221 0 0 0 0 -276458968.84524059 377816585.20922089 0 377816585.20922089 -329947278.60830688 0 0 0 0 -3643177.894642245 1536351.9742195606 0 1536351.9742195606 5540011.9680076241 0 0 0 0 242579006.07697487 305690375.53705978 0 305690375.53705978 -320007839.20244217 0 0 0 0 50494618.134631634 693508660.00856972 0 693508660.00856972 -344095882.32633209 0 0 0 0 282075812.48879433 250289810.9906311 0 250289810.9906311 87721105.968399048 0 0 0 0 88773645.951887131 190186180.79482651 0 190186180.79482651 154844781.52073669 0 0 0 0 -55878452.408389091 205768494.47303772 0 205768494.47303772 458719362.29563141 0 0 0 0 -350836439.02188969 330550558.81457138 0 330550558.81457138 443788674.66231537 0 0 0 0 -279434770.16612816 628623800.78754425 0 628623800.78754425 -586238059.69716644 0 0 0 0 1187284.6438379325 4139518.7742318511 0 4139518.7742318511 -6323797.3364180326 0 0 0 0 -699275189.93955231 485642359.5196228 0 485642359.5196228 28114867.369766235 0 0 0 0 -517404258.86417675 61951305.679664612 0 61951305.679664612 50768947.115524292 0 0 0 0 -305541942.50312567 626487613.7725296 0 626487613.7725296 -58891924.259399414 0 0 0 0 -531214590.51495552 838258791.25444031 0 838258791.25444031 -255435963.19678116 0 0 0 0 -185652029.0716362 702031809.49616241 0 702031809.49616241 -19345856.784141541 0 0 0 0 56664248.96068573 616793964.45883942 0 616793964.45883942 6062278.4351882935 0 0 0 0 144383983.52372742 628686180.58975983 0 628686180.58975983 -16063185.890724182 0 0 0 0 209360849.70689774 559766566.14308167 0 559766566.14308167 45879231.287322998 0 0 0 0 489341584.99005508 413433355.88345337 0 413433355.88345337 9561927.2898101807 0 0 0 0 476904705.39182281 37130207.751167297 0 37130207.751167297 -52890471.108352661 0 0 0 0 167312501.97049677 311734810.63300538 0 311734810.63300538 -5125023.0975799561 0 0 0 0 106244397.94410467 74155499.416146278 0 74155499.416146278 -4990034.9999389648 0 0 0 0 72127279.715984344 324363141.05997467 0 324363141.05997467 14208337.511726379 0 0 0 0 -195786547.59368604 288589832.16240585 0 288589832.16240585 99563108.622116089 0 0 0 0 175073482.21689188 42824250.807817459 0 42824250.807817459 -9864797.8096847534 0 0 0 0 1250993.3311916851 13390126.584291846 0 13390126.584291846 -12973674.971853465 0 0 0 0 175493231.10697937 48097743.791107178 0 48097743.791107178 -22501181.048885345 0 0 0 0 19302285.656055897 89423727.848715067 0 89423727.848715067 219862345.90885925 0 0 0 0 18786529.064826012 104925395.54821777 0 104925395.54821777 193066041.84887123 0 0 0 0 208937244.24376297 18363959.623153687 0 18363959.623153687 6632316.4611587524 0 0 0 0 150596977.90736008 62462850.729034424 0 62462850.729034424 11481474.732536316 0 0 0 0 203010571.75646591 88256261.894821167 0 88256261.894821167 -10045939.006858826 0 0 0 0 251542410.89514351 -44369630.943904877 0 -44369630.943904877 -20849867.139099121 0 0 0 0 1160941697.2172108 -61869912.186672211 0 -61869912.186672211 -30561193.860275269 0 0 0 0 307030.37186020985 4392708.8852471858 0 4392708.8852471858 3564976.2133615315 0 0 0 0 3672891.8119821548 27092289.981588364 0 27092289.981588364 -669538420.24389648 0 0 0 0 376805.25636541285 4671013.1005402803 0 4671013.1005402803 -3958870.1256125569 0 0 0 0 1732529.9876526743 12432179.750948951 0 12432179.750948951 7216407.8151771724 0 0 0 0 -8065736.8503170013 -61607607.16696167 0 -61607607.16696167 -315113376.03152466 0 0 0 0 -39096057.560323715 410547242.43849182 0 410547242.43849182 -543476504.44158173 0 0 0 0 -769165684.98056126 738515338.80052185 0 738515338.80052185 -697575484.35890198 0 0 0 0 -242456946.95884037 210556911.28657722 0 210556911.28657722 -241747478.88812256 0 0 0 0 -108147194.89463234 650027955.50649643 0 650027955.50649643 207854606.23364258 0 0 0 0 -523303100.81421471 680148902.71846771 0 680148902.71846771 -17128976.039726257 0 0 0 0 105686866.22089958 631733216.48730087 0 631733216.48730087 -428509856.00881958 0 0 0 0 6199280.2251968384 742584828.10251045 0 742584828.10251045 321062675.15834045 0 0 0 0 -147124784.89845085 373012091.80465698 0 373012091.80465698 3139146.5317840576 0 0 0 0 637945919.6315937 799142794.09537506 0 799142794.09537506 183246900.92790222 0 0 0 0 202152359.16890717 862387258.53601074 0 862387258.53601074 147688109.71071243 0 0 0 0 273471907.25354195 687830607.18254852 0 687830607.18254852 508454204.6214447 0 0 0 0 5065044.3051568866 5353802.7217210829 0 5353802.7217210829 -2413314.8244301975 0 0 0 0 485023972.42620587 -28779549.134465218 0 -28779549.134465218 443445196.3964386 0 0 0 0 622153687.89497185 133550326.27035522 0 133550326.27035522 -420262948.66362762 0 0 0 0 554764793.56926346 606813360.43284607 0 606813360.43284607 254816960.23364639 0 0 0 0 382922056.72037506 546547295.67576599 0 546547295.67576599 305479268.07013702 0 0 0 0 489429334.05202055 427544511.75765038 0 427544511.75765038 180765752.20976257 0 0 0 0 417591711.15703201 570198015.97452545 0 570198015.97452545 24154789.440513611 0 0 0 0 320441002.70307541 410126727.69576073 0 410126727.69576073 135319571.56889343 0 0 0 0 802280021.02189255 725680885.97133636 0 725680885.97133636 289230637.4553566 0 0 0 0 483561431.31131077 465574159.51537323 0 465574159.51537323 149104067.80885315 0 0 0 0 10949247.792646289 89345481.165075302 0 89345481.165075302 -220087026.24613953 0 0 0 0 27414446.729209185 142209380.60873032 0 142209380.60873032 -403767359.06903076 0 0 0 0 -69245191.645620346 216089467.26559448 0 216089467.26559448 -275612543.33068848 0 0 0 0 1681402.8565835953 112309952.95944214 0 112309952.95944214 -249204649.64523315 0 0 0 0 1534835.2277727127 98750310.042144775 0 98750310.042144775 -148139737.93147278 0 0 0 0 985038.07098245621 94514111.940460682 0 94514111.940460682 -81432091.448532104 0 0 0 0 436135.28802216053 87993911.213792324 0 87993911.213792324 -132620790.42306519 0 0 0 0 26884464.48204273 56844028.173282623 0 56844028.173282623 -156337016.81134033 0 0 0 0 27955778.470890999 49608368.150390625 0 49608368.150390625 -210064167.88292694 0 0 0 0 5972236.8061377201 24820941.137088418 0 24820941.137088418 5361488.6212055683 0 0 0 0 26981866.453314304 34080043.196834564 0 34080043.196834564 -198153535.12612915 0 0 0 0 24437753.62161082 34134488.616498947 0 34134488.616498947 -193606537.03459167 0 0 0 0 -130493.57962322235 -16816422.109645844 0 -16816422.109645844 -121521416.92876434 0 0 0 0 -4869670.0107869916 13094832.903953433 0 13094832.903953433 7135297.9476905614 0 0 0 0 24429040.72968483 99355769.764633179 0 99355769.764633179 11896217.938056946 0 0 0 0 23821027.337366581 40689257.377300262 0 40689257.377300262 -254742653.66783142 0 0 0 0 -147439320.92080593 -81669594.190149307 0 -81669594.190149307 98114813.408996582 0 0 0 0 151877472.44277954 -77862350.376358032 0 -77862350.376358032 -392438466.22109985 0 0 0 0 173101075.44053841 101305080.10248566 0 101305080.10248566 -636815369.64949036 0 0 0 0 -691263264.23031616 204373974.90000916 0 204373974.90000916 -510972252.29760742 0 0 0 0 -569017190.04050446 246513013.37818146 0 246513013.37818146 -138555696.38446236 0 0 0 0 -288037442.71157837 249994372.53833008 0 249994372.53833008 -522795014.99996948 0 0 0 0 -2649013.0400672033 4788303.0296152532 0 4788303.0296152532 1702438.4802129082 0 0 0 0 -923369944.32889581 111910432.32274723 0 111910432.32274723 -499469484.20223999 0 0 0 0 -974765739.83115673 356951235.0103569 0 356951235.0103569 -102643699.93101501 0 0 0 0 -492707212.81280899 104286791.30377197 0 104286791.30377197 -756327454.67196655 0 0 0 0 -412305099.94610214 569597849.37253571 0 569597849.37253571 -761531791.46733522 0 0 0 0 44057738.211291313 176900161.52900696 0 176900161.52900696 -547237776.34617615 0 0 0 0 -15790943.597272873 148723478.6138916 0 148723478.6138916 -374495111.99655724 0 0 0 0 -133435033.50847816 226196512.25289154 0 226196512.25289154 -514789439.72918701 0 0 0 0 -115386176.23781204 290808248.53311157 0 290808248.53311157 -692668976.16429138 0 0 0 0 -293870494.35566425 338884557.7325592 0 338884557.7325592 -314652263.64112091 0 0 0 0 -139817731.48685265 359968079.34387207 0 359968079.34387207 -499922822.95823288 0 0 0 0 -210109182.31202841 287204790.42016602 0 287204790.42016602 -179860955.77786255 0 0 0 0 -193450330.64694452 408837086.94384384 0 408837086.94384384 -202567123.26881409 0 0 0 0 -275002335.95553923 391150679.75854111 0 391150679.75854111 -335841181.74584961 0 0 0 0 -430495540.05639648 131747288.71883392 0 131747288.71883392 -49439401.06861496 0 0 0 0 -543310870.74372673 397358429.15582657 0 397358429.15582657 -159440002.10529327 0 0 0 0 -5608003.6790449172 12096028.014025316 0 12096028.014025316 11347126.497728169 0 0 0 0 -206806970.5296669 42287234.424377441 0 42287234.424377441 281660414.13508606 0 0 0 0 -360678329.02240276 321373778.80358124 0 321373778.80358124 -148224738.26462555 0 0 0 0 -318038084.40343857 602679726.1724472 0 602679726.1724472 -144087891.79067862 0 0 0 0 -2960405.0172623992 4087084.087411046 0 4087084.087411046 5475345.6479278803 0 0 0 0 -346233920.08151865 529111143.68466187 0 529111143.68466187 369383001.97808075 0 0 0 0 -174083546.26532125 313564826.07355499 0 313564826.07355499 21554486.253196716 0 0 0 0 -257742482.59373617 303161687.62732315 0 303161687.62732315 249266779.62689209 0 0 0 0 -216266636.39962196 405455515.95917892 0 405455515.95917892 11615854.029808044 0 0 0 0 -141939624.01865196 288223928.84733582 0 288223928.84733582 -82388330.731675148 0 0 0 0 -62342727.844288826 181182209.46472168 0 181182209.46472168 -99258833.998352051 0 0 0 0 -70164315.78970924 220913421.4162879 0 220913421.4162879 -158594631.45536804 0 0 0 0 -67911503.023633957 263484022.00907898 0 263484022.00907898 -303619938.86027145 0 0 0 0 -66527438.93931675 176753876.41065216 0 176753876.41065216 -59851823.695594788 0 0 0 0 -118434435.74971962 222084315.98125458 0 222084315.98125458 99997758.498001099 0 0 0 0 -42125174.926668167 142557105.96054077 0 142557105.96054077 -22995230.546485901 0 0 0 0 -103796875.14224577 222778239.26258087 0 222778239.26258087 98134079.836685181 0 0 0 0 -240730205.17875791 215045306.80291271 0 215045306.80291271 159407435.87536621 0 0 0 0 -233553578.18580961 176945511.09315491 0 176945511.09315491 188989807.37413788 0 0 0 0 -342927240.33154678 118251431.29990387 0 118251431.29990387 157989721.88705444 0 0 0 0 -370610454.64045453 235439536.21194077 0 235439536.21194077 254922944.03343201 0 0 0 0 -366500463.74485588 170664217.0228405 0 170664217.0228405 697351798.92016602 0 0 0 0 -361065667.29842949 147574768.95941925 0 147574768.95941925 340746173.702034 0 0 0 0 -220863361.97998333 51476286.494773865 0 51476286.494773865 133788655.73646545 0 0 0 0 -344919541.39234543 188115974.45667267 0 188115974.45667267 -10517806.788543701 0 0 0 0 -391411210.48964691 47016295.251174927 0 47016295.251174927 106237719.36297607 0 0 0 0 -413049498.50904644 -46112318.266631842 0 -46112318.266631842 69729744.491455078 0 0 0 0 -400088737.30087751 88761237.65798521 0 88761237.65798521 28688784.636611938 0 0 0 0 -258629875.31663227 -23643992.868595123 0 -23643992.868595123 25014068.320785522 0 0 0 0 -366107534.99371243 122731809.18119812 0 122731809.18119812 159254988.32195282 0 0 0 0 -45511921.929768801 -296895935.68411446 0 -296895935.68411446 792819321.01299286 0 0 0 0 -194333118.35573959 371899318.56774139 0 371899318.56774139 677862152.04090786 0 0 0 0 2396967.9468421936 4906522.2396278381 0 4906522.2396278381 179754757.31346893 0 0 0 0 -201931615.14628422 207908661.87001991 0 207908661.87001991 4426573.1879730225 0 0 0 0 -218616623.32566166 164987962.94219208 0 164987962.94219208 -18596561.01272583 0 0 0 0 -234595374.67095137 3854175.7440032959 0 3854175.7440032959 -27210312.899085999 0 0 0 0 -306512003.7375679 386891967.09949875 0 386891967.09949875 -217499125.66615295 0 0 0 0 -282658691.30909538 448824925.15164948 0 448824925.15164948 -148635804.8121767 0 0 0 0 -6574312.2288873568 3304269.0812386274 0 3304269.0812386274 9237021.5857545137 0 0 0 0 -167967075.49663353 159814900.65949631 0 159814900.65949631 -225585223.6640625 0 0 0 0 -8531308.3821474593 1999664.087858066 0 1999664.087858066 7390563.3369774222 0 0 0 0 -404618589.91642666 276444745.31102371 0 276444745.31102371 -376328.03706359863 0 0 0 0 -114658419.95283985 248200298.36767197 0 248200298.36767197 -314723371.80558014 0 0 0 0 -374888192.94591427 320405955.07432175 0 320405955.07432175 -211095292.84361649 0 0 0 0 -327600289.15812588 -50538098.847337723 0 -50538098.847337723 -18504033.810028076 0 0 0 0 -563101985.41766071 80268300.914077759 0 80268300.914077759 -140420623.65369606 0 0 0 0 -927657927.21820784 -8792505.9601974487 0 -8792505.9601974487 -116893191.18022919 0 0 0 0 -833502415.18544579 -46344993.025688171 0 -46344993.025688171 -145414519.31735611 0 0 0 0 -674922941.35364819 -371524160.49189758 0 -371524160.49189758 -29116445.451148987 0 0 0 0 -973246.08513190597 1244051.0262991041 0 1244051.0262991041 403433.18549824506 0 0 0 0 -608623884.51436996 46112101.555305481 0 46112101.555305481 21667765.579498291 0 0 0 0 -337178099.62574768 167046711.53276062 0 167046711.53276062 -34611504.608375549 0 0 0 0 -268520858.10010242 277647183.95650482 0 277647183.95650482 -234590372.4083252 0 0 0 0 -478774580.41375232 296486062.99598312 0 296486062.99598312 -104295238.50146484 0 0 0 0 -840542846.99017715 256227055.29039764 0 256227055.29039764 -101682107.18746805 0 0 0 0 -889914984.09046078 502244038.12551117 0 502244038.12551117 -559656.06576378003 0 0 0 0 -106337069.65844595 281114513.7767601 0 281114513.7767601 -255611364.85223389 0 0 0 0 -288943291.3860817 472735103.89056778 0 472735103.89056778 -188066838.63619995 0 0 0 0 -1404934040.8715425 -21612178.139968872 0 -21612178.139968872 91974151.933120728 0 0 0 0 8915681.8745270297 -796358.49829120934 0 -796358.49829120934 -5489924.1793625653 0 0 0 0 10329417.135149777 16079512.799034119 0 16079512.799034119 223.10433197021484 0 0 0 0 1839957.7997794151 10631421.410068512 0 10631421.410068512 -2309256.2799835205 0 0 0 0 1098185.3767414652 11526574.021379322 0 11526574.021379322 843906.47283939272 0 0 0 0 23380834.110846519 18714667.127971649 0 18714667.127971649 -28609889.288604736 0 0 0 0 34949376.198062897 -20457985.791725159 0 -20457985.791725159 8010858.6588478088 0 0 0 0 46578302.349890947 9577387.5633831024 0 9577387.5633831024 -72901985.293693542 0 0 0 0 -4408359.1887845993 14141444.240226746 0 14141444.240226746 -18497.109649658203 0 0 0 0 -26361940.051010132 -53112311.564987183 0 -53112311.564987183 51381974.209468842 0 0 0 0 -1597351.072975561 9187038.3639079928 0 9187038.3639079928 2271380.8311886415 0 0 0 0 -3062172.403093338 10378527.296722412 0 10378527.296722412 -6910474.4311447144 0 0 0 0 -1421555.6044158936 4462831.5236358643 0 4462831.5236358643 52325.631469726562 0 0 0 0 16315958.877304077 90933939.042015076 0 90933939.042015076 -86046765.352828979 0 0 0 0 54510589.192685127 21612156.774871826 0 21612156.774871826 -165418322.5354538 0 0 0 0 -897188.15429177508 1036971.8313982189 0 1036971.8313982189 633523.99594274536 0 0 0 0 -55294775.575634003 44493280.333702087 0 44493280.333702087 -107046080.00654984 0 0 0 0 -152080593.97198105 63645597.139427185 0 63645597.139427185 -2639475.2197875977 0 0 0 0 -52942890.750627041 71067233.387149811 0 71067233.387149811 -43795918.521993637 0 0 0 0 -57306821.461438656 -10267196.706016541 0 -10267196.706016541 13584248.710496902 0 0 0 0 -26667492.699750848 4234968.7894245386 0 4234968.7894245386 13614407.995532662 0 0 0 0 -49797814.301673569 24116058.325697899 0 24116058.325697899 -7755819.8071289062 0 0 0 0 -56348870.266088717 30227085.403892517 0 30227085.403892517 -12859133.860923767 0 0 0 0 4907692.7274711132 21241695.938957214 0 21241695.938957214 -5063029.7916946411 0 0 0 0 -21360568.749037713 1655221.1429338008 0 1655221.1429338008 12090827.838681877 0 0 0 0 -10703974.218382835 28474814.107849121 0 28474814.107849121 -7168482.8817176819 0 0 0 0 -1891885.3724240265 10261867.162140407 0 10261867.162140407 -10913452.119280279 0 0 0 0 -83419428.746997595 51674504.933826447 0 51674504.933826447 56309898.916488647 0 0 0 0 -33172475.301679134 117594943.20115089 0 117594943.20115089 52540421.594551086 0 0 0 0 -2440710.8375281175 5556899.6312699318 0 5556899.6312699318 -7923713.9543744028 0 0 0 0 8518167.8744735718 15750349.167709351 0 15750349.167709351 -25644183.072674751 0 0 0 0 182471324.15341949 136889563.19503784 0 136889563.19503784 -24474610.389694214 0 0 0 0 65868495.533994675 72378597.963565826 0 72378597.963565826 -42629925.614395142 0 0 0 0 46345050.331596851 98546054.118941307 0 98546054.118941307 -65762.185409545898 0 0 0 0 4292388.4545497894 87302700.582576752 0 87302700.582576752 438617.86601257324 0 0 0 0 51746253.428302288 84840883.290186882 0 84840883.290186882 -14009354.528862 0 0 0 0 111122930.20936203 116241123.51768494 0 116241123.51768494 -10491510.918891907 0 0 0 0 88021665.882806778 108208642.10250092 0 108208642.10250092 22900.958419799805 0 0 0 0 41047009.971680641 54802315.792608261 0 54802315.792608261 14424215.280418396 0 0 0 0 114507104.29047203 108137993.69632339 0 108137993.69632339 3340684.6129608154 0 0 0 0 62336090.217475891 108569442.03858948 0 108569442.03858948 107087470.16278076 0 0 0 0 47154500.79391098 62331905.053955078 0 62331905.053955078 -6957109.6414222717 0 0 0 0 31213849.064582825 25156179.656560898 0 25156179.656560898 -9381752.7057571411 0 0 0 0 -18284509.495733261 29959050.234405518 0 29959050.234405518 30319.151206970215 0 0 0 0 -772071.64784896746 1024324.2936172262 0 1024324.2936172262 -954515.95345044136 0 0 0 0 -79392098.121887207 103922008.98937988 0 103922008.98937988 -9961.4333190917969 0 0 0 0 185485269.28702974 27937888.089773178 0 27937888.089773178 -11643204.654266357 0 0 0 0 -12761823.168530874 3659891.2116820961 0 3659891.2116820961 6820234.170616895 0 0 0 0 -49680040.849761963 123001932.28598785 0 123001932.28598785 5030866.6672916412 0 0 0 0 -1747494.8429557122 5086638.7101541609 0 5086638.7101541609 1717023.6516624242 0 0 0 0 -92005112.600278854 31408636.909187317 0 31408636.909187317 -67822010.624816895 0 0 0 0 -69612727.540514946 79497185.827018738 0 79497185.827018738 -2152993.1582870483 0 0 0 0 -17562628.618343353 20408237.464675903 0 20408237.464675903 21155725.677696228 0 0 0 0 -13919044.801234361 4987947.8794585317 0 4987947.8794585317 6093117.7783052027 0 0 0 0 4400897.8521957397 13541927.990570068 0 13541927.990570068 -9053232.2289276123 0 0 0 0 -45273836.06837821 87919227.125909805 0 87919227.125909805 -57148786.090148926 0 0 0 0 -20613225.533289537 20833354.92693451 0 20833354.92693451 2009288.8093617223 0 0 0 0 -44360488.877041101 30299421.489145279 0 30299421.489145279 -12617615.787849426 0 0 0 0 -46351774.345033348 33497140.221578598 0 33497140.221578598 -17329542.602249146 0 0 0 0 -39248864.483504295 89494831.115444183 0 89494831.115444183 19023796.092681885 0 0 0 0 -8930133.7130432129 27221455.51808548 0 27221455.51808548 -25012564.087028503 0 0 0 0 9670510.1203421745 11768591.197608378 0 11768591.197608378 -9673420.6747687757 0 0 0 0 18173401.522073746 58071092.807189941 0 58071092.807189941 -156757337.5617466 0 0 0 0 12624196.859185249 13198376.700749829 0 13198376.700749829 -8348078.9441766739 0 0 0 0 63708119.771052361 154912836.4552002 0 154912836.4552002 38640975.874649048 0 0 0 0 4195671.764881134 -21719054.342266083 0 -21719054.342266083 156275875.50806427 0 0 0 0 -71121156.223571777 40567921.000938416 0 40567921.000938416 73789623.23928833 0 0 0 0 4460039.9245319366 171048254.93745804 0 171048254.93745804 122895587.54182434 0 0 0 0 -69502973.886226654 87375214.910011292 0 87375214.910011292 126961386.66807556 0 0 0 0 425266402.11434555 168660326.23661804 0 168660326.23661804 -89855854.543121338 0 0 0 0 4483000.6223363206 4346876.5673364699 0 4346876.5673364699 -2654286.1757218651 0 0 0 0 240244885.0730648 -52320263.386106491 0 -52320263.386106491 -268778238.40611267 0 0 0 0 -1702629.1938674971 1006790.8013204262 0 1006790.8013204262 4544257.9319833219 0 0 0 0 179276851.46331787 277172005.96375275 0 277172005.96375275 268501996.0370636 0 0 0 0 169248585.49737549 -467260799.25627136 0 -467260799.25627136 -161824822.24716187 0 0 0 0 431879065.14513397 155180297.38526917 0 155180297.38526917 -33112947.386449814 0 0 0 0 230699601.66946507 61049003.094589233 0 61049003.094589233 -42368814.059417725 0 0 0 0 5153621.5997143984 28236377.722219944 0 28236377.722219944 -44574313.530006409 0 0 0 0 5513349.53700912 31728460.632666796 0 31728460.632666796 11967936.299604416 0 0 0 0 39873508.949493408 66725656.419139862 0 66725656.419139862 -133758203.32763672 0 0 0 0 14509758.523845673 -11224833.663562775 0 -11224833.663562775 -39549463.29001236 0 0 0 0 -13673970.61360836 29594473.720281601 0 29594473.720281601 -89236094.019020081 0 0 0 0 -44234545.77514267 13821063.09418869 0 13821063.09418869 1137497.871131897 0 0 0 0 11876817.548474107 13299987.659616567 0 13299987.659616567 -7587175.5596691072 0 0 0 0 -70255815.062871695 46319712.089485168 0 46319712.089485168 -12845907.290781975 0 0 0 0 -52267022.393228054 32269770.069545746 0 32269770.069545746 -27318460.377311707 0 0 0 0 -24151384.431428909 30705649.677047729 0 30705649.677047729 -27469980.565193176 0 0 0 0 -125453251.4655838 147294262.21256638 0 147294262.21256638 -43615162.00100708 0 0 0 0 -112716143.39949131 188879908.6309185 0 188879908.6309185 -70378232.980773926 0 0 0 0 -116619756.99246407 268757746.52783394 0 268757746.52783394 -269317469.38005829 0 0 0 0 -3760738.7529395372 32178933.883164674 0 32178933.883164674 14388098.093532629 0 0 0 0 124147240.16747475 229044632.19260025 0 229044632.19260025 -593054189.86714935 0 0 0 0 -121945708.73080635 262585391.92071438 0 262585391.92071438 -225204397.00444031 0 0 0 0 -165466003.81240463 444531450.64701843 0 444531450.64701843 26815441.563362122 0 0 0 0 -182224716.57790804 412721002.31116343 0 412721002.31116343 498675455.68502045 0 0 0 0 131098572.19353485 973037054.90765381 0 973037054.90765381 -586044928.93286896 0 0 0 0 49049415.566894531 216187948.44808197 0 216187948.44808197 -559335337.8348999 0 0 0 0 -24708987.91412878 54844106.708879948 0 54844106.708879948 -541415595.02987671 0 0 0 0 46275463.639038086 321374923.60824585 0 321374923.60824585 -646285729.34017563 0 0 0 0 113579222.47085524 126798302.56674957 0 126798302.56674957 38730306.662872314 0 0 0 0 89520661.02438736 152496474.41532135 0 152496474.41532135 238856638.70141602 0 0 0 0 205508943.33116531 297956142.24913025 0 297956142.24913025 275641337.08321381 0 0 0 0 -46110311.294356585 100754862.46073914 0 100754862.46073914 216301867.16511536 0 0 0 0 9474659.8413791656 94021447.625312805 0 94021447.625312805 -42838493.955749512 0 0 0 0 66324119.534231663 165078408.73751831 0 165078408.73751831 43283521.984354973 0 0 0 0 102090959.4076972 79940379.797409058 0 79940379.797409058 -49766626.235687256 0 0 0 0 86867309.003757477 50930583.040908813 0 50930583.040908813 15424035.31640625 0 0 0 0 75440804.336288452 116742767.52308655 0 116742767.52308655 40517617.740447998 0 0 0 0 33161914.181912422 52630739.591423035 0 52630739.591423035 -38523909.832275391 0 0 0 0 37603859.470026016 104920552.64621735 0 104920552.64621735 -38485226.336410522 0 0 0 0 -40727697.804038644 150840177.08625603 0 150840177.08625603 25967553.154373169 0 0 0 0 95413.0751080513 83574409.132911682 0 83574409.132911682 130856891.96940613 0 0 0 0 184706510.48378181 104878263.74276733 0 104878263.74276733 39893016.89692688 0 0 0 0 49047877.85280323 135382595.75767517 0 135382595.75767517 55267511.894271851 0 0 0 0 65808013.854564667 86904475.315589905 0 86904475.315589905 171837681.56954956 0 0 0 0 417023564.38450146 272469804.26713562 0 272469804.26713562 65153763.532806396 0 0 0 0 53828089.693663597 105216081.13838959 0 105216081.13838959 39923591.736831665 0 0 0 0 275226460.78750801 104376846.93159485 0 104376846.93159485 147709693.91934204 0 0 0 0 -115331426.96483397 199960205.52241135 0 199960205.52241135 171118789.8208313 0 0 0 0 5972855.5410757065 103715568.31591797 0 103715568.31591797 274345465.11012268 0 0 0 0 -5944950.5366640091 180296195.74194336 0 180296195.74194336 105882144.7694397 0 0 0 0 -46810967.782129288 32659872.688430786 0 32659872.688430786 3739162.9207000732 0 0 0 0 -91708288.584728956 -30329896.879421234 0 -30329896.879421234 22153291.364120483 0 0 0 0 157079618.21797657 265500568.27900696 0 265500568.27900696 349077435.23786926 0 0 0 0 -3278935.2987505016 893721.2138902992 0 893721.2138902992 1915628.1591545641 0 0 0 0 -1985286.3469569134 923792.20626114309 0 923792.20626114309 1351215.5930367112 0 0 0 0 -56354274.686390229 27292330.973178864 0 27292330.973178864 32941019.503814697 0 0 0 0 -54495972.72557123 54123174.659601212 0 54123174.659601212 19054907.519577026 0 0 0 0 -64056577.340180039 32829638.563034058 0 32829638.563034058 4900353.6002960205 0 0 0 0 -53008287.421518862 86260322.122386932 0 86260322.122386932 -13384612.251148224 0 0 0 0 -52652250.847582698 75901245.634353638 0 75901245.634353638 -24095212.130115509 0 0 0 0 -55715096.725282669 92367474.625762939 0 92367474.625762939 74528491.761795044 0 0 0 0 -56340573.988767326 78032861.856330872 0 78032861.856330872 -9429684.73878479 0 0 0 0 4894433.4164969921 141531281.05780792 0 141531281.05780792 -13945664.531707764 0 0 0 0 -53747797.19971174 91229557.582881927 0 91229557.582881927 -1977321.6405410767 0 0 0 0 -12050277.218651056 96147422.289726257 0 96147422.289726257 -82571077.683410645 0 0 0 0 15424809.455627088 37000792.690498516 0 37000792.690498516 2716077.163489908 0 0 0 0 4092854.2412054539 124707750.91842651 0 124707750.91842651 -103711807.22864914 0 0 0 0 -73325861.770484924 136664076.08848572 0 136664076.08848572 -101064228.6378746 0 0 0 0 18349790.461795203 19136856.249248676 0 19136856.249248676 -11894063.807288826 0 0 0 0 -16427119.787033617 36117183.637669742 0 36117183.637669742 19167151.445998915 0 0 0 0 -30634337.507311821 41530053.119895935 0 41530053.119895935 -45539728.896598816 0 0 0 0 3188329.1597984862 3196045.7897787094 0 3196045.7897787094 -4054945.622336477 0 0 0 0 -96153528.786409378 123386812.23582077 0 123386812.23582077 -30920794.395751953 0 0 0 0 -55820732.24316597 146975748.22261047 0 146975748.22261047 -34415321.442520142 0 0 0 0 -26227852.160480499 55173694.050018311 0 55173694.050018311 2007960.9283752441 0 0 0 0 14545989.878193855 65089114.96572876 0 65089114.96572876 4134860.5335617065 0 0 0 0 4949990.6359958649 74518095.232658386 0 74518095.232658386 4432708.9446258545 0 0 0 0 568101.3446521759 70745144.211090088 0 70745144.211090088 1442719.5023345947 0 0 0 0 -28272633.573738098 108355296.14222717 0 108355296.14222717 -23163654.572875977 0 0 0 0 12041382.039125074 29395394.181198314 0 29395394.181198314 4733676.9795659035 0 0 0 0 -29064454.977581024 83511587.428741455 0 83511587.428741455 128260551.95417023 0 0 0 0 -19104577.750105381 13613420.151416779 0 13613420.151416779 82513133.093616486 0 0 0 0 37691856.195094585 15667965.457969666 0 15667965.457969666 41162673.479309082 0 0 0 0 56869668.866060257 112633357.01279449 0 112633357.01279449 -225994862.12685394 0 0 0 0 -4909328.872616291 54939108.364929676 0 54939108.364929676 -140131821.76847839 0 0 0 0 83154816.982373714 134019634.03696442 0 134019634.03696442 -104487601.07653046 0 0 0 0 40538522.546584129 112649407.84024811 0 112649407.84024811 -65823556.28843689 0 0 0 0 36242551.755823135 38335841.764083862 0 38335841.764083862 -136961649.29240417 0 0 0 0 62723483.139413357 48778144.091537476 0 48778144.091537476 -94947718.77456665 0 0 0 0 44418986.691981316 84990477.600288391 0 84990477.600288391 -143702106.83531189 0 0 0 0 -10267366.280613422 66341351.464645386 0 66341351.464645386 -147483164.68423843 0 0 0 0 16640312.418565273 28647790.041244507 0 28647790.041244507 -188303251.36019135 0 0 0 0 3545558.0791146816 15322706.352799177 0 15322706.352799177 9429907.9140808694 0 0 0 0 -6345919.8785281181 26191021.495346069 0 26191021.495346069 80388636.621364594 0 0 0 0 23911427.550384045 93899704.559429169 0 93899704.559429169 152413959.49229431 0 0 0 0 26735404.669657707 109906402.48241425 0 109906402.48241425 175283024.41188431 0 0 0 0 44390021.291726589 163755890.31258678 0 163755890.31258678 48740321.7578125 0 0 0 0 1553745.4490259234 7650923.1139813364 0 7650923.1139813364 2043775.3178282566 0 0 0 0 23674677.738987446 77539681.744384766 0 77539681.744384766 -34314872.340797424 0 0 0 0 11978413.639848709 100124577.45487213 0 100124577.45487213 -66613158.322265625 0 0 0 0 80877293.194023609 195391390.97285843 0 195391390.97285843 -80441190.578727722 0 0 0 0 1082307.6995720565 155923416.006387 0 155923416.006387 38096767.453735352 0 0 0 0 2471232.4459658861 140963743.07193327 0 140963743.07193327 -62873231.87701416 0 0 0 0 102155247.75230646 300029495.50155258 0 300029495.50155258 -2051107.2901306152 0 0 0 0 98490487.751887321 264874225.75959778 0 264874225.75959778 104690554.50759125 0 0 0 0 132725031.75285435 325340156.64718246 0 325340156.64718246 14300775.503234863 0 0 0 0 243399414.4484376 342087328.90249676 0 342087328.90249676 -32946388.638420105 0 0 0 0 172823404.10565281 289249486.95673752 0 289249486.95673752 -40840116.397792816 0 0 0 0 95696616.293228865 156605651.45200157 0 156605651.45200157 -159285974.66381073 0 0 0 0 -703418426.6782608 206521787.15185928 0 206521787.15185928 268137426.5501709 0 0 0 0 -878418.22585816309 20558264.759628624 0 20558264.759628624 28926579.256462172 0 0 0 0 -160234375.20544785 353022910.83542669 0 353022910.83542669 -284208524.34977722 0 0 0 0 -163229261.04240513 191603679.44152069 0 191603679.44152069 -88546549.416023254 0 0 0 0 -101622807.69054222 212608516.12161255 0 212608516.12161255 -170425028.91759491 0 0 0 0 -198773781.93565369 174344965.12892151 0 174344965.12892151 -184465830.16455078 0 0 0 0 -105310471.16924047 178807161.13035965 0 178807161.13035965 -108950383.49931335 0 0 0 0 -207375438.74460983 178518692.78328705 0 178518692.78328705 -97318483.217308044 0 0 0 0 -133415613.185009 147265933.22130203 0 147265933.22130203 -42772176.29221344 0 0 0 0 -131718710.90907478 178816298.34438705 0 178816298.34438705 -56014735.636741638 0 0 0 0 -40326687.038162231 112672173.79842377 0 112672173.79842377 -75073170.022821426 0 0 0 0 -46783864.378665924 103555149.16633606 0 103555149.16633606 -35094421.652698517 0 0 0 0 -39318563.727161407 138863920.49900913 0 138863920.49900913 -61143457.557022095 0 0 0 0 -101154676.58162022 168330433.30154133 0 168330433.30154133 -60716967.114891052 0 0 0 0 -77983808.777029037 111048104.58544922 0 111048104.58544922 -8554402.9285507202 0 0 0 0 -168592183.37643433 160521833.23538208 0 160521833.23538208 -52397333.908309937 0 0 0 0 -155181792.35181618 211660681.27492523 0 211660681.27492523 -104248593.01425171 0 0 0 0 -192998484.62820816 195193195.97666168 0 195193195.97666168 -61812014.691905975 0 0 0 0 -182708897.08404827 197018753.09706116 0 197018753.09706116 -100275432.02735138 0 0 0 0 8158781.8245610818 17563719.700030476 0 17563719.700030476 17639953.693824157 0 0 0 0 -193678806.9001708 207489520.17816043 0 207489520.17816043 -101592816.74211884 0 0 0 0 -149426280.93490028 230438445.94060516 0 230438445.94060516 -212250499.89843369 0 0 0 0 -188966957.09094775 177026753.13249016 0 177026753.13249016 -126441477.16073608 0 0 0 0 -221632815.07551956 -245588374.48487377 0 -245588374.48487377 -355867014.39593506 0 0 0 0 -162235224.40605545 65121237.137611389 0 65121237.137611389 467936459.12660217 0 0 0 0 1925781.9394261986 5933315.80683624 0 5933315.80683624 6639672.7539759576 0 0 0 0 -141661468.75177002 94862402.165718079 0 94862402.165718079 84555560.931207657 0 0 0 0 137755687.40541077 301260067.69524002 0 301260067.69524002 -769354531.94890594 0 0 0 0 74372985.007009506 62549882.520271301 0 62549882.520271301 -229527363.00235748 0 0 0 0 1704983.7373574339 9301878.645698268 0 9301878.645698268 3216723.7559336424 0 0 0 0 -88421657.205696106 133838152.84580994 0 133838152.84580994 -183740918.28310394 0 0 0 0 15903798.250469208 131671715.45915222 0 131671715.45915222 -311022825.51042271 0 0 0 0 -45848663.908159256 79919821.111717224 0 79919821.111717224 -116372162.26522064 0 0 0 0 -38385679.220378876 -145678285.7270813 0 -145678285.7270813 -44705895.04948616 0 0 0 0 -60070148.46461463 150193698.23547316 0 150193698.23547316 906497126.02367401 0 0 0 0 -98547081.940048218 60677428.931415558 0 60677428.931415558 316194182.08697891 0 0 0 0 1328948.9601517664 9952775.8920428678 0 9952775.8920428678 5998444.4132298231 0 0 0 0 552154489.52301407 1682809844.9853363 0 1682809844.9853363 -422179573.07315826 0 0 0 0 7638260.6025865227 24701279.265552126 0 24701279.265552126 27643792.716225266 0 0 0 0 -241898258.29145813 299741634.94132996 0 299741634.94132996 -198327342.5701046 0 0 0 0 18878618.639801025 -549819154.55944824 0 -549819154.55944824 -172355854.87333298 0 0 0 0 584450059.80013657 713296316.19380188 0 713296316.19380188 568954622.1249733 0 0 0 0 -752791.65460391901 2903335.6637174971 0 2903335.6637174971 18599839.138253987 0 0 0 0 1017327958.8301954 435502438.7137394 0 435502438.7137394 117608745.94390869 0 0 0 0 -870004994.03450584 -313439753.24060059 0 -313439753.24060059 705120547.30763054 0 0 0 0 -174324119.39763594 -314415392.65011215 0 -314415392.65011215 342982188.73036957 0 0 0 0 -524396076.61801338 28202109.128242493 0 28202109.128242493 76686169.53086853 0 0 0 0 444949920.73451281 545103513.17057228 0 545103513.17057228 177619151.55755615 0 0 0 0 512955776.40707779 149643147.02382278 0 149643147.02382278 -29769836.931617737 0 0 0 0 110127704.78447342 93050064.072345734 0 93050064.072345734 27129893.470611572 0 0 0 0 -69780676.122653961 128616049.56861877 0 128616049.56861877 168451232.83446503 0 0 0 0 -587510097.26701355 156989607.16507912 0 156989607.16507912 272386079.45095825 0 0 0 0 235755.18914519995 16221643.933384983 0 16221643.933384983 48890588.790939212 0 0 0 0 -29199213.814153671 43331579.490650177 0 43331579.490650177 86544042.85055542 0 0 0 0 -101664077.84489441 122348704.78495789 0 122348704.78495789 20040932.677200317 0 0 0 0 -7500144.8689838797 -188653.63539086282 0 -188653.63539086282 8547571.5363393128 0 0 0 0 -445077661.15447617 222601618.06293488 0 222601618.06293488 -144607168.16393566 0 0 0 0 218364500.66374588 222612155.97055435 0 222612155.97055435 39304183.834007263 0 0 0 0 410198284.70294952 390506078.23806 0 390506078.23806 128559281.3159523 0 0 0 0 229135916.50888443 453953720.82961655 0 453953720.82961655 382979608.22975922 0 0 0 0 -49967417.787639618 480460691.73340988 0 480460691.73340988 582335205.65244675 0 0 0 0 110753577.44997787 296661211.65680313 0 296661211.65680313 327390021.41042328 0 0 0 0 370073701.75104141 487980059.70323944 0 487980059.70323944 134041403.45900726 0 0 0 0 541497.21402122267 5000987.3225995041 0 5000987.3225995041 3460258.7801369429 0 0 0 0 812488609.14237404 680196556.77218628 0 680196556.77218628 208801731.11938477 0 0 0 0 -976265809.14988947 781648983.01119518 0 781648983.01119518 664887214.2371521 0 0 0 0 -557546175.19680405 698526229.43390656 0 698526229.43390656 552383471.98905182 0 0 0 0 -86148174.25114727 93564877.644224167 0 93564877.644224167 -11255848.388793945 0 0 0 0 -309959407.17225647 539791510.50999451 0 539791510.50999451 -245464610.83441925 0 0 0 0 -7104980.3162372112 136207575.82787561 0 136207575.82787561 145199894.89254761 0 0 0 0 22035947.495826721 246180202.47545624 0 246180202.47545624 74750337.827068329 0 0 0 0 -554074694.55915833 317688752.79794312 0 317688752.79794312 -127113944.47266579 0 0 0 0 -98122010.280944824 132073076.50511169 0 132073076.50511169 -31829633.45111084 0 0 0 0 -275965268.05228424 247042085.04402542 0 247042085.04402542 -94739377.247688293 0 0 0 0 -3053692.7724456787 219156297.50371552 0 219156297.50371552 -199618844.8920517 0 0 0 0 -11501972.990587234 224129558.54961395 0 224129558.54961395 -205896566.40609741 0 0 0 0 89753827.095132828 45976825.754711151 0 45976825.754711151 -251495541.17866135 0 0 0 0 7683465.5037140548 9024423.8656152822 0 9024423.8656152822 -12749642.889230371 0 0 0 0 -720074199.09250641 549409097.74438477 0 549409097.74438477 -66765346.002189636 0 0 0 0 15984187.866303444 57866819.320191383 0 57866819.320191383 -31532108.737503052 0 0 0 0 15279971.352745142 23116090.461720333 0 23116090.461720333 2993060.2774503529 0 0 0 0 -82740547.795631409 24748400.732805252 0 24748400.732805252 8876499.3690948486 0 0 0 0 -176364179.30363083 97568976.615653992 0 97568976.615653992 28578690.441452026 0 0 0 0 -151052640.28898239 154301193.40513229 0 154301193.40513229 47112850.311401367 0 0 0 0 -299848355.84278107 130425422.30880737 0 130425422.30880737 82051357.458518982 0 0 0 0 -101983111.18062823 180448490.75418502 0 180448490.75418502 43126740.841445923 0 0 0 0 113491526.20733261 33044990.823213577 0 33044990.823213577 -92325150.027900696 0 0 0 0 2894244.5121240467 3450097.5535420626 0 3450097.5535420626 -2637817.7770694792 0 0 0 0 -94106780.809548378 15493606.996569633 0 15493606.996569633 -5134609.0177307129 0 0 0 0 -238555152.33028412 152572122.96928406 0 152572122.96928406 18645634.706834793 0 0 0 0 -271846692.83260107 -44543628.039944649 0 -44543628.039944649 54780791.078613281 0 0 0 0 8383455.50025177 17240966.562904358 0 17240966.562904358 2860785.4476280212 0 0 0 0 17800715.835582018 147429864.91086304 0 147429864.91086304 -56466108.607681274 0 0 0 0 -426760575.97714233 565999546.35471344 0 565999546.35471344 -117390813.76567078 0 0 0 0 4465680.1907896027 34984266.062048852 0 34984266.062048852 53868173.586766541 0 0 0 0 -492876374.94879341 370822573.6882267 0 370822573.6882267 5858793.5999603271 0 0 0 0 -194600442.77335358 359365676.28458405 0 359365676.28458405 -64434385.590362549 0 0 0 0 -14855579.507388115 320169290.85816956 0 320169290.85816956 -438351497.45826721 0 0 0 0 332921554.51194572 345133641.14196014 0 345133641.14196014 -110753883.43126583 0 0 0 0 -66476663.397045135 404974304.31288528 0 404974304.31288528 -99709701.079589844 0 0 0 0 -209472752.41650009 465313136.36093903 0 465313136.36093903 403545128.72866821 0 0 0 0 -102741082.63644218 349571457.10546875 0 349571457.10546875 -324169398.23763275 0 0 0 0 30948797.156380311 58025659.320335642 0 58025659.320335642 48080613.534382999 0 0 0 0 -81668648.715169907 567988010.11928558 0 567988010.11928558 -432941237.84463644 0 0 0 0 123892677.55121613 248505743.82352448 0 248505743.82352448 -322979000.64967346 0 0 0 0 125750993.66966057 258905439.91197968 0 258905439.91197968 -599294973.6108017 0 0 0 0 215667271.62516022 374287630.14333344 0 374287630.14333344 -332450233.90195465 0 0 0 0 392243017.22374153 1067502274.1357727 0 1067502274.1357727 -643229571.53673935 0 0 0 0 1243697024.4925051 93260282.061080933 0 93260282.061080933 -943772413.97079468 0 0 0 0 1516271734.1137505 -547180334.00883484 0 -547180334.00883484 -56804989.302854538 0 0 0 0 -258005036.48356342 519918531.78574371 0 519918531.78574371 -365720531.54647064 0 0 0 0 237885710.19466305 167545592.39344788 0 167545592.39344788 -151165669.00547028 0 0 0 0 -280687039.31454933 -183432983.90555573 0 -183432983.90555573 96960046.725250244 0 0 0 0 416255517.24417973 -160879562.95500183 0 -160879562.95500183 -65964244.688110352 0 0 0 0 71913775.686159134 82087742.392803192 0 82087742.392803192 39722148.761505127 0 0 0 0 326819238.94173336 -75718013.751319885 0 -75718013.751319885 131026922.91340637 0 0 0 0 129669848.93571758 241549498.84705353 0 241549498.84705353 233626244.81478119 0 0 0 0 67091083.891359329 265367097.11053467 0 265367097.11053467 -50236998.832199097 0 0 0 0 386786555.03867149 253090349.71865845 0 253090349.71865845 -51603631.540177345 0 0 0 0 908749830.46860456 354359082.7347641 0 354359082.7347641 236468362.43750763 0 0 0 0 226173858.64080477 -8430258.3147773743 0 -8430258.3147773743 664126480.70665741 0 0 0 0 219334842.74136448 127151965.48419952 0 127151965.48419952 407090092.15933228 0 0 0 0 237341633.20554876 579322876.82357025 0 579322876.82357025 399928868.61682892 0 0 0 0 332436247.81057119 340369241.23891449 0 340369241.23891449 -339615649.08321762 0 0 0 0 -30308876.362804413 -402903624.4524498 0 -402903624.4524498 1164885825.6496887 0 0 0 0 -3914998.4888610728 7798060.8722401559 0 7798060.8722401559 14023451.246583045 0 0 0 0 -129559265.95230961 35608522.14632225 0 35608522.14632225 311595949.75528717 0 0 0 0 -523831511.35032845 4759545.4034881592 0 4759545.4034881592 570732315.50073242 0 0 0 0 -279595645.79911804 355672058.93206787 0 355672058.93206787 330051287.87918091 0 0 0 0 -442083131.89912224 319844143.49076462 0 319844143.49076462 351284535.40447998 0 0 0 0 -127285372.49958515 136828408.0717926 0 136828408.0717926 390433307.28128052 0 0 0 0 -54275590.71144104 527233321.86552429 0 527233321.86552429 1132824265.8097291 0 0 0 0 -123581186.08130455 -11062113.128404617 0 -11062113.128404617 202897539.93960953 0 0 0 0 -4278199.4663391113 104517015.9962616 0 104517015.9962616 -49873655.194015503 0 0 0 0 56866439.774652004 -179526198.25029087 0 -179526198.25029087 24176503.628585815 0 0 0 0 -51482647.2143116 103001354.98130798 0 103001354.98130798 -174509752.73575592 0 0 0 0 8049870.9142173529 9126582.17455405 0 9126582.17455405 6895733.3285865784 0 0 0 0 -48481141.882648468 112718932.76609802 0 112718932.76609802 -149834077.7334137 0 0 0 0 -73235307.048646927 93662293.546806335 0 93662293.546806335 -139781532.67832947 0 0 0 0 -66730719.617786407 224844975.10254288 0 224844975.10254288 -98128546.776695251 0 0 0 0 -126959551.04935646 80014011.379058838 0 80014011.379058838 113377670.11234665 0 0 0 0 -5729527.275267832 22986612.848328955 0 22986612.848328955 20896619.760444559 0 0 0 0 21524036.275910035 43290761.704063505 0 43290761.704063505 21407084.741114467 0 0 0 0 71381700.871032715 233181365.87268448 0 233181365.87268448 -101216338.70211887 0 0 0 0 -148019167.65437603 121903817.26895475 0 121903817.26895475 103514374.48398209 0 0 0 0 -45883027.278799057 182734239.07967377 0 182734239.07967377 -96100422.571006775 0 0 0 0 -178315572.52720261 215980775.94903851 0 215980775.94903851 12827430.00642395 0 0 0 0 14766354.208418988 33349288.162544578 0 33349288.162544578 30975434.323242694 0 0 0 0 -110524826.19058704 108516591.94141912 0 108516591.94141912 5824360.4394035339 0 0 0 0 -152735739.58542633 81731971.412149429 0 81731971.412149429 65473533.887168884 0 0 0 0 32872282.965164185 79870550.141868591 0 79870550.141868591 51210519.252996445 0 0 0 0 -108692286.10942078 121686887.55260468 0 121686887.55260468 79193035.10622406 0 0 0 0 -111468000.46939468 106523304.16053677 0 106523304.16053677 78417282.38734436 0 0 0 0 -184784571.26861572 128716218.55781555 0 128716218.55781555 109401996.71112823 0 0 0 0 -130834266.12706757 119003764.41103745 0 119003764.41103745 110086481.38613892 0 0 0 0 -141359792.83035278 48046713.193449974 0 48046713.193449974 136382446.5941658 0 0 0 0 -214304912.56321335 67638818.576114655 0 67638818.576114655 133444192.88945627 0 0 0 0 12440964.349354818 25306060.431739919 0 25306060.431739919 27655269.484849095 0 0 0 0 -342963760.59902573 221074447.90927505 0 221074447.90927505 -34926357.954255581 0 0 0 0 -242690835.35460663 -3893233.104634285 0 -3893233.104634285 177619653.5906601 0 0 0 0 -212665264.45944977 439918176.15497971 0 439918176.15497971 -132451300.00341225 0 0 0 0 -163173014.26162338 229001783.97216988 0 229001783.97216988 163446939.23988342 0 0 0 0 453272496.53261948 557920032.25348282 0 557920032.25348282 334747146.66143417 0 0 0 0 461884876.37894011 615867273.66630125 0 615867273.66630125 160990963.72702026 0 0 0 0 -859106309.68179321 -533332751.18864441 0 -533332751.18864441 318058977.48590469 0 0 0 0 -510923956.22240448 1143187389.1842117 0 1143187389.1842117 2316907622.0337219 0 0 0 0 -336233235.63924789 6005393.286190033 0 6005393.286190033 741751609.99098206 0 0 0 0 -339624442.43571854 -145213191.65563583 0 -145213191.65563583 25324759.519317627 0 0 0 0 -8685623.861240387 180142296.92348862 0 180142296.92348862 674581.67841339111 0 0 0 0 20573383.173435435 29021625.902029242 0 29021625.902029242 16201433.381379575 0 0 0 0 1539353573.3218346 462261561.10629272 0 462261561.10629272 -216649378.44678116 0 0 0 0 723919121.44168854 -240778869.39609909 0 -240778869.39609909 -77892116.326257706 0 0 0 0 2277041990.9380417 1433233336.6702423 0 1433233336.6702423 511785736.18084717 0 0 0 0 9445111.862807408 5188484.4583365917 0 5188484.4583365917 2992578.0190784559 0 0 0 0 23896396.153556824 307582425.60086823 0 307582425.60086823 1285092444.2167511 0 0 0 0 2866172534.3692017 854177699.64666748 0 854177699.64666748 1375740694.6829987 0 0 0 0 2209984684.6276016 -137068965.99154663 0 -137068965.99154663 -72670894.594852448 0 0 0 0 9727640.3311249316 10234903.100222483 0 10234903.100222483 5845386.0043292493 0 0 0 0 -237298652.80720139 1242991837.6256294 0 1242991837.6256294 1316766678.8256454 0 0 0 0 -89986574.383731842 -87069864.727581024 0 -87069864.727581024 -63248532.328830719 0 0 0 0 1140053058.0415573 646653486.0843277 0 646653486.0843277 -138911736.72159576 0 0 0 0 79197685.296920776 314895074.73307037 0 314895074.73307037 -197774763.60741615 0 0 0 0 502056306.49908638 55900230.186916351 0 55900230.186916351 -267940357.10813904 0 0 0 0 535636387.43667603 88572708.283672333 0 88572708.283672333 -392709078.47525787 0 0 0 0 173721444.6850071 139406144.96831131 0 139406144.96831131 -277428515.81578827 0 0 0 0 177931160.7172966 134787468.20652771 0 134787468.20652771 -272391334.49633026 0 0 0 0 110575274.00938416 125391034.43119812 0 125391034.43119812 -236074863.60245514 0 0 0 0 -169424210.72937965 140681648.7471962 0 140681648.7471962 -179761213.21790314 0 0 0 0 84195590.56363678 193136798.56328201 0 193136798.56328201 -307564773.0220871 0 0 0 0 -119887246.26115036 -304284816.59165001 0 -304284816.59165001 -10745755.854904175 0 0 0 0 15947003.762478292 8054783.5080481768 0 8054783.5080481768 4277485.9265840799 0 0 0 0 -111776420.24451447 264461218.29719543 0 264461218.29719543 -286923802.06507111 0 0 0 0 198928075.27731323 -92778849.35383606 0 -92778849.35383606 -325204406.46342278 0 0 0 0 -241965216.88622665 197988092.07558441 0 197988092.07558441 -70963477.076171875 0 0 0 0 176826985.02321625 128396888.46298981 0 128396888.46298981 -309286338.03740692 0 0 0 0 -139206858.96175385 69987269.791717529 0 69987269.791717529 -69970842.777984619 0 0 0 0 2055715.3140302226 704421.36335981637 0 704421.36335981637 -805057.96080161631 0 0 0 0 -42344954.128250122 150870864.89533997 0 150870864.89533997 -266248175.72974396 0 0 0 0 -84284740.193771362 135881410.60835648 0 135881410.60835648 25167513.086647034 0 0 0 0 3700833.4664282948 2150182.5266165435 0 2150182.5266165435 -583745.07417805493 0 0 0 0 119962808.17499161 93193216.07028389 0 93193216.07028389 -135343779.47003174 0 0 0 0 98661228.288845062 37507119.105873108 0 37507119.105873108 -274297389.13670731 0 0 0 0 7964799.0211830139 85528030.128482819 0 85528030.128482819 274101511.78979874 0 0 0 0 84522087.177014351 141411426.41144371 0 141411426.41144371 5256020.8057937622 0 0 0 0 -176711586.27227545 223620765.08341455 0 223620765.08341455 -118175181.9760437 0 0 0 0 165016367.91551971 85356192.331581116 0 85356192.331581116 -206780188.90790558 0 0 0 0 190604667.79587555 128019735.71379089 0 128019735.71379089 -277302273.94242096 0 0 0 0 172360693.99914932 233546672.09052277 0 233546672.09052277 2473152.6191940308 0 0 0 0 200414153.39456177 148742707.53385162 0 148742707.53385162 -185416419.87111092 0 0 0 0 9325282.8499469757 56347012.19270134 0 56347012.19270134 -8922121.9462814331 0 0 0 0 164918027.97201109 280857966.45630026 0 280857966.45630026 456295192.13223267 0 0 0 0 307005730.47060776 251276225.45072174 0 251276225.45072174 75062617.662387848 0 0 0 0 5350022.6723403931 55460798.470495224 0 55460798.470495224 722775151.95676804 0 0 0 0 23393321.376135826 299729196.35192299 0 299729196.35192299 1014099648.441597 0 0 0 0 -4804659.5090075433 2709289.3985085785 0 2709289.3985085785 408746.01526688784 0 0 0 0 497506167.35274506 388139918.82933807 0 388139918.82933807 -1300704181.0721388 0 0 0 0 836190181.88710308 810756969.69761848 0 810756969.69761848 -805784582.39476013 0 0 0 0 494847469.07761383 -514120103.84880829 0 -514120103.84880829 -525914130.54318237 0 0 0 0 417562180.54985809 94957690.544921875 0 94957690.544921875 590075701.56169128 0 0 0 0 52669170.953622818 39707453.162750244 0 39707453.162750244 282007482.98083496 0 0 0 0 -131792604.67665482 48408985.976768494 0 48408985.976768494 291354236.24136353 0 0 0 0 91295186.371450424 115750564.62299347 0 115750564.62299347 284979405.52911949 0 0 0 0 -13388535.096901372 7245623.6012110263 0 7245623.6012110263 1679308.1449122094 0 0 0 0 -73820218.352607727 27335003.935289383 0 27335003.935289383 629861730.4707756 0 0 0 0 -269616307.18706512 276458471.04350281 0 276458471.04350281 -462743377.48787785 0 0 0 0 -41608719.912788391 7205457.0434188843 0 7205457.0434188843 -478962828.85504341 0 0 0 0 -16946675.086231738 10518936.421638712 0 10518936.421638712 3073578.9613944069 0 0 0 0 -121399283.62287903 63568216.192058563 0 63568216.192058563 452317370.78042984 0 0 0 0 -13109004.603426933 38601012.337820053 0 38601012.337820053 256566722.36936951 0 0 0 0 -141228112.66338348 43792156.066810608 0 43792156.066810608 256667624.45270008 0 0 0 0 -16976827.947813988 75394344.624113083 0 75394344.624113083 12984392.039665222 0 0 0 0 -134266297.688591 247323418.20575333 0 247323418.20575333 -33297122.44301796 0 0 0 0 3367810.674050428 2523298.6427949965 0 2523298.6427949965 165662.84734483063 0 0 0 0 -68128094.336182594 146898230.16904449 0 146898230.16904449 -182500852.18561554 0 0 0 0 -62961720.161170959 97589897.434921265 0 97589897.434921265 -165251567.2097168 0 0 0 0 -11389836.346000671 164130254.38924599 0 164130254.38924599 -288150998.97770691 0 0 0 0 -90553487.235061646 128375271.64019775 0 128375271.64019775 -174734558.6084891 0 0 0 0 13288072.40801239 107482460.67150879 0 107482460.67150879 -132980785.69212341 0 0 0 0 13279326.092482567 84189086.4323349 0 84189086.4323349 -109964682.46439362 0 0 0 0 6545302.6568317413 67964851.658622742 0 67964851.658622742 -148710467.24685669 0 0 0 0 -78468672.982951164 98828877.366447449 0 98828877.366447449 -122945888.46748352 0 0 0 0 61743285.207389832 107744192.91738129 0 107744192.91738129 -192105651.83528137 0 0 0 0 1427125.1010720283 1187692.8231626302 0 1187692.8231626302 269951.10899192095 0 0 0 0 80876588.268241882 201591597.84572601 0 201591597.84572601 -43364193.111507416 0 0 0 0 -37275771.43167305 159022289.50461197 0 159022289.50461197 162690501.06694794 0 0 0 0 -7144749.0294628143 39456579.416290283 0 39456579.416290283 123253992.61495209 0 0 0 0 101058215.43463898 116395422.93820381 0 116395422.93820381 121263504.43598938 0 0 0 0 43220376.967071533 176673593.31880951 0 176673593.31880951 238332512.84631348 0 0 0 0 -121907764.1319952 162683594.29252195 0 162683594.29252195 281348205.92323303 0 0 0 0 -39901894.058771133 104973977.31755066 0 104973977.31755066 183643674.2877655 0 0 0 0 446638676.89840698 193151769.60931396 0 193151769.60931396 -53075636.387481689 0 0 0 0 -19467147.667062163 15924722.190437183 0 15924722.190437183 5741455.0270559825 0 0 0 0 14187855.119052887 95532337.586750031 0 95532337.586750031 174825530.18974686 0 0 0 0 -30662210.593490124 -2986903.9584903717 0 -2986903.9584903717 61026645.933761597 0 0 0 0 -44692444.500102997 51543542.509536743 0 51543542.509536743 145570221.20004272 0 0 0 0 -116029817.37345886 40910108.575790405 0 40910108.575790405 37702798.122283936 0 0 0 0 -267514411.03440475 339200983.12069321 0 339200983.12069321 -160571982.771698 0 0 0 0 -5230544.0497586876 8252857.5656352937 0 8252857.5656352937 6461374.6436194181 0 0 0 0 -66817002.030685425 57007795.38760376 0 57007795.38760376 18332742.720588684 0 0 0 0 -90616251.475101471 66215501.113952637 0 66215501.113952637 23185551.281845093 0 0 0 0 -48416418.682647705 378243397.43453312 0 378243397.43453312 -234080128.78849792 0 0 0 0 -56979203.729642868 329269926.62589931 0 329269926.62589931 -221152401.71221924 0 0 0 0 -239439530.6746521 223785549.57652283 0 223785549.57652283 -221432489.40087128 0 0 0 0 -64983022.194991112 -48808348.207522392 0 -48808348.207522392 -31333795.187049866 0 0 0 0 195748333.54975665 431634703.1274966 0 431634703.1274966 -273456560.82104492 0 0 0 0 -1651830.942221716 2666277.8771603331 0 2666277.8771603331 2486821.8833396137 0 0 0 0 188873973.20531082 159983876.35485077 0 159983876.35485077 -214062197.44981194 0 0 0 0 -189186169.26301575 415640401.62033844 0 415640401.62033844 129745357.42173386 0 0 0 0 -322570748.80025482 59133393.933334351 0 59133393.933334351 -285161507.57954407 0 0 0 0 -67221925.071990967 155409848.54404449 0 155409848.54404449 -466510079.82321167 0 0 0 0 9877794.3114776611 304054684.64987946 0 304054684.64987946 -218434523.59461212 0 0 0 0 25610279.1615448 295150394.20063019 0 295150394.20063019 -314514246.63993835 0 0 0 0 83666464.317371368 62092322.392173767 0 62092322.392173767 -456534089.47032928 0 0 0 0 113927149.0119915 440474049.87698364 0 440474049.87698364 -744820984.02722168 0 0 0 0 59467397.714588165 433307463.88213348 0 433307463.88213348 -397579254.31729126 0 0 0 0 59003926.88602829 434657477.6172142 0 434657477.6172142 -384728357.1114502 0 0 0 0 65725852.882019043 394363594.16148376 0 394363594.16148376 -456302195.85262108 0 0 0 0 358036.97052383423 376395726.62132263 0 376395726.62132263 -350161790.21351624 0 0 0 0 -5328796.2733230591 366181229.58305359 0 366181229.58305359 -269435445.63395691 0 0 0 0 1767928.0830116272 422524545.69978714 0 422524545.69978714 -278472303.48397827 0 0 0 0 -59436364.528230667 457720142.85138702 0 457720142.85138702 -146464842.81900024 0 0 0 0 -23229112.091156006 448450174.02320099 0 448450174.02320099 -278177791.75612724 0 0 0 0 -131675425.9276886 409713759.88908386 0 409713759.88908386 -139625774.73403931 0 0 0 0 11989290.454761505 555399711.49150848 0 555399711.49150848 -141236684.4551239 0 0 0 0 9280347.8255348206 518148258.39306641 0 518148258.39306641 -137564621.00282288 0 0 0 0 42823583.035324097 488664300.50074005 0 488664300.50074005 -389926360.06145859 0 0 0 0 12964753.323181152 508160976.12776184 0 508160976.12776184 -141911094.13061905 0 0 0 0 19039076.275001526 455318275.79004669 0 455318275.79004669 -34317893.515487671 0 0 0 0 100822379.03146362 521549843.35847473 0 521549843.35847473 -60240514.535125732 0 0 0 0 91629582.525756836 477899850.78020477 0 477899850.78020477 -144307358.81965637 0 0 0 0 33204201.231693268 446444617.34329605 0 446444617.34329605 65183123.086677551 0 0 0 0 25323559.332588196 493147912.09605408 0 493147912.09605408 50853492.843490601 0 0 0 0 229263138.90499878 365037075.40509796 0 365037075.40509796 13406131.993545532 0 0 0 0 13404692.767803192 402245195.95757294 0 402245195.95757294 -33441331.798433304 0 0 0 0 -87848163.914451599 445502807.24691772 0 445502807.24691772 -110696902.2119751 0 0 0 0 -171297558.62842941 460642082.90660858 0 460642082.90660858 -23930777.888061523 0 0 0 0 -83376298.224971771 467714951.35063171 0 467714951.35063171 -1148163.0926437378 0 0 0 0 -205046558.22688293 395948157.98251343 0 395948157.98251343 -22088108.669769526 0 0 0 0 -216231629.46517181 420951890.23848724 0 420951890.23848724 -58983211.968322754 0 0 0 0 -367343609.06664276 346475707.5788269 0 346475707.5788269 509454.74137115479 0 0 0 0 -226261803.62569046 358686233.11927795 0 358686233.11927795 -91030456.513328552 0 0 0 0 -378947048.96100616 330319122.60807037 0 330319122.60807037 -8614186.2374229431 0 0 0 0 -425061139.76073456 236493548.127388 0 236493548.127388 31232301.862167358 0 0 0 0 -406252516.55118561 264951781.13672638 0 264951781.13672638 -38114883.641616821 0 0 0 0 -373276301.29367447 244976629.28366852 0 244976629.28366852 -60545344.219829559 0 0 0 0 -280548843.54674149 283406065.7504425 0 283406065.7504425 -185674240.36656952 0 0 0 0 -109600971.41477203 341220359.7281189 0 341220359.7281189 -215127757.2951355 0 0 0 0 -111973131.48671722 391570331.99951935 0 391570331.99951935 -229583620.57792091 0 0 0 0 -267756398.43785 336644811.33570671 0 336644811.33570671 -102350983.17980957 0 0 0 0 414934778.92925262 54051086.087852478 0 54051086.087852478 -572884160.95808029 0 0 0 0 158553365.5168457 -102720397.95566177 0 -102720397.95566177 -145764487.75289917 0 0 0 0 802344834.14521027 863692223.81811905 0 863692223.81811905 6688754.8400115967 0 0 0 0 -437473680.40190029 543290801.51355171 0 543290801.51355171 1447926139.9862061 0 0 0 0 1232206252.4850836 345006035.06066895 0 345006035.06066895 -968585996.36721802 0 0 0 0 888950.67582094297 3322184.4939499684 0 3322184.4939499684 873471.2698532939 0 0 0 0 388014025.05715179 259894747.50359726 0 259894747.50359726 -872013916.91641235 0 0 0 0 -54800536.498535156 250362440.98690033 0 250362440.98690033 -846704126.89536285 0 0 0 0 303191394.60671616 409795598.73476601 0 409795598.73476601 -789660495.32086182 0 0 0 0 11870025.709335327 -72953553.059867859 0 -72953553.059867859 -503140606.10288239 0 0 0 0 193012379.21260262 -55256527.525636673 0 -55256527.525636673 -525836173.36044312 0 0 0 0 112097838.3507309 -31294578.982589722 0 -31294578.982589722 -442399589.15889359 0 0 0 0 -168775052.92094421 -496876821.23196793 0 -496876821.23196793 -654297421.27056122 0 0 0 0 2847522.0817471193 2811407.1609222516 0 2811407.1609222516 -7745741.7912104428 0 0 0 0 75019637.132363319 134990299.46780777 0 134990299.46780777 -1182321445.0468063 0 0 0 0 -740896206.38411713 589086852.73505783 0 589086852.73505783 -250206307.57095337 0 0 0 0 -162652805.00004673 457318785.06416798 0 457318785.06416798 -917285835.60830688 0 0 0 0 -716296925.00019073 -43582794.034667969 0 -43582794.034667969 -691110633.7265625 0 0 0 0 103557334.45023346 155154790.03569031 0 155154790.03569031 -1352793381.2340851 0 0 0 0 103195139.23143005 289628920.60259247 0 289628920.60259247 -641769829.75128174 0 0 0 0 110555574.66719055 -50679981.147697449 0 -50679981.147697449 -932415416.24743652 0 0 0 0 -53211722.55922699 723113789.26154327 0 723113789.26154327 -1045751641.4410667 0 0 0 0 4925520.3702888489 496818762.21360016 0 496818762.21360016 -390202949.50498962 0 0 0 0 111012566.04606628 487353466.60169983 0 487353466.60169983 -390448889.24844933 0 0 0 0 -73582584.401517868 478608630.23128891 0 478608630.23128891 -116554494.44714355 0 0 0 0 127623364.96131134 108068949.50515556 0 108068949.50515556 -81318859.203216553 0 0 0 0 526604488.48069668 -65426167.980758667 0 -65426167.980758667 -49614711.133514404 0 0 0 0 361933076.80617523 486968845.10778046 0 486968845.10778046 25124549.107192993 0 0 0 0 309884123.94605637 400401371.53089142 0 400401371.53089142 -113082983.38868713 0 0 0 0 107367176.40839386 374670609.73826599 0 374670609.73826599 145384410.06698608 0 0 0 0 662871961.27779198 256594133.72556496 0 256594133.72556496 -5963181.430480957 0 0 0 0 285978361.33944702 350585444.23896027 0 350585444.23896027 1094318.8075256348 0 0 0 0 226611007.69570541 272379235.04473114 0 272379235.04473114 207178811.04940796 0 0 0 0 295637133.1687851 228336227.93634653 0 228336227.93634653 426824807.64044189 0 0 0 0 615974187.04891586 285679194.05173874 0 285679194.05173874 117942686.86201668 0 0 0 0 -23223747.191120148 35844426.021629333 0 35844426.021629333 15981036.423904419 0 0 0 0 715921.10574776959 11665627.714531556 0 11665627.714531556 11321615.785747498 0 0 0 0 -542298.39477500319 3968314.119820565 0 3968314.119820565 1261805.476711154 0 0 0 0 17253917.374456882 -24529647.40373826 0 -24529647.40373826 -207919409.2493515 0 0 0 0 135229575.90179825 115041252.16609192 0 115041252.16609192 -74933118.163291931 0 0 0 0 9278402.0704318117 11369443.883244932 0 11369443.883244932 -20020959.519586742 0 0 0 0 14847726.640582889 29040268.081200153 0 29040268.081200153 6902436.4901023433 0 0 0 0 -70191456.243766785 -23756847.608634949 0 -23756847.608634949 -193554588.36551285 0 0 0 0 -25113497.350086212 58043494.810916901 0 58043494.810916901 25365140.770088196 0 0 0 0 -36103751.349529266 43869753.896018982 0 43869753.896018982 11014925.838508606 0 0 0 0 -34731799.438350677 76274395.553260803 0 76274395.553260803 360610.51607513428 0 0 0 0 -30680499.383167267 103267010.44068527 0 103267010.44068527 28995421.061325073 0 0 0 0 19141095.66425097 130591823.71276736 0 130591823.71276736 -72498347.499290466 0 0 0 0 193752147.60893631 45345800.36548233 0 45345800.36548233 -610226191.93251801 0 0 0 0 11072101.122721493 30905185.442865163 0 30905185.442865163 9968840.4817694202 0 0 0 0 -49182760.73349762 34154863.512969971 0 34154863.512969971 -68285808.187030792 0 0 0 0 -68054559.921772003 44092729.519088745 0 44092729.519088745 -32287024.74130249 0 0 0 0 -71763002.492807388 32817994.900278091 0 32817994.900278091 -26276081.672332764 0 0 0 0 -70389465.895107269 12302752.673858643 0 12302752.673858643 -25543772.588989258 0 0 0 0 -81453414.625823975 32579698.030158997 0 32579698.030158997 35158597.157287598 0 0 0 0 -69658226.383051261 51830699.34104982 0 51830699.34104982 36621774.877929688 0 0 0 0 -77783697.078231812 69992031.383506775 0 69992031.383506775 81309627.457832336 0 0 0 0 -73695062.270929337 47494134.455769539 0 47494134.455769539 22603211.607116699 0 0 0 0 -44676135.666607857 23948834.74051857 0 23948834.74051857 17232627.595100403 0 0 0 0 -84630225.234271169 22594409.771081448 0 22594409.771081448 17430887.783805847 0 0 0 0 -67713575.950733185 54684031.888328552 0 54684031.888328552 30482571.524295807 0 0 0 0 -83694138.764564514 57804730.428230286 0 57804730.428230286 14854474.758789062 0 0 0 0 -122247505.93764114 53980788.270572662 0 53980788.270572662 -8137070.5930938721 0 0 0 0 1089470051.701952 364440278.27605438 0 364440278.27605438 -36768588.724739075 0 0 0 0 3415030.7257114556 3849937.0876582786 0 3849937.0876582786 3853216.7058998048 0 0 0 0 523066810.81192398 324038739.67061615 0 324038739.67061615 13318181.685516357 0 0 0 0 366671502.59529877 307528616.73535538 0 307528616.73535538 62751491.452159882 0 0 0 0 832554719.63032532 199402146.85083771 0 199402146.85083771 -13771665.231735229 0 0 0 0 823302152.92837 191435650.69247985 0 191435650.69247985 130085966.21653748 0 0 0 0 803924604.10779953 407892566.49170399 0 407892566.49170399 -49215909.805099487 0 0 0 0 983384388.30568695 500125420.47865677 0 500125420.47865677 213103.72410583496 0 0 0 0 -410814584.57448006 425747024.81600857 0 425747024.81600857 1494947.3428649902 0 0 0 0 1699950514.5102158 250232592.51072693 0 250232592.51072693 -148116312.06764984 0 0 0 0 4993274.6007498903 -623812.98345294595 0 -623812.98345294595 290439.10595822334 0 0 0 0 -78516753.182497025 46845443.293525696 0 46845443.293525696 -48141319.843833923 0 0 0 0 -85437603.221260071 54798816.033370972 0 54798816.033370972 -35714093.129333496 0 0 0 0 -7970436.614890486 -528423.63270347565 0 -528423.63270347565 8681598.045971036 0 0 0 0 -115576472.692173 74407372.84588623 0 74407372.84588623 -20267.05540296546 0 0 0 0 -157389135.06651592 36594468.193885803 0 36594468.193885803 -34892171.056564331 0 0 0 0 -67067002.372421265 13785844.909004211 0 13785844.909004211 -50590543.580665588 0 0 0 0 -5138410.5110106841 1244831.9140979648 0 1244831.9140979648 9200723.7507074177 0 0 0 0 -78042383.537090302 69769064.070095062 0 69769064.070095062 -59911003.871837616 0 0 0 0 -3522950.5098102093 104766582.29732752 0 104766582.29732752 -46515142.524589539 0 0 0 0 -258224885.25211048 125783228.71513367 0 125783228.71513367 58468182.152206421 0 0 0 0 -288948007.74688339 477796135.91639709 0 477796135.91639709 97838570.839393616 0 0 0 0 -633073693.87679291 339418873.26306152 0 339418873.26306152 111740372.88682413 0 0 0 0 -800919349.27437782 322457354.20211983 0 322457354.20211983 90049250.227760315 0 0 0 0 -531746227.97355652 248981295.81044388 0 248981295.81044388 -7021272.0871276855 0 0 0 0 -584799187.5480175 209023105.50126076 0 209023105.50126076 26861797.253448486 0 0 0 0 -499123742.44844246 355222086.47110748 0 355222086.47110748 56119693.416168213 0 0 0 0 -504220356.72997808 401328989.39798927 0 401328989.39798927 113535589.90447998 0 0 0 0 -240153625.86009979 398083617.66709137 0 398083617.66709137 8804287.0362472534 0 0 0 0 -308130096.68083191 443497668.31998444 0 443497668.31998444 46763780.847564697 0 0 0 0 -98877954.448551178 391945081.03048706 0 391945081.03048706 23341632.065422058 0 0 0 0 -104383006.91931534 501027535.84000397 0 501027535.84000397 40792817.299194336 0 0 0 0 -232946628.6673069 426231836.14859486 0 426231836.14859486 91719558.836029053 0 0 0 0 402810852.82708359 364108555.01443481 0 364108555.01443481 -10276881.389453888 0 0 0 0 279753813.66118431 435720673.01921463 0 435720673.01921463 122198498.86741638 0 0 0 0 -38785759.734855652 493167128.79518509 0 493167128.79518509 85919880.536911011 0 0 0 0 247322273.60064697 357950983.09782028 0 357950983.09782028 -28429328.107826233 0 0 0 0 -161160853.29133797 597386807.74995804 0 597386807.74995804 53769715.877738953 0 0 0 0 454974577.72358322 198861287.35124207 0 198861287.35124207 109255898.54779434 0 0 0 0 216674641.92571259 562077432.68007469 0 562077432.68007469 76379.531463623047 0 0 0 0 -433062368.27466202 250359808.41794586 0 250359808.41794586 26055127.746932983 0 0 0 0 -626468673.28587818 577092097.71299648 0 577092097.71299648 -465382.46913146973 0 0 0 0 -600945102.20234776 297308759.65356445 0 297308759.65356445 -4748120.1238479614 0 0 0 0 -1837326227.9867954 101384058.77406693 0 101384058.77406693 114437003.81289291 0 0 0 0 287920589.33924484 178123721.31007385 0 178123721.31007385 244306.90924072266 0 0 0 0 186766526.86618805 282077343.86081314 0 282077343.86081314 -103097496.52850342 0 0 0 0 -652093.12807652727 -422927.7286272198 0 -422927.7286272198 -3909905.628836453 0 0 0 0 490433729.6824646 192973459.64089966 0 192973459.64089966 -77497105.549606323 0 0 0 0 280059162.84629822 181500368.13482666 0 181500368.13482666 6217256.7019882202 0 0 0 0 276765811.50128388 112695686.30580378 0 112695686.30580378 -38135147.423416138 0 0 0 0 56240421.222702026 71608509.336555481 0 71608509.336555481 -23419645.204223633 0 0 0 0 364292077.68968201 192144956.09072113 0 192144956.09072113 -58617187.557983398 0 0 0 0 293418237.97081757 150263967.76810074 0 150263967.76810074 -221182.99739074707 0 0 0 0 282872744.85751343 212529505.71536255 0 212529505.71536255 -52528553.740280151 0 0 0 0 319332416.99777603 120000928.64113045 0 120000928.64113045 -152501698.90977478 0 0 0 0 -33492.765079349279 -1678447.037856847 0 -1678447.037856847 -391061.07833990455 0 0 0 0 134865612.33864594 -102863716.32146072 0 -102863716.32146072 217282227.41943359 0 0 0 0 554035078.41901779 145798444.19935989 0 145798444.19935989 -107527040.605896 0 0 0 0 485921352.21583939 84730942.505550385 0 84730942.505550385 -50540087.348632812 0 0 0 0 321985079.38967896 107583278.11527252 0 107583278.11527252 33026478.464263916 0 0 0 0 86252163.312236786 136917647.52654266 0 136917647.52654266 95338810.992103577 0 0 0 0 -1065788193.1420269 14489572.303764343 0 14489572.303764343 67411516.638656616 0 0 0 0 726985.81395610049 5596812.1867355853 0 5596812.1867355853 -9589008.6630839407 0 0 0 0 -2583645.8742962293 2117054.5916847885 0 2117054.5916847885 139052.99842789769 0 0 0 0 68929507.799057007 75575623.412612915 0 75575623.412612915 -118672559.67350769 0 0 0 0 375033566.78256226 236333610.05205536 0 236333610.05205536 -75971712.131469727 0 0 0 0 318214377.86534882 273272236.55439758 0 273272236.55439758 42239281.534545898 0 0 0 0 174242610.36413574 241052990.05133629 0 241052990.05133629 154080742.95656586 0 0 0 0 -1689059.4430685192 6609678.7254121229 0 6609678.7254121229 -287242.20543655753 0 0 0 0 353710666.60447693 15187816.872600555 0 15187816.872600555 -22129027.912719727 0 0 0 0 -23372582.800022125 36379453.463294983 0 36379453.463294983 51788301.527202606 0 0 0 0 -2575982.31366699 12610054.377942942 0 12610054.377942942 -388584.46664142609 0 0 0 0 -510688459.41905212 145730024.67901611 0 145730024.67901611 53462234.160801888 0 0 0 0 -476819451.20466518 139723908.22736645 0 139723908.22736645 -5994090.8594665527 0 0 0 0 1801502.9163699709 8305291.0841529369 0 8305291.0841529369 -12497977.292902023 0 0 0 0 -66852612.090194702 60158108.094108582 0 60158108.094108582 88702019.306179047 0 0 0 0 -100232815.53499222 152458112.15762329 0 152458112.15762329 131098084.72691345 0 0 0 0 351086424.75138855 200232728.5377655 0 200232728.5377655 28128398.410995483 0 0 0 0 126170686.66708755 293005827.79961014 0 293005827.79961014 189665129.21274567 0 0 0 0 302476461.74094391 40655829.913085938 0 40655829.913085938 -263635674.87619781 0 0 0 0 -279496586.6036911 194844801.16586685 0 194844801.16586685 274684093.474823 0 0 0 0 -1282296.9538162649 4421572.4617878348 0 4421572.4617878348 -1160774.9304806888 0 0 0 0 -169273147.43848228 -86005700.033914566 0 -86005700.033914566 24053836.094955444 0 0 0 0 -116562750.07945824 180327381.04932785 0 180327381.04932785 -165074094.58609009 0 0 0 0 -317459882.8298912 4011228.6306247711 0 4011228.6306247711 14076078.034988403 0 0 0 0 49373577.60900116 99743325.468383789 0 99743325.468383789 28826193.159893036 0 0 0 0 -48895079.882389069 94698124.444515228 0 94698124.444515228 37740817.043830872 0 0 0 0 103241492.21907806 160086546.85605621 0 160086546.85605621 -210564.01429349827 0 0 0 0 -181153401.18078232 192028638.17688751 0 192028638.17688751 478840.21572113037 0 0 0 0 -221204244.62203979 179745149.47147369 0 179745149.47147369 76477366.950935364 0 0 0 0 6695398.4079320133 7963628.0839982927 0 7963628.0839982927 -6575905.2507808656 0 0 0 0 -117304342.65174866 69580828.409687042 0 69580828.409687042 176884261.24871826 0 0 0 0 16972021.483001709 20108707.539741516 0 20108707.539741516 9936.6947609140789 0 0 0 0 18494559.031539917 -5930306.4942474365 0 -5930306.4942474365 105318850.99099731 0 0 0 0 -64759229.932655334 33718126.151794434 0 33718126.151794434 88803418.554733276 0 0 0 0 38505850.250392914 10669275.029190063 0 10669275.029190063 48270544.488021851 0 0 0 0 -67501507.132347107 70871274.265869141 0 70871274.265869141 39828602.229516983 0 0 0 0 -40771209.936042786 51222053.36259079 0 51222053.36259079 51491643.541187286 0 0 0 0 55404503.826122284 77641809.782079697 0 77641809.782079697 143747514.97889709 0 0 0 0 44663703.953647614 61962878.304189682 0 61962878.304189682 61702323.633468628 0 0 0 0 70660170.531852722 109995470.38611126 0 109995470.38611126 127581657.30103302 0 0 0 0 89649689.858505249 66540793.971504211 0 66540793.971504211 110298.31572723389 0 0 0 0 5553876.3540720046 7842616.0060780942 0 7842616.0060780942 -6366652.5256588608 0 0 0 0 -4100245.0682315826 58724108.140637398 0 58724108.140637398 119538185.43935394 0 0 0 0 24792247.994796753 16008675.166641235 0 16008675.166641235 50986296.322425842 0 0 0 0 3008726.1128784716 4191817.1766971201 0 4191817.1766971201 -3420537.927100867 0 0 0 0 15769942.901199341 131498634.85437012 0 131498634.85437012 25983737.441101074 0 0 0 0 84604505.836257935 263483618.24021912 0 263483618.24021912 210754741.63392448 0 0 0 0 39056999.46321106 88533969.659946442 0 88533969.659946442 94039005.75642395 0 0 0 0 -2846623.3524551392 55135345.104812622 0 55135345.104812622 -16069424.192634583 0 0 0 0 -40933552.93413353 -9174994.1180922985 0 -9174994.1180922985 34013698.545608521 0 0 0 0 6247872.0000686646 49813995.673088074 0 49813995.673088074 27209380.973045349 0 0 0 0 -13345872.985443115 55508333.060546875 0 55508333.060546875 15451481.048561096 0 0 0 0 -7140978.7267459035 20525395.054707065 0 20525395.054707065 -23506.56135378778 0 0 0 0 14548194.393105507 12438771.483737946 0 12438771.483737946 -20062233.46686554 0 0 0 0 -21170283.601646423 58166065.170455933 0 58166065.170455933 -161970752.41874695 0 0 0 0 135427814.24571228 1363937.2599182129 0 1363937.2599182129 -43801937.877670288 0 0 0 0 5203098.0461075902 4801754.9054486305 0 4801754.9054486305 -1833565.6047048271 0 0 0 0 132560892.35548401 127673813.91856384 0 127673813.91856384 10939179.012268066 0 0 0 0 566839.36911597848 10585748.176158324 0 10585748.176158324 8597415.4270062745 0 0 0 0 11454299.127685547 7547522.1631202698 0 7547522.1631202698 -38601935.108844757 0 0 0 0 -4994317.4836542755 11577739.512498081 0 11577739.512498081 -1195628.3031707704 0 0 0 0 -32955583.00894928 56145035.403553009 0 56145035.403553009 20316489.698223114 0 0 0 0 -2984764.9120140076 45928099.794746399 0 45928099.794746399 16470714.276733398 0 0 0 0 -21849970.04410553 27289960.637657166 0 27289960.637657166 58859633.544998169 0 0 0 0 -39141767.807891846 27333243.588157654 0 27333243.588157654 62225359.521369934 0 0 0 0 -42036824.239868164 30174616.327980042 0 30174616.327980042 65284366.774353027 0 0 0 0 -33938435.206939697 53827372.886810303 0 53827372.886810303 74604237.552062988 0 0 0 0 -50023727.106384277 24963834.951805115 0 24963834.951805115 116353133.8118515 0 0 0 0 -40225005.416526794 64455902.735309601 0 64455902.735309601 57581435.79750061 0 0 0 0 -21729937.484764099 78265170.624710083 0 78265170.624710083 14106065.641174316 0 0 0 0 -15309081.671886444 96536907.688415527 0 96536907.688415527 55698781.755599976 0 0 0 0 -22349584.601730347 83136101.933876038 0 83136101.933876038 -4726909.5102081299 0 0 0 0 -31070576.969589233 49203477.807430267 0 49203477.807430267 24037667.283248901 0 0 0 0 -14354259.438610077 65379645.5734272 0 65379645.5734272 -30150636.87713623 0 0 0 0 -24401622.834579468 46825912.593139648 0 46825912.593139648 19300040.305652618 0 0 0 0 -22913936.259941101 66220258.816459656 0 66220258.816459656 35346249.399211884 0 0 0 0 -140752286.23791504 161675117.20755005 0 161675117.20755005 34362408.073547363 0 0 0 0 -14420093.668187618 90506096.510763645 0 90506096.510763645 -15726200.225189209 0 0 0 0 31826875.68294251 30703716.460171849 0 30703716.460171849 613412.3051032722 0 0 0 0 -13682467.095656395 101102311.56743002 0 101102311.56743002 -73469549.788757324 0 0 0 0 2209741.1337487251 3131248.6734797359 0 3131248.6734797359 455933.13686355948 0 0 0 0 -91703893.583862305 137007863.94767761 0 137007863.94767761 2711361.6671295166 0 0 0 0 -26798434.936630249 80258391.908859253 0 80258391.908859253 -18154723.763717651 0 0 0 0 -3108700.7632446289 96706458.29069519 0 96706458.29069519 -46856002.84588623 0 0 0 0 3831948.7761077881 92397809.184310913 0 92397809.184310913 -18391637.352416992 0 0 0 0 -4024094.3291950226 97290883.721496582 0 97290883.721496582 -13144359.159210205 0 0 0 0 -11928012.993644714 98845522.774673462 0 98845522.774673462 4515185.1597290039 0 0 0 0 -34253074.773071289 90787026.312194824 0 90787026.312194824 3651058.8228149414 0 0 0 0 18815786.413352966 19964416.829559326 0 19964416.829559326 -158981029.59059143 0 0 0 0 -98585980.460212708 78442963.537033081 0 78442963.537033081 -131840644.61831665 0 0 0 0 -55537237.896659851 19430030.604137421 0 19430030.604137421 -104360020.92956543 0 0 0 0 23718781.782453775 23934098.201642767 0 23934098.201642767 2689060.9842354059 0 0 0 0 -21030916.481132507 58337100.964202881 0 58337100.964202881 17825388.318229675 0 0 0 0 43642106.372163773 118020295.60599613 0 118020295.60599613 -153221000.07781982 0 0 0 0 227925008.29505157 122994055.5827713 0 122994055.5827713 -156134582.44791222 0 0 0 0 -134263002.57799911 206244256.70387745 0 206244256.70387745 267814866.58525085 0 0 0 0 -132698376.81642151 -57808754.498260498 0 -57808754.498260498 261879205.92220759 0 0 0 0 159076829.84680176 -37492343.219814301 0 -37492343.219814301 -89787577.855752945 0 0 0 0 -37163285.012741089 -2719065.183757782 0 -2719065.183757782 266991795.88155365 0 0 0 0 2621154.6443710923 2738646.5212565586 0 2738646.5212565586 803664.1221049428 0 0 0 0 48164016.517822266 28697032.555259705 0 28697032.555259705 -36063603.087310791 0 0 0 0 23567498.125862122 204744328.58306122 0 204744328.58306122 162585700.17965698 0 0 0 0 41012752.329910278 110590625.42983484 0 110590625.42983484 -121792677.12739563 0 0 0 0 436049.93768766522 -1072689.1213555187 0 -1072689.1213555187 -3071813.1269658133 0 0 0 0 15592812.35118103 28303906.279441833 0 28303906.279441833 -29883013.283416748 0 0 0 0 23540848.243085116 30708212.501359582 0 30708212.501359582 -5613684.0749540143 0 0 0 0 3891609.302208066 25046735.599791482 0 25046735.599791482 12079772.275021359 0 0 0 0 257480515.55937958 -113420318.85700798 0 -113420318.85700798 -207236403.78088379 0 0 0 0 28703645.370536804 75933451.296283722 0 75933451.296283722 -9456107.4508037567 0 0 0 0 32884276.904132634 31575966.306346506 0 31575966.306346506 -12082915.379469432 0 0 0 0 50431094.834747314 82839174.709991455 0 82839174.709991455 -97184697.600400925 0 0 0 0 46403079.622882843 77169732.884122849 0 77169732.884122849 -53132748.8960495 0 0 0 0 -26223228.835525513 100712030.04243469 0 100712030.04243469 -1642897.357131958 0 0 0 0 6754263.1441898346 28538646.395321846 0 28538646.395321846 -29356895.963508606 0 0 0 0 11110279.673345715 35246163.096624821 0 35246163.096624821 9045097.9639247954 0 0 0 0 -691105.77649688721 96159996.32623291 0 96159996.32623291 -11641597.42124939 0 0 0 0 6898151.4619522095 107330825.94358063 0 107330825.94358063 -24311909.675201416 0 0 0 0 -1537241.1164932251 31756925.854804993 0 31756925.854804993 867917.36333465576 0 0 0 0 -134424.93931770325 32189012.180539668 0 32189012.180539668 9498573.2518259138 0 0 0 0 -125230870.7797699 -67001996.390274048 0 -67001996.390274048 -98087033.052646637 0 0 0 0 30208231.179660797 73691324.05487442 0 73691324.05487442 -6196111.6259689331 0 0 0 0 14945418.123703003 65065210.953624725 0 65065210.953624725 34918159.561717033 0 0 0 0 16143761.604785949 44587023.565478161 0 44587023.565478161 14680586.457283355 0 0 0 0 -35263456.598228455 46063780.123138428 0 46063780.123138428 -21883491.966207504 0 0 0 0 292760.71851928532 43271263.132434137 0 43271263.132434137 19079924.29348214 0 0 0 0 15939679.96841681 39436844.841413587 0 39436844.841413587 4759379.2186319679 0 0 0 0 15679590.776298523 83783728.211967468 0 83783728.211967468 -30110213.786125183 0 0 0 0 29760395.018722534 92852846.837928772 0 92852846.837928772 -26101878.375274658 0 0 0 0 -1959587.5726056099 86307567.764656067 0 86307567.764656067 -27278054.843322754 0 0 0 0 7861015.8903961182 96526951.55291748 0 96526951.55291748 -20027116.807800293 0 0 0 0 54967339.762802124 49476931.453071594 0 49476931.453071594 -39999402.415050507 0 0 0 0 32585614.267501831 95328756.694297791 0 95328756.694297791 -24181631.544052124 0 0 0 0 -1416531.7563804537 36413213.918969765 0 36413213.918969765 7710671.1126392782 0 0 0 0 17788966.673853636 50127526.21034646 0 50127526.21034646 -42612970.058555603 0 0 0 0 27570913.712738037 41733619.571548462 0 41733619.571548462 13764132.606567383 0 0 0 0 -22450754.278358459 25852797.452892303 0 25852797.452892303 3906863.8943481445 0 0 0 0 -12779982.842330933 41637803.115921021 0 41637803.115921021 22663567.528289795 0 0 0 0 -28304901.812316895 369525.49499511719 0 369525.49499511719 31159529.092956543 0 0 0 0 11301356.367950439 30741189.702896118 0 30741189.702896118 12303380.249132156 0 0 0 0 25945218.769561768 20161236.249359131 0 20161236.249359131 -10866246.340305328 0 0 0 0 58875306.293388367 40458773.346557617 0 40458773.346557617 16023849.84979248 0 0 0 0 12534729.57282684 15920566.280817896 0 15920566.280817896 9611752.9204819202 0 0 0 0 -291027.30064828694 2579956.2387922108 0 2579956.2387922108 762360.92044292763 0 0 0 0 20096419.678439513 33231098.727108032 0 33231098.727108032 11769608.230228543 0 0 0 0 33664925.21579361 44772206.42791748 0 44772206.42791748 48496574.511413574 0 0 0 0 -20997289.022349026 51568996.071854278 0 51568996.071854278 38749893.620279074 0 0 0 0 63324928.732299805 18865910.961212158 0 18865910.961212158 47051022.736907959 0 0 0 0 26763343.417266846 53715112.344818115 0 53715112.344818115 56050992.231018066 0 0 0 0 18555308.267796338 41412045.262669787 0 41412045.262669787 -21292860.506797083 0 0 0 0 -158583.13592199981 546958.37292331457 0 546958.37292331457 1091202.7699282765 0 0 0 0 33101930.027313232 40497051.110061646 0 40497051.110061646 36559196.079589844 0 0 0 0 -28129155.750915527 60625131.284454346 0 60625131.284454346 30991287.176532745 0 0 0 0 -27623646.529600456 32264964.405633807 0 32264964.405633807 12155589.818138789 0 0 0 0 -73571534.655052185 66314325.403968811 0 66314325.403968811 40227776.324035645 0 0 0 0 17927176.190948486 64144977.056640625 0 64144977.056640625 28740113.097610474 0 0 0 0 55324368.520507812 8230082.6793518066 0 8230082.6793518066 61167176.993103027 0 0 0 0 -7383888.4524307251 65790678.029891968 0 65790678.029891968 32272700.348266602 0 0 0 0 36888690.27444458 43755035.713363647 0 43755035.713363647 23214453.536575317 0 0 0 0 -4515689.7676086426 50040194.679016113 0 50040194.679016113 25052597.115661621 0 0 0 0 -4766193.920501709 46389899.236785889 0 46389899.236785889 28751613.290054321 0 0 0 0 -3546473.0672912598 47304836.122741699 0 47304836.122741699 22240854.970153809 0 0 0 0 -25361972.760269165 63607324.772735596 0 63607324.772735596 26155784.423931122 0 0 0 0 -20610862.889129639 51729804.79983902 0 51729804.79983902 28295291.064987183 0 0 0 0 42025553.27015686 53732897.580070496 0 53732897.580070496 -25308608.898590088 0 0 0 0 -3253546.2794961799 1135620.1284767762 0 1135620.1284767762 112213.41653972864 0 0 0 0 -66854448.783742428 57345991.553286076 0 57345991.553286076 31950950.779327393 0 0 0 0 -27157555.880950928 52511871.155563354 0 52511871.155563354 19147329.372068405 0 0 0 0 -25464352.238304138 57381034.743282318 0 57381034.743282318 25970255.012664795 0 0 0 0 -2928182.7545928955 50715738.817840576 0 50715738.817840576 19377306.170959473 0 0 0 0 -14121911.792739868 56226232.183410645 0 56226232.183410645 18053513.290557861 0 0 0 0 1564752.0123786926 68576906.184780121 0 68576906.184780121 18280997.882110596 0 0 0 0 -14105322.329742432 53819980.279251099 0 53819980.279251099 -2988980.3430500031 0 0 0 0 -12610115.205661774 41472951.054134369 0 41472951.054134369 -5837140.3146057129 0 0 0 0 -39565571.418624878 58361194.399658203 0 58361194.399658203 20043212.991308212 0 0 0 0 -80824089.3383255 32362908.333244324 0 32362908.333244324 13698181.529602051 0 0 0 0 121975935.06315231 23357602.156256199 0 23357602.156256199 -16590727.299987793 0 0 0 0 124632346.97309113 55074903.418060303 0 55074903.418060303 15720814.236999512 0 0 0 0 -104416266.63841629 53846244.596721649 0 53846244.596721649 16054384.033569336 0 0 0 0 3389139.5425960347 24301878.930580884 0 24301878.930580884 -16902473.887818277 0 0 0 0 8279213.4732837267 15586421.506603837 0 15586421.506603837 187076.41956701875 0 0 0 0 21635600.368972778 54258741.527317047 0 54258741.527317047 -38239944.283882141 0 0 0 0 33372680.731758118 6423780.6979942322 0 6423780.6979942322 18226427.809143066 0 0 0 0 -72641941.76738739 -11381673.1612854 0 -11381673.1612854 38729932.828033447 0 0 0 0 90028127.436870575 37409611.628505707 0 37409611.628505707 8442793.3311157227 0 0 0 0 11145594.490467995 9880970.8614073247 0 9880970.8614073247 -14795675.923240602 0 0 0 0 102157593.44128799 58919276.951290131 0 58919276.951290131 -39006306.96421814 0 0 0 0 33361575.924976349 7838490.652130127 0 7838490.652130127 -11577460.523101807 0 0 0 0 -51500766.722518921 63039969.670806885 0 63039969.670806885 -38870964.63835144 0 0 0 0 -11234357.699115649 14302611.431862537 0 14302611.431862537 8826302.2338981628 0 0 0 0 -29072455.339736938 22951323.645584106 0 22951323.645584106 -28202473.236434937 0 0 0 0 -39159839.062576294 68878462.187423706 0 68878462.187423706 -36727953.542770386 0 0 0 0 24126372.753189087 14962751.911548615 0 14962751.911548615 -29115171.338928223 0 0 0 0 -51964862.860389709 58558577.122901917 0 58558577.122901917 -38096837.741638184 0 0 0 0 -71731677.650787354 31966511.009124756 0 31966511.009124756 33441926.061447144 0 0 0 0 -1422256.6240081806 23680973.552716002 0 23680973.552716002 -7949979.2329562008 0 0 0 0 2201904.6741988659 -1304733.2169824541 0 -1304733.2169824541 -1100348.0263621211 0 0 0 0 -365823657.26766872 195014430.93718004 0 195014430.93718004 -48097151.36630249 0 0 0 0 589908.80855560303 4310657.1640548706 0 4310657.1640548706 418800.0634765625 0 0 0 0 89769053.978961945 19808356.279838562 0 19808356.279838562 788669.29553222656 0 0 0 0 -16381496.274625406 19870039.67840682 0 19870039.67840682 -11282161.285299748 0 0 0 0 -461813959.08702087 164982792.61482239 0 164982792.61482239 -54497829.53493309 0 0 0 0 153919734.35334015 -17257022.428977966 0 -17257022.428977966 -24698521.490249634 0 0 0 0 194238426.16179943 111011256.28894997 0 111011256.28894997 -22439359.162536621 0 0 0 0 92130977.096641541 140968509.74468231 0 140968509.74468231 15114152.0858078 0 0 0 0 92207865.884670019 158811924.72844249 0 158811924.72844249 49389648.876327515 0 0 0 0 6604264.8200302124 96841342.896697998 0 96841342.896697998 9094452.1985473633 0 0 0 0 14911027.43913269 116861462.53618622 0 116861462.53618622 27100263.78302002 0 0 0 0 5504454.1104736328 99303777.147499084 0 99303777.147499084 10123902.929763794 0 0 0 0 35829440.822677612 102883393.28820705 0 102883393.28820705 -19058106.309646606 0 0 0 0 33902536.630314827 91266877.337473392 0 91266877.337473392 -20528581.204650879 0 0 0 0 69950028.703071594 73417391.906158447 0 73417391.906158447 -33537515.073074341 0 0 0 0 88539129.956359863 109419925.15092468 0 109419925.15092468 -14784284.329772949 0 0 0 0 388331311.13077927 1701058530.8739281 0 1701058530.8739281 330520308.39922905 0 0 0 0 1788842.8335988128 1024650141.2351835 0 1024650141.2351835 942652456.62831116 0 0 0 0 724639061.68239784 964458278.70090103 0 964458278.70090103 593541249.11080933 0 0 0 0 -2224810.9977676272 7396832.1628248394 0 7396832.1628248394 2491182.6450535655 0 0 0 0 1319887892.0522995 1936075861.4280109 0 1936075861.4280109 -547009.48510360718 0 0 0 0 1698503862.725563 1629320942.9423714 0 1629320942.9423714 -382297602.05817032 0 0 0 0 2935721163.5291824 1343985866.7777405 0 1343985866.7777405 -321369101.74842072 0 0 0 0 14104091.748590544 10515398.449293099 0 10515398.449293099 2115613.3799954355 0 0 0 0 3454185786.6441574 -366643811.05729103 0 -366643811.05729103 -170836062.31005859 0 0 0 0 1394530762.7702551 -204317155.16112232 0 -204317155.16112232 -155103492.54933929 0 0 0 0 842100889.73682976 489528352.43289375 0 489528352.43289375 -355098450.15628052 0 0 0 0 -1533600.0195105672 3813374.6044500172 0 3813374.6044500172 825347.72548699379 0 0 0 0 853418972.07849884 1041170852.6229248 0 1041170852.6229248 -762174725.49527359 0 0 0 0 725330723.44554901 384727098.18363953 0 384727098.18363953 411265741.60439682 0 0 0 0 1027645548.6192856 1268959236.5338097 0 1268959236.5338097 705118923.96208954 0 0 0 0 445207141.93338013 553592505.51872253 0 553592505.51872253 -98451062.68711853 0 0 0 0 257426499.05036926 -75114516.242595673 0 -75114516.242595673 -159224774.13238955 0 0 0 0 -90874715.589424133 183243879.10283852 0 183243879.10283852 -193569978.32279205 0 0 0 0 14985410.109598011 38154877.250180148 0 38154877.250180148 31905601.908636659 0 0 0 0 -250944497.578228 330542471.95490551 0 330542471.95490551 24570175.844192505 0 0 0 0 -312406989.77447891 238502185.98005867 0 238502185.98005867 215804808.19675446 0 0 0 0 304140239.75974655 -136208518.72218323 0 -136208518.72218323 -216635350.23223877 0 0 0 0 602370944.58000946 317331009.09293747 0 317331009.09293747 -449890954.75875854 0 0 0 0 616104219.55801392 220293218.80433655 0 220293218.80433655 -192544350.65914261 0 0 0 0 20144433.012072563 26585795.98331425 0 26585795.98331425 18055552.231198013 0 0 0 0 -176313648.58250427 136305572.38642693 0 136305572.38642693 -87509.53638458252 0 0 0 0 124147863.43898773 151112213.62978935 0 151112213.62978935 67822.644432067871 0 0 0 0 -51977214.852855682 -1129169.2287464142 0 -1129169.2287464142 -28999409.103645325 0 0 0 0 92246047.590042114 137220124.59133911 0 137220124.59133911 -119788585.60519409 0 0 0 0 89078190.055473328 100845174.61500406 0 100845174.61500406 24841057.905212402 0 0 0 0 10670004.511688232 92442140.959487915 0 92442140.959487915 -249124579.79631424 0 0 0 0 -622681913.72035551 -122839168.86043453 0 -122839168.86043453 123352190.84107971 0 0 0 0 362067116.60289764 64565904.07654953 0 64565904.07654953 -93691641.614570618 0 0 0 0 5491457.9143037032 -3688497.7507345825 0 -3688497.7507345825 -323938.69681340456 0 0 0 0 -193601236.89179993 98042074.668289185 0 98042074.668289185 -248356.24683854202 0 0 0 0 88065263.23469162 28275095.984790802 0 28275095.984790802 -43874157.826660156 0 0 0 0 300752933.65353394 219228019.66812134 0 219228019.66812134 -103766700.60323334 0 0 0 0 -19773745.366744995 146873246.35491943 0 146873246.35491943 16262795.664253235 0 0 0 0 -210285924.94404602 -233480772.91307831 0 -233480772.91307831 -80707719.505523682 0 0 0 0 -12141985.355880737 39853324.494949341 0 39853324.494949341 306430965.38674927 0 0 0 0 778451150.35357666 -470334987.17697144 0 -470334987.17697144 632602982.58233643 0 0 0 0 28967488.146789551 440741837.17324829 0 440741837.17324829 455909412.31298828 0 0 0 0 -38141492.52941227 23623885.856509209 0 23623885.856509209 292723263.97981262 0 0 0 0 -219287.58483785391 3347765.2672651932 0 3347765.2672651932 3530614.4330340028 0 0 0 0 -13966685.124526978 83696926.715187073 0 83696926.715187073 -31735899.943193436 0 0 0 0 363547150.30815125 -141842899.12754059 0 -141842899.12754059 -16633538.991088867 0 0 0 0 121273011.4459877 509164388.47577286 0 509164388.47577286 278864644.76370239 0 0 0 0 98750772.14389801 88235431.885623932 0 88235431.885623932 40029887.324775696 0 0 0 0 7824280.1261613332 4052090.5644132346 0 4052090.5644132346 -2717336.7969005108 0 0 0 0 -607755994.47460938 173147877.27517319 0 173147877.27517319 418830621.26687622 0 0 0 0 3378286.8360681236 1858233.9209604263 0 1858233.9209604263 -3293606.0445259809 0 0 0 0 -113561075.87685204 7875802.4792194366 0 7875802.4792194366 -100076779.84107971 0 0 0 0 -8519353.9543991089 132674537.84990311 0 132674537.84990311 -80307572.183727264 0 0 0 0 22798113.800142765 19760642.554034114 0 19760642.554034114 -17179308.397510409 0 0 0 0 -13470025.472999573 26403726.614093781 0 26403726.614093781 -9840866.3539276123 0 0 0 0 3334956.4424921274 12149684.498855062 0 12149684.498855062 7307920.0996948183 0 0 0 0 -153074394.16504383 -9009584.9451255798 0 -9009584.9451255798 -20242616.994995117 0 0 0 0 -121319429.22603607 302459410.67272568 0 302459410.67272568 -219364244.71338081 0 0 0 0 39118797.088912964 -90604728.536857605 0 -90604728.536857605 -312423683.28763962 0 0 0 0 1927479.6492462158 21320332.088470459 0 21320332.088470459 6571733.3459320068 0 0 0 0 -14738638.890991211 34843657.929618835 0 34843657.929618835 15312673.78338623 0 0 0 0 146946046.10067749 294816733.19490051 0 294816733.19490051 -212057261.90686035 0 0 0 0 5266729.8228822351 8029623.7043924704 0 8029623.7043924704 3711061.7430876195 0 0 0 0 -15143597.970088542 8999361.9419510961 0 8999361.9419510961 -1396223.6841125488 0 0 0 0 -6581667.7877110839 -522318.94116154686 0 -522318.94116154686 5153609.628377378 0 0 0 0 6422722.3055884428 33700052.441037342 0 33700052.441037342 33453786.718486398 0 0 0 0 -54778471.984692097 -9144827.4198727608 0 -9144827.4198727608 72851319.178070068 0 0 0 0 5468587.0910568237 45433591.342422485 0 45433591.342422485 18780319.690284729 0 0 0 0 -38017135.650482416 17536385.417590499 0 17536385.417590499 115963730.69668579 0 0 0 0 38530336.858585358 119521495.83307695 0 119521495.83307695 17438383.122238159 0 0 0 0 8556063.8495941162 55412712.155387878 0 55412712.155387878 30847830.867630005 0 0 0 0 10331625.258789062 38664836.883659363 0 38664836.883659363 125016821.17237091 0 0 0 0 20877044.472366333 34157260.052452087 0 34157260.052452087 -22102472.008415222 0 0 0 0 20525746.920701981 36667086.994227886 0 36667086.994227886 17731992.329963684 0 0 0 0 35689119.551550061 20361929.986979902 0 20361929.986979902 -16353309.577039443 0 0 0 0 59953849.061279297 132514303.15328217 0 132514303.15328217 -424311368.36956024 0 0 0 0 835570.24466583133 4728787.7147191465 0 4728787.7147191465 285951.43696797639 0 0 0 0 -109140866.99469757 596559134.53940678 0 596559134.53940678 -1684261792.6902466 0 0 0 0 1526368.6801777668 3341863.1679603755 0 3341863.1679603755 111187.13173788786 0 0 0 0 -15335083.318740845 50453990.981651306 0 50453990.981651306 31243939.891534805 0 0 0 0 -7279774.7275115456 23240864.820759505 0 23240864.820759505 42428234.860950679 0 0 0 0 -437594033.55223083 -22465138.03843689 0 -22465138.03843689 52497287.719947815 0 0 0 0 -729879867.96715879 173967813.99321294 0 173967813.99321294 33265254.150512695 0 0 0 0 -209605057.39205933 262297806.10354996 0 262297806.10354996 -257177930.82807922 0 0 0 0 -224243012.11387634 150300194.70937347 0 150300194.70937347 -764181414.81344604 0 0 0 0 -1500242402.9755859 158574017.83885193 0 158574017.83885193 215619147.57131958 0 0 0 0 102476193.24298096 -3419926.9589576721 0 -3419926.9589576721 -175230635.56440258 0 0 0 0 -76309329.488834381 335342473.94507027 0 335342473.94507027 -88494801.270042419 0 0 0 0 -63383728.153160095 104101413.0062809 0 104101413.0062809 328513451.41461182 0 0 0 0 -533097859.1038065 121608923.92525744 0 121608923.92525744 222299851.3690033 0 0 0 0 -117921248.53832245 232579302.22312927 0 232579302.22312927 31718752.881319523 0 0 0 0 -5820054.3134689331 203601756.25416565 0 203601756.25416565 -104628784.08153534 0 0 0 0 -2082357.6394188106 695659.10473045707 0 695659.10473045707 2395050.1593322754 0 0 0 0 81564917.298410416 571003953.65008879 0 571003953.65008879 444512476.29111481 0 0 0 0 463619323.14836693 568409856.53794527 0 568409856.53794527 288162984.2783432 0 0 0 0 638231577.15605927 343526953.40719986 0 343526953.40719986 186522964.09482002 0 0 0 0 -1757144.435120821 2379452.6650961637 0 2379452.6650961637 2052440.3239111304 0 0 0 0 287690072.32628632 438758199.55559921 0 438758199.55559921 347545797.16295624 0 0 0 0 346513326.41757202 291395139.77568817 0 291395139.77568817 61550699.112823486 0 0 0 0 121981134.70391846 118878107.68638992 0 118878107.68638992 101219860.95923996 0 0 0 0 271185402.2864151 245734161.70849228 0 245734161.70849228 15275620.534912109 0 0 0 0 139440723.9059906 102536935.31837463 0 102536935.31837463 97965742.441001892 0 0 0 0 224520615.25498962 79337857.564235687 0 79337857.564235687 15324671.570702258 0 0 0 0 199310541.7131958 158019976.49966049 0 158019976.49966049 305071432.73368073 0 0 0 0 260158520.13551331 185489563.94117737 0 185489563.94117737 170282794.99584198 0 0 0 0 -830889.63184058666 1508766.8139528632 0 1508766.8139528632 1083253.6711428165 0 0 0 0 278754540.04625988 232902973.47219992 0 232902973.47219992 129067922.20832825 0 0 0 0 121441873.14089966 268552748.12426758 0 268552748.12426758 149621862.06850147 0 0 0 0 -60584936.218326569 325788466.24207878 0 325788466.24207878 1547095305.4457588 0 0 0 0 101386.58471108408 748753810.28274858 0 748753810.28274858 481984497.18539429 0 0 0 0 1058658.9968185425 750294702.83239365 0 750294702.83239365 482690913.71968269 0 0 0 0 597555579.46076965 414892762.20614243 0 414892762.20614243 99185139.57103157 0 0 0 0 398197121.89697647 1048287874.4210167 0 1048287874.4210167 378413290.04791641 0 0 0 0 603023513.43208218 524650020.95579886 0 524650020.95579886 358845990.83099365 0 0 0 0 855701481.53671646 714469977.26448536 0 714469977.26448536 394366793.06840515 0 0 0 0 -176812.56190407276 5798074.9749011099 0 5798074.9749011099 6011926.8020715117 0 0 0 0 -6078580.0883331299 93518863.677875519 0 93518863.677875519 -276350828.95135117 0 0 0 0 -35592971.450149536 146236143.44330025 0 146236143.44330025 -225452485.67886353 0 0 0 0 16641.11385345459 165735504.52132225 0 165735504.52132225 -364957758.31283569 0 0 0 0 -74265.273564769857 154111659.4944723 0 154111659.4944723 -468148439.20162964 0 0 0 0 6029833.2602689564 108481.04061280936 0 108481.04061280936 186486.88881634176 0 0 0 0 -21324785.833358765 114177373.83662796 0 114177373.83662796 -406621016.21969604 0 0 0 0 -20433873.00969708 201633601.60306078 0 201633601.60306078 -515852110.960289 0 0 0 0 12478020.312484205 6375238.848119311 0 6375238.848119311 2899467.7715800777 0 0 0 0 165174125.38019562 -121989007.98768616 0 -121989007.98768616 481638147.55518341 0 0 0 0 178241738.79952431 -69975593.079679728 0 -69975593.079679728 25108937.777404785 0 0 0 0 -45232239.351454377 245782235.28016937 0 245782235.28016937 -630610045.89211655 0 0 0 0 -40592524.602027893 127409686.85700607 0 127409686.85700607 -399571192.60406876 0 0 0 0 8214462.89453125 116152707.6134491 0 116152707.6134491 -401918591.14493656 0 0 0 0 -95681384.37335968 131866981.99391747 0 131866981.99391747 -252926584.61211395 0 0 0 0 -1944743.9364318848 104100734.82793045 0 104100734.82793045 -248836452.6672349 0 0 0 0 -4420707.1335906982 82617457.920606613 0 82617457.920606613 -264365690.71759701 0 0 0 0 116145722.91138458 146194535.91518497 0 146194535.91518497 -1000009886.8614082 0 0 0 0 22986231.030719459 25161127.495792583 0 25161127.495792583 12353070.606415287 0 0 0 0 -16903536.235572815 50849793.112047195 0 50849793.112047195 -480609939.83969879 0 0 0 0 -117469372.41249847 108326780.83428574 0 108326780.83428574 -259654159.0713768 0 0 0 0 35294643.107254028 -337165350.83048248 0 -337165350.83048248 453531351.07925224 0 0 0 0 17406377.024020135 14264334.851881668 0 14264334.851881668 6835934.8883446008 0 0 0 0 -419648544.66317749 -193281829.07909393 0 -193281829.07909393 19209127.222927094 0 0 0 0 -220596881.07618713 -176563652.7417984 0 -176563652.7417984 -413847012.82086182 0 0 0 0 -1024004820.0611382 -179449318.18957472 0 -179449318.18957472 -353661629.95500183 0 0 0 0 -1193317335.3800354 1044199584.3016434 0 1044199584.3016434 -1298190051.7197266 0 0 0 0 -625063176.75314331 488366474.95595551 0 488366474.95595551 -286999235.15716553 0 0 0 0 -435703160.85529327 146855285.48199463 0 146855285.48199463 444176606.04782104 0 0 0 0 193854738.66712189 -99614566.962906837 0 -99614566.962906837 824596.31144714355 0 0 0 0 -96388872.970092773 -218812400.08750534 0 -218812400.08750534 622001734.13290215 0 0 0 0 38438024.779426575 126202461.48025513 0 126202461.48025513 134014946.42673588 0 0 0 0 -150945783.04050827 249621468.03011894 0 249621468.03011894 107980958.56286621 0 0 0 0 -598820225.41830444 420617690.25317383 0 420617690.25317383 -168849937.86627197 0 0 0 0 -50863235.47567749 93656815.658306122 0 93656815.658306122 6823830.9503173828 0 0 0 0 -506160620.23632812 230363257.00789642 0 230363257.00789642 -194579061.33435059 0 0 0 0 332899322.95321274 -21427178.224799633 0 -21427178.224799633 -1203225241.6810455 0 0 0 0 -513723402.53167725 274065877.7350769 0 274065877.7350769 -425727941.25442505 0 0 0 0 55723551.221393585 56537633.786998749 0 56537633.786998749 -207760537.07909393 0 0 0 0 -13785552.097278595 297404244.12928581 0 297404244.12928581 -223632063.44615936 0 0 0 0 -64735352.109859467 225142621.40241623 0 225142621.40241623 132121677.89719391 0 0 0 0 25092563.982200623 156556911.77433395 0 156556911.77433395 23502541.761436462 0 0 0 0 28078920.100962162 37326371.448858649 0 37326371.448858649 17765889.229455009 0 0 0 0 -15359808.062896729 53092139.496864319 0 53092139.496864319 251167059.27546692 0 0 0 0 67550978.389770508 -152041680.17930889 0 -152041680.17930889 -109036682.18328476 0 0 0 0 504270387.05645943 553012713.84236717 0 553012713.84236717 -1049159386.6357841 0 0 0 0 -384333924.20040131 405567510.26504707 0 405567510.26504707 443482656.63360596 0 0 0 0 -71963236.380004883 -178132379.59207535 0 -178132379.59207535 437206343.66638947 0 0 0 0 -159959349.25229645 118717469.32149887 0 118717469.32149887 376964745.41258621 0 0 0 0 289341259.47726059 453699182.57062054 0 453699182.57062054 219062285.73711395 0 0 0 0 268804367.586483 341937969.84166288 0 341937969.84166288 81546042.392608643 0 0 0 0 180268304.23925781 42777532.344688416 0 42777532.344688416 -52379484.948788643 0 0 0 0 650836042.64950562 99555098.405743599 0 99555098.405743599 -46772627.193149567 0 0 0 0 202474.43802160025 8350853.8723667115 0 8350853.8723667115 3295687.8840568066 0 0 0 0 68020823.358200073 52875351.665772438 0 52875351.665772438 1710960.4546966553 0 0 0 0 140319150.56195068 57600809.758598328 0 57600809.758598328 -13230342.651012421 0 0 0 0 74932918.298736572 63555161.978286743 0 63555161.978286743 -1753243.3280410767 0 0 0 0 94781875.191101074 62534787.178165436 0 62534787.178165436 -10678661.107460022 0 0 0 0 57503628.825683594 63781835.268093109 0 63781835.268093109 7149244.4467010498 0 0 0 0 23244156.18918705 170091731.12963223 0 170091731.12963223 74852886.667480469 0 0 0 0 62746822.58934021 69154826.995605469 0 69154826.995605469 22641392.520587921 0 0 0 0 33062989.861206055 84822697.510562897 0 84822697.510562897 14371502.58732605 0 0 0 0 85184138.553491592 102476948.51542997 0 102476948.51542997 14124586.663146973 0 0 0 0 116092457.58733368 218318698.97059822 0 218318698.97059822 49214678.099662781 0 0 0 0 141609894.20549011 113195366.70904541 0 113195366.70904541 -9643210.2042160034 0 0 0 0 321087807.360672 120273484.65405655 0 120273484.65405655 -52340302.592750549 0 0 0 0 137769462.01761389 107427248.64426565 0 107427248.64426565 -14652864.756454468 0 0 0 0 51048337.800415039 239739599.96102524 0 239739599.96102524 42184125.645557404 0 0 0 0 -1052231.0589866638 240144221.12892914 0 240144221.12892914 84739189.989051819 0 0 0 0 51138884.092895508 260076029.67404556 0 260076029.67404556 91054544.808034897 0 0 0 0 30657081.254821777 191822951.4242363 0 191822951.4242363 50665177.593029022 0 0 0 0 -67327243.141479492 148760280.05548477 0 148760280.05548477 71010581.052482605 0 0 0 0 -14118454.316101074 195000386.14716721 0 195000386.14716721 117877585.27833605 0 0 0 0 -13207336.102684021 238714639.98751831 0 238714639.98751831 113120256.46097279 0 0 0 0 5436914.733253479 212090484.340415 0 212090484.340415 125833210.70949173 0 0 0 0 -28669762.475643158 193325555.9073534 0 193325555.9073534 47576833.344257355 0 0 0 0 -42966100.247093201 216326587.89405251 0 216326587.89405251 25924804.614836693 0 0 0 0 9397125.1184844971 317280345.79995155 0 317280345.79995155 152713792.92391205 0 0 0 0 -65767583.678901672 241499295.04030991 0 241499295.04030991 151396793.03133774 0 0 0 0 -117219513.67158508 97073688.799106598 0 97073688.799106598 -17208077.198959351 0 0 0 0 -35625699.012996674 172592712.99586105 0 172592712.99586105 -86651099.994361877 0 0 0 0 -77403869.913963318 130450607.89568138 0 130450607.89568138 11000454.330692291 0 0 0 0 -39532555.146392822 239743017.21809769 0 239743017.21809769 113165508.45201492 0 0 0 0 3311442.6026153564 182256509.20583916 0 182256509.20583916 24162245.922720909 0 0 0 0 7419189.3441696167 231826449.42386055 0 231826449.42386055 157130271.78752136 0 0 0 0 28135239.811927795 150438439.7595768 0 150438439.7595768 165585322.70652962 0 0 0 0 -9263239.9559860229 213553138.29948044 0 213553138.29948044 115956980.65532303 0 0 0 0 -1750685.5881791115 116333338.95315218 0 116333338.95315218 89417931.675643921 0 0 0 0 10061163.345115662 168930761.46455574 0 168930761.46455574 180892877.33005142 0 0 0 0 81769467.276252747 132104964.88220406 0 132104964.88220406 197845857.5611515 0 0 0 0 42047.057403564453 149670726.32525253 0 149670726.32525253 215012298.23231506 0 0 0 0 35323108.45781517 112073817.14448929 0 112073817.14448929 103017613.54315948 0 0 0 0 -68173.74732208252 171174663.31077194 0 171174663.31077194 79927538.476101875 0 0 0 0 46947988.174560547 148338804.70806408 0 148338804.70806408 -41401927.352262497 0 0 0 0 -52086907.937232971 107873367.32373047 0 107873367.32373047 -53095735.828853607 0 0 0 0 -8294830.9327640533 92140034.437027931 0 92140034.437027931 -182546698.47215271 0 0 0 0 42037.371849515461 169521237.92557856 0 169521237.92557856 -181733219.78883362 0 0 0 0 69522975.613174438 114374454.70399475 0 114374454.70399475 90113741.003808379 0 0 0 0 88511672.216239929 148502140.7420826 0 148502140.7420826 106124701.52812195 0 0 0 0 7044882.9339480773 37352446.558272928 0 37352446.558272928 6010956.1950802803 0 0 0 0 -4845686.0730413795 7413665.4247736409 0 7413665.4247736409 649871.64205695689 0 0 0 0 108103403.01820374 160575532.90661621 0 160575532.90661621 57264869.824874878 0 0 0 0 233775073.93908691 -8670938.9572067261 0 -8670938.9572067261 -48991829.104316711 0 0 0 0 30079410.311616898 42259214.420776367 0 42259214.420776367 12805741.447525024 0 0 0 0 121291550.32984924 80950201.303291321 0 80950201.303291321 93712664.789047241 0 0 0 0 208530811.29052734 87938838.094268799 0 87938838.094268799 89277771.743081093 0 0 0 0 171358427.35314941 86682310.518043518 0 86682310.518043518 -92847496.827384949 0 0 0 0 169125066.89012051 104943476.42096186 0 104943476.42096186 -242035470.58465576 0 0 0 0 125845482.57171345 45029512.81354785 0 45029512.81354785 -149788567.98946381 0 0 0 0 234009254.61213696 107244301.15097541 0 107244301.15097541 -87646674.167892456 0 0 0 0 129985959.45916748 121551952.70022583 0 121551952.70022583 -83092867.728507996 0 0 0 0 175507395.53627777 95046390.505096436 0 95046390.505096436 -106042248.15390778 0 0 0 0 3724785.9011001587 86928810.531955719 0 86928810.531955719 -70432496.643463135 0 0 0 0 95485285.452308655 40202528.967388153 0 40202528.967388153 -58756540.043861389 0 0 0 0 35423164.701681748 44902248.732727587 0 44902248.732727587 -59825504.608886212 0 0 0 0 -11754163.702062696 43255262.242279254 0 43255262.242279254 16119034.207047209 0 0 0 0 7094878.3665046692 85427055.237504959 0 85427055.237504959 -87116303.374198914 0 0 0 0 -9863573.8075256348 74252821.235157013 0 74252821.235157013 -68831392.789855957 0 0 0 0 -26224619.769355774 106439974.09357262 0 106439974.09357262 -95364576.839019775 0 0 0 0 -14210608.129598588 46251574.098402895 0 46251574.098402895 34596553.396646895 0 0 0 0 -15363846.555099487 113987667.15948486 0 113987667.15948486 -107468516.3514595 0 0 0 0 -43037929.114402771 69459608.071113586 0 69459608.071113586 -26929279.89207077 0 0 0 0 20138475.254781768 36323203.224356994 0 36323203.224356994 -2271097.5581289828 0 0 0 0 -43633349.214706421 110614244.75940323 0 110614244.75940323 -35333426.857208729 0 0 0 0 -11803547.241607189 171023247.68109512 0 171023247.68109512 -43164229.386154175 0 0 0 0 -25154547.396751404 26033188.589851379 0 26033188.589851379 799633.26086425781 0 0 0 0 -2026854.3197910041 41080814.592254519 0 41080814.592254519 16527308.240429908 0 0 0 0 -23111091.510845184 51528016.39806366 0 51528016.39806366 -11695537.856651306 0 0 0 0 -77653718.767149925 119297813.31486034 0 119297813.31486034 7946133.2906188965 0 0 0 0 -47439620.573272705 69566286.432346344 0 69566286.432346344 5131117.6325836182 0 0 0 0 -698294.65117579326 36525198.597922966 0 36525198.597922966 11729078.412422031 0 0 0 0 -81757343.277479649 108744880.20481205 0 108744880.20481205 53180279.323997498 0 0 0 0 -71002973.242965698 61007489.675636292 0 61007489.675636292 54857431.555774689 0 0 0 0 -40978218.651260376 31044937.918388367 0 31044937.918388367 20161559.828482628 0 0 0 0 -66173668.064414978 63495842.60369873 0 63495842.60369873 120897852.4710083 0 0 0 0 -66284037.324946761 60374989.50215435 0 60374989.50215435 48632648.78678894 0 0 0 0 -72747105.345420837 39468574.185203552 0 39468574.185203552 53232003.800598145 0 0 0 0 9313541.6840133667 13575257.632606506 0 13575257.632606506 5619706.8135528564 0 0 0 0 57680704.298492432 29806551.192092896 0 29806551.192092896 11104109.965362549 0 0 0 0 37101115.474273548 19228575.716104224 0 19228575.716104224 6117519.0325027108 0 0 0 0 -70812499.672233582 63247154.643321991 0 63247154.643321991 27004943.524749756 0 0 0 0 -73959197.801235199 33662860.372184753 0 33662860.372184753 25887823.307266235 0 0 0 0 4952760.6883567311 16736088.756271943 0 16736088.756271943 9696148.4729336798 0 0 0 0 20835021.303909302 28749059.595535278 0 28749059.595535278 12029569.308288574 0 0 0 0 -4509975.7659952343 41042676.883342579 0 41042676.883342579 13703873.079140663 0 0 0 0 11823908.280262657 19091559.931525603 0 19091559.931525603 154680.2684199512 0 0 0 0 38636406.703010559 28735455.534187317 0 28735455.534187317 -5261767.9330749512 0 0 0 0 28577187.476402283 39233347.436210632 0 39233347.436210632 23909680.267495394 0 0 0 0 24521945.273750305 39270485.015720367 0 39270485.015720367 -11229730.4790802 0 0 0 0 21541860.813644409 59445065.459251404 0 59445065.459251404 1791529.9276885986 0 0 0 0 4159209.9573974609 40173153.462738037 0 40173153.462738037 -18471708.795547485 0 0 0 0 -8141836.1610743999 60386917.912703276 0 60386917.912703276 -12817864.499694824 0 0 0 0 -2298789.2006709278 37149570.679754347 0 37149570.679754347 18213683.400866657 0 0 0 0 -9573528.0612640381 25698670.601852417 0 25698670.601852417 -572647.11952209473 0 0 0 0 26291467.386589691 28966719.27023685 0 28966719.27023685 4029406.6974561214 0 0 0 0 14850101.791984826 14682113.984860063 0 14682113.984860063 6674862.6669560969 0 0 0 0 7640943.4286580905 4913727.8778656572 0 4913727.8778656572 2538343.059894532 0 0 0 0 189094855.74371338 58225336.861381531 0 58225336.861381531 -8293638.9206542969 0 0 0 0 9329821.4494781494 13501689.896606445 0 13501689.896606445 5825928.3852539062 0 0 0 0 25612792.377975434 19042588.738739341 0 19042588.738739341 -11993017.556287497 0 0 0 0 6221788.9600753784 10565059.460006714 0 10565059.460006714 4788166.4693603516 0 0 0 0 94566839.750823975 41305488.251533508 0 41305488.251533508 39205391.172180176 0 0 0 0 -18562740.05649665 41089271.867541894 0 41089271.867541894 9087261.7613437474 0 0 0 0 -20085059.59800896 37886918.247703969 0 37886918.247703969 7979238.8763197064 0 0 0 0 -9337625.8301849365 44025357.644180298 0 44025357.644180298 25411215.612636566 0 0 0 0 20237133.444351196 50463607.796546936 0 50463607.796546936 23446014.054962158 0 0 0 0 26862458.610046387 53188935.328071594 0 53188935.328071594 19014973.759094238 0 0 0 0 16804892.09992218 38245544.39663887 0 38245544.39663887 15158646.940635681 0 0 0 0 31994883.43069458 40997155.578117371 0 40997155.578117371 26789919.698989868 0 0 0 0 20548992.759380341 51494932.81678772 0 51494932.81678772 19380113.22102356 0 0 0 0 25644004.289263725 67858159.278702736 0 67858159.278702736 19194371.30405426 0 0 0 0 -6962774.8003387451 69969988.948928833 0 69969988.948928833 26463827.731826782 0 0 0 0 1454226.1743545532 97243392.327140808 0 97243392.327140808 19202833.388473511 0 0 0 0 3369054.7860031128 102877225.3263588 0 102877225.3263588 6274767.2007904053 0 0 0 0 -12328872.539417267 141292775.57432747 0 141292775.57432747 10946086.709190369 0 0 0 0 -50662187.270568848 111330328.1163063 0 111330328.1163063 20888329.590129852 0 0 0 0 -26262465.527519226 79745431.383384705 0 79745431.383384705 40064608.466751099 0 0 0 0 -17489191.364871979 76417616.449910164 0 76417616.449910164 22659173.757995605 0 0 0 0 34489784.953994751 137987983.73587036 0 137987983.73587036 -76980390.011722565 0 0 0 0 27343250.852828979 125798231.39478111 0 125798231.39478111 -6848756.6932296753 0 0 0 0 -4110775.7697525024 138061370.30568695 0 138061370.30568695 -4944707.6031517982 0 0 0 0 -2021237.5883789062 149257241.80093384 0 149257241.80093384 40867459.686725616 0 0 0 0 25522672.357528687 172434547.78601074 0 172434547.78601074 -19249781.768611908 0 0 0 0 -9447299.6536102295 109208551.1652565 0 109208551.1652565 17381610.277416229 0 0 0 0 7392218.9199066162 605366331.42777252 0 605366331.42777252 -918875517.96657181 0 0 0 0 26426808.402089924 46618265.920989379 0 46618265.920989379 20744603.599501915 0 0 0 0 19958106.880958557 92140931.162218571 0 92140931.162218571 27274918.934043884 0 0 0 0 -385162175.76674974 655630462.76524878 0 655630462.76524878 -151481214.55328369 0 0 0 0 -121663151.0103302 102923453.38239479 0 102923453.38239479 34709288.907554626 0 0 0 0 -46781122.665687561 15107328.757358551 0 15107328.757358551 26746150.971946716 0 0 0 0 -63286675.088653564 144881926.09842682 0 144881926.09842682 10901492.193702698 0 0 0 0 -55874932.923194885 125480094.57570267 0 125480094.57570267 19149080.390800476 0 0 0 0 -71349087.801597595 209293069.61224365 0 209293069.61224365 -73528092.157485962 0 0 0 0 43310807.349821091 139327769.58867455 0 139327769.58867455 -48620769.412437439 0 0 0 0 -216888213.6401825 161551900.39162445 0 161551900.39162445 13657413.784641266 0 0 0 0 9970700.1148342639 5137151.8216701895 0 5137151.8216701895 -7515183.3699913621 0 0 0 0 209232096.59469604 236446961.00215149 0 236446961.00215149 -306449801.74768066 0 0 0 0 -202481224.4681778 28469381.246566772 0 28469381.246566772 27773376.520692825 0 0 0 0 165911541.8832283 401118007.9040451 0 401118007.9040451 -228295690.77503967 0 0 0 0 99794749.797622681 314898525.67913055 0 314898525.67913055 -37242278.845809937 0 0 0 0 -170602943.78234863 464223028.89568329 0 464223028.89568329 -23389539.924571991 0 0 0 0 -42785095.664878845 -141116176.83945727 0 -141116176.83945727 77276049.887722015 0 0 0 0 -216876940.48231506 -161078366.01373291 0 -161078366.01373291 -145732297.16621208 0 0 0 0 4023286.8164192438 12108456.522599034 0 12108456.522599034 1765210.5532264374 0 0 0 0 17601369.611579239 52062706.438487664 0 52062706.438487664 17965787.584393792 0 0 0 0 -130861768.73866272 105873495.60094452 0 105873495.60094452 -150260240.63249207 0 0 0 0 -226236180.890625 21240611.846458435 0 21240611.846458435 -222010969.28434944 0 0 0 0 -309291449.08547974 252920173.55072784 0 252920173.55072784 -149962724.41164017 0 0 0 0 -319333572.90312576 299757675.55039406 0 299757675.55039406 -256791074.3046875 0 0 0 0 -157477030.5597229 181387624.60595703 0 181387624.60595703 -121369184.72828674 0 0 0 0 -158174375.1218338 176567678.31086349 0 176567678.31086349 -57357260.776988983 0 0 0 0 73578183.58366394 84694101.687511444 0 84694101.687511444 -84801779.293766022 0 0 0 0 121092974.756073 39242846.559135437 0 39242846.559135437 -118845486.69294739 0 0 0 0 -7424910.8559265137 170469275.83876038 0 170469275.83876038 -153497788.31364441 0 0 0 0 46968285.177459717 120527888.0246582 0 120527888.0246582 -173315748.79347229 0 0 0 0 19866353.369720459 88024732.207901001 0 88024732.207901001 -81377131.221252441 0 0 0 0 -243235841.86763 127389722.8350296 0 127389722.8350296 141863985.02596664 0 0 0 0 -126710563.78143311 115867150.04911041 0 115867150.04911041 107029926.06406403 0 0 0 0 -300011298.01345825 477331707.28046417 0 477331707.28046417 390809107.63856506 0 0 0 0 -25119812.339263916 481271003.52754974 0 481271003.52754974 -257001664.98374939 0 0 0 0 -352826303.15478516 350113286.65422821 0 350113286.65422821 111439645.17750835 0 0 0 0 19944413.550109863 352205533.30934143 0 352205533.30934143 109319525.82216549 0 0 0 0 -127312156.23672485 -84410567.943119049 0 -84410567.943119049 -187097904.30575943 0 0 0 0 -153795735.78656006 928887455.66622925 0 928887455.66622925 90979180.386474609 0 0 0 0 -118005357.47195435 -28013303.475570679 0 -28013303.475570679 -695768446.65802002 0 0 0 0 87658979.751022339 220247396.02223206 0 220247396.02223206 -41120360.625789642 0 0 0 0 -475859405.23887253 142794953.89349461 0 142794953.89349461 -2999245.9139785767 0 0 0 0 -359648289.93107605 87508868.178123474 0 87508868.178123474 23239652.67527771 0 0 0 0 -6482957.9132798016 7252897.9904409051 0 7252897.9904409051 4245607.5029698908 0 0 0 0 92518777.702835083 90653537.260791779 0 90653537.260791779 302817110.25509644 0 0 0 0 1701669.2172005475 2344954.1420121714 0 2344954.1420121714 -3805129.1536196172 0 0 0 0 -177419548.9376297 56187149.977975845 0 56187149.977975845 125740745.99671936 0 0 0 0 -32096249.316894531 106804110.28243637 0 106804110.28243637 124524174.04891062 0 0 0 0 67158941.02853775 86523978.139101982 0 86523978.139101982 40993717.768661499 0 0 0 0 -64239040.0570755 118572666.5214777 0 118572666.5214777 60121576.172668457 0 0 0 0 -86051052.952850342 238512406.49668121 0 238512406.49668121 21349203.617340088 0 0 0 0 80818355.321868896 192293385.33127594 0 192293385.33127594 18974916.212409019 0 0 0 0 -77589294.227020264 25158318.955749512 0 25158318.955749512 113370776.02931309 0 0 0 0 494065.66528552771 26701769.388821468 0 26701769.388821468 5323062.7660090029 0 0 0 0 62734708.230670929 73643324.493542194 0 73643324.493542194 -10588055.148590088 0 0 0 0 -3135591.5167617798 26759382.968610764 0 26759382.968610764 -42749560.414764404 0 0 0 0 76830645.480708122 50327112.894709826 0 50327112.894709826 -24908103.159309387 0 0 0 0 -2989539.6371431947 39864826.156419188 0 39864826.156419188 -14422150.01534979 0 0 0 0 -10677198.699417412 21621504.085340194 0 21621504.085340194 19168932.1169727 0 0 0 0 -36497874.670555115 53629592.662772179 0 53629592.662772179 -35470508.964454651 0 0 0 0 -164776461.4766922 71674558.226371765 0 71674558.226371765 19306871.618042946 0 0 0 0 7377814.4940124452 16616491.599171855 0 16616491.599171855 -17318707.544699907 0 0 0 0 138045.04217529297 59505499.525547028 0 59505499.525547028 -37269542.896686554 0 0 0 0 -15851765.060417175 22410000.770339966 0 22410000.770339966 -40968197.493347168 0 0 0 0 46813355.454528809 34617938.637649536 0 34617938.637649536 -7666544.0619239807 0 0 0 0 -18099579.201454163 -1207586.7004680634 0 -1207586.7004680634 128364646.46149063 0 0 0 0 -20166075.906687289 36308651.001053199 0 36308651.001053199 -10950396.911592618 0 0 0 0 -55883669.771511078 142452280.6657896 0 142452280.6657896 -57039506.352531433 0 0 0 0 -65273685.033342361 118553787.59844398 0 118553787.59844398 -19405562.526550293 0 0 0 0 -189444683.37286377 119912491.89427757 0 119912491.89427757 4561827.3527526855 0 0 0 0 -9751476.2761154473 33590902.135309547 0 33590902.135309547 31416068.785267487 0 0 0 0 -149088290.35392761 165704255.35454178 0 165704255.35454178 -20930715.301062584 0 0 0 0 -100399437.00309753 137955581.36351013 0 137955581.36351013 -73943176.562078476 0 0 0 0 -103096240.94691467 54898913.933338165 0 54898913.933338165 -4228235.305934906 0 0 0 0 -8639962.0437559709 51971200.429588377 0 51971200.429588377 -9230626.2359579206 0 0 0 0 72112585.623256683 122087125.31123543 0 122087125.31123543 12371304.57245636 0 0 0 0 9236024.7684402466 127772803.566576 0 127772803.566576 -26370685.381763935 0 0 0 0 52133051.502548218 110077352.72851276 0 110077352.72851276 17000954.483875275 0 0 0 0 22313069.576915741 139741693.94427299 0 139741693.94427299 19168789.001251221 0 0 0 0 -18295435.354430199 74780494.89988327 0 74780494.89988327 5635644.4806976318 0 0 0 0 -38654567.353439331 71034730.187566757 0 71034730.187566757 19239808.333282471 0 0 0 0 2946454.9251766205 135285518.04021072 0 135285518.04021072 65273963.160202026 0 0 0 0 18355839.071716309 49866988.768386841 0 49866988.768386841 -7688081.7963552475 0 0 0 0 102117347.72707367 82127777.852443695 0 82127777.852443695 -44230671.547618866 0 0 0 0 -5971323.2476140037 53780531.896147594 0 53780531.896147594 -13692806.99978596 0 0 0 0 11843564.60953325 43331174.76400505 0 43331174.76400505 6491946.499545116 0 0 0 0 43138363.313610077 76389134.842388153 0 76389134.842388153 -5220201.6278076172 0 0 0 0 57773821.752376556 23021149.193424225 0 23021149.193424225 7248869.9725074768 0 0 0 0 -39608195.853271484 50887554.238601685 0 50887554.238601685 -61764998.714958191 0 0 0 0 -34912223.708280563 57584943.784071922 0 57584943.784071922 -32489450.867240906 0 0 0 0 -57746701.054325104 103698365.53246307 0 103698365.53246307 27326355.718231201 0 0 0 0 17386809.056768894 25761926.643612087 0 25761926.643612087 -14134122.42164968 0 0 0 0 33614749.458724976 51688903.234306335 0 51688903.234306335 -47152472.503910065 0 0 0 0 -15154097.680114746 28821156.301986694 0 28821156.301986694 -2836959.0410766602 0 0 0 0 -45248078.183736578 31611457.653072082 0 31611457.653072082 11154614.022572592 0 0 0 0 19375865.679945409 49792906.504710346 0 49792906.504710346 6894476.3153601587 0 0 0 0 40858185.190938503 49004239.027660444 0 49004239.027660444 -68921650.480518714 0 0 0 0 59002162.445793152 63770886.687652588 0 63770886.687652588 -76298726.885597229 0 0 0 0 18705165.387081146 99486619.27768898 0 99486619.27768898 -63654298.274810791 0 0 0 0 21112205.088922501 54094822.599663734 0 54094822.599663734 -48322792.110580444 0 0 0 0 58980613.871261597 160239422.13545227 0 160239422.13545227 25346874.416946411 0 0 0 0 -94182831.309893131 227550360.04157615 0 227550360.04157615 -24976586.183124542 0 0 0 0 9090362.452835232 55873964.238215134 0 55873964.238215134 2155959.6722298861 0 0 0 0 138187714.59388733 160803398.62308502 0 160803398.62308502 -137538083.02766418 0 0 0 0 -3727340.5333023071 108308846.30923462 0 108308846.30923462 -121066906.42685509 0 0 0 0 -23085320.069452286 109380326.81398487 0 109380326.81398487 -100468098.04984283 0 0 0 0 9162402.4075393677 77077008.457985878 0 77077008.457985878 -82806855.04535675 0 0 0 0 9575512.6346054077 82461611.164631844 0 82461611.164631844 -82306362.766105652 0 0 0 0 33592859.275752127 53885173.00446704 0 53885173.00446704 -83986970.143356323 0 0 0 0 11487033.87940979 58082881.700408936 0 58082881.700408936 -63286294.539737701 0 0 0 0 6248373.7031555176 71481422.03911972 0 71481422.03911972 -91633624.225708008 0 0 0 0 12532104.119354248 47424728.589912415 0 47424728.589912415 -89078231.264927864 0 0 0 0 -8865082.5807255059 34021534.922552571 0 34021534.922552571 -6294280.9448305294 0 0 0 0 14330796.912277222 57536603.080631256 0 57536603.080631256 -71553705.801887512 0 0 0 0 -3097848.1911815405 12858414.79754772 0 12858414.79754772 -2759360.0367612354 0 0 0 0 48000016.289291382 59150451.267889023 0 59150451.267889023 -144806575.00579453 0 0 0 0 96896703.791740417 99844400.270477295 0 99844400.270477295 -123314161.00740623 0 0 0 0 -3688607.9485015869 193042253.81940079 0 193042253.81940079 260903407.54815674 0 0 0 0 72550000.024688721 191824762.5810318 0 191824762.5810318 57732413.24747467 0 0 0 0 69986166.049568176 166650229.6556282 0 166650229.6556282 30651222.374633789 0 0 0 0 -5214642.224773407 152741399.51638412 0 152741399.51638412 38313853.067176819 0 0 0 0 -28319632.140899658 113800040.42108154 0 113800040.42108154 95424958.511764526 0 0 0 0 -28892824.23928833 87780693.188037872 0 87780693.188037872 30571037.45438385 0 0 0 0 19392348.247314453 195946591.25136185 0 195946591.25136185 110794184.65098095 0 0 0 0 44049819.801719666 169497133.83140182 0 169497133.83140182 41861451.250368118 0 0 0 0 31527988.695587158 188899947.18672562 0 188899947.18672562 12810178.582725525 0 0 0 0 -13760269.997612 171961461.5591526 0 171961461.5591526 47641924.138877869 0 0 0 0 -702520.06799316406 158369912.25624084 0 158369912.25624084 37647490.874411583 0 0 0 0 -59515020.852226257 165894530.5854454 0 165894530.5854454 51977817.6882267 0 0 0 0 -10878255.681788445 149802466.65868807 0 149802466.65868807 -52833591.742584229 0 0 0 0 -22647276.234222412 173280426.89299011 0 173280426.89299011 109419573.76702499 0 0 0 0 96553247.484703064 200104868.73030853 0 200104868.73030853 14426486.112609863 0 0 0 0 83422019.381435394 150459463.61965179 0 150459463.61965179 -38315084.038154602 0 0 0 0 133715491.37973022 107117404.52696991 0 107117404.52696991 -144126895.45575333 0 0 0 0 117952497.92014217 133197832.38734818 0 133197832.38734818 -37714006.175003052 0 0 0 0 -69819186.01360321 106066337.8634758 0 106066337.8634758 -21633395.233695984 0 0 0 0 4485801.0966644287 137114625.79167938 0 137114625.79167938 -44119239.10723877 0 0 0 0 -35756690.833282471 -4657305.0834007263 0 -4657305.0834007263 -143341261.5213089 0 0 0 0 -2601288.1463394165 91827672.801673889 0 91827672.801673889 617084666.93058777 0 0 0 0 4122968.6146370471 8109858.880637683 0 8109858.880637683 4985222.3817600198 0 0 0 0 127659188.8532486 88166955.109420776 0 88166955.109420776 -329839039.75767899 0 0 0 0 -26885137.59375 238290125.87807465 0 238290125.87807465 842092804.84384918 0 0 0 0 58611989.358093262 458939589.87664795 0 458939589.87664795 894467615.91580963 0 0 0 0 192597341.2013092 112257474.61994553 0 112257474.61994553 284570106.86213684 0 0 0 0 19909303.546628073 47326064.748922415 0 47326064.748922415 -5133144.7840794288 0 0 0 0 11649135.73536098 20608468.710782483 0 20608468.710782483 15863099.561747048 0 0 0 0 38983618.832992554 90626000.381904602 0 90626000.381904602 241605947.02313614 0 0 0 0 38915142.805496216 121781655.31137085 0 121781655.31137085 214584280.38298798 0 0 0 0 5190136.4747161865 126063163.5973587 0 126063163.5973587 247899296.52108002 0 0 0 0 14806117.188927934 59633251.470329277 0 59633251.470329277 -5842735.2266294584 0 0 0 0 19003374.288734436 54454034.875766754 0 54454034.875766754 -40136877.2513237 0 0 0 0 29130343.865409851 112894484.0670166 0 112894484.0670166 241639236.10983849 0 0 0 0 -2515510.1757202148 74437035.010124207 0 74437035.010124207 14513671.299995422 0 0 0 0 18816496.185668945 53247926.210924149 0 53247926.210924149 -24231454.684707642 0 0 0 0 15030639.819637299 54904665.010198593 0 54904665.010198593 -4618719.9545288086 0 0 0 0 12673829.753234863 68453167.532356262 0 68453167.532356262 -22178183.708026886 0 0 0 0 -62140957.560852051 71416419.922805786 0 71416419.922805786 12650404.373226166 0 0 0 0 -41449988.455795288 47690418.79633522 0 47690418.79633522 15151140.831642151 0 0 0 0 -71416043.34526062 74247490.084842682 0 74247490.084842682 12113537.800182343 0 0 0 0 -71531621.879487991 71602323.613164067 0 71602323.613164067 18080604.259765625 0 0 0 0 -52868589.730922699 94805896.744912624 0 94805896.744912624 -42782106.923828125 0 0 0 0 -65484627.516723633 69332117.323613167 0 69332117.323613167 11421097.225311279 0 0 0 0 -76697533.746185303 93271566.578384399 0 93271566.578384399 -23892641.431632996 0 0 0 0 -79796843.490875244 65744027.959861755 0 65744027.959861755 19995673.178207397 0 0 0 0 -77747490.041931152 70413924.463722229 0 70413924.463722229 6344955.6056365967 0 0 0 0 -91373510.29083252 64635060.906579971 0 64635060.906579971 23586091.589447021 0 0 0 0 -2953081.1875500083 53935173.076424889 0 53935173.076424889 42006697.949161649 0 0 0 0 -54516925.542160034 27666861.759179115 0 27666861.759179115 40517478.987113953 0 0 0 0 -69255750.491291046 35204536.006645679 0 35204536.006645679 59393284.470443726 0 0 0 0 -91293263.86907959 60435512.647003174 0 60435512.647003174 82172866.14276123 0 0 0 0 16058772.357156366 9448397.5052254535 0 9448397.5052254535 -21378608.80684799 0 0 0 0 18544214.561775923 102142982.48422778 0 102142982.48422778 391382053.68128967 0 0 0 0 -155952702.15844727 50202121.020584106 0 50202121.020584106 -163249206.62969971 0 0 0 0 40460166.957396314 58474913.683749571 0 58474913.683749571 -1851866.2434659861 0 0 0 0 18536977.016998291 101290324.33041382 0 101290324.33041382 318114198.77120972 0 0 0 0 146980037.62232971 272484091.79016876 0 272484091.79016876 263814848.45275879 0 0 0 0 39752748.365980148 184954506.44229507 0 184954506.44229507 404641271.8188324 0 0 0 0 38610314.96697998 171104096.31889343 0 171104096.31889343 237551152.55363464 0 0 0 0 8246431.172668457 318644356.0376358 0 318644356.0376358 229230216.23855591 0 0 0 0 242626657.11322021 118182794.21839905 0 118182794.21839905 -182006870.78131104 0 0 0 0 -67047795.574890137 -61085449.720947266 0 -61085449.720947266 28163500.726272583 0 0 0 0 77184737.668762207 -17405540.23525238 0 -17405540.23525238 18191434.111228943 0 0 0 0 -132259039.37313843 -23374927.545837402 0 -23374927.545837402 75675801.639251709 0 0 0 0 33398222.417922974 50805836.721878052 0 50805836.721878052 148674332.52012253 0 0 0 0 113877921.69147491 159014340.84164047 0 159014340.84164047 80060674.031600952 0 0 0 0 62114235.30770874 152687944.51068497 0 152687944.51068497 234568379.25157166 0 0 0 0 -13058467.52772522 12696873.641967773 0 12696873.641967773 58409838.776321411 0 0 0 0 16126728.779090583 41124555.785382062 0 41124555.785382062 33081164.668433208 0 0 0 0 -76984272.430923462 19191102.139640808 0 19191102.139640808 62509468.760044098 0 0 0 0 -130898093.64368534 23056274.89726752 0 23056274.89726752 77834005.052627563 0 0 0 0 -24597226.065737903 37111897.468594931 0 37111897.468594931 39085044.153274298 0 0 0 0 -63374114.206661224 73943258.42163372 0 73943258.42163372 10359216.343589783 0 0 0 0 -75157626.10848999 76041428.117679596 0 76041428.117679596 15070532.940143585 0 0 0 0 -82547369.827301025 43562489.47016716 0 43562489.47016716 -12852925.952087402 0 0 0 0 -35821242.066967309 53862841.957597636 0 53862841.957597636 67224189.092408225 0 0 0 0 -31008780.518737793 31210701.983825684 0 31210701.983825684 13152909.627357483 0 0 0 0 -13112073.388823576 69175083.600506991 0 69175083.600506991 4870581.5183481574 0 0 0 0 -364044.330078125 94377561.758245468 0 94377561.758245468 160050065.87908173 0 0 0 0 33588231.291380435 34941520.998208828 0 34941520.998208828 10586266.925393805 0 0 0 0 126331163.74929047 98888578.105195999 0 98888578.105195999 42735253.405469894 0 0 0 0 7945144.3949009478 27937711.960092425 0 27937711.960092425 13260705.410497949 0 0 0 0 -27919570.73099713 54563106.302277625 0 54563106.302277625 34824388.540004969 0 0 0 0 9632610.1791345775 10325553.342960596 0 10325553.342960596 3565966.8954325467 0 0 0 0 -68229769.885818481 -3035878.035282135 0 -3035878.035282135 153187826.0455246 0 0 0 0 62483194.291333199 299767104.76520824 0 299767104.76520824 272816526.31538391 0 0 0 0 111067182.40987396 143914939.83898163 0 143914939.83898163 47681921.604786396 0 0 0 0 97271935.706161499 91778098.534454346 0 91778098.534454346 -79814019.135780334 0 0 0 0 59438781.840829849 116589415.80782986 0 116589415.80782986 21698890.276809692 0 0 0 0 102799464.24266624 67018443.353492737 0 67018443.353492737 -220732.3950843811 0 0 0 0 64922749.861213684 133247528.68913269 0 133247528.68913269 15203746.364938736 0 0 0 0 -111017235.99390793 131814623.15553474 0 131814623.15553474 -32532760.169219971 0 0 0 0 5033032.559874177 5882547.9513750225 0 5882547.9513750225 -7420723.1207817048 0 0 0 0 219189607.23614502 102224568.04446411 0 102224568.04446411 -174956862.23177719 0 0 0 0 -290931086.36309814 112854341.94038391 0 112854341.94038391 317102696.08744812 0 0 0 0 207696305.84333801 194750303.41912842 0 194750303.41912842 90342496.324737549 0 0 0 0 113781366.87965393 223796668.73697662 0 223796668.73697662 157087154.39620972 0 0 0 0 241320018.66897583 270352612.95331573 0 270352612.95331573 170960315.10264969 0 0 0 0 -223295054.87219238 141270322.80810928 0 141270322.80810928 195105629.52513504 0 0 0 0 124428713.00957012 129899850.1799463 0 129899850.1799463 151590393.07667923 0 0 0 0 -269306333.00704956 215442092.65787506 0 215442092.65787506 124601075.99926758 0 0 0 0 -36685514.899132669 45525924.925308824 0 45525924.925308824 54138254.895004988 0 0 0 0 -223703126.12478638 25891583.729309082 0 25891583.729309082 51180609.701347351 0 0 0 0 -95846287.294372559 24148601.723007202 0 24148601.723007202 -29821489.4451828 0 0 0 0 -30683096.06452328 40349697.821380407 0 40349697.821380407 56690985.164299853 0 0 0 0 60479592.812637329 -168982036.9769783 0 -168982036.9769783 7807362.7010345459 0 0 0 0 72246297.143951416 -78771448.739681244 0 -78771448.739681244 -178341893.51781464 0 0 0 0 -27860895.961654663 97620022.374664307 0 97620022.374664307 78457174.395862579 0 0 0 0 91081247.288208008 -13827747.592636108 0 -13827747.592636108 19432401.059650421 0 0 0 0 5495348.1072540283 -46278269.551576614 0 -46278269.551576614 14068258.954614639 0 0 0 0 133668039.80953979 166789852.0807457 0 166789852.0807457 107663240.62213135 0 0 0 0 319508927.23226929 127722274.91782379 0 127722274.91782379 149057292.45127296 0 0 0 0 118943611.05863953 152841592.05684471 0 152841592.05684471 145938486.80001831 0 0 0 0 99888085.216674805 228368243.57155991 0 228368243.57155991 136556173.86213493 0 0 0 0 90696645.4402771 74127698.058326721 0 74127698.058326721 60902896.605682373 0 0 0 0 176099863.84389496 136182677.3227396 0 136182677.3227396 48550995.84765625 0 0 0 0 43240013.2996521 16298886.742687225 0 16298886.742687225 910803.28033447266 0 0 0 0 113847907.096138 94104943.121231079 0 94104943.121231079 -117909671.24806976 0 0 0 0 -60532256.265884399 207322334.11516762 0 207322334.11516762 26194787.385734558 0 0 0 0 -46645854.765301704 60399686.832511902 0 60399686.832511902 -11560368.360649109 0 0 0 0 60269325.613614082 65787246.534832239 0 65787246.534832239 -305033383.3168335 0 0 0 0 58251951.734695435 37837456.903827667 0 37837456.903827667 -67688141.541378021 0 0 0 0 -21168640.311141968 176070347.48953915 0 176070347.48953915 327840125.62789536 0 0 0 0 29469365.313705444 120503373.64974976 0 120503373.64974976 108350601.82834244 0 0 0 0 62176493.435638428 268615640.73504925 0 268615640.73504925 313014134.05134201 0 0 0 0 136991839.78523254 244100717.85034943 0 244100717.85034943 120813396.6262939 0 0 0 0 -15071306.232846588 20592855.121169232 0 20592855.121169232 19069850.599828571 0 0 0 0 167287169.2416687 261680024.46052361 0 261680024.46052361 255857757.76834488 0 0 0 0 172964983.3258667 242881164.24145317 0 242881164.24145317 317953737.31576538 0 0 0 0 122246252.58840942 187947179.19061661 0 187947179.19061661 175414482.26229477 0 0 0 0 291236167.37651062 317632871.87266159 0 317632871.87266159 273842151.30119896 0 0 0 0 119792333.82715034 202607259.32702494 0 202607259.32702494 410191594.91005707 0 0 0 0 -15828766.482162476 108080447.37534523 0 108080447.37534523 2072377.0860342979 0 0 0 0 27166344.2318573 75668052.43977356 0 75668052.43977356 -147024243.27688599 0 0 0 0 14747410.718025208 39137519.321576118 0 39137519.321576118 -24965344.654495239 0 0 0 0 273107165.04122925 377181950.01039505 0 377181950.01039505 282961977.54758024 0 0 0 0 47350606.297420502 22108928.756665945 0 22108928.756665945 -269518342.86857796 0 0 0 0 -15013664.266499251 9729067.7688238621 0 9729067.7688238621 11850231.512966864 0 0 0 0 74134200.673583984 412124781.23803997 0 412124781.23803997 679203257.76156425 0 0 0 0 -27418338.414993942 33390640.033329248 0 33390640.033329248 62528088.70440644 0 0 0 0 9377350.8134689331 48801338.836912155 0 48801338.836912155 20635771.174402237 0 0 0 0 -127414914.28019714 85426210.051021576 0 85426210.051021576 170548108.00265932 0 0 0 0 11940001.087308303 59448519.601623371 0 59448519.601623371 16355885.404687345 0 0 0 0 9016168.6196289062 46873200.461519241 0 46873200.461519241 47390865.279103756 0 0 0 0 9328601.4151107669 49463357.055913202 0 49463357.055913202 24997690.797505267 0 0 0 0 11974924.021781921 39331052.787414551 0 39331052.787414551 25389423.99420166 0 0 0 0 -1867413.7127001584 16994889.560885344 0 16994889.560885344 6823470.280278 0 0 0 0 14557808.662384033 47615158.869363785 0 47615158.869363785 143446081.25514793 0 0 0 0 -25128687.297103882 114255186.60881805 0 114255186.60881805 484401201.96208954 0 0 0 0 -7896793.8871202767 1733383.8465442434 0 1733383.8465442434 6843470.2745876759 0 0 0 0 5816951.920463562 107499040.14307404 0 107499040.14307404 -51269872.21361351 0 0 0 0 6910570.560634315 42108568.27422706 0 42108568.27422706 13855257.246049874 0 0 0 0 -4652542.5616950989 19102067.629062682 0 19102067.629062682 21911159.032792091 0 0 0 0 1943486.7320785522 43761598.80160141 0 43761598.80160141 18827111.404536247 0 0 0 0 22241972.452457726 57434515.448893338 0 57434515.448893338 5979633.7784071118 0 0 0 0 -24150335.938308716 66385807.731542587 0 66385807.731542587 -14766582.839193344 0 0 0 0 -203024871.42776489 247710382.11915255 0 247710382.11915255 -100107641.61488152 0 0 0 0 98293021.106010437 79078812.819987535 0 79078812.819987535 -355098948.63354111 0 0 0 0 3573065.0231048763 16951096.126691699 0 16951096.126691699 4559680.562722683 0 0 0 0 -157172593.83403015 145488208.77106571 0 145488208.77106571 30317537.544360638 0 0 0 0 -47747962.70916748 293318609.45503235 0 293318609.45503235 -349387221.44203663 0 0 0 0 32130153.691383362 146259614.05154181 0 146259614.05154181 -154489061.67272258 0 0 0 0 25978253.681106567 166976250.22060752 0 166976250.22060752 -218316294.69049644 0 0 0 0 84586306.411556244 152725521.39430648 0 152725521.39430648 -354983121.9172802 0 0 0 0 50922718.549819946 96221287.039817333 0 96221287.039817333 -443239669.14022112 0 0 0 0 -146497271.55179214 312612532.59046316 0 312612532.59046316 -348588050.55758476 0 0 0 0 34695177.522201538 273861594.47818661 0 273861594.47818661 -493328670.41523314 0 0 0 0 40496013.382862091 123493492.01245618 0 123493492.01245618 -242234122.53511906 0 0 0 0 10150774.577705383 92476233.502717972 0 92476233.502717972 -272737639.93747854 0 0 0 0 -21843100.696746826 23826067.539974689 0 23826067.539974689 -391671748.52697754 0 0 0 0 64081175.133056641 118891479.60809326 0 118891479.60809326 -304114930.20587349 0 0 0 0 84081220.129013062 123143573.40061283 0 123143573.40061283 -303280755.90126324 0 0 0 0 99923468.742950439 98763672.299568176 0 98763672.299568176 -278062523.58307981 0 0 0 0 78834615.442121506 108487959.9616704 0 108487959.9616704 -314403759.76600647 0 0 0 0 41354459.473449707 138775135.3634901 0 138775135.3634901 -267755809.09346008 0 0 0 0 38988316.215273857 105015978.07693893 0 105015978.07693893 -188474915.21704674 0 0 0 0 40223256.593566895 40843328.425782681 0 40843328.425782681 -158900531.28520775 0 0 0 0 74416350.017150879 65846939.755091429 0 65846939.755091429 -210401902.40110517 0 0 0 0 47150708.976905823 27854858.547492743 0 27854858.547492743 -134706772.73917103 0 0 0 0 25820335.186856508 53560845.506516911 0 53560845.506516911 -114725578.47609329 0 0 0 0 26128892.685915947 62284273.248351552 0 62284273.248351552 -148152895.87892723 0 0 0 0 99030390.748886108 39379762.408419609 0 39379762.408419609 -222294897.17185068 0 0 0 0 72324834.751983643 84765237.737687111 0 84765237.737687111 -284135458.39253044 0 0 0 0 47555734.76914978 -29832604.454874992 0 -29832604.454874992 -125172612.82330894 0 0 0 0 115792139.19695282 -6925899.5069212914 0 -6925899.5069212914 -223420256.2733674 0 0 0 0 43732302.069992065 1124868.3352224827 0 1124868.3352224827 -150795421.5725975 0 0 0 0 75367011.685012817 -57115843.531551838 0 -57115843.531551838 -183526137.35122991 0 0 0 0 43880557.951416016 -6445069.6480779648 0 -6445069.6480779648 -117374291.73712158 0 0 0 0 34033503.872848511 999321.50759625435 0 999321.50759625435 -101011778.18884945 0 0 0 0 47579850.026443481 254411970.34576082 0 254411970.34576082 -331204796.14156914 0 0 0 0 92103042.664581299 259091440.85443354 0 259091440.85443354 -319344340.94164562 0 0 0 0 154378574.09181213 271623926.74029112 0 271623926.74029112 -343383506.41184711 0 0 0 0 165753029.98718262 76205203.854420662 0 76205203.854420662 -344676901.25385338 0 0 0 0 44478803.633773804 142084406.8747648 0 142084406.8747648 -301942475.41427326 0 0 0 0 281993688.27105713 91683296.675721169 0 91683296.675721169 -292360515.28615487 0 0 0 0 242686458.40321922 97404707.42608735 0 97404707.42608735 -257898492.30516148 0 0 0 0 221557514.71437073 -60282581.355095863 0 -60282581.355095863 -207043875.09670305 0 0 0 0 655321459.82420349 -18125691.046117306 0 -18125691.046117306 -233614223.97327566 0 0 0 0 227605844.30010414 301156792.37880808 0 301156792.37880808 -315813784.79587173 0 0 0 0 379684399.98083496 239174824.17415762 0 239174824.17415762 -263219159.20443392 0 0 0 0 152361171.06402588 236037258.09016562 0 236037258.09016562 -219596631.96456337 0 0 0 0 27398097.850509644 284158661.23611498 0 284158661.23611498 -236971650.16022968 0 0 0 0 17859326.592651367 398612065.70191002 0 398612065.70191002 -418534919.51380777 0 0 0 0 168738463.44856262 343485680.62896132 0 343485680.62896132 -346599206.07829952 0 0 0 0 -20022329.786300659 366085606.09979153 0 366085606.09979153 -294467484.18306065 0 0 0 0 107846285.67726517 329174490.03970605 0 329174490.03970605 -341089565.30565357 0 0 0 0 -125561634.09428406 403931149.81449127 0 403931149.81449127 -304527474.00945282 0 0 0 0 -24835811.632659912 347711569.65392399 0 347711569.65392399 -363801629.11795998 0 0 0 0 -22454620.884780884 345757868.7775805 0 345757868.7775805 -312063149.50685024 0 0 0 0 1784718.5811309814 361367751.62082672 0 361367751.62082672 -330838958.45603871 0 0 0 0 -191461234.51167297 320973635.35389662 0 320973635.35389662 -286122221.73981249 0 0 0 0 -428684085.7142334 377962455.13230276 0 377962455.13230276 -255385734.68929768 0 0 0 0 -132134975.41989136 432064083.92737436 0 432064083.92737436 -349689595.89733744 0 0 0 0 -187676751.39122009 349137123.17185521 0 349137123.17185521 -311313313.43657696 0 0 0 0 -339355544.63401031 535572878.78049159 0 535572878.78049159 -428047892.13190985 0 0 0 0 -474699205.05456924 474661453.3296414 0 474661453.3296414 -292065840.40533352 0 0 0 0 307666902.49320984 100737593.45183283 0 100737593.45183283 -268940412.04097605 0 0 0 0 -466077524.36125183 357682277.40341759 0 357682277.40341759 -382426716.67119336 0 0 0 0 -293426735.51416016 244054713.65935469 0 244054713.65935469 67959750.379927218 0 0 0 0 -50244370.807617188 189711812.11386585 0 189711812.11386585 -157643420.38241529 0 0 0 0 22322906.929635167 18448706.780517064 0 18448706.780517064 4764319.8949036635 0 0 0 0 -76992313.047012329 163557938.30333996 0 163557938.30333996 -173417924.52549362 0 0 0 0 -65419858.602294922 207757364.31817627 0 207757364.31817627 -35385993.043994904 0 0 0 0 40921690.92869404 41627423.307802506 0 41627423.307802506 16525826.583006263 0 0 0 0 -131240778.06570435 43480287.818229675 0 43480287.818229675 -125454102.49869347 0 0 0 0 58643799.086174011 44059312.75428772 0 44059312.75428772 -27902955.791584015 0 0 0 0 -122364802.62811279 118016223.33974075 0 118016223.33974075 -31377039.792868614 0 0 0 0 -117725606.87440491 118956518.02190781 0 118956518.02190781 -54783723.116046906 0 0 0 0 -123915188.79447937 153359012.633955 0 153359012.633955 -239551290.89193726 0 0 0 0 -41196444.571166992 19604944.027507782 0 19604944.027507782 -246431000.80388939 0 0 0 0 26259050.234998748 10735874.929048792 0 10735874.929048792 -26518487.384541627 0 0 0 0 32537685.448838368 29032422.619588256 0 29032422.619588256 7691347.1382210068 0 0 0 0 -300251163.21048737 158091003.18180847 0 158091003.18180847 12404792.278633118 0 0 0 0 54125884.126083374 -13415078.962617874 0 -13415078.962617874 -237168995.5462265 0 0 0 0 -123978443.08735657 -42294571.667272568 0 -42294571.667272568 -152173999.2082901 0 0 0 0 -149554346.70487976 7951614.3298664093 0 7951614.3298664093 -165872711.95223236 0 0 0 0 420998056.88241577 -52590967.470161438 0 -52590967.470161438 -286793601.95771027 0 0 0 0 213918534.99411011 498359160.77873468 0 498359160.77873468 217339358.85172653 0 0 0 0 -181679948.62390137 316918531.77663803 0 316918531.77663803 387076899.31553078 0 0 0 0 27938549.517929077 49563093.260513306 0 49563093.260513306 -20092689.350231171 0 0 0 0 14030190.086761475 58663906.841358185 0 58663906.841358185 -25657506.662277222 0 0 0 0 43984250.875648499 54218450.489109039 0 54218450.489109039 -35164422.305526733 0 0 0 0 18869032.446792603 71358592.511009216 0 71358592.511009216 -36652047.502299786 0 0 0 0 33433787.955924988 65229063.00737381 0 65229063.00737381 -37279700.725925446 0 0 0 0 26276636.772140503 62338713.603126526 0 62338713.603126526 -34959102.895303965 0 0 0 0 27071803.329231262 60282199.237509727 0 60282199.237509727 -31621342.75944519 0 0 0 0 18255624.245880127 60939509.092758179 0 60939509.092758179 -31664251.9845047 0 0 0 0 23877656.495813847 63890895.049584627 0 63890895.049584627 -30730736.542953491 0 0 0 0 23887743.548677444 64131270.424257755 0 64131270.424257755 -27359967.820098877 0 0 0 0 17987478.799041748 63624568.895759583 0 63624568.895759583 -36085513.6614151 0 0 0 0 38149168.778025508 35120800.263099775 0 35120800.263099775 -12270169.749630757 0 0 0 0 13264121.81476593 65293362.248207092 0 65293362.248207092 -31570240.575691223 0 0 0 0 -19958101.271331787 74685182.936210632 0 74685182.936210632 92463185.153778076 0 0 0 0 178354105.88803101 264849636.1520195 0 264849636.1520195 175394567.49664307 0 0 0 0 23518027.170586452 9042925.7535220385 0 9042925.7535220385 -19810265.210254148 0 0 0 0 -133427134.28640747 213147383.83085251 0 213147383.83085251 337066275.35114098 0 0 0 0 13941028.932346344 82363011.197701454 0 82363011.197701454 -180652413.26371002 0 0 0 0 -37846601.941253662 8386334.6417236328 0 8386334.6417236328 -72043166.107498169 0 0 0 0 19040463.051017761 80625562.756286621 0 80625562.756286621 -283114540.65991211 0 0 0 0 -153890821.13198853 372357919.94180298 0 372357919.94180298 993914.91502761841 0 0 0 0 -39969032.701812744 135868380.51423645 0 135868380.51423645 -38798949.570648193 0 0 0 0 -121020172.61157227 272942882.0065918 0 272942882.0065918 -386491.72281074524 0 0 0 0 -97372878.683074951 214800467.22888756 0 214800467.22888756 109529351.59205627 0 0 0 0 -41204669.715164185 265432243.20862198 0 265432243.20862198 -173786962.96899414 0 0 0 0 6437778.8281555176 185555660.18685913 0 185555660.18685913 -224739695.43539429 0 0 0 0 -41330322.556910515 171477105.44898081 0 171477105.44898081 -208082154.45666504 0 0 0 0 43791015.327697754 191064983.89124298 0 191064983.89124298 -226372072.60988998 0 0 0 0 -99914946.287872314 96494458.368110657 0 96494458.368110657 81062216.320762396 0 0 0 0 76542694.17175293 81994870.249465942 0 81994870.249465942 -350096368.75847626 0 0 0 0 95490341.698608398 126054956.3303299 0 126054956.3303299 -353969770.64906311 0 0 0 0 175467190.29119873 184484457.25275803 0 184484457.25275803 -324197548.75579834 0 0 0 0 670381.95347049832 3816790.6098611057 0 3816790.6098611057 4836481.6805013381 0 0 0 0 47114704.469360352 130240412.23580933 0 130240412.23580933 -220370817.00440407 0 0 0 0 -147561.169921875 161951451.49964142 0 161951451.49964142 -212330334.16909027 0 0 0 0 -112797246.79754639 154599335.07262039 0 154599335.07262039 -8694799.9197654724 0 0 0 0 -116279252.12619019 127942984.54527283 0 127942984.54527283 23251541.524255753 0 0 0 0 -81866363.950653076 90536860.947303772 0 90536860.947303772 -25131163.181097031 0 0 0 0 60734196.054706573 34972109.342392445 0 34972109.342392445 -244906624.87421703 0 0 0 0 -74334680.294189453 121539560.75092888 0 121539560.75092888 -121627976.70048523 0 0 0 0 45047908.047765389 44833428.209228195 0 44833428.209228195 -549517.96878391504 0 0 0 0 -240278007.2019043 -23268905.070476532 0 -23268905.070476532 374931602.61454773 0 0 0 0 -134155393.72399902 -26664772.602451324 0 -26664772.602451324 -99755170.714342117 0 0 0 0 -68873574.983581543 115612447.67121124 0 115612447.67121124 -49534960.376231194 0 0 0 0 -126953518.17884827 169853111.9054451 0 169853111.9054451 174400894.44465637 0 0 0 0 -148020707.59008789 270382865.56143379 0 270382865.56143379 336671582.00343347 0 0 0 0 16620063.712280273 215571386.21235704 0 215571386.21235704 -200000751.15089512 0 0 0 0 -110188560.357234 332719881.04825675 0 332719881.04825675 -306569817.36572361 0 0 0 0 301064594.45359802 18273609.444293022 0 18273609.444293022 -144084490.53736496 0 0 0 0 38139733.872947499 34052615.512320325 0 34052615.512320325 -2184606.695715826 0 0 0 0 -110115233.19085693 334200343.46391726 0 334200343.46391726 -283979452.60203826 0 0 0 0 22788710.401924521 11481103.297428936 0 11481103.297428936 -12262925.444642186 0 0 0 0 -263678357.36444092 379489245.10991859 0 379489245.10991859 136832619.19760132 0 0 0 0 -200271007.7696228 366640335.9631958 0 366640335.9631958 258840814.52235031 0 0 0 0 122176.30573272705 106574058.68864727 0 106574058.68864727 -60489901.38469696 0 0 0 0 26487308.768957078 81705267.467886642 0 81705267.467886642 -38063573.507202148 0 0 0 0 9169015.6150970459 148220057.33551216 0 148220057.33551216 -138696591.64186859 0 0 0 0 26897169.418319702 131777767.37694359 0 131777767.37694359 -123459856.94259262 0 0 0 0 -20905502.376342773 250613477.20544624 0 250613477.20544624 -222226383.6221199 0 0 0 0 3837532.8899989128 183086414.31687081 0 183086414.31687081 -114236939.86535263 0 0 0 0 -16778536.416168213 193583120.07259369 0 193583120.07259369 54376520.373088837 0 0 0 0 -58189.248558044434 137891597.05347443 0 137891597.05347443 258594649.25652313 0 0 0 0 69596996.832862854 123847568.08590889 0 123847568.08590889 104081402.43346405 0 0 0 0 21382727.12335968 122538628.53669691 0 122538628.53669691 243461969.05970001 0 0 0 0 11315446.41129303 146925078.36119366 0 146925078.36119366 350925898.62949371 0 0 0 0 -1135597.9567909241 213375370.1022234 0 213375370.1022234 684479929.3093338 0 0 0 0 371124814.82865906 91059810.73871994 0 91059810.73871994 -425031201.68574524 0 0 0 0 108703727.94450378 231222436.8502121 0 231222436.8502121 303574721.07044888 0 0 0 0 -803053.8841343224 -2345472.7529657409 0 -2345472.7529657409 572865.48257992417 0 0 0 0 -232582670.48426819 2042245.2260227203 0 2042245.2260227203 -15014337.216827393 0 0 0 0 30728742.454994202 175149738.79158592 0 175149738.79158592 330842790.83573914 0 0 0 0 68402825.321798325 109723018.77041006 0 109723018.77041006 293590952.44100189 0 0 0 0 48838848.612037659 200519943.14779186 0 200519943.14779186 236761072.77801514 0 0 0 0 57727254.21925354 78882630.771938324 0 78882630.771938324 354841292.69341278 0 0 0 0 43485831.032745361 86300428.380067825 0 86300428.380067825 202558801.98407745 0 0 0 0 1917916.1156768799 169160363.07156754 0 169160363.07156754 231314440.15594482 0 0 0 0 -1937782.305930078 -2623534.5016201884 0 -2623534.5016201884 240855.36398223042 0 0 0 0 -11290055.321563721 2395178.2658843994 0 2395178.2658843994 -57416024.503932953 0 0 0 0 40658068.844894409 1324799.6790142059 0 1324799.6790142059 -93277434.614929199 0 0 0 0 9502866.3963546753 145967863.19239616 0 145967863.19239616 390715032.83699036 0 0 0 0 5004849.5047340393 55155617.035510063 0 55155617.035510063 -18636642.146007538 0 0 0 0 4105765.7079400718 175595.45085732266 0 175595.45085732266 -5160085.2354674637 0 0 0 0 -26862597.293441772 -46643255.965953827 0 -46643255.965953827 -11302851.466091156 0 0 0 0 1697417.2467637062 160069830.46714646 0 160069830.46714646 -185812310.97459412 0 0 0 0 -36575860.345626831 101768183.42526245 0 101768183.42526245 -182275694.73442006 0 0 0 0 -64868647.506652832 88994065.767450333 0 88994065.767450333 -57212247.89226532 0 0 0 0 -64538863.389831543 86314528.530795097 0 86314528.530795097 -87415713.328727722 0 0 0 0 -44779885.158905029 67256366.63781929 0 67256366.63781929 -138905903.4217186 0 0 0 0 -17816064.041213989 20681960.903289795 0 20681960.903289795 18435839.249717712 0 0 0 0 5770325.4446414411 5982898.2599663623 0 5982898.2599663623 -10909093.988265194 0 0 0 0 -61973007.871627808 82026395.313211441 0 82026395.313211441 -80328413.82292366 0 0 0 0 -11206642.629890442 21293860.184703827 0 21293860.184703827 5028514.4445648193 0 0 0 0 -16690082.50523895 30680699.521999553 0 30680699.521999553 -7338263.2454998419 0 0 0 0 -10682076.567372613 19140357.418880314 0 19140357.418880314 5713011.5370728076 0 0 0 0 -36077567.517814636 15629027.577947617 0 15629027.577947617 19611717.488918304 0 0 0 0 -27729786.386487007 60542397.419341564 0 60542397.419341564 49984277.740859985 0 0 0 0 -11200446.955237865 22780654.226114813 0 22780654.226114813 -28313956.261042606 0 0 0 0 -51840112.103103638 -23544191.143295288 0 -23544191.143295288 28464043.980297089 0 0 0 0 -12903239.319259644 30943644.018821716 0 30943644.018821716 -4383341.5777549744 0 0 0 0 -5835515.7809448242 18454957.29813385 0 18454957.29813385 -6967824.2884435654 0 0 0 0 -18063960.803833008 30801461.969207764 0 30801461.969207764 18067441.132165909 0 0 0 0 -2381687.5019760132 22748238.94462204 0 22748238.94462204 -18075313.942230225 0 0 0 0 -5667597.3298492432 109712511.53344727 0 109712511.53344727 169734014.91404343 0 0 0 0 -2842166.6624289155 -518552.48542288691 0 -518552.48542288691 -1531248.734765593 0 0 0 0 695372.43823242188 17862472.132678986 0 17862472.132678986 -26072669.322345734 0 0 0 0 29710053.962032318 123618893.35577488 0 123618893.35577488 135260444.22078705 0 0 0 0 10168065.847763062 131869326.96430206 0 131869326.96430206 154144823.73547363 0 0 0 0 131852.46477127075 199137463.97285044 0 199137463.97285044 113995531.30313873 0 0 0 0 -16368486.283493042 209682644.85340881 0 209682644.85340881 80168996.090187073 0 0 0 0 -91360030.031524658 164241277.957798 0 164241277.957798 87687606.110468864 0 0 0 0 61978092.25982666 18005859.560844421 0 18005859.560844421 66384810.023888111 0 0 0 0 -9326825.6249580383 181181109.10513783 0 181181109.10513783 54387945.465637207 0 0 0 0 -76809656.853687286 127680714.31371403 0 127680714.31371403 29374223.107025146 0 0 0 0 -6766264.7231966704 10350690.266451687 0 10350690.266451687 8968425.4813452214 0 0 0 0 -100320059.75400543 141969445.74991417 0 141969445.74991417 -195512726.43651581 0 0 0 0 -120315555.41894531 -67816099.786045074 0 -67816099.786045074 -28263087.795501709 0 0 0 0 -1542420.3729612231 -1287210.2019129992 0 -1287210.2019129992 1452858.5296604168 0 0 0 0 -77169222.829998016 -14930371.624052048 0 -14930371.624052048 36519474.296531677 0 0 0 0 -3288162.1446228027 15170973.114591599 0 15170973.114591599 -16970590.53420639 0 0 0 0 -855250.29607347399 1930120.5953890532 0 1930120.5953890532 507904.30871282518 0 0 0 0 85438297.026794434 185857757.92987251 0 185857757.92987251 -3755819.1787700653 0 0 0 0 -201087513.79479408 224181463.48891544 0 224181463.48891544 24280949.071590424 0 0 0 0 -22028083.798132896 33253092.843420386 0 33253092.843420386 -13810772.146192923 0 0 0 0 -191419402.84051514 34865581.116333008 0 34865581.116333008 33353045.342208862 0 0 0 0 -232598669.47912598 227579205.62665176 0 227579205.62665176 -34590886.16305542 0 0 0 0 66060319.852279663 -52571699.990617752 0 -52571699.990617752 -59053237.565105438 0 0 0 0 -112333812.57669067 157790909.47827911 0 157790909.47827911 72462481.687072754 0 0 0 0 -26588088.684814453 25484549.869667053 0 25484549.869667053 33762316.226959229 0 0 0 0 -23352015.558816895 35108736.801577628 0 35108736.801577628 -15078027.813693732 0 0 0 0 156598553.84545898 105677857.94066238 0 105677857.94066238 -32770244.786975861 0 0 0 0 -325531500.98764038 611622999.44856262 0 611622999.44856262 -417841255.19667816 0 0 0 0 63103859.078804016 69887164.049574852 0 69887164.049574852 12126721.464660645 0 0 0 0 155344060.52134705 -99954215.370389938 0 -99954215.370389938 -322161845.17897034 0 0 0 0 -509366037.73887634 291923713.57496262 0 291923713.57496262 -102894680.53474045 0 0 0 0 -568176593.71811008 -158359210.10292065 0 -158359210.10292065 83983279.018421173 0 0 0 0 347462755.30937958 -157055063.76133728 0 -157055063.76133728 343427116.69089508 0 0 0 0 -132222868.37399292 255189339.36254883 0 255189339.36254883 -455676771.65452194 0 0 0 0 -1950354.0596474111 7513468.0721216947 0 7513468.0721216947 -308487.02614765614 0 0 0 0 -389525423.36447144 158911331.52585411 0 158911331.52585411 -18609698.138694763 0 0 0 0 -261846142.36358643 111731591.61767387 0 111731591.61767387 121111700.61070061 0 0 0 0 94097010.103683472 94078112.06023407 0 94078112.06023407 35919463.841644287 0 0 0 0 -112839298.8890686 119057708.88355064 0 119057708.88355064 277447024.4923172 0 0 0 0 83627094.080123901 42145911.420858383 0 42145911.420858383 -161948658.317873 0 0 0 0 -190849966.53272915 -247190478.03847575 0 -247190478.03847575 -81490795.893302917 0 0 0 0 128419086.92619324 330191256.31501579 0 330191256.31501579 -33593489.442420959 0 0 0 0 9458363.6293921322 15471911.578353122 0 15471911.578353122 -17365948.469982713 0 0 0 0 -276202877.33490753 58258935.088569641 0 58258935.088569641 215955863.06658554 0 0 0 0 68219528.336257935 32454934.648159027 0 32454934.648159027 12737512.274074554 0 0 0 0 7223361.1980895996 -16424647.296520233 0 -16424647.296520233 180725642.08316207 0 0 0 0 -231341740.14241028 46753510.876890182 0 46753510.876890182 -49707588.737106323 0 0 0 0 167711891.92909241 -26327440.475530624 0 -26327440.475530624 26978415.537246704 0 0 0 0 179522524.44418335 634799028.16672516 0 634799028.16672516 122762143.33221436 0 0 0 0 -192442376.85888672 450599924.11127186 0 450599924.11127186 31694692.442743301 0 0 0 0 313560706.72970581 716160679.92720413 0 716160679.92720413 -19472453.930833817 0 0 0 0 -32355748.040298462 694073310.52525139 0 694073310.52525139 968802707.24436665 0 0 0 0 254352307.45418644 88337950.299438596 0 88337950.299438596 256096709.72917557 0 0 0 0 -66928202.357833862 171063500.74284172 0 171063500.74284172 786251255.25487423 0 0 0 0 23529156.791763306 -27950906.462772369 0 -27950906.462772369 -652079078.1615448 0 0 0 0 -7476442.6941671371 2005750.1933238655 0 2005750.1933238655 5160939.6839592643 0 0 0 0 182121211.75187683 130633447.85923386 0 130633447.85923386 -1215897737.0889473 0 0 0 0 51678873.903671265 -42718527.141753197 0 -42718527.141753197 -149222546.41866398 0 0 0 0 -26050703.426742554 201203641.78832197 0 201203641.78832197 -321411115.71627522 0 0 0 0 -406972518.94006348 1006500077.8051224 0 1006500077.8051224 72805410.818752289 0 0 0 0 174903516.84619904 133920428.34352255 0 133920428.34352255 -5859813.0016658306 0 0 0 0 352714417.80963135 418627515.67946148 0 418627515.67946148 -406294708.18119049 0 0 0 0 589821216.60339355 -490117920.45116043 0 -490117920.45116043 -292872333.77331591 0 0 0 0 -594899.39615175128 4054837.2372136265 0 4054837.2372136265 -1435991.396276243 0 0 0 0 6688723.9825516753 -6055438.792753011 0 -6055438.792753011 -3001326.6457439363 0 0 0 0 -35344559.984344482 -97170392.515668869 0 -97170392.515668869 -21286860.890113831 0 0 0 0 21664371.272511899 33849182.081360027 0 33849182.081360027 -51734994.924627885 0 0 0 0 204747265.0256424 135955772.17166424 0 135955772.17166424 -159909837.44698906 0 0 0 0 -3562365.4667379297 36381145.960727349 0 36381145.960727349 -31439506.747146718 0 0 0 0 106218933.87220001 -2475733.5658326149 0 -2475733.5658326149 -26660890.156649113 0 0 0 0 -51000324.409545898 115894815.93609333 0 115894815.93609333 -124614837.67720413 0 0 0 0 -5569494.2489929199 187556757.79875374 0 187556757.79875374 -295698152.58130741 0 0 0 0 16218189.498573303 108187211.44124222 0 108187211.44124222 -173967837.5644598 0 0 0 0 47855964.09614563 44668332.638581276 0 44668332.638581276 -145281644.09096348 0 0 0 0 65957939.911178589 72999457.282812357 0 72999457.282812357 -102267729.92659283 0 0 0 0 63728952.148406982 1819872.0218634605 0 1819872.0218634605 -74324408.25927639 0 0 0 0 39662742.221321106 38173581.57636714 0 38173581.57636714 -71158667.857875824 0 0 0 0 53398407.819869995 -12666792.9412117 0 -12666792.9412117 -91709576.543124557 0 0 0 0 55247342.748327255 861719.98223769665 0 861719.98223769665 -44742180.653966904 0 0 0 0 94196969.670492172 83194849.262868106 0 83194849.262868106 -50765780.167477608 0 0 0 0 -21110290.421279907 26872606.408647537 0 26872606.408647537 -73899658.328297615 0 0 0 0 118179714.52294922 2159811.1172218323 0 2159811.1172218323 -83771155.121044308 0 0 0 0 149283875.25613403 48893492.717600346 0 48893492.717600346 -64032579.027660131 0 0 0 0 162536594.31770134 -11960683.553850234 0 -11960683.553850234 -48099631.100171089 0 0 0 0 3758863.7758417726 10715984.144543739 0 10715984.144543739 -8653374.8615903612 0 0 0 0 176959496.2789917 4810912.2336859703 0 4810912.2336859703 -94608458.007445335 0 0 0 0 -26706.440059833229 30466192.657713488 0 30466192.657713488 -43931621.95645272 0 0 0 0 170493002.73963928 100732961.4508667 0 100732961.4508667 -70966629.323898315 0 0 0 0 180790013.56477356 114221324.77663422 0 114221324.77663422 -128584667.02769089 0 0 0 0 164110483.83346558 12110731.44519043 0 12110731.44519043 -162996029.08928299 0 0 0 0 19882344.688720703 -90720015.532493591 0 -90720015.532493591 -129498957.02294922 0 0 0 0 6245045.904296875 -15750137.916290283 0 -15750137.916290283 -84783706.426361084 0 0 0 0 88365253.117721558 -59679253.10606575 0 -59679253.10606575 -230952615.893116 0 0 0 0 156727327.97374725 174321429.87140656 0 174321429.87140656 177373071.72237778 0 0 0 0 256157715.67188263 181125041.55708885 0 181125041.55708885 -289316274.37232971 0 0 0 0 -14302858.983751476 19852984.504438959 0 19852984.504438959 -15511802.552782178 0 0 0 0 974305.60272216797 -23495614.324586868 0 -23495614.324586868 67163793.633184433 0 0 0 0 -4493742.831161797 11472284.400378361 0 11472284.400378361 -16036443.937201045 0 0 0 0 1648281.5261688232 9412964.3133964539 0 9412964.3133964539 -8786585.9807567596 0 0 0 0 7326395.542283617 23326182.663473606 0 23326182.663473606 -28745027.645724945 0 0 0 0 -384862017.43684387 -317496617.10659313 0 -317496617.10659313 -24434475.173671722 0 0 0 0 -19663166.727886528 8603929.857717216 0 8603929.857717216 -10172731.344916649 0 0 0 0 -89805692.54296875 77002362.981470108 0 77002362.981470108 -99301310.374140024 0 0 0 0 -1209959.216568917 6310950.0835460722 0 6310950.0835460722 -6079657.0559193864 0 0 0 0 -37122655.610855103 68069087.007145882 0 68069087.007145882 -23547019.97360611 0 0 0 0 40584405.251937866 -71094319.089166641 0 -71094319.089166641 -145482170.48862076 0 0 0 0 1108421.2865284383 2840348.0195778459 0 2840348.0195778459 -2743183.4298204035 0 0 0 0 -399579328.0865097 324557366.20219803 0 324557366.20219803 190903591.7973671 0 0 0 0 -728783195.43364716 68101216.671697617 0 68101216.671697617 152328709.95677185 0 0 0 0 -165230977.34410477 99604755.928741455 0 99604755.928741455 -45352283.734806061 0 0 0 0 -250660487.61395645 35207128.59934783 0 35207128.59934783 -13572543.134979248 0 0 0 0 -165857019.46588898 104209033.10116386 0 104209033.10116386 -69902706.827514648 0 0 0 0 4432396.9870071262 7731383.5461076498 0 7731383.5461076498 -8596946.2479947656 0 0 0 0 -127934643.60704422 141191614.02248955 0 141191614.02248955 -31780708.473339081 0 0 0 0 -174126000.43690872 115177170.64365101 0 115177170.64365101 -28341530.177249908 0 0 0 0 -165181166.26821899 78807364.244258881 0 78807364.244258881 -24826637.673488617 0 0 0 0 -247101856.50822449 109509425.07450867 0 109509425.07450867 -21564695.344078064 0 0 0 0 -175268170.90501785 121797151.00430202 0 121797151.00430202 -64824360.870307922 0 0 0 0 36292842.93951416 -72288926.51908493 0 -72288926.51908493 -25774251.118564606 0 0 0 0 124803176.35988235 10671289.297644138 0 10671289.297644138 -35986270.370986938 0 0 0 0 28674500.638877869 33286376.850457191 0 33286376.850457191 55791177.862617493 0 0 0 0 4399728.5002803504 251672.95165157318 0 251672.95165157318 -1624659.6907502562 0 0 0 0 87628232.750579834 37864678.326608658 0 37864678.326608658 -4837736.5574836731 0 0 0 0 82621564.865539551 -33446060.641914368 0 -33446060.641914368 -117230016.68951225 0 0 0 0 62548064.729156494 -223022.30629348755 0 -223022.30629348755 32953873.906864166 0 0 0 0 35799977.977844238 -48304258.430297852 0 -48304258.430297852 -5512741.9562950134 0 0 0 0 30454008.502441406 22375090.801830292 0 22375090.801830292 -1235756.218006134 0 0 0 0 14420061.6933119 539188.23136688769 0 539188.23136688769 -5662838.7438504025 0 0 0 0 64234728.494338989 19676462.714864731 0 19676462.714864731 10374876.034431458 0 0 0 0 30092049.208374023 20046462.486114502 0 20046462.486114502 -2188981.3610839844 0 0 0 0 9527348.1241948307 42180150.402350321 0 42180150.402350321 -48324377.751231983 0 0 0 0 33347538.507659912 20535271.49168396 0 20535271.49168396 -3988845.370136261 0 0 0 0 12338094.575903624 1800010.2248336375 0 1800010.2248336375 -10326234.996004492 0 0 0 0 1781656.4643288329 11210643.613732323 0 11210643.613732323 -5599359.8986335546 0 0 0 0 33549817.565826416 23102471.894023895 0 23102471.894023895 -2641443.4348907471 0 0 0 0 8472478.5565338135 5449998.793176651 0 5449998.793176651 -3154237.1283016205 0 0 0 0 -28529139.15329361 48553486.317167759 0 48553486.317167759 -53225010.220825195 0 0 0 0 -101354874.42586899 95293578.562865257 0 95293578.562865257 -55631505.041511536 0 0 0 0 -93432234.429473877 74958941.473981857 0 74958941.473981857 -6778589.785369873 0 0 0 0 -135048217.84069824 96918439.43812561 0 96918439.43812561 -15036726.138656616 0 0 0 0 -119544559.13583374 41774374.437965393 0 41774374.437965393 23668785.65586853 0 0 0 0 -192279728.67086792 63626573.438716888 0 63626573.438716888 27796627.118370056 0 0 0 0 2072707.6434771121 -353975.88221099973 0 -353975.88221099973 -1240229.162499696 0 0 0 0 -73221593.835891724 109745877.03287506 0 109745877.03287506 -19494242.372611046 0 0 0 0 -78428638.521728516 118811232.97149658 0 118811232.97149658 -34487212.193346024 0 0 0 0 -70438615.722625732 111324817.21490669 0 111324817.21490669 -38379870.33816433 0 0 0 0 -63879901.91003418 114642278.70670319 0 114642278.70670319 -67643299.16569519 0 0 0 0 -57081691.888549805 130249645.90938282 0 130249645.90938282 -31870568.751850128 0 0 0 0 -17115591.182556152 122515870.69412613 0 122515870.69412613 -102136884.70081902 0 0 0 0 -23244370.395205498 107148041.16141558 0 107148041.16141558 36932900.34318924 0 0 0 0 1788254.1464424133 58248109.995113373 0 58248109.995113373 -1308304.7755355835 0 0 0 0 45798513.813278198 86916460.298181534 0 86916460.298181534 -61127163.05090332 0 0 0 0 -90116008.829872131 151705476.71456814 0 151705476.71456814 -51511494.880039215 0 0 0 0 240581311.65316772 105132378.94020844 0 105132378.94020844 -59892455.695128918 0 0 0 0 4151909.2316741943 42131789.540281296 0 42131789.540281296 33205627.349225998 0 0 0 0 -18187697.130939484 25677811.052923203 0 25677811.052923203 45219940.104736328 0 0 0 0 -14910557.651605576 2191635.6331842095 0 2191635.6331842095 -6417357.1568445433 0 0 0 0 -9222204.2177467346 50483610.049582005 0 50483610.049582005 96365169.325824738 0 0 0 0 24653321.125587463 58798436.473386288 0 58798436.473386288 44181143.497327805 0 0 0 0 13797353.35446167 33892352.549215317 0 33892352.549215317 3291139.8078141212 0 0 0 0 28693725.85749054 51215893.469536781 0 51215893.469536781 3499838.0797035694 0 0 0 0 8941172.9675598145 49155828.772424221 0 49155828.772424221 97497091.229050636 0 0 0 0 -77278.809788990911 110807021.30984078 0 110807021.30984078 175668810.09818459 0 0 0 0 106310.07388305664 116359302.31365013 0 116359302.31365013 12501750.241643906 0 0 0 0 -8796758.037596494 -330126.46956789494 0 -330126.46956789494 8553457.10795369 0 0 0 0 56998259.51309967 54559177.606887817 0 54559177.606887817 -94075529.587677002 0 0 0 0 27448616.001464844 21846164.953478813 0 21846164.953478813 7675319.3229980469 0 0 0 0 57492965.930374146 46619224.749700546 0 46619224.749700546 4175725.5953001976 0 0 0 0 -4966801.7320067883 -54446.668787658215 0 -54446.668787658215 4530646.2944515124 0 0 0 0 63560173.264038086 61778362.636434555 0 61778362.636434555 -118183964.71718407 0 0 0 0 28015.201889038086 78837998.493206978 0 78837998.493206978 74203602.004428864 0 0 0 0 39357246.416833878 17232773.908447742 0 17232773.908447742 -7011754.8249053955 0 0 0 0 -21273451.262573242 95333232.948328972 0 95333232.948328972 -26183907.27880764 0 0 0 0 3649440.6653289795 134072383.94854355 0 134072383.94854355 -78964822.244464874 0 0 0 0 913994.51461029053 86324306.248110771 0 86324306.248110771 21149282.299648285 0 0 0 0 15280553.822006226 71556476.669192314 0 71556476.669192314 -17813445.168338776 0 0 0 0 -22004047.147460938 223973265.71921635 0 223973265.71921635 -58633364.961807251 0 0 0 0 -32504411.249023438 -60428133.837615967 0 -60428133.837615967 -219040281.93587494 0 0 0 0 47644983.914901733 88286752.371153831 0 88286752.371153831 -79801373.053421021 0 0 0 0 34456496.338592529 15146148.749773026 0 15146148.749773026 -19124820.431947708 0 0 0 0 33181168.814941406 97033789.093818665 0 97033789.093818665 -67026345.505979538 0 0 0 0 49369856.567016602 36785523.365951538 0 36785523.365951538 -128580113.39890003 0 0 0 0 54228526.769775391 112755322.78845978 0 112755322.78845978 -173796636.98290825 0 0 0 0 43225726.921989441 164706285.94453716 0 164706285.94453716 -126508654.33607864 0 0 0 0 2468485.4631347656 181147217.46515465 0 181147217.46515465 -132652117.10449886 0 0 0 0 -2046156.0129547119 129574064.63822174 0 129574064.63822174 -64678317.34541893 0 0 0 0 13241154.186701447 4628126.3777107149 0 4628126.3777107149 -13581975.595441319 0 0 0 0 -231887165.87561035 491277236.45893383 0 491277236.45893383 -715959478.87427044 0 0 0 0 -83340839.066505432 104507993.75872707 0 104507993.75872707 -88863352.573900223 0 0 0 0 -67401387.287479401 169671516.29444432 0 169671516.29444432 -46432607.941381454 0 0 0 0 -19621182.485778809 68472857.264116287 0 68472857.264116287 -147986427.63107586 0 0 0 0 5650.0390970105573 110071431.19037595 0 110071431.19037595 -97039046.587263107 0 0 0 0 -335787043.27056885 622959316.10155869 0 622959316.10155869 -1312328602.3805797 0 0 0 0 -121769.51322234083 99743412.065127894 0 99743412.065127894 -169927526.80088997 0 0 0 0 8928201.7767528594 2824469.073717773 0 2824469.073717773 -14090453.58062306 0 0 0 0 -4054725.1014844971 1025508430.0561951 0 1025508430.0561951 -1318145496.5831814 0 0 0 0 -37442445.632537842 431259869.19339657 0 431259869.19339657 -1903013762.775815 0 0 0 0 -6014197.5605763197 -1247583.6202706546 0 -1247583.6202706546 -5887422.3381816391 0 0 0 0 36198820.222450256 38719912.513556957 0 38719912.513556957 -1120606688.1235695 0 0 0 0 -157087449.85354614 388306163.09027004 0 388306163.09027004 -735341213.61897254 0 0 0 0 -374366925.29483414 575467479.81323099 0 575467479.81323099 -886072895.69417953 0 0 0 0 -142526710.47397709 282176052.93810606 0 282176052.93810606 -599568770.70677567 0 0 0 0 -89157143.900985718 138516346.97303391 0 138516346.97303391 -502336684.79964828 0 0 0 0 -412838.76919174194 37496812.337797403 0 37496812.337797403 -270599219.85185242 0 0 0 0 36911719.869239807 109366445.93706417 0 109366445.93706417 -620857457.1076107 0 0 0 0 -79878062.068649292 318411203.5326519 0 318411203.5326519 -593667460.39261258 0 0 0 0 -17550667.025566101 235000551.1703496 0 235000551.1703496 -550316838.04608154 0 0 0 0 2638687.5829925537 260627213.72532797 0 260627213.72532797 -615871465.86003113 0 0 0 0 -94903643.490631104 310998511.60912609 0 310998511.60912609 -583502587.67653513 0 0 0 0 -130603016.19054794 284673350.26686382 0 284673350.26686382 -508620397.49443436 0 0 0 0 -44043299.636138916 251497925.38551474 0 251497925.38551474 -516409609.8763504 0 0 0 0 -266840045.74107361 402252734.97239494 0 402252734.97239494 -591412644.80583513 0 0 0 0 -411808583.22215271 260781617.32382679 0 260781617.32382679 -22648448.70765233 0 0 0 0 -7090034.6905513704 -954248.76111486554 0 -954248.76111486554 3825847.3892218545 0 0 0 0 73764646.007904053 84354260.93645668 0 84354260.93645668 -317319090.66681683 0 0 0 0 -322670800.66287613 -240436881.16520357 0 -240436881.16520357 -127752061.06082916 0 0 0 0 17855088.636856079 280938399.15951872 0 280938399.15951872 -215578893.26805019 0 0 0 0 53906994.170455933 183485954.48569036 0 183485954.48569036 -312377295.24552727 0 0 0 0 17801502.914182156 7120858.9299512282 0 7120858.9299512282 -13430041.981356323 0 0 0 0 -114530370.56495667 292135332.64810038 0 292135332.64810038 -509642234.61517751 0 0 0 0 -116654495.23363113 288927290.01303291 0 288927290.01303291 -479640277.68625832 0 0 0 0 -48902430.122741699 225910910.50158262 0 225910910.50158262 -505744354.68815899 0 0 0 0 -109584841.36743164 218792711.27853489 0 218792711.27853489 -298819023.51027966 0 0 0 0 -18427739.267852783 234596730.91117096 0 234596730.91117096 -570230203.60920477 0 0 0 0 -59673472.677947998 171445169.89100838 0 171445169.89100838 -372417905.68357563 0 0 0 0 -161054733.12391663 315457029.05512476 0 315457029.05512476 -517002405.90823174 0 0 0 0 -75938525.085243225 255341223.29044056 0 255341223.29044056 -516602616.26257515 0 0 0 0 -254753860.94136047 160914533.39228535 0 160914533.39228535 -548073243.22967529 0 0 0 0 -207405712.17095947 194443801.32720947 0 194443801.32720947 -532622667.10421944 0 0 0 0 -28692949.667575836 229863926.1041851 0 229863926.1041851 -662283217.95442963 0 0 0 0 -90370805.711093903 239474247.81998873 0 239474247.81998873 -493445310.80233765 0 0 0 0 -41270274.173782349 242902854.53161812 0 242902854.53161812 -582986793.47592115 0 0 0 0 -7629016.7707519531 245665402.99209023 0 245665402.99209023 -583544951.32563686 0 0 0 0 -8927702.5267333984 251227669.80381584 0 251227669.80381584 -572616068.63208914 0 0 0 0 -30355404.629104614 232544552.41806316 0 232544552.41806316 -576018871.74713516 0 0 0 0 -62016992.00390625 250436168.92107391 0 250436168.92107391 -470281246.06430817 0 0 0 0 -65659715.012405396 241762388.63049316 0 241762388.63049316 -473116209.76102448 0 0 0 0 -20068588.291549683 260672682.08810425 0 260672682.08810425 -507641065.78195572 0 0 0 0 -59777984.921600342 152460917.94939137 0 152460917.94939137 -248718317.52445984 0 0 0 0 -17154547.900741577 68744900.555343628 0 68744900.555343628 -170803962.35337448 0 0 0 0 668175.318359375 150600211.70231056 0 150600211.70231056 -520348536.96042991 0 0 0 0 -110345791.02896118 178152739.45731926 0 178152739.45731926 -212581675.62877083 0 0 0 0 -64290309.944335938 110065565.66123104 0 110065565.66123104 -175187003.92814255 0 0 0 0 87347864.103286743 13344503.391448021 0 13344503.391448021 -120169655.78867722 0 0 0 0 -1065530.0971734971 7452985.0288146436 0 7452985.0288146436 -2964200.3141073212 0 0 0 0 15188620.088645935 -25735483.37835741 0 -25735483.37835741 -95612005.406028748 0 0 0 0 23044161.586227417 -30641092.882351875 0 -30641092.882351875 -53406068.33782959 0 0 0 0 -117524377.50305176 100280984.42809868 0 100280984.42809868 -70980197.163460732 0 0 0 0 -158045125.78805542 271617470.94133759 0 271617470.94133759 -214968020.93605137 0 0 0 0 -326505261.38433838 123745161.10787582 0 123745161.10787582 109352588.49426842 0 0 0 0 -458066744.79051208 370314958.7740593 0 370314958.7740593 -160286769.61561394 0 0 0 0 79842.575341772288 832466.71927048266 0 832466.71927048266 -2051450.829740189 0 0 0 0 114329134.53123474 -183304681.0637064 0 -183304681.0637064 -373411412.06973076 0 0 0 0 -139882953.29972839 232145667.4823885 0 232145667.4823885 -256164246.01588821 0 0 0 0 -284258501.59060669 485260128.81918716 0 485260128.81918716 -454385772.55980682 0 0 0 0 -105782177.50551605 208751379.64802265 0 208751379.64802265 -881882158.21170044 0 0 0 0 -85265977.930923462 287964264.43634892 0 287964264.43634892 -576069282.19481277 0 0 0 0 -213874399.29274559 323254278.36637676 0 323254278.36637676 -510231796.64588547 0 0 0 0 -39586475.726520538 124610243.59566045 0 124610243.59566045 -189362157.96382141 0 0 0 0 66149721.397735596 129805978.89686775 0 129805978.89686775 -646148186.67113304 0 0 0 0 -128611369.3000946 -827748.84229946136 0 -827748.84229946136 -35574080.870689392 0 0 0 0 19932056.933212072 2143624.2798025236 0 2143624.2798025236 -24713060.795286357 0 0 0 0 2417772.2105338573 2031194.4124243297 0 2031194.4124243297 -6398008.2012759363 0 0 0 0 -339337.33781242371 5210734.6997347474 0 5210734.6997347474 -7019960.6766443253 0 0 0 0 71827696.363189697 41587382.016595364 0 41587382.016595364 -78662207.207446873 0 0 0 0 42607874.56029129 -22239480.326204717 0 -22239480.326204717 -99376314.781391382 0 0 0 0 24912663.884444237 -12276205.947810363 0 -12276205.947810363 -14539454.505449692 0 0 0 0 26388231.947769165 333353.89111304283 0 333353.89111304283 -83802494.158907026 0 0 0 0 4825077.4888711572 -2238069.1402085498 0 -2238069.1402085498 -3336583.5619724542 0 0 0 0 -22541798.549627304 23672309.288956404 0 23672309.288956404 -164080761.4719162 0 0 0 0 32125503.357887268 126103554.06289005 0 126103554.06289005 -362313574.94765949 0 0 0 0 -120246180.06889343 284208859.98695707 0 284208859.98695707 -411358525.95372152 0 0 0 0 -73026218.723466873 153391736.87811041 0 153391736.87811041 -297197997.78220272 0 0 0 0 -92799377.261856079 175944215.27208996 0 175944215.27208996 -305284390.11944771 0 0 0 0 -166903017.88684082 321458661.78064346 0 321458661.78064346 -454425693.3416419 0 0 0 0 -64333381.821212769 255532831.3751297 0 255532831.3751297 -493903570.7463932 0 0 0 0 -268197156.48928833 515783364.99206018 0 515783364.99206018 -562430842.55821037 0 0 0 0 -98751954.635421753 263931038.16107464 0 263931038.16107464 -474463987.09655476 0 0 0 0 -186651524.35308838 278291105.21846676 0 278291105.21846676 -316221920.00117207 0 0 0 0 -80135657.397361755 327788166.29243755 0 327788166.29243755 -365191483.10924149 0 0 0 0 -161174117.97614288 432297318.25950527 0 432297318.25950527 107170857.24142885 0 0 0 0 -107055677.83830261 515132053.36728716 0 515132053.36728716 -352900786.88748485 0 0 0 0 -147440534.12113953 347145468.04271579 0 347145468.04271579 931822049.26996803 0 0 0 0 11238984.139045715 240302023.8426733 0 240302023.8426733 -1189597449.652317 0 0 0 0 -1919427.914952755 1348577.4323129356 0 1348577.4323129356 -548729.56756529817 0 0 0 0 90162764.669128418 135748276.53348637 0 135748276.53348637 439852442.36114597 0 0 0 0 -169403556.55182648 516292340.67969394 0 516292340.67969394 429370872.57959843 0 0 0 0 63077189.756583214 160887382.7802856 0 160887382.7802856 194105779.57387257 0 0 0 0 61984324.187943697 208365620.94813716 0 208365620.94813716 378520599.98452568 0 0 0 0 -47828963.318023682 231496532.58657289 0 231496532.58657289 158998926.57301021 0 0 0 0 -28071881.016405106 313613974.81152189 0 313613974.81152189 30739700.310540199 0 0 0 0 -26220209.489982605 370959177.35543066 0 370959177.35543066 299471999.27474654 0 0 0 0 -6014782.4972343445 208727347.52133772 0 208727347.52133772 387084394.07306933 0 0 0 0 134193511.00708961 259290185.92732385 0 259290185.92732385 11385621.274358034 0 0 0 0 134569608.19496918 273353446.70568454 0 273353446.70568454 151981879.15278882 0 0 0 0 161877559.31720734 15884694.496623695 0 15884694.496623695 -448808243.71238649 0 0 0 0 10526524.423770905 407294095.05238235 0 407294095.05238235 829001487.13816714 0 0 0 0 2931882.2792276144 141307.5599662587 0 141307.5599662587 146731.56231734186 0 0 0 0 5488122.8261075616 1068724.9951027781 0 1068724.9951027781 180797.83193401009 0 0 0 0 -72054857.981834412 242242514.4130936 0 242242514.4130936 167442154.35010219 0 0 0 0 91104569.673988342 215966981.10916764 0 215966981.10916764 -68061776.566435814 0 0 0 0 76280758.737289429 180730465.2632494 0 180730465.2632494 175351665.88007909 0 0 0 0 -35632400.441314697 163205875.89959204 0 163205875.89959204 363577694.14434981 0 0 0 0 -17503171.040924072 36485467.393466473 0 36485467.393466473 767487603.87373543 0 0 0 0 161738066.74911499 93214767.646083832 0 93214767.646083832 57498012.614878297 0 0 0 0 135533354.25375366 322348323.05664897 0 322348323.05664897 352207940.91012049 0 0 0 0 41780851.281906128 45697900.990248919 0 45697900.990248919 419065958.52179003 0 0 0 0 -3053865.3612415195 6014059.6099287234 0 6014059.6099287234 -2820061.4358645324 0 0 0 0 197746945.54983521 334045341.38007498 0 334045341.38007498 469910125.51424408 0 0 0 0 -50866641.773910522 166716687.5465703 0 166716687.5465703 -358485933.26463509 0 0 0 0 -210387.17502349615 1081097.9283424169 0 1081097.9283424169 -446630.23277105018 0 0 0 0 84019386.927154541 280651933.64045906 0 280651933.64045906 593073661.94863987 0 0 0 0 28587702.3230896 126239687.80959129 0 126239687.80959129 -439773993.86727905 0 0 0 0 -25321133.818120152 5733505.8812275305 0 5733505.8812275305 6696414.1432772772 0 0 0 0 18771408.518858939 13433876.039545186 0 13433876.039545186 -8929300.0030416828 0 0 0 0 -52332526.189987183 85178755.09871006 0 85178755.09871006 -298685258.94497901 0 0 0 0 -10598093.977844238 148382673.89575911 0 148382673.89575911 -407054825.6303525 0 0 0 0 38657952.138038635 105610850.98779178 0 105610850.98779178 45764842.313379049 0 0 0 0 49692608.725631714 92947504.077832937 0 92947504.077832937 30029185.235268354 0 0 0 0 -253911016.72279358 -37304700.465569735 0 -37304700.465569735 212125252.48520803 0 0 0 0 -168652710.82530975 -168619941.36954033 0 -168619941.36954033 27215592.512228012 0 0 0 0 -130887170.73092651 -70958349.533027649 0 -70958349.533027649 74601656.758134842 0 0 0 0 -10349766.367095411 -802637.81732085347 0 -802637.81732085347 3318555.7223957698 0 0 0 0 -170313967.14042664 44507640.186967373 0 44507640.186967373 247074772.63386345 0 0 0 0 93754081.537929535 171570499.19457763 0 171570499.19457763 -130607308.22206235 0 0 0 0 -48993391.394458771 191870741.52743798 0 191870741.52743798 375110439.51797843 0 0 0 0 15393473.659545898 152864999.67719209 0 152864999.67719209 188586031.46659422 0 0 0 0 26598404.367515564 126211426.61979407 0 126211426.61979407 183732807.22867179 0 0 0 0 8902260.383644104 301624085.30861419 0 301624085.30861419 45747437.224003196 0 0 0 0 337430268.18421936 271079766.19755387 0 271079766.19755387 -584032119.54699087 0 0 0 0 222117642.35209656 87763258.337668777 0 87763258.337668777 -463224825.08406723 0 0 0 0 -74964081.149345398 60645249.758342326 0 60645249.758342326 -19249706.227615565 0 0 0 0 2736214.3962597549 -85895.006046950817 0 -85895.006046950817 -23115.651965693745 0 0 0 0 -67843411.511894226 77575179.408345133 0 77575179.408345133 424554700.35630155 0 0 0 0 -108558572.89559937 366591006.53424537 0 366591006.53424537 741654949.61448336 0 0 0 0 279730491.99060059 -64097681.006006002 0 -64097681.006006002 345907429.88229227 0 0 0 0 -4484349.8169402406 13954615.160022989 0 13954615.160022989 -4562000.9736152608 0 0 0 0 310896537.40297699 181924924.47221863 0 181924924.47221863 272612099.11114979 0 0 0 0 122514429.59350586 315598130.86786056 0 315598130.86786056 -183910358.44381821 0 0 0 0 354514459.08970642 187284072.3747198 0 187284072.3747198 -293766930.84227794 0 0 0 0 211269045.46299744 196908563.44568992 0 196908563.44568992 -62427686.066187084 0 0 0 0 357656267.85612488 237430727.89323705 0 237430727.89323705 -96026813.418824583 0 0 0 0 -3338832.0887185708 11369104.434102848 0 11369104.434102848 -2548068.9212186383 0 0 0 0 -8048.2301559448242 17389737.164360285 0 17389737.164360285 2575811.9892487526 0 0 0 0 -9048.9281539916992 23385108.370948553 0 23385108.370948553 810294.37941741943 0 0 0 0 15994173.136547089 23802705.007475019 0 23802705.007475019 -4140409.4561948776 0 0 0 0 12129558.070922852 18549232.825968266 0 18549232.825968266 1872721.3221824169 0 0 0 0 7409670.387878418 29463856.298567533 0 29463856.298567533 -4929953.1088380814 0 0 0 0 -77148999.999221802 586755564.64399612 0 586755564.64399612 201527673.14525902 0 0 0 0 -751629798.89634705 -340533234.41410422 0 -340533234.41410422 574047458.67586422 0 0 0 0 -48770974.490997314 53166137.03393364 0 53166137.03393364 108251716.42730522 0 0 0 0 11632864.034942627 205388845.06399918 0 205388845.06399918 -108874957.76089478 0 0 0 0 -365318629.78216553 707288858.21244717 0 707288858.21244717 -712560606.84923267 0 0 0 0 -43850023.136108398 -55270015.736860275 0 -55270015.736860275 46130296.13334465 0 0 0 0 56814461.6746521 136042924.74590492 0 136042924.74590492 -69194684.215198517 0 0 0 0 -5310792.4023816511 14320853.635227308 0 14320853.635227308 -2732486.1687981971 0 0 0 0 -69274799.979431152 -8493211.0261650085 0 -8493211.0261650085 136626397.40809298 0 0 0 0 29054309.555541992 -13571345.184630394 0 -13571345.184630394 54825119.174806595 0 0 0 0 -94621403.928695679 45385375.750461102 0 45385375.750461102 28567550.152795792 0 0 0 0 -451035.77835024893 782197.91028425097 0 782197.91028425097 416760.91396828741 0 0 0 0 31505494.804626465 19518373.582619667 0 19518373.582619667 56275400.717751503 0 0 0 0 177906400.2300415 99867741.961849213 0 99867741.961849213 30562028.327041626 0 0 0 0 95066.24560546875 114885935.55878258 0 114885935.55878258 41022039.221776485 0 0 0 0 -4503668.441512078 -5183642.7106724009 0 -5183642.7106724009 -332479.1380712986 0 0 0 0 20417622.447977066 4019463.9741042852 0 4019463.9741042852 -41436099.812434196 0 0 0 0 -18883830.808021545 102749425.73117065 0 102749425.73117065 114842520.42776036 0 0 0 0 221020574.46281052 95094824.913154662 0 95094824.913154662 -66094805.238545418 0 0 0 0 -71578957.341918945 188089718.89353073 0 188089718.89353073 -175748690.56897506 0 0 0 0 256366427.5488739 89417489.226868451 0 89417489.226868451 -189597256.43129754 0 0 0 0 372124679.31668854 -71029731.466636539 0 -71029731.466636539 -110773250.21344054 0 0 0 0 340034887.29467773 69077754.428053617 0 69077754.428053617 -172758249.59375417 0 0 0 0 342795471.48228455 -44421243.554167509 0 -44421243.554167509 12385378.679554701 0 0 0 0 299105012.84768677 204276312.39274621 0 204276312.39274621 12415946.365329981 0 0 0 0 212658407.79854584 246372420.01207489 0 246372420.01207489 -166816137.97752857 0 0 0 0 131735598.66615295 104464931.22150183 0 104464931.22150183 -45999594.965837955 0 0 0 0 57000106.808135986 380083461.71238625 0 380083461.71238625 -62757488.773560405 0 0 0 0 61316807.987266541 370362778.85363412 0 370362778.85363412 -96421986.00646925 0 0 0 0 155988458.88442993 265116661.71419096 0 265116661.71419096 13061380.011092663 0 0 0 0 46147890.859329224 403579821.9630723 0 403579821.9630723 58255965.365797997 0 0 0 0 98103632.573921204 370331583.23816454 0 370331583.23816454 -256266892.30681515 0 0 0 0 -50060432.304290771 411826669.33819532 0 411826669.33819532 -96916037.996526241 0 0 0 0 -45739985.61907959 438992090.96835643 0 438992090.96835643 -248984811.38346767 0 0 0 0 -91038708.286682129 539925897.7167058 0 539925897.7167058 -386054088.70286775 0 0 0 0 900081.94929504395 189523269.16576362 0 189523269.16576362 -68238981.450436771 0 0 0 0 52663839.902389526 350569496.73942983 0 350569496.73942983 -215387810.31156468 0 0 0 0 -31232967.494125366 313397531.34523886 0 313397531.34523886 -229539195.51904202 0 0 0 0 -1225208.6940460205 192552689.57621253 0 192552689.57621253 -387179243.49933362 0 0 0 0 -208915653.56317902 466765490.46929759 0 466765490.46929759 -330757549.20985222 0 0 0 0 -189889729.80003357 526620050.94113421 0 526620050.94113421 -870848621.308568 0 0 0 0 -364634465.50214386 380724617.53075618 0 380724617.53075618 -381309883.90683794 0 0 0 0 -60226085.646026134 556385311.17204976 0 556385311.17204976 -377551118.52317715 0 0 0 0 -268616527.63787079 321237446.68433076 0 321237446.68433076 -498410961.81618828 0 0 0 0 -309180706.48561096 575117841.67420161 0 575117841.67420161 -342335205.79537803 0 0 0 0 -194222171.40327454 651860106.95404458 0 651860106.95404458 -333187659.53112674 0 0 0 0 475163755.98710632 -60179104.089827552 0 -60179104.089827552 -399751422.43466485 0 0 0 0 -316364164.63761902 367262375.47951251 0 367262375.47951251 -445076010.64457536 0 0 0 0 5618554.2138524801 1956787.4606160223 0 1956787.4606160223 -6927897.608184794 0 0 0 0 -1090667903.030777 945052074.55379963 0 945052074.55379963 -461484349.15660477 0 0 0 0 -740842558.693573 893497171.38713026 0 893497171.38713026 -759735624.99995112 0 0 0 0 -333058871.51912689 479176989.03579879 0 479176989.03579879 -562771034.93757534 0 0 0 0 -1021543814.8484821 559030922.71713257 0 559030922.71713257 -339823972.293643 0 0 0 0 -118705469.98832703 319556972.86481047 0 319556972.86481047 -468965679.09026545 0 0 0 0 -134138503.61916351 309145565.86305302 0 309145565.86305302 -305339022.88586473 0 0 0 0 106089375.11346436 247262040.99516869 0 247262040.99516869 -418027565.5522902 0 0 0 0 -370611695.63263702 459449787.17599511 0 459449787.17599511 -450237547.22447872 0 0 0 0 -78793609.778839111 245109453.85967946 0 245109453.85967946 -509305083.53402537 0 0 0 0 187436466.35064697 138719445.1726222 0 138719445.1726222 -346905471.9893961 0 0 0 0 -115659320.45050812 233192372.96258807 0 233192372.96258807 -262038875.74022293 0 0 0 0 147797227.21295166 23669174.35211134 0 23669174.35211134 -132840285.79271269 0 0 0 0 285408463.30471802 142765886.76416469 0 142765886.76416469 -279781840.57107568 0 0 0 0 79164056.292877197 169970170.3301568 0 169970170.3301568 -171155870.61802244 0 0 0 0 230532712.8677063 252696292.56615612 0 252696292.56615612 -340709646.39504766 0 0 0 0 207246174.07473183 170948586.55204999 0 170948586.55204999 -79638943.478642941 0 0 0 0 427009027.88439941 96428139.31989789 0 96428139.31989789 -208541644.93350816 0 0 0 0 417926234.94955444 103765134.27045965 0 103765134.27045965 -43251415.401141167 0 0 0 0 578704292.98651123 -23108634.050645351 0 -23108634.050645351 6520293.6133887768 0 0 0 0 625991312.86062622 164670723.46052647 0 164670723.46052647 -129202410.80095291 0 0 0 0 353079913.31092453 184740064.36186779 0 184740064.36186779 -67339682.18559742 0 0 0 0 814499285.14620972 111850872.49190021 0 111850872.49190021 -160058167.87621927 0 0 0 0 1120314218.6171875 -105827739.403162 0 -105827739.403162 -22485580.569282532 0 0 0 0 623085310.94067383 180948383.10870934 0 180948383.10870934 137817719.457757 0 0 0 0 1648929.0979801305 -3003446.39403373 0 -3003446.39403373 -206125.19148516841 0 0 0 0 -47125418.063420296 -101446183.13283871 0 -101446183.13283871 -117516129.89027548 0 0 0 0 357750.99883335829 256505.60625623167 0 256505.60625623167 -431473.07439731457 0 0 0 0 579761505.77627563 -40243392.018493652 0 -40243392.018493652 194571922.92137575 0 0 0 0 1080218081.2966309 209186065.93178701 0 209186065.93178701 40807741.597554147 0 0 0 0 8986739.4749791585 8954002.1112945676 0 8954002.1112945676 -22415656.465683077 0 0 0 0 800535432.97649384 3596317.0961952209 0 3596317.0961952209 -107163109.69734216 0 0 0 0 696315031.19380188 93289682.913194001 0 93289682.913194001 -76447359.028608561 0 0 0 0 73206459.788703918 -9627750.0907902718 0 -9627750.0907902718 -60002315.973619461 0 0 0 0 359668748.89626789 -62026395.257081285 0 -62026395.257081285 -57280793.037843227 0 0 0 0 284692033.2377283 32269963.965039596 0 32269963.965039596 -78971324.461307526 0 0 0 0 453024578.83869934 69682841.79177165 0 69682841.79177165 -146421265.94123578 0 0 0 0 557828490.86533356 -70054853.073230743 0 -70054853.073230743 -82909764.067195415 0 0 0 0 33750566.347015381 -22889491.092279434 0 -22889491.092279434 -97021510.404398054 0 0 0 0 11218300.187316895 -42195518.387508392 0 -42195518.387508392 -67622848.67816931 0 0 0 0 22977026.427899182 -14441422.658591392 0 -14441422.658591392 -10779567.184906092 0 0 0 0 34830499.494934082 -5588225.6397752762 0 -5588225.6397752762 -26740754.687238097 0 0 0 0 33734639.783125758 -22052973.924280241 0 -22052973.924280241 -118599165.26082134 0 0 0 0 23135272.711761475 -23596866.928697586 0 -23596866.928697586 -10090822.373814225 0 0 0 0 22769043.332344055 -20050636.525825977 0 -20050636.525825977 -43340373.623053551 0 0 0 0 -46428580.32749176 180270648.4152379 0 180270648.4152379 -271351532.598454 0 0 0 0 14612448.300819397 63984048.539689779 0 63984048.539689779 -107563543.44523239 0 0 0 0 -1160342.0366516113 56257850.816781044 0 56257850.816781044 -100333848.41414309 0 0 0 0 36571798.815994263 89190572.005634785 0 89190572.005634785 -119635264.26621914 0 0 0 0 14546402.487453461 3971409.2664660215 0 3971409.2664660215 1397364.8687858582 0 0 0 0 -65555707.088478088 97537193.415241718 0 97537193.415241718 -15275880.561475754 0 0 0 0 -117898692.40982056 249618949.60164809 0 249618949.60164809 -221655102.44098592 0 0 0 0 -72061070.440008163 290702033.8350209 0 290702033.8350209 -197948037.33035469 0 0 0 0 521372691.66728973 -27165251.815046549 0 -27165251.815046549 -107379704.40435696 0 0 0 0 623528204.0015378 -35297499.881959245 0 -35297499.881959245 -59114939.457170963 0 0 0 0 4658268.4863061626 9860600.1228228062 0 9860600.1228228062 -16121493.779377565 0 0 0 0 521239390.92131042 -47560169.425432205 0 -47560169.425432205 13873200.222523928 0 0 0 0 493765932.89055634 -39725422.501491785 0 -39725422.501491785 -10229670.289366484 0 0 0 0 494713223.2028656 -28855910.274047732 0 -28855910.274047732 -5021773.0221250057 0 0 0 0 366708036.88050461 -54451131.51322943 0 -54451131.51322943 -4172627.1288495064 0 0 0 0 1884383.5735678561 7989887.7739689946 0 7989887.7739689946 -8100436.6832661498 0 0 0 0 428352351.29065704 -11561503.211836934 0 -11561503.211836934 88768765.800415754 0 0 0 0 505384371.97782898 77898993.013954759 0 77898993.013954759 -13493559.424442291 0 0 0 0 702021593.06672668 299193787.92326927 0 299193787.92326927 226762851.75297999 0 0 0 0 312227.95556309633 3546327.8446888775 0 3546327.8446888775 -1929305.699047924 0 0 0 0 442852652.4359169 89874427.48265624 0 89874427.48265624 378633625.99612379 0 0 0 0 452339415.77440643 72082339.920264006 0 72082339.920264006 214700454.5874548 0 0 0 0 -159646169.38465118 393106183.66654158 0 393106183.66654158 -171979889.06819248 0 0 0 0 -287528355.64573002 218051739.13184398 0 218051739.13184398 -80093861.800580978 0 0 0 0 -1078929217.1388397 232154561.99515319 0 232154561.99515319 271235202.95094848 0 0 0 0 -406978457.47538757 172337206.88772941 0 172337206.88772941 -87488592.396832943 0 0 0 0 -297013761.87234879 435267356.89764941 0 435267356.89764941 61554791.985106468 0 0 0 0 -155435658.32919312 278142867.47747952 0 278142867.47747952 237681168.85596287 0 0 0 0 -138291657.9311142 311907457.13777542 0 311907457.13777542 -21008282.075906992 0 0 0 0 -560764486.6230545 512029869.62005258 0 512029869.62005258 251715594.21781564 0 0 0 0 -69872547.249526978 377404810.19150841 0 377404810.19150841 285754296.26078629 0 0 0 0 -186418380.88961029 421233120.46080709 0 421233120.46080709 544849431.14180863 0 0 0 0 -186919589.45303345 323780842.55987585 0 323780842.55987585 529556461.62906969 0 0 0 0 313908880.27376938 163331707.14959013 0 163331707.14959013 641657775.21884203 0 0 0 0 307763323.01081848 239206075.64681673 0 239206075.64681673 349639233.59633541 0 0 0 0 204389217.60214996 329917020.48861217 0 329917020.48861217 517170797.24293804 0 0 0 0 423979080.10962677 385095270.60109246 0 385095270.60109246 354370179.07476163 0 0 0 0 48927840.044013977 677579411.16643584 0 677579411.16643584 405021929.49792027 0 0 0 0 140485494.99448013 478097009.60614538 0 478097009.60614538 780655725.32490063 0 0 0 0 44251664.888766527 447003328.73890549 0 447003328.73890549 968593219.83680582 0 0 0 0 266314660.36401367 408252287.38279629 0 408252287.38279629 800799307.88505459 0 0 0 0 368707300.41197205 170616926.98626757 0 170616926.98626757 1351289794.6449077 0 0 0 0 467740451.98635101 711351673.99951184 0 711351673.99951184 949538512.73179674 0 0 0 0 622250255.95705414 288247279.18793106 0 288247279.18793106 1122286265.7138014 0 0 0 0 513787901.05979156 102215117.4905237 0 102215117.4905237 638055136.98043633 0 0 0 0 583111646.01082611 -119299506.49063373 0 -119299506.49063373 1229266000.079812 0 0 0 0 270985256.835495 142394960.61883688 0 142394960.61883688 1045180282.7671793 0 0 0 0 420697124.40007782 -13433023.222741365 0 -13433023.222741365 422562322.12208724 0 0 0 0 428992287.77441406 72684495.047813177 0 72684495.047813177 385102956.78424597 0 0 0 0 521507232.71240234 -102503974.36966348 0 -102503974.36966348 643835074.24647486 0 0 0 0 633669040.8100853 147725838.17784882 0 147725838.17784882 394484346.10315514 0 0 0 0 538538709.73736572 36771795.315559864 0 36771795.315559864 311639386.43243742 0 0 0 0 456155850.44061363 160336771.00981042 0 160336771.00981042 169978539.38940525 0 0 0 0 460018312.66974926 -72712161.734228551 0 -72712161.734228551 267086869.92154551 0 0 0 0 422077141.85488892 52101067.878706932 0 52101067.878706932 107289845.77946043 0 0 0 0 415712505.71350861 -75328820.107700467 0 -75328820.107700467 137687967.83749294 0 0 0 0 163385283.18157959 429167576.95201659 0 429167576.95201659 320564760.29638863 0 0 0 0 293927542.4067688 311406924.35992813 0 311406924.35992813 195587615.0627993 0 0 0 0 159846202.4691391 393535852.44734311 0 393535852.44734311 207116562.94603252 0 0 0 0 24573902.069091797 416216900.57890153 0 416216900.57890153 211064491.89531136 0 0 0 0 153211364.91305542 353823826.74720573 0 353823826.74720573 193595615.50610256 0 0 0 0 168962562.37602234 337422456.5966146 0 337422456.5966146 70504997.98532486 0 0 0 0 292968561.97779846 315418675.43038034 0 315418675.43038034 31224253.801277637 0 0 0 0 413488301.73548889 78852804.442873001 0 78852804.442873001 77860875.45788002 0 0 0 0 224901184.49223328 254514983.86907291 0 254514983.86907291 171250143.01033401 0 0 0 0 282136369.44812012 343683036.62735748 0 343683036.62735748 346441552.91898918 0 0 0 0 468694473.64753723 195172226.76738882 0 195172226.76738882 182696677.76663077 0 0 0 0 475404933.54476929 282388328.86676979 0 282388328.86676979 347101542.84597492 0 0 0 0 494525825.23760986 252639018.92234373 0 252639018.92234373 283881834.86964321 0 0 0 0 668982556.08877563 116597668.44230604 0 116597668.44230604 389943761.92742062 0 0 0 0 571735330.00843811 95926781.681001186 0 95926781.681001186 622769174.8392849 0 0 0 0 555735654.90084076 408401576.2169764 0 408401576.2169764 544247632.23382378 0 0 0 0 397066793.60389709 518343652.453269 0 518343652.453269 511427139.55801582 0 0 0 0 189546429.12294006 513874400.23656607 0 513874400.23656607 677999448.65086365 0 0 0 0 275695735.59439087 365120600.60208821 0 365120600.60208821 334915592.56544781 0 0 0 0 112635242.87994003 432282786.98632157 0 432282786.98632157 409444544.7790184 0 0 0 0 110250920.25522614 440648134.40169859 0 440648134.40169859 610661892.91237736 0 0 0 0 474720841.40302277 649980595.49488735 0 649980595.49488735 1059462366.2163105 0 0 0 0 382607367.26939392 445846624.53058624 0 445846624.53058624 663848804.76685643 0 0 0 0 36831744.229278564 419389929.65085745 0 419389929.65085745 1071614752.7152071 0 0 0 0 1033000049.2373199 73453570.055176258 0 73453570.055176258 623597833.58287096 0 0 0 0 927165704.43960571 309918434.89419413 0 309918434.89419413 569432745.15401006 0 0 0 0 1714535698.6393127 -23092035.813301086 0 -23092035.813301086 879477486.79834926 0 0 0 0 799046824.40855408 224052820.2471323 0 224052820.2471323 845294009.01000404 0 0 0 0 -381106750.69165039 387818030.90553141 0 387818030.90553141 1596434412.49016 0 0 0 0 704373021.14047241 -80488664.831985235 0 -80488664.831985235 2387969963.9732952 0 0 0 0 763234383.76035309 792133428.0037291 0 792133428.0037291 1716575816.1222954 0 0 0 0 1561588281.309906 1026586037.1450868 0 1026586037.1450868 1353050729.2075615 0 0 0 0 -48100964.017410278 374911697.48465443 0 374911697.48465443 1413573208.9990368 0 0 0 0 395021330.49664307 288240500.27238989 0 288240500.27238989 1159821168.7114437 0 0 0 0 359871895.42892456 423264854.6998539 0 423264854.6998539 974866840.60330725 0 0 0 0 -141403487.45115662 -194240683.67629433 0 -194240683.67629433 1392151686.1686115 0 0 0 0 -93162654.104003906 -44296969.882652283 0 -44296969.882652283 837615500.02056599 0 0 0 0 -230088387.27729797 123562557.57219696 0 123562557.57219696 991633395.94325161 0 0 0 0 -129094886.75730896 -121764457.3380146 0 -121764457.3380146 792507560.75392914 0 0 0 0 -95070838.166646957 166545149.20768893 0 166545149.20768893 878032031.67256546 0 0 0 0 -267095604.14868164 275771293.21933842 0 275771293.21933842 745585091.84128284 0 0 0 0 -216942797.85028839 121347016.95857954 0 121347016.95857954 682284914.02187347 0 0 0 0 -280404836.18294525 164775883.69099283 0 164775883.69099283 553693453.6898222 0 0 0 0 -281291285.22711182 159986700.43891335 0 159986700.43891335 540871382.90929651 0 0 0 0 -334417007.12039566 276156413.24799538 0 276156413.24799538 559954517.42477512 0 0 0 0 -281295596.84198761 94084739.661180019 0 94084739.661180019 721715942.11786652 0 0 0 0 -307820763.27801514 221202152.5463829 0 221202152.5463829 672709347.57879639 0 0 0 0 -332604723.83688354 347110147.27110052 0 347110147.27110052 638924766.96601295 0 0 0 0 -292071415.08926392 369727333.33587742 0 369727333.33587742 648000715.56413555 0 0 0 0 -214197373.27829742 329922746.69440079 0 329922746.69440079 597409971.34567642 0 0 0 0 -172187298.00030518 421375124.74348688 0 421375124.74348688 796368378.66231751 0 0 0 0 -89883696.871612549 333703654.99940062 0 333703654.99940062 710013089.06467724 0 0 0 0 36529620.660542488 429426325.85105455 0 429426325.85105455 762039758.42301559 0 0 0 0 -176317299.30697632 338704863.45477009 0 338704863.45477009 1037271778.9489937 0 0 0 0 -209461704.227211 237804739.22356486 0 237804739.22356486 733515339.77293015 0 0 0 0 -82522513.565317631 331968898.99380404 0 331968898.99380404 402184121.38459778 0 0 0 0 -244158645.02764893 367161593.98154926 0 367161593.98154926 400782311.10586631 0 0 0 0 -365573468.40457153 272005911.17384243 0 272005911.17384243 580031936.379879 0 0 0 0 -379826632.83092499 365411940.59684646 0 365411940.59684646 529648251.42613602 0 0 0 0 -327956144.61664581 357287874.60617733 0 357287874.60617733 488448604.31227446 0 0 0 0 -313419459.84407806 429522324.70168877 0 429522324.70168877 583178997.82824707 0 0 0 0 -157327571.73638916 439841983.60382748 0 439841983.60382748 458666957.83211327 0 0 0 0 -159047667.75826788 484872831.25481331 0 484872831.25481331 330285153.23598671 0 0 0 0 -389354684.57369995 622226402.79516506 0 622226402.79516506 673727801.70618439 0 0 0 0 -533810610.47213745 300674206.70881367 0 300674206.70881367 542790140.88577914 0 0 0 0 -352377509.69000244 442823354.09917974 0 442823354.09917974 273980284.99500304 0 0 0 0 -345508886.86411285 321371301.89737725 0 321371301.89737725 262218123.91123199 0 0 0 0 -372616840.76044464 339587845.33538246 0 339587845.33538246 482185990.00325203 0 0 0 0 -307910299.10862732 409662088.34785938 0 409662088.34785938 174518673.05734062 0 0 0 0 -310236569.65231323 520094314.27683258 0 520094314.27683258 124603405.62842703 0 0 0 0 -273746350.18579865 467077765.79384232 0 467077765.79384232 27025017.561179638 0 0 0 0 -286451870.00337219 481226699.63799703 0 481226699.63799703 81069208.266477168 0 0 0 0 -378632597.23262107 322425046.56313807 0 322425046.56313807 2035110.4129962921 0 0 0 0 -379730266.02393341 348651980.79789996 0 348651980.79789996 97108260.92566824 0 0 0 0 -162704212.64471436 460783212.00688314 0 460783212.00688314 449295532.03992128 0 0 0 0 -146086860.04318237 471834550.69494724 0 471834550.69494724 310685210.3358469 0 0 0 0 -56621513.234481812 503948159.29689121 0 503948159.29689121 667698244.49257088 0 0 0 0 -97492031.602279663 403334827.3880806 0 403334827.3880806 420066998.6703732 0 0 0 0 -226735379.19483185 440256020.75822449 0 440256020.75822449 667303073.85733414 0 0 0 0 -240775497.72788239 370704460.30904627 0 370704460.30904627 447162846.08312035 0 0 0 0 -256029650.88963318 414134197.28616333 0 414134197.28616333 337262724.31780481 0 0 0 0 -299496263.18676758 426249552.1852808 0 426249552.1852808 490456667.67692327 0 0 0 0 -242481443.32048893 419248272.52805454 0 419248272.52805454 283250394.80348301 0 0 0 0 -237211006.32635498 502086577.63871074 0 502086577.63871074 190120383.40680647 0 0 0 0 -333325787.52989197 434001175.14422464 0 434001175.14422464 351008902.31328607 0 0 0 0 -321407965.6890564 537563716.83158684 0 537563716.83158684 84167524.20070076 0 0 0 0 -280313012.12976837 445260778.13490003 0 445260778.13490003 137328129.17839909 0 0 0 0 -163432902.11233521 497578105.92974186 0 497578105.92974186 137659258.1320653 0 0 0 0 -123562728.44376373 401036168.5781616 0 401036168.5781616 100921745.57337475 0 0 0 0 -25302680.291549683 449275614.72682428 0 449275614.72682428 432370748.30734825 0 0 0 0 -25437346.048919678 411964357.74228835 0 411964357.74228835 250848906.48778725 0 0 0 0 33408961.70350647 386405831.10818481 0 386405831.10818481 72456206.10565567 0 0 0 0 -101595356.94291687 467476019.43265057 0 467476019.43265057 255105733.19498697 0 0 0 0 -79744221.32598877 422895251.01743317 0 422895251.01743317 74596439.42804648 0 0 0 0 -64657748.150360107 409212768.03204584 0 409212768.03204584 -77079334.795415401 0 0 0 0 -188970489.9138031 456606058.59651041 0 456606058.59651041 88400325.798990786 0 0 0 0 -171870068.24448395 468294899.78794801 0 468294899.78794801 -30966147.779884338 0 0 0 0 -157404242.50309753 429376163.94154263 0 429376163.94154263 -232010360.88848877 0 0 0 0 -30389404.007247925 411969834.96476871 0 411969834.96476871 -286099341.29596996 0 0 0 0 -183267969.99163818 420718633.71966457 0 420718633.71966457 -76476743.169118881 0 0 0 0 -27561859.4015522 525054436.49495184 0 525054436.49495184 -481106209.83195829 0 0 0 0 -102823880.39346313 421214327.27993286 0 421214327.27993286 -277465716.18729317 0 0 0 0 -94813764.733917236 416268984.82138449 0 416268984.82138449 -467803597.93665075 0 0 0 0 -334007025.57188416 405833544.15238905 0 405833544.15238905 -234966174.35205555 0 0 0 0 8603397.6520233154 488878642.69491225 0 488878642.69491225 -678703651.91774654 0 0 0 0 -191954427.31265259 376349647.78984928 0 376349647.78984928 -483784982.65498376 0 0 0 0 -220691047.55840302 275818269.75617528 0 275818269.75617528 -706078276.48789144 0 0 0 0 -89637101.625305176 393421920.46054071 0 393421920.46054071 -709866428.03089285 0 0 0 0 -89027209.162567139 387944448.03888178 0 387944448.03888178 -767678556.89193988 0 0 0 0 11318938.261611938 531233149.28951931 0 531233149.28951931 -486314085.11515117 0 0 0 0 -477378204.62625504 463301413.40059459 0 463301413.40059459 -609144866.32093954 0 0 0 0 -532142343.17691803 618344116.49217284 0 618344116.49217284 -493209266.71353483 0 0 0 0 -225042218.91223145 581448064.54125595 0 581448064.54125595 -820745283.75924027 0 0 0 0 -287868009.05639648 579549030.1251986 0 579549030.1251986 -820405261.55629849 0 0 0 0 -1085890591.02771 791962766.61721873 0 791962766.61721873 -720872745.2525084 0 0 0 0 -437626543.13265991 568877836.69705558 0 568877836.69705558 -511450798.23566306 0 0 0 0 -291101274.36050415 393711215.18063235 0 393711215.18063235 -369462295.70552093 0 0 0 0 -622374314.2719574 372298458.34350705 0 372298458.34350705 -370416281.88417459 0 0 0 0 -477956136.85440063 486304330.58384097 0 486304330.58384097 -195336640.49748659 0 0 0 0 -352774765.00460815 568772960.30358076 0 568772960.30358076 -324958782.93546152 0 0 0 0 -496926899.94787598 506540053.81292307 0 506540053.81292307 -346066918.75239182 0 0 0 0 -323317371.64419556 574681128.83301234 0 574681128.83301234 -487997013.36165392 0 0 0 0 -347558071.30412292 486803730.63068366 0 486803730.63068366 -211231334.04578447 0 0 0 0 -305630312.48065186 534791904.6356883 0 534791904.6356883 -107602326.25718832 0 0 0 0 -365497947.31825066 563011260.33789587 0 563011260.33789587 -116135824.58120108 0 0 0 0 -304904446.90071106 407603789.70971322 0 407603789.70971322 -57164810.234579086 0 0 0 0 -294267580.56028748 513127526.28533816 0 513127526.28533816 -109414406.6549468 0 0 0 0 -342025859.16673851 444459043.8894639 0 444459043.8894639 -184881129.49544382 0 0 0 0 -267195229.80654907 437164011.59708476 0 437164011.59708476 104070983.40649748 0 0 0 0 -237492081.13857269 493201243.58561885 0 493201243.58561885 25445440.463937759 0 0 0 0 -327363691.39102173 459131542.55352974 0 459131542.55352974 14831676.134029388 0 0 0 0 -297988915.40499878 475576219.42906606 0 475576219.42906606 18612030.663412333 0 0 0 0 -297421841.14422607 555452167.99111366 0 555452167.99111366 -44376157.407136917 0 0 0 0 -203958946.69805908 474451494.72101587 0 474451494.72101587 -136680155.96579576 0 0 0 0 -193284961.19486237 475365653.5665369 0 475365653.5665369 -211696997.44959617 0 0 0 0 -335601098.54686737 393947047.78990638 0 393947047.78990638 -60553208.627122402 0 0 0 0 -138996009.23600769 385121432.18541205 0 385121432.18541205 -65405676.406681687 0 0 0 0 4515042.28484869 80568907.283949912 0 80568907.283949912 13925290.929771662 0 0 0 0 -17788515.640052795 287487029.6227051 0 287487029.6227051 -335474227.0146879 0 0 0 0 -49091703.078865051 234413281.84781754 0 234413281.84781754 -281473789.98806047 0 0 0 0 -276942452.51036072 574552642.67224848 0 574552642.67224848 -328763411.52355361 0 0 0 0 -116978233.00706482 470158992.38801086 0 470158992.38801086 -394299633.73493618 0 0 0 0 -277735459.78079224 556011256.94004607 0 556011256.94004607 -208754562.36129713 0 0 0 0 -330394952.80725098 554898670.89213884 0 554898670.89213884 -312255324.16677207 0 0 0 0 -134685739.73428345 417075514.53214186 0 417075514.53214186 -193310002.6638391 0 0 0 0 -177185958.62773132 550183346.95842612 0 550183346.95842612 -499370946.34821904 0 0 0 0 -225622466.99804688 530684927.03650671 0 530684927.03650671 -490734816.47740364 0 0 0 0 22992733.916992188 284863424.41272354 0 284863424.41272354 -658681612.01864421 0 0 0 0 138762412.9029541 225804143.44785833 0 225804143.44785833 -822992595.43108797 0 0 0 0 -130695541.8188324 590073817.43206704 0 590073817.43206704 -1209393429.4257703 0 0 0 0 -2004560.5547485352 332704733.463305 0 332704733.463305 -695859469.09645104 0 0 0 0 145834130.8449707 302413391.38333327 0 302413391.38333327 -1213542821.9228997 0 0 0 0 155885293.96691895 285838141.70846415 0 285838141.70846415 -1206331883.2477427 0 0 0 0 66015603.190063864 54388712.289280251 0 54388712.289280251 13317908.168835841 0 0 0 0 40916968.312767029 60941042.499252319 0 60941042.499252319 98923792.387371063 0 0 0 0 85594974.243877411 40757729.170809746 0 40757729.170809746 52637612.464645386 0 0 0 0 70815345.359008789 68014646.448028564 0 68014646.448028564 71855493.380084991 0 0 0 0 57333052.921732903 97799041.587926388 0 97799041.587926388 -1654826.1831932068 0 0 0 0 67446674.731365204 56377811.222869873 0 56377811.222869873 58413356.55790329 0 0 0 0 -25504175.448640823 102865324.66179657 0 102865324.66179657 39945068.900272369 0 0 0 0 45291945.679618835 91415824.008125305 0 91415824.008125305 26030777.904335022 0 0 0 0 35987417.982423782 184987280.35042381 0 184987280.35042381 14444809.49382782 0 0 0 0 52614767.715003967 28511421.220388412 0 28511421.220388412 55099982.299118042 0 0 0 0 17293184.990470886 58547196.639072418 0 58547196.639072418 71600161.487602234 0 0 0 0 30928510.368789673 68670065.595541 0 68670065.595541 34119572.856243134 0 0 0 0 21855021.239814758 37565336.89695549 0 37565336.89695549 102929327.83033752 0 0 0 0 68933916.257293701 6290259.7415761948 0 6290259.7415761948 68341364.677955627 0 0 0 0 21216251.849060059 -176957881.44870436 0 -176957881.44870436 -295451642.60292083 0 0 0 0 4983651.4204368591 251945293.53391898 0 251945293.53391898 -245812819.27109385 0 0 0 0 -264968865.89065552 545051493.31239617 0 545051493.31239617 -56232822.709769487 0 0 0 0 8211400.5023364127 6419864.6281566769 0 6419864.6281566769 1243638.4251409769 0 0 0 0 -234561756.01103973 691776212.84330928 0 691776212.84330928 -337561376.13082695 0 0 0 0 -68417972.58215332 952952369.80868733 0 952952369.80868733 58143012.378664732 0 0 0 0 91579247.612030029 836358434.71199274 0 836358434.71199274 -389833541.68257147 0 0 0 0 -56523380.29955864 650097472.27762413 0 650097472.27762413 -569916937.74044633 0 0 0 0 454268634.65794373 1171691840.6224232 0 1171691840.6224232 -429707022.16037428 0 0 0 0 145298552.17459488 718889964.83813763 0 718889964.83813763 -973049724.89661515 0 0 0 0 727673741.50957108 496819058.42566121 0 496819058.42566121 -1577218912.1447649 0 0 0 0 -886579500.07447815 -108145198.70957857 0 -108145198.70957857 -924658343.39547539 0 0 0 0 47029816.118310809 61954925.66202417 0 61954925.66202417 53907198.290840164 0 0 0 0 -259067657.44659424 669192545.85759306 0 669192545.85759306 391543965.76698816 0 0 0 0 -1021357944.2312622 -84976172.246288121 0 -84976172.246288121 -123564700.9407202 0 0 0 0 -474124957.83877563 893257957.74661303 0 893257957.74661303 -1317801762.3884709 0 0 0 0 -111569388.37487793 696910071.11419117 0 696910071.11419117 -1581170193.5287843 0 0 0 0 -11356363.812063158 20499063.00647179 0 20499063.00647179 13542891.133936666 0 0 0 0 382869357.45263672 100280365.50234222 0 100280365.50234222 437914449.25627327 0 0 0 0 349389836.58274841 460444547.41395569 0 460444547.41395569 130087188.1778183 0 0 0 0 81443105.563835144 -1080909486.0126705 0 -1080909486.0126705 -411961597.42621422 0 0 0 0 1091093775.6728516 182838680.0771904 0 182838680.0771904 -805060520.6431582 0 0 0 0 1212911960.7493591 477327817.94265175 0 477327817.94265175 -545330543.57543516 0 0 0 0 715121678.6603775 165822068.29514885 0 165822068.29514885 -233621395.45928574 0 0 0 0 747559701.81774902 68030957.012023926 0 68030957.012023926 -529932951.71427381 0 0 0 0 681053502.86924744 -197537403.41543198 0 -197537403.41543198 -738608619.80210304 0 0 0 0 330300413.05997086 -82939978.819753647 0 -82939978.819753647 -74843337.316841125 0 0 0 0 683535400.13047028 124237554.90366364 0 124237554.90366364 -206676992.86643219 0 0 0 0 636403707.96227264 -32763963.040355682 0 -32763963.040355682 -263937945.35782623 0 0 0 0 414863748.65418243 120998259.83179474 0 120998259.83179474 -204259184.00049591 0 0 0 0 944253200.04988861 9506505.5912475586 0 9506505.5912475586 -304772263.69720459 0 0 0 0 1616976324.5466614 600513166.77998734 0 600513166.77998734 -377661859.19689941 0 0 0 0 739916684.34533358 425295980.93772614 0 425295980.93772614 -258194314.64996338 0 0 0 0 738914825.98970032 139862346.68535995 0 139862346.68535995 -206205315.8771553 0 0 0 0 106736549.57594299 862838042.39035034 0 862838042.39035034 -33966718.729194641 0 0 0 0 752088169.68525696 490066626.1054306 0 490066626.1054306 -342566016.09606934 0 0 0 0 949285095.29086304 1042374959.7021637 0 1042374959.7021637 -311800414.60247803 0 0 0 0 1131461554.566391 988360476.74833679 0 988360476.74833679 -297086172.96387482 0 0 0 0 1077499388.8036118 923615031.43075562 0 923615031.43075562 -365283842.33285522 0 0 0 0 2156844289.4758453 1231880598.961525 0 1231880598.961525 -279394277.09007645 0 0 0 0 11445246.131837517 10495352.809218861 0 10495352.809218861 2899289.0578500479 0 0 0 0 264944422.60978699 660736948.24505615 0 660736948.24505615 -1250963.3288269043 0 0 0 0 -57299783.945648193 -189990810.59177399 0 -189990810.59177399 -660355377.59568787 0 0 0 0 363650611.95762634 1280164701.8284912 0 1280164701.8284912 -581885844.94073486 0 0 0 0 332924737.09901047 1355135299.8460083 0 1355135299.8460083 -169320359.88618469 0 0 0 0 761370388.58597565 1137121287.4904976 0 1137121287.4904976 -673646759.79211426 0 0 0 0 910697324.5933342 1446274824.6330624 0 1446274824.6330624 -34711858.946304321 0 0 0 0 120162890.24433899 133236826.95100403 0 133236826.95100403 -1428123929.5644379 0 0 0 0 78663754.636375427 207392760.61564255 0 207392760.61564255 -74787663.440391541 0 0 0 0 131145688.57321167 303515118.4831543 0 303515118.4831543 -307361590.03413963 0 0 0 0 -185384603.56528759 1018273030.5192909 0 1018273030.5192909 22455605.019058228 0 0 0 0 154297330.40762329 204869786.60809326 0 204869786.60809326 -204030855.71725082 0 0 0 0 135614744.45033264 90146442.877182007 0 90146442.877182007 -20904841.125349045 0 0 0 0 130552557.73945618 42308596.22420311 0 42308596.22420311 40047056.670490265 0 0 0 0 14751647.25845992 20697428.591446191 0 20697428.591446191 -5827146.661140278 0 0 0 0 59189916.804224178 50175961.354139894 0 50175961.354139894 14759003.837447401 0 0 0 0 230552468.07631302 116640696.0334549 0 116640696.0334549 -113037621.992836 0 0 0 0 569209128.4391098 1292348123.9293098 0 1292348123.9293098 -968368536.95028114 0 0 0 0 -815424472.3269043 91156835.629778862 0 91156835.629778862 576224005.880476 0 0 0 0 219334463.66574097 111643487.6842165 0 111643487.6842165 85084399.225673676 0 0 0 0 57047857.1929245 119348704.25118303 0 119348704.25118303 249598814.53488541 0 0 0 0 40206919.854793489 16650879.077528952 0 16650879.077528952 7694493.2836032817 0 0 0 0 -31681216.598297119 158564302.2420553 0 158564302.2420553 -60146156.038884282 0 0 0 0 12553731.385545684 25613981.699433267 0 25613981.699433267 41079486.937566034 0 0 0 0 -560684106.38478088 273943622.70924306 0 273943622.70924306 55868871.060914278 0 0 0 0 -270921890.98555374 225166073.32238483 0 225166073.32238483 43996266.462587118 0 0 0 0 569192766.19021606 336187004.46221352 0 336187004.46221352 56712344.219190598 0 0 0 0 727418066.92988586 455434115.30108404 0 455434115.30108404 146208799.77967739 0 0 0 0 390487198.19606018 480269027.20972347 0 480269027.20972347 232276825.6047287 0 0 0 0 626363779.00924683 610883560.99546814 0 610883560.99546814 158169466.3371067 0 0 0 0 550325435.18977356 567989595.91345024 0 567989595.91345024 199733048.67878246 0 0 0 0 676302137.09401703 715934901.88855553 0 715934901.88855553 353464926.45118332 0 0 0 0 476531971.38481522 640460431.12066746 0 640460431.12066746 391155933.84834671 0 0 0 0 1087499428.76828 -334403182.44177914 0 -334403182.44177914 -1758088882.8428116 0 0 0 0 -21340447.493484497 241022705.06793976 0 241022705.06793976 983440317.05532169 0 0 0 0 18871342.291678548 1363563.8929682728 0 1363563.8929682728 1546509.4603915317 0 0 0 0 583003584.92904663 738986864.03891945 0 738986864.03891945 435103630.92754269 0 0 0 0 174789462.02091217 892114413.6085186 0 892114413.6085186 2169147323.594017 0 0 0 0 609573528.81386566 669609499.60930157 0 669609499.60930157 423181878.62828064 0 0 0 0 193469643.85559845 878812542.18515682 0 878812542.18515682 2633559579.3158493 0 0 0 0 1039899190.1447449 1627076924.7237053 0 1627076924.7237053 1378646771.0083561 0 0 0 0 2363041111.8998108 1558448174.6198883 0 1558448174.6198883 -864967928.29307556 0 0 0 0 -369125690.3631773 -392889666.94288921 0 -392889666.94288921 -103573761.94548798 0 0 0 0 -72088881.226902381 59201345.044613317 0 59201345.044613317 30173725.532886662 0 0 0 0 501265168.12225342 205204576.45815372 0 205204576.45815372 58060815.14226532 0 0 0 0 -519389501.18957436 -156519729.77625275 0 -156519729.77625275 14183721.759925842 0 0 0 0 1172082001.1551208 199660092.9549942 0 199660092.9549942 -346843171.15276337 0 0 0 0 120382954.09952354 -109045111.95160294 0 -109045111.95160294 -209654057.10180473 0 0 0 0 -952663599.90469313 -269421619.53631115 0 -269421619.53631115 -81793578.510577202 0 0 0 0 84777942.114823818 189886265.97177315 0 189886265.97177315 -117711815.16856384 0 0 0 0 180029593.72129726 -422433137.22321653 0 -422433137.22321653 -465922774.07496643 0 0 0 0 625402388.89245605 516434500.57358456 0 516434500.57358456 155103568.72477341 0 0 0 0 584379576.24567413 603811522.73770857 0 603811522.73770857 220617957.573349 0 0 0 0 507289522.20428467 564260725.41453743 0 564260725.41453743 329681225.37479401 0 0 0 0 414738961.33444786 541822344.99676228 0 541822344.99676228 336791125.51552963 0 0 0 0 451586187.95050049 416541237.48214245 0 416541237.48214245 162557156.51560217 0 0 0 0 253084538.32452393 432293011.85007763 0 432293011.85007763 346120455.54424286 0 0 0 0 -725926506.015131 -490760100.05235672 0 -490760100.05235672 -165830164.0553894 0 0 0 0 -240331046.68032646 -225554961.42661285 0 -225554961.42661285 140079489.68699646 0 0 0 0 -1322395.2056390382 197756.48045322672 0 197756.48045322672 -582252.70948904753 0 0 0 0 -75428710.027850911 56191582.486211523 0 56191582.486211523 35914343.772579141 0 0 0 0 168705830.33853149 607014341.31832504 0 607014341.31832504 381778243.64421844 0 0 0 0 225130511.71130371 550388819.73703766 0 550388819.73703766 427026729.44779205 0 0 0 0 250551068.84040833 755882323.52627993 0 755882323.52627993 171820797.49210739 0 0 0 0 -634827708.59804916 94550707.757659912 0 94550707.757659912 110604805.40615082 0 0 0 0 -644913699.22886276 -203273932.52304077 0 -203273932.52304077 -363609391.88508606 0 0 0 0 -345707145.79556656 56930039.1199646 0 56930039.1199646 -49846978.410072327 0 0 0 0 -229145815.88552284 -77852201.33493042 0 -77852201.33493042 102899474.46548462 0 0 0 0 -208439138.29770851 -302649809.28418732 0 -302649809.28418732 317389559.19732666 0 0 0 0 -218723293.03495979 -44506362.70999527 0 -44506362.70999527 145572174.71302414 0 0 0 0 -155754822.63693619 -211192174.33135223 0 -211192174.33135223 567380773.73578262 0 0 0 0 212928938.01971579 -316723444.08566093 0 -316723444.08566093 268175996.61774445 0 0 0 0 -279892739.25419521 -60166158.876241684 0 -60166158.876241684 150214680.91510773 0 0 0 0 6961243.6240388472 9628355.2265716791 0 9628355.2265716791 24982926.474153504 0 0 0 0 -348312002.81483841 376663957.12288272 0 376663957.12288272 26951145.228262424 0 0 0 0 616011430.28135681 470908875.00322151 0 470908875.00322151 229177573.72960854 0 0 0 0 1139141373.3398132 411057667.01767635 0 411057667.01767635 232967233.35550272 0 0 0 0 659906644.1220932 518425971.65941811 0 518425971.65941811 218870071.6117456 0 0 0 0 440789272.4024353 612049866.84436584 0 612049866.84436584 515672297.50018692 0 0 0 0 584638883.73915482 779495809.63032556 0 779495809.63032556 413136599.88149071 0 0 0 0 449230645.81231689 610758304.5378952 0 610758304.5378952 273615804.0871048 0 0 0 0 556758884.25250244 126442769.30288506 0 126442769.30288506 -151021532.89438772 0 0 0 0 773030971.15504456 428509152.10643291 0 428509152.10643291 306198978.88952255 0 0 0 0 499157819.6973877 533693121.8985405 0 533693121.8985405 -211511917.6814003 0 0 0 0 491541948.41135406 528525600.39225292 0 528525600.39225292 310532627.25436401 0 0 0 0 511371405.54988098 49791564.982147217 0 49791564.982147217 164231286.30115795 0 0 0 0 771964051.4651413 1174636735.1803474 0 1174636735.1803474 1042439149.0617485 0 0 0 0 1123034931.3414764 724763648.54917336 0 724763648.54917336 353260484.02758598 0 0 0 0 2343786740.7300644 1017650199.8343744 0 1017650199.8343744 104518171.81243896 0 0 0 0 -1202270117.7126007 144239355.05372429 0 144239355.05372429 392889387.49719381 0 0 0 0 2540391.7275058944 2230166.1260293722 0 2230166.1260293722 8465123.1173944548 0 0 0 0 277465201.07125854 768156579.82942104 0 768156579.82942104 492015148.76000977 0 0 0 0 299065462.41044617 411010440.68791008 0 411010440.68791008 1256317445.881393 0 0 0 0 341439940.97927856 575381009.77793503 0 575381009.77793503 94306479.738771439 0 0 0 0 475034909.59964371 363682778.15414858 0 363682778.15414858 336137660.09720612 0 0 0 0 -485701459.33223343 53801717.926719666 0 53801717.926719666 94899575.17225647 0 0 0 0 118943476.12715912 -67954656.553818703 0 -67954656.553818703 302103207.89901638 0 0 0 0 -25360072.082214355 245510266.66999531 0 245510266.66999531 344090736.093853 0 0 0 0 -84543313.344815508 60897419.167666107 0 60897419.167666107 36874990.453066923 0 0 0 0 -959291.71821594238 299878499.76043129 0 299878499.76043129 446021677.36807251 0 0 0 0 135595393.26132202 420811010.14968681 0 420811010.14968681 510578520.94815254 0 0 0 0 502040273.66624451 354944574.49690723 0 354944574.49690723 425460998.77394104 0 0 0 0 98198816.119077682 87021299.216656685 0 87021299.216656685 523539403.44710159 0 0 0 0 466051578.72697449 325317731.8802681 0 325317731.8802681 733025157.63582706 0 0 0 0 381047316.89467621 97742177.687709808 0 97742177.687709808 471504508.6149559 0 0 0 0 -462204174.83318138 63367834.092086792 0 63367834.092086792 49902159.165145874 0 0 0 0 -421087825.61327648 135202870.86740875 0 135202870.86740875 -34341081.359603882 0 0 0 0 -247204.52963638306 423253951.92570257 0 423253951.92570257 -510722861.17445374 0 0 0 0 214979205.34648132 188376887.94414139 0 188376887.94414139 37954424.469463348 0 0 0 0 -11665046.860653177 741524.46812169999 0 741524.46812169999 6993639.7240600288 0 0 0 0 -30681497.599869363 76413627.023653805 0 76413627.023653805 -13546962.753988661 0 0 0 0 89747910.329223633 209289443.48847008 0 209289443.48847008 62069436.772510529 0 0 0 0 116085656.71136475 280801017.11663246 0 280801017.11663246 -42186363.204349041 0 0 0 0 -90228248.208992958 263231999.86745733 0 263231999.86745733 153556541.35969353 0 0 0 0 203505232.6926651 462053349.96866035 0 462053349.96866035 273479958.40920353 0 0 0 0 -297314785.7715168 121246236.33785439 0 121246236.33785439 217636731.23723888 0 0 0 0 -19571191.38505125 209140895.63542557 0 209140895.63542557 291815786.72246552 0 0 0 0 -198701504.3915844 51692411.378154755 0 51692411.378154755 179433392.24773216 0 0 0 0 -429332227.65859032 158726166.8551712 0 158726166.8551712 187445990.01070595 0 0 0 0 -218689278.52854919 131762233.41178894 0 131762233.41178894 111688178.86698914 0 0 0 0 -413397590.01358128 141747554.75368309 0 141747554.75368309 56624016.349243164 0 0 0 0 -486304482.6322813 58895690.985038757 0 58895690.985038757 53278533.756629944 0 0 0 0 -535498103.63794613 67272574.545770645 0 67272574.545770645 178281810.7149353 0 0 0 0 -394338746.97974491 103780668.40091896 0 103780668.40091896 104441397.23087692 0 0 0 0 -458380113.23131943 116717113.15986633 0 116717113.15986633 156380040.78678131 0 0 0 0 -357749689.71955967 193043707.32869911 0 193043707.32869911 175852146.33716393 0 0 0 0 -386512938.83235192 241894007.34141493 0 241894007.34141493 48196797.411369324 0 0 0 0 -390837797.7426672 228424524.03178406 0 228424524.03178406 6887153.7601585388 0 0 0 0 -361175243.23972809 154946226.31300998 0 154946226.31300998 120041188.70483017 0 0 0 0 -418066317.36665726 163051514.65134239 0 163051514.65134239 158598118.84093285 0 0 0 0 -149246788.40903282 218962682.03818512 0 218962682.03818512 93705678.149583817 0 0 0 0 -107196248.25600326 34287292.097510099 0 34287292.097510099 270763884.28931046 0 0 0 0 16246006.094893456 58238641.275745392 0 58238641.275745392 200574741.89135551 0 0 0 0 155182781.00054193 -74624921.278265953 0 -74624921.278265953 255127608.80345917 0 0 0 0 247525513.02554321 135345895.16734123 0 135345895.16734123 444269276.13954163 0 0 0 0 416136450.66510963 431599090.59204102 0 431599090.59204102 278230471.639925 0 0 0 0 -77860537.413443565 139239881.31608295 0 139239881.31608295 606871964.51561737 0 0 0 0 1023092535.9533291 1178705497.9960175 0 1178705497.9960175 1023297952.8724403 0 0 0 0 288514364.21879339 518945446.9616909 0 518945446.9616909 449699495.51504135 0 0 0 0 2135605447.126709 515598981.36532784 0 515598981.36532784 -21986202.300203323 0 0 0 0 453993906.35285187 177794889.67185974 0 177794889.67185974 24667263.596153259 0 0 0 0 1025507.9221041389 7538032.8019640511 0 7538032.8019640511 11728850.361992225 0 0 0 0 -90047187.960638523 -281163256.62206554 0 -281163256.62206554 1515738860.7916298 0 0 0 0 72086988.515979767 991916670.71353912 0 991916670.71353912 1919439258.8240814 0 0 0 0 2032203898.6810699 314208979.8196764 0 314208979.8196764 393955118.62415504 0 0 0 0 -103466229.25276375 161164253.05265999 0 161164253.05265999 1685271581.7941895 0 0 0 0 787755569.77911043 -296059085.52472591 0 -296059085.52472591 -601861550.42157936 0 0 0 0 16348868.946262954 2840991.829836309 0 2840991.829836309 -3208022.5075652152 0 0 0 0 -126812589.38552666 267587338.23906136 0 267587338.23906136 458186344.56710815 0 0 0 0 34975366.799780846 143213600.71631813 0 143213600.71631813 22136577.852473259 0 0 0 0 -14797863.304572582 129988408.65769482 0 129988408.65769482 220492272.59405613 0 0 0 0 37237438.57965374 -51618195.351884842 0 -51618195.351884842 84256016.475460052 0 0 0 0 95335888.572365522 34882791.961799622 0 34882791.961799622 -17171795.217746735 0 0 0 0 1379449.2841892242 -209753310.12755871 0 -209753310.12755871 -214743023.6882534 0 0 0 0 -82922077.899453163 16568365.595446587 0 16568365.595446587 45726067.546533585 0 0 0 0 349723785.55559278 62254149.541015148 0 62254149.541015148 -66720547.660560608 0 0 0 0 62137787.231235504 250336770.85025358 0 250336770.85025358 425565480.15571213 0 0 0 0 290942.71501731873 -292818539.91083527 0 -292818539.91083527 32883295.748561859 0 0 0 0 6397183.3345352262 -10353.896073065698 0 -10353.896073065698 -444362.22717591003 0 0 0 0 -417552748.09596443 -617362.87182998657 0 -617362.87182998657 586466633.85113621 0 0 0 0 -237476480.02017784 128857455.53387642 0 128857455.53387642 353886154.29828453 0 0 0 0 -493742022.08041477 245896991.17769432 0 245896991.17769432 188443605.82854366 0 0 0 0 19418016.015891731 209264575.06481934 0 209264575.06481934 -35210269.621986389 0 0 0 0 -567692.37299368158 8844775.7960888147 0 8844775.7960888147 1022710.7352998406 0 0 0 0 -276542941.78656399 -210611640.17566061 0 -210611640.17566061 -41640131.163230896 0 0 0 0 -203408459.36630297 456823772.38678837 0 456823772.38678837 402861454.1782093 0 0 0 0 137610961.07196516 525674398.67746162 0 525674398.67746162 388627676.15852118 0 0 0 0 -24729746.94015491 213436182.5346489 0 213436182.5346489 473896106.65232229 0 0 0 0 3097603.0915288925 178239471.88875008 0 178239471.88875008 248299257.52735138 0 0 0 0 -46809636.127970695 163752277.79266262 0 163752277.79266262 88234762.037139893 0 0 0 0 54834082.447205544 -130345399.6727829 0 -130345399.6727829 180657640.29250526 0 0 0 0 9493172.7836694717 639744768.71116829 0 639744768.71116829 759911753.158144 0 0 0 0 -86347969.044200897 63439314.005182266 0 63439314.005182266 1084068145.5715141 0 0 0 0 239478440.69826239 640981872.08774376 0 640981872.08774376 612948950.72682762 0 0 0 0 16877755.015297662 6930455.7610426806 0 6930455.7610426806 -5255826.279501453 0 0 0 0 603050554.57071328 404514788.78800678 0 404514788.78800678 -96647080.521045685 0 0 0 0 7574190.7129319608 5006957.418194402 0 5006957.418194402 -3141357.8933296837 0 0 0 0 106983619.09077621 712219936.00763798 0 712219936.00763798 953713928.32759857 0 0 0 0 27136981.648346424 585874502.53714943 0 585874502.53714943 658224596.72590446 0 0 0 0 -69226256.282713175 331097374.81391621 0 331097374.81391621 510824885.41980362 0 0 0 0 319565328.60399032 566655229.04760838 0 566655229.04760838 497517487.85505676 0 0 0 0 -53934170.730581284 362072856.66988182 0 362072856.66988182 468926812.8768692 0 0 0 0 12977543.688968062 275095036.11379004 0 275095036.11379004 473429653.04548836 0 0 0 0 218738053.71400654 316105630.15704727 0 316105630.15704727 43056379.543706894 0 0 0 0 -61831476.37983799 342110384.99014473 0 342110384.99014473 255448867.43386889 0 0 0 0 -318817620.13541293 185098121.67869091 0 185098121.67869091 203019728.47147369 0 0 0 0 -75168644.047545314 365946488.94482756 0 365946488.94482756 465096464.93421745 0 0 0 0 173178220.43215942 110118719.16758156 0 110118719.16758156 -209937818.72523499 0 0 0 0 114792417.1189127 129564302.87335563 0 129564302.87335563 -172138555.90439987 0 0 0 0 107803597.04736292 42982204.719652176 0 42982204.719652176 -274957822.74814606 0 0 0 0 69143156.189752758 78213984.489563465 0 78213984.489563465 -104689667.39000511 0 0 0 0 84066086.074946404 146175468.3134222 0 146175468.3134222 -154536833.43554115 0 0 0 0 117317266.67317343 138781195.16281319 0 138781195.16281319 -179571731.02854919 0 0 0 0 99798664.226729214 131230542.50927925 0 131230542.50927925 -167805224.2322998 0 0 0 0 102295291.58931258 193859096.39712524 0 193859096.39712524 -56370010.087518692 0 0 0 0 106710843.28506199 170013508.59858322 0 170013508.59858322 -177262436.41095066 0 0 0 0 164360351.66068074 244300050.57382631 0 244300050.57382631 -105986747.697052 0 0 0 0 127065432.26925659 165932050.33035088 0 165932050.33035088 -148691392.43657875 0 0 0 0 122358796.64437485 144317017.12061501 0 144317017.12061501 -162112224.43452168 0 0 0 0 141897318.26455116 123659700.03832483 0 123659700.03832483 -173015055.05725861 0 0 0 0 144210753.38805461 76411646.083864689 0 76411646.083864689 -348205742.71746063 0 0 0 0 -41392975.218200207 50312154.386474609 0 50312154.386474609 -179494358.2306776 0 0 0 0 72638945.211423874 264528741.63661098 0 264528741.63661098 -284563651.86472464 0 0 0 0 -347533988.01728725 505335744.52170372 0 505335744.52170372 -680581092.39989471 0 0 0 0 -13059908.04460144 188357556.4742918 0 188357556.4742918 -56511130.300092697 0 0 0 0 -383027134.12506366 -147023155.88651013 0 -147023155.88651013 -358974837.11558342 0 0 0 0 92243221.821372986 -15833941.337020874 0 -15833941.337020874 -59259236.322315216 0 0 0 0 -153251740.37252378 -51732210.60914135 0 -51732210.60914135 -83040042.752756119 0 0 0 0 1884335.7147509903 344892.93703212962 0 344892.93703212962 -3529947.5361627936 0 0 0 0 167636439.27042961 -91881133.528598785 0 -91881133.528598785 -163084685.68888092 0 0 0 0 -351895512.20068359 117437397.83677292 0 117437397.83677292 -122170844.29670715 0 0 0 0 -12060109.77898407 -6128889.691734314 0 -6128889.691734314 -204000594.95991898 0 0 0 0 113081496.84215641 -99957515.017456055 0 -99957515.017456055 -182789212.96781158 0 0 0 0 -94994928.790143013 98233270.91222477 0 98233270.91222477 -29747802.289146423 0 0 0 0 686487.36701408587 655158.80967269838 0 655158.80967269838 -4010946.3345935196 0 0 0 0 -395998739.28163147 -17151700.21849823 0 -17151700.21849823 130347207.75437164 0 0 0 0 -99543547.589237213 -134522887.1349678 0 -134522887.1349678 81194341.824264526 0 0 0 0 -512122225.80991858 80624344.250109076 0 80624344.250109076 107697647.40536499 0 0 0 0 21829946.166615963 79039322.581086159 0 79039322.581086159 -43492174.417129517 0 0 0 0 85068710.003205776 90618162.26862812 0 90618162.26862812 -52482455.194730759 0 0 0 0 -25774647.432017326 121384712.29646873 0 121384712.29646873 -57938573.110033274 0 0 0 0 78814321.45986855 158689452.666996 0 158689452.666996 -183512988.68302155 0 0 0 0 -54742669.907163262 171383859.54536653 0 171383859.54536653 -144091717.28170776 0 0 0 0 -164527829.99190331 103634417.23048401 0 103634417.23048401 -168171674.03540039 0 0 0 0 8232647.3530220985 188986085.57005787 0 188986085.57005787 -248455425.58790588 0 0 0 0 -8137264.4508419037 47953977.635990143 0 47953977.635990143 -234619364.91054416 0 0 0 0 41948269.105174065 127832760.54242325 0 127832760.54242325 -175458844.81333494 0 0 0 0 93506357.337087512 153004691.99497294 0 153004691.99497294 -179078702.88876724 0 0 0 0 -32378689.025824033 122701325.62541962 0 122701325.62541962 104785022.9620533 0 0 0 0 55532333.878544331 104589486.42135239 0 104589486.42135239 -154294997.36281109 0 0 0 0 29942417.105790377 134105838.83069944 0 134105838.83069944 -79227656.474456787 0 0 0 0 -57430609.560836792 39758231.189435959 0 39758231.189435959 -48306299.645397663 0 0 0 0 -76193225.715461254 27927494.235910416 0 27927494.235910416 -86577415.692682266 0 0 0 0 -41557581.988068566 760365.65876026452 0 760365.65876026452 23927412.909766674 0 0 0 0 -60987705.665311813 54440853.116195679 0 54440853.116195679 -72162104.255280495 0 0 0 0 152956133.68463326 218403953.79923081 0 218403953.79923081 -142903346.03449249 0 0 0 0 -79531837.617823184 100479977.5165422 0 100479977.5165422 -13743481.011960477 0 0 0 0 -21477667.623954058 105241538.44137049 0 105241538.44137049 -680356876.45049667 0 0 0 0 -501602265.77257919 805021908.18553925 0 805021908.18553925 -578720917.25843811 0 0 0 0 66193942.780599594 -57803785.647842407 0 -57803785.647842407 -44158152.309885025 0 0 0 0 -11387190.984187473 1196072.1542664319 0 1196072.1542664319 5290511.58877711 0 0 0 0 -375134208.62811089 66412943.949121475 0 66412943.949121475 -70898518.608379364 0 0 0 0 -722451463.80254173 617879285.58854485 0 617879285.58854485 -300975863.95610428 0 0 0 0 -1187698663.5289211 -249381167.3138237 0 -249381167.3138237 1053144402.4060593 0 0 0 0 42562550.618412018 -232050423.43241501 0 -232050423.43241501 -11663900.16594696 0 0 0 0 -237529081.93675327 158899988.12953949 0 158899988.12953949 -8748155.1372642517 0 0 0 0 -78344842.659015834 77163712.66960609 0 77163712.66960609 13017381.786250837 0 0 0 0 171581824.25672424 133273069.34676963 0 133273069.34676963 395190951.39773941 0 0 0 0 203053302.05821228 -136852617.77638245 0 -136852617.77638245 -109448500.26254654 0 0 0 0 238843094.04788589 -348626439.76067162 0 -348626439.76067162 57031954.925296783 0 0 0 0 476238105.11347961 459656264.99205017 0 459656264.99205017 34008133.930091858 0 0 0 0 143279320.77144623 275351662.73330116 0 275351662.73330116 -64083231.389175415 0 0 0 0 95452092.85446167 142839964.03538513 0 142839964.03538513 -140766743.93089485 0 0 0 0 194706539.8480835 270516786.31904602 0 270516786.31904602 -173488358.98763371 0 0 0 0 355384271.89762878 107869310.87652588 0 107869310.87652588 -136517188.82400513 0 0 0 0 347061435.40898132 271123181.29363632 0 271123181.29363632 -174367480.31452942 0 0 0 0 203588786.3910675 247085729.44955254 0 247085729.44955254 -217097908.53512573 0 0 0 0 66695653.276138812 45927062.26406239 0 45927062.26406239 -23737824.943044953 0 0 0 0 -340781000.73003197 245934210.19601822 0 245934210.19601822 784974908.97760391 0 0 0 0 34070055.136428833 105692896.4259758 0 105692896.4259758 639552905.10941315 0 0 0 0 -186023498.44608307 124303100.77146149 0 124303100.77146149 344812749.2532196 0 0 0 0 192027630.93225098 288953233.04899979 0 288953233.04899979 280316356.25885773 0 0 0 0 -41849523.127731323 361195835.90101624 0 361195835.90101624 571527656.69869804 0 0 0 0 -909586020.43242264 208735900.02846146 0 208735900.02846146 661165709.64863586 0 0 0 0 927071.16721425951 1882398.7303934246 0 1882398.7303934246 2318371.3275400996 0 0 0 0 180480071.9681015 648285413.04146194 0 648285413.04146194 834120942.49039459 0 0 0 0 148959912.62758255 360889902.78726673 0 360889902.78726673 635300480.21357727 0 0 0 0 550818450.83489227 790340151.40485382 0 790340151.40485382 699201089.41646576 0 0 0 0 -57128226.417625427 133884139.80371094 0 133884139.80371094 58766931.104864597 0 0 0 0 -70158127.053639412 -93480602.321705818 0 -93480602.321705818 256711290.06665421 0 0 0 0 -81231023.692945868 93866960.039156407 0 93866960.039156407 -26145044.502207004 0 0 0 0 -3691556.2700722953 25053619.13716989 0 25053619.13716989 -10482029.705407184 0 0 0 0 120678950.22761568 218505731.00886154 0 218505731.00886154 -102588831.81481326 0 0 0 0 -70149781.058592796 159020731.29144096 0 159020731.29144096 278053468.78587723 0 0 0 0 -72778601.205674946 71423566.069442227 0 71423566.069442227 -41736273.042540058 0 0 0 0 216656520.4046936 229744153.3307476 0 229744153.3307476 264166878.25669098 0 0 0 0 -180703165.95425224 328169448.4773674 0 328169448.4773674 722059175.10244751 0 0 0 0 -20206098.356830046 16226960.126477078 0 16226960.126477078 27450633.666985035 0 0 0 0 446732132.34873199 826433056.47623444 0 826433056.47623444 1112524834.1898499 0 0 0 0 979798827.40951538 708012721.4427433 0 708012721.4427433 485428784.81776428 0 0 0 0 -429546531.869133 12466748.91028595 0 12466748.91028595 335443876.76580048 0 0 0 0 152733057.81674576 17870285.461378098 0 17870285.461378098 -41285836.662734985 0 0 0 0 345582397.45051193 355938299.03800774 0 355938299.03800774 259582994.08587646 0 0 0 0 -46911624.691200256 52506451.197376251 0 52506451.197376251 117901192.56317139 0 0 0 0 -18919990.490577698 379641741.75788879 0 379641741.75788879 706428338.68236351 0 0 0 0 137404601.71669388 213386110.22657394 0 213386110.22657394 169066026.28915787 0 0 0 0 -98908023.181186676 153672345.34132385 0 153672345.34132385 429185241.45592499 0 0 0 0 -85629396.44159174 329429952.24690127 0 329429952.24690127 1403624329.7977371 0 0 0 0 -2688765.6811382174 10550602.601710998 0 10550602.601710998 8133861.9422662295 0 0 0 0 -77831415.759992599 355110046.36045885 0 355110046.36045885 -276404481.04686737 0 0 0 0 42928759.782424927 316397111.63640976 0 316397111.63640976 -269793045.43118954 0 0 0 0 15184060.623125508 5999942.9801458418 0 5999942.9801458418 -3836302.1887732148 0 0 0 0 -4269718.119096756 165918207.45008469 0 165918207.45008469 -515861244.59736633 0 0 0 0 -4673000.7466402054 19085386.859531403 0 19085386.859531403 -17211488.925987244 0 0 0 0 -1101674.7080537528 10967094.122831479 0 10967094.122831479 5912013.0500415973 0 0 0 0 67905920.245639801 -5475872.9544830322 0 -5475872.9544830322 -86997717.681789398 0 0 0 0 -3362612.9024200439 19507985.671936035 0 19507985.671936035 -37148437.842926025 0 0 0 0 13980306.871955752 17570683.908602625 0 17570683.908602625 5914360.1846857741 0 0 0 0 -5025669.6021270752 20487084.455787659 0 20487084.455787659 -17356402.927909851 0 0 0 0 -253025160.83032227 232709828.32907104 0 232709828.32907104 -343671686.98364639 0 0 0 0 14366795.338223003 16912615.066041239 0 16912615.066041239 -2590969.6328882575 0 0 0 0 -360983.12851715088 361489123.7162323 0 361489123.7162323 -475331198.80653 0 0 0 0 -30923539.96723938 10370797.563697815 0 10370797.563697815 42024187.728790283 0 0 0 0 -2914767.5732560158 7753530.1379585192 0 7753530.1379585192 5163596.8719381765 0 0 0 0 -148841790.72663498 308996573.62649345 0 308996573.62649345 -280072525.3242569 0 0 0 0 -32014756.780204773 424054485.50561905 0 424054485.50561905 -183421624.82021332 0 0 0 0 -155207522.74672699 237444274.8405571 0 237444274.8405571 -46693793.564567566 0 0 0 0 166998159.5474987 179404532.90936089 0 179404532.90936089 -255220434.13233948 0 0 0 0 91545848.874382019 321869999.81575632 0 321869999.81575632 285183146.05513763 0 0 0 0 105101466.44529247 360858887.81733179 0 360858887.81733179 11383048.109977722 0 0 0 0 4521326.8312533945 7578169.5764320493 0 7578169.5764320493 658492.7237329632 0 0 0 0 -43312753.068405151 6525036.4679145813 0 6525036.4679145813 55070830.452293396 0 0 0 0 -186752702.79320917 200360561.40284252 0 200360561.40284252 -71801073.883575439 0 0 0 0 -232545332.16387939 459699435.60967255 0 459699435.60967255 -154443079.93281937 0 0 0 0 -503047507.00803375 398394808.87664032 0 398394808.87664032 -124689991.0332489 0 0 0 0 -279228781.56439775 322142289.54905593 0 322142289.54905593 136344956.08107376 0 0 0 0 65646595.255322456 232704621.39047718 0 232704621.39047718 -197131745.30047464 0 0 0 0 -114415783.2856319 148937855.08526754 0 148937855.08526754 -152099437.64551163 0 0 0 0 22847882.668296695 281328455.05367851 0 281328455.05367851 55722891.271558762 0 0 0 0 234762047.65524626 278136919.09477997 0 278136919.09477997 33846278.543856144 0 0 0 0 140709735.92059231 428167101.14042759 0 428167101.14042759 208325770.65028906 0 0 0 0 -106341728.11869431 461401234.52264404 0 461401234.52264404 301084176.21636963 0 0 0 0 -66808813.349978916 74613670.138517857 0 74613670.138517857 -53781903.137402751 0 0 0 0 106621734.90625818 251530150.06062651 0 251530150.06062651 172028614.09808922 0 0 0 0 160518709.25232387 246951929.18730927 0 246951929.18730927 -147735514.95901108 0 0 0 0 123020616.01311329 153889589.11965179 0 153889589.11965179 -66435243.154976845 0 0 0 0 114216195.55859375 174106403.1919899 0 174106403.1919899 265307921.55484772 0 0 0 0 1051546750.7959824 674989054.26534271 0 674989054.26534271 338214665.49532413 0 0 0 0 699540579.67695618 42653757.747459412 0 42653757.747459412 -379174260.45052338 0 0 0 0 611796179.51126099 1612009764.933363 0 1612009764.933363 587360817.73969269 0 0 0 0 3587783.59877491 4620059.9946462736 0 4620059.9946462736 1840826.7361007929 0 0 0 0 -168658794.68408203 231499593.68823242 0 231499593.68823242 -540649107.78173828 0 0 0 0 -709172291.97112083 752639628.11046219 0 752639628.11046219 106382397.00503159 0 0 0 0 193686999.36211014 395712100.6780014 0 395712100.6780014 -249335061.62070465 0 0 0 0 -85800519.481781006 372315500.30899048 0 372315500.30899048 -250865105.74889898 0 0 0 0 4865621.5751745701 11264924.064336613 0 11264924.064336613 -8140851.1803502738 0 0 0 0 -1152897227.9723701 105169072.75740528 0 105169072.75740528 126589424.69151306 0 0 0 0 -1895282928.733017 562006003.83666992 0 562006003.83666992 377095456.7229538 0 0 0 0 642308069.95643806 310726177.6971302 0 310726177.6971302 322752461.82928109 0 0 0 0 -61902662.867821224 73548265.739303857 0 73548265.739303857 -52715525.105885014 0 0 0 0 42643733.525568962 422271874.48997164 0 422271874.48997164 437743678.71620655 0 0 0 0 649067483.84581947 347079886.1512146 0 347079886.1512146 109623507.05051422 0 0 0 0 -1872726.7393140793 59216160.877165794 0 59216160.877165794 169914453.776721 0 0 0 0 163592527.49942541 316350768.74221039 0 316350768.74221039 87063575.371949673 0 0 0 0 391313043.58127594 222577331.24834824 0 222577331.24834824 141136.28525924683 0 0 0 0 317937346.59733582 335032870.44049454 0 335032870.44049454 92035728.130477905 0 0 0 0 270480187.00406647 159471413.8386879 0 159471413.8386879 36797394.173545837 0 0 0 0 217748904.01280594 211994175.54359627 0 211994175.54359627 25613576.269714355 0 0 0 0 144137518.57346153 120868817.63111305 0 120868817.63111305 45872585.723304749 0 0 0 0 173440391.05924749 264257203.93290877 0 264257203.93290877 129373449.25182724 0 0 0 0 333470123.82788801 320272262.9727149 0 320272262.9727149 54652134.47902298 0 0 0 0 17739786.793847814 40493601.798050836 0 40493601.798050836 -19770917.572235346 0 0 0 0 479603561.45534325 263788151.07074928 0 263788151.07074928 8507376.3342752457 0 0 0 0 -136678049.81419754 52285331.320049286 0 52285331.320049286 42429310.451454163 0 0 0 0 266494084.67636108 253669201.53411102 0 253669201.53411102 30172417.40089035 0 0 0 0 -47259542.046478271 41331865.493652344 0 41331865.493652344 11478121.549804688 0 0 0 0 -43204706.260360718 54521519.649841309 0 54521519.649841309 15834429.335411072 0 0 0 0 -29425745.004470825 71106551.003417969 0 71106551.003417969 26540395.030334473 0 0 0 0 -69220702.702362061 52458836.369903564 0 52458836.369903564 36108293.062225342 0 0 0 0 -68548698.541137695 35823382.362472534 0 35823382.362472534 18840557.844436646 0 0 0 0 -81668209.629470825 43134924.046546936 0 43134924.046546936 29366224.525314331 0 0 0 0 -27763083.994715929 112830530.99552608 0 112830530.99552608 64141762.894256592 0 0 0 0 -90428927.838668823 87851709.609725952 0 87851709.609725952 47797105.085342407 0 0 0 0 -28688602.291305542 82108059.7862854 0 82108059.7862854 36471812.195800781 0 0 0 0 -44952800.924667358 90250783.230773926 0 90250783.230773926 55790874.418838501 0 0 0 0 60999688.311248779 173455974.87820816 0 173455974.87820816 36201473.680740356 0 0 0 0 -8974184.1314239502 90316130.15246582 0 90316130.15246582 40676718.67666626 0 0 0 0 -95143444.479448318 164547513.05730438 0 164547513.05730438 36066520.732025146 0 0 0 0 -38393710.344955444 108217604.31632996 0 108217604.31632996 30010273.878448486 0 0 0 0 -58865855.751434326 92077279.056964874 0 92077279.056964874 29870049.386550307 0 0 0 0 -149530212.37254333 151949773.15743256 0 151949773.15743256 -24108074.415931702 0 0 0 0 -159251359.20372391 159952270.19590855 0 159952270.19590855 -5243382.0443878174 0 0 0 0 40149697.235908508 274890863.41817474 0 274890863.41817474 -57812155.152915955 0 0 0 0 -119560589.49549103 283140303.33145142 0 283140303.33145142 -24975928.993251801 0 0 0 0 -295573506.89460373 302589634.38417625 0 302589634.38417625 -15965778.144592285 0 0 0 0 -146603646.1536603 415211207.04512644 0 415211207.04512644 88565649.353538513 0 0 0 0 4076989.7644064128 4768914.382155396 0 4768914.382155396 -3932249.8567601442 0 0 0 0 182925452.73402786 319289020.29999876 0 319289020.29999876 12710870.416915894 0 0 0 0 164737694.58203888 178715631.00727463 0 178715631.00727463 -23863476.963897705 0 0 0 0 64030499.646564484 164622966.06237411 0 164622966.06237411 53737674.735702515 0 0 0 0 -104523408.24321175 22879347.561344147 0 22879347.561344147 -292827189.8812561 0 0 0 0 449860330.86796379 74975812.733757019 0 74975812.733757019 -53520474.405738831 0 0 0 0 3658489.518573761 6203580.5974681675 0 6203580.5974681675 -1560846.7036471665 0 0 0 0 206336554.14521027 218549387.16597748 0 218549387.16597748 45102447.903485298 0 0 0 0 198138662.32789612 4599753.2836151123 0 4599753.2836151123 13406143.607719421 0 0 0 0 139708525.5290432 34459725.687192917 0 34459725.687192917 -38993349.375274658 0 0 0 0 66430861.670612335 66744201.811290741 0 66744201.811290741 11630264.38470459 0 0 0 0 109974714.79151535 81576658.088275909 0 81576658.088275909 -67885225.154251099 0 0 0 0 -32410583.658031464 103884536.90181351 0 103884536.90181351 27131267.749198914 0 0 0 0 -7008947.1636924744 131777548.00099564 0 131777548.00099564 53679672.229644775 0 0 0 0 103721111.46444511 161141466.07335663 0 161141466.07335663 59945019.564117432 0 0 0 0 43416401.393035889 104358806.68391418 0 104358806.68391418 21060174.678207397 0 0 0 0 22033966.088447571 134423948.10134888 0 134423948.10134888 56537181.873313904 0 0 0 0 70715358.165874481 96399546.659080505 0 96399546.659080505 52378462.037124634 0 0 0 0 -8670934.4869232178 94482707.575824738 0 94482707.575824738 49044238.404266357 0 0 0 0 -24580050.85874939 90867817.787887573 0 90867817.787887573 51110366.195609093 0 0 0 0 25898658.497280121 31442357.04535675 0 31442357.04535675 13550121.62020874 0 0 0 0 632547.56048930436 55418015.228321403 0 55418015.228321403 28162486.573235214 0 0 0 0 -5839025.8181591034 91202638.718809128 0 91202638.718809128 20718505.308502197 0 0 0 0 -15410688.249794006 79132719.850479126 0 79132719.850479126 37605218.687591553 0 0 0 0 24202124.960336536 28962673.510601543 0 28962673.510601543 -32653844.143201321 0 0 0 0 152100974.25739288 190107118.40549469 0 190107118.40549469 110080600.85028076 0 0 0 0 39702135.211270556 83093818.675813153 0 83093818.675813153 -32172239.986566663 0 0 0 0 -6069398.5563354492 111027646.40922928 0 111027646.40922928 -4925605.9502792358 0 0 0 0 100094921.6298995 113569611.28250122 0 113569611.28250122 -420710504.71188354 0 0 0 0 91020225.902134895 100670381.0177002 0 100670381.0177002 -302658612.7457428 0 0 0 0 -13594434.676811218 151189433.32842445 0 151189433.32842445 6597603.8320236206 0 0 0 0 49438554.829960003 82156959.307158127 0 82156959.307158127 39315077.260816693 0 0 0 0 -200776220.26693583 172015135.39714813 0 172015135.39714813 296910321.72247314 0 0 0 0 -1404457.0959847271 39955620.402358085 0 39955620.402358085 13822183.913232416 0 0 0 0 74645466.781360716 40956410.097513855 0 40956410.097513855 -113045007.78709793 0 0 0 0 566685924.03086948 580158301.52274323 0 580158301.52274323 -166359045.73845196 0 0 0 0 78275187.612650484 44758158.808967039 0 44758158.808967039 -121270999.29776871 0 0 0 0 210329536.85381317 198351958.40444946 0 198351958.40444946 -81360102.235122681 0 0 0 0 335819075.99307251 244429179.88232803 0 244429179.88232803 -68579716.316812515 0 0 0 0 191186942.9074173 130103249.32380104 0 130103249.32380104 100581388.11235809 0 0 0 0 466810012.39589691 47658001.619773865 0 47658001.619773865 -160385572.99673843 0 0 0 0 215425862.11064625 185175602.99128723 0 185175602.99128723 887331.73992919922 0 0 0 0 218866857.33281016 50277050.22372973 0 50277050.22372973 -121011378.44794464 0 0 0 0 142816062.6672287 282581889.96569395 0 282581889.96569395 211029936.47937012 0 0 0 0 15761928.930299848 1882167.8941677995 0 1882167.8941677995 -20672884.832588792 0 0 0 0 -34514483.835037231 39606541.150821686 0 39606541.150821686 -48586841.95532608 0 0 0 0 22244796.587699939 32342334.11748182 0 32342334.11748182 11375511.601308852 0 0 0 0 -53352570.634078979 -19902653.595352173 0 -19902653.595352173 89521655.972080231 0 0 0 0 -130466700.92904282 77288588.681587219 0 77288588.681587219 55394413.906230927 0 0 0 0 -28469978.29876709 -52138618.997905731 0 -52138618.997905731 30674320.342515945 0 0 0 0 31663731.430374146 20718066.746227264 0 20718066.746227264 -21439824.658344269 0 0 0 0 -59109936.391328812 76729365.177586555 0 76729365.177586555 11719531.987686157 0 0 0 0 -126014642.88492775 14637278.209430695 0 14637278.209430695 47910290.096622467 0 0 0 0 -14486252.281524315 4441705.2294586264 0 4441705.2294586264 7276418.8923631832 0 0 0 0 -100924963.72584724 42333571.884250641 0 42333571.884250641 14540460.751289368 0 0 0 0 -109706013.26879883 242156643.90236664 0 242156643.90236664 -124830600.61846924 0 0 0 0 28352799.812667847 -141371450.23985291 0 -141371450.23985291 207948362.54870462 0 0 0 0 -197709881.74832058 104843567.37719917 0 104843567.37719917 232633502.17267609 0 0 0 0 -455066716.80682755 543185839.2276001 0 543185839.2276001 36897003.42099762 0 0 0 0 -29109640.28912735 232145314.15247726 0 232145314.15247726 -24595671.708251953 0 0 0 0 2131940.8173709065 2135713.8962648325 0 2135713.8962648325 -1730914.5886011422 0 0 0 0 -425819542.89090347 353978453.37242508 0 353978453.37242508 -227248637.36467361 0 0 0 0 -442846647.0152874 549434623.3637476 0 549434623.3637476 -401674282.15408325 0 0 0 0 -84864895.868541718 67266614.13911438 0 67266614.13911438 52827502.795547485 0 0 0 0 -339750525.19994354 298353572.23156738 0 298353572.23156738 -398348375.95370513 0 0 0 0 854054.2296795398 5960305.7842791602 0 5960305.7842791602 -27076.220765769482 0 0 0 0 -256231528.04089832 321569310.43951797 0 321569310.43951797 -329656524.8414917 0 0 0 0 -466047136.06590462 401501255.88095284 0 401501255.88095284 -283249231.2073822 0 0 0 0 -417101192.99533463 165769793.84773254 0 165769793.84773254 -72079539.617416382 0 0 0 0 -414417670.47190857 325370384.60546112 0 325370384.60546112 -177703752.41433716 0 0 0 0 -75949911.754177094 134013960.74726868 0 134013960.74726868 -170529367.77258301 0 0 0 0 5838203.1342621744 7121040.1115705594 0 7121040.1115705594 -5359657.8192381263 0 0 0 0 -167156390.12462616 122114364.35784149 0 122114364.35784149 -168564301.93505096 0 0 0 0 -410000477.72649765 173064938.05336761 0 173064938.05336761 161320620.59898376 0 0 0 0 8706759.4695224427 13886517.50471127 0 13886517.50471127 -574907.22727498412 0 0 0 0 -236855448.80246353 226752738.11177826 0 226752738.11177826 -83549144.230102539 0 0 0 0 -294179662.89207458 225990501.19705963 0 225990501.19705963 -245288658.18303299 0 0 0 0 -199019804.51851082 276746428.73532104 0 276746428.73532104 -219544000.22200012 0 0 0 0 -166825535.7875824 167362712.09733582 0 167362712.09733582 -148357327.60897827 0 0 0 0 -8467347.6469845921 9555656.8632694297 0 9555656.8632694297 7733581.0553933084 0 0 0 0 -376263343.41002846 383174908.29775143 0 383174908.29775143 -240031288.22626495 0 0 0 0 -259489177.5844388 270731038.85573292 0 270731038.85573292 -249540888.0623703 0 0 0 0 -90349633.833156586 36829566.68775177 0 36829566.68775177 18003850.617107391 0 0 0 0 -184347625.87439442 138150526.22258854 0 138150526.22258854 97585577.615570068 0 0 0 0 26503224.00210483 36444028.949030653 0 36444028.949030653 3551282.1194229126 0 0 0 0 390577693.67751694 74471955.580554962 0 74471955.580554962 -62257269.687927246 0 0 0 0 544320335.23135757 339337428.87311363 0 339337428.87311363 -8097799.9376296997 0 0 0 0 778949865.31997681 350079020.5407486 0 350079020.5407486 -224505547.63751984 0 0 0 0 384444752.24815369 282441351.24082947 0 282441351.24082947 -14793610.525650024 0 0 0 0 -24387857.23223114 12035854.68516922 0 12035854.68516922 44479631.755447388 0 0 0 0 368768649.38479614 246717651.61610031 0 246717651.61610031 137390172.65061188 0 0 0 0 -2280520.1635638177 -31470.141989350319 0 -31470.141989350319 170719.73315069079 0 0 0 0 79143881.194190979 9745217.1651954651 0 9745217.1651954651 186782635.27231789 0 0 0 0 -12330487.319641113 -8093109.0201196671 0 -8093109.0201196671 120763712.98568726 0 0 0 0 50169450.908136368 69881285.230618477 0 69881285.230618477 82936577.429710388 0 0 0 0 352430121.06716919 141772632.7560463 0 141772632.7560463 -44434033.236099243 0 0 0 0 429484270.66667938 -180567328.74765396 0 -180567328.74765396 67392120.623786926 0 0 0 0 633529053.54045486 -41074803.63535881 0 -41074803.63535881 -181618918.69171143 0 0 0 0 1432382.5655975342 27801134.539543152 0 27801134.539543152 239713713.97060776 0 0 0 0 139631900.66046143 151896423.89015961 0 151896423.89015961 -119871610.76274109 0 0 0 0 140811199.51817322 202458806.84655762 0 202458806.84655762 75048523.102416992 0 0 0 0 686058.28499786556 1056700.5690686628 0 1056700.5690686628 588478.80642895401 0 0 0 0 -13765166.619487762 -78267463.042795181 0 -78267463.042795181 15388730.950370789 0 0 0 0 234462828.66782379 107029651.71879578 0 107029651.71879578 -99005255.851945877 0 0 0 0 923350244.40720367 240355556.89590645 0 240355556.89590645 -74347638.948766708 0 0 0 0 802659660.95235443 -243281161.24206161 0 -243281161.24206161 53249870.289608002 0 0 0 0 430820035.45193863 -97264770.374941826 0 -97264770.374941826 661990773.26991272 0 0 0 0 380612467.198246 570735058.88291931 0 570735058.88291931 411523509.54479218 0 0 0 0 5742502.420590654 6503078.897944171 0 6503078.897944171 5782983.7169288099 0 0 0 0 103391219.95132065 -137661655.1612854 0 -137661655.1612854 995852406.53386307 0 0 0 0 921873875.77641869 552505344.34755325 0 552505344.34755325 -277231133.7278862 0 0 0 0 576395338.74026489 614538736.42274857 0 614538736.42274857 531930450.11697769 0 0 0 0 737839142.30879116 257609459.8457818 0 257609459.8457818 -344393141.88941956 0 0 0 0 10844211.490524203 17182785.26972305 0 17182785.26972305 18414572.965102017 0 0 0 0 3792622.4204120636 -138515024.13299179 0 -138515024.13299179 226215700.23945618 0 0 0 0 -307164798.76289177 -100261819.59674454 0 -100261819.59674454 86172487.709079742 0 0 0 0 85551081.835315704 -13814864.462324142 0 -13814864.462324142 137384984.45121002 0 0 0 0 -163001835.70590591 52978392.096286774 0 52978392.096286774 222643350.01607096 0 0 0 0 -115500735.5881424 245814598.75292015 0 245814598.75292015 -34860316.188545227 0 0 0 0 -178928139.94066238 109501819.22106171 0 109501819.22106171 165838806.04854584 0 0 0 0 -218782510.38148499 168020847.86846924 0 168020847.86846924 147534290.55848312 0 0 0 0 -212888926.31918335 148925977.12057495 0 148925977.12057495 200283361.60643768 0 0 0 0 -646906516.50793839 261194672.09873199 0 261194672.09873199 172903287.65974808 0 0 0 0 -168480343.23616791 530290601.54612637 0 530290601.54612637 12514067.056304932 0 0 0 0 42686411.460769653 244016374.69276047 0 244016374.69276047 -36790028.717979431 0 0 0 0 242344189.69113159 463737192.32188797 0 463737192.32188797 -96516300.584655762 0 0 0 0 -62097071.346279144 320470485.62221909 0 320470485.62221909 -91557612.262435913 0 0 0 0 245356859.87440491 223271744.89472961 0 223271744.89472961 -184126619.39466476 0 0 0 0 -3297180.7359924316 167715156.07223129 0 167715156.07223129 -158514003.6831913 0 0 0 0 328283587.4153595 572589156.38645172 0 572589156.38645172 311720054.81785536 0 0 0 0 5905068.1181209683 1721951.1068201736 0 1721951.1068201736 -6714052.6828603745 0 0 0 0 86176507.165283203 673202411.54743195 0 673202411.54743195 770653322.15316772 0 0 0 0 27138974.130050659 -1158453.2083206177 0 -1158453.2083206177 826476567.24014282 0 0 0 0 -711690341.52902985 201028243.997612 0 201028243.997612 96148619.576057434 0 0 0 0 843551.54409141839 9442059.9024916738 0 9442059.9024916738 4738083.2598154917 0 0 0 0 25063127.638326645 225620110.75723648 0 225620110.75723648 -88362479.01701355 0 0 0 0 -617468326.61710358 -448855.54944610596 0 -448855.54944610596 53598390.087524414 0 0 0 0 10265017.206229225 41248730.603013024 0 41248730.603013024 40828937.880684853 0 0 0 0 -450348949.89359283 23340283.36831665 0 23340283.36831665 50231274.34951973 0 0 0 0 -406962893.43489075 251895398.57255173 0 251895398.57255173 97568431.574707031 0 0 0 0 -4593230.6924133301 81400582.579738617 0 81400582.579738617 -5860571.6206245422 0 0 0 0 -5500768.4825716019 77236814.015100956 0 77236814.015100956 -13087670.12644577 0 0 0 0 12535558.392515182 71398942.05661267 0 71398942.05661267 -23943463.851631165 0 0 0 0 -86262128.676887512 442351787.94273758 0 442351787.94273758 231011906.98872566 0 0 0 0 -214122543.65132904 77461360.510120392 0 77461360.510120392 449887064.50907516 0 0 0 0 -235764442.47721863 214360717.71046066 0 214360717.71046066 -99901065.803836823 0 0 0 0 -542580248.66064453 388115236.99937057 0 388115236.99937057 143498181.60342026 0 0 0 0 -382202146.32423401 383618859.98868942 0 383618859.98868942 90087006.460479736 0 0 0 0 -189484744.43195724 282000399.27144241 0 282000399.27144241 27250871.310901642 0 0 0 0 -351928366.10038185 361027118.68239403 0 361027118.68239403 -187721609.05534363 0 0 0 0 15135351.906723022 369441648.30608749 0 369441648.30608749 40906845.371536255 0 0 0 0 170614063.9727211 243304995.56186295 0 243304995.56186295 67429681.024787903 0 0 0 0 -93640263.812618256 266187311.86468506 0 266187311.86468506 -36010027.17641449 0 0 0 0 -92787534.135875702 334022352.42621231 0 334022352.42621231 -42834001.306218863 0 0 0 0 2220795.2271401137 565809.75872153044 0 565809.75872153044 -2338570.5481124669 0 0 0 0 -472876012.43409014 624654227.49544525 0 624654227.49544525 -59489107.133392334 0 0 0 0 12876782.23420383 36594109.395570219 0 36594109.395570219 42282133.69358182 0 0 0 0 -58127754.631034851 142293180.78491974 0 142293180.78491974 -60775718.597877502 0 0 0 0 -115987539.18205261 113240956.01999283 0 113240956.01999283 -38990551.328277588 0 0 0 0 -41116368.742637634 101080049.4465065 0 101080049.4465065 -78326208.904212952 0 0 0 0 -494314523.43125176 237569879.98325384 0 237569879.98325384 -339194825.20707703 0 0 0 0 -488615157.47000885 646588959.75940323 0 646588959.75940323 -279048927.88986969 0 0 0 0 16578238.781448364 72125901.542153358 0 72125901.542153358 -24625218.755435944 0 0 0 0 24781124.12272644 76671963.89547348 0 76671963.89547348 -43421054.089658737 0 0 0 0 189771.27147674561 90571729.908867836 0 90571729.908867836 -39426903.986877441 0 0 0 0 -67378785.781539917 112787514.65538406 0 112787514.65538406 -26501953.802215576 0 0 0 0 -25439750.515769958 76065696.889687538 0 76065696.889687538 -12994145.55052948 0 0 0 0 9136720.1991195679 98029803.342357635 0 98029803.342357635 -68383232.175994873 0 0 0 0 -38910693.198764801 110511991.39859295 0 110511991.39859295 -43167725.34286499 0 0 0 0 -6557901.0320777893 89985161.308668137 0 89985161.308668137 -39798443.570659637 0 0 0 0 -49667.857154846191 96389343.418190002 0 96389343.418190002 -57308451.526924133 0 0 0 0 39468234.998947144 79747377.433446884 0 79747377.433446884 -49671290.031398773 0 0 0 0 30720823.943733215 63335064.705760956 0 63335064.705760956 -28528679.489795685 0 0 0 0 20414441.009651184 73176351.500091553 0 73176351.500091553 -36737099.734859467 0 0 0 0 42722865.718952656 70658536.516773105 0 70658536.516773105 -42015812.742996216 0 0 0 0 63048422.907185078 78146870.032748103 0 78146870.032748103 -22030511.785102844 0 0 0 0 27335853.521598816 57989506.651500702 0 57989506.651500702 35959122.359161377 0 0 0 0 44109980.512794495 55728089.387727737 0 55728089.387727737 -32653707.072990417 0 0 0 0 3730197.2615127563 83073593.83272934 0 83073593.83272934 -22374206.046394348 0 0 0 0 -12556411.698562622 74242755.514532089 0 74242755.514532089 -32143410.595558167 0 0 0 0 14803548.112564087 89594034.74283886 0 89594034.74283886 -28220622.817508698 0 0 0 0 68664774.429267883 73412251.284093857 0 73412251.284093857 20242767.970531464 0 0 0 0 30929882.601745605 40468480.92811203 0 40468480.92811203 -6475450.2342147827 0 0 0 0 46655148.601291031 51857275.704344064 0 51857275.704344064 36001192.563501 0 0 0 0 78834033.547988892 8046009.8542976379 0 8046009.8542976379 18164603.770427704 0 0 0 0 -98840415.365034103 279045471.2617265 0 279045471.2617265 -183585473.67048502 0 0 0 0 15155326.759579033 32376911.203853633 0 32376911.203853633 36068188.871762007 0 0 0 0 -117747576.76612091 197917615.83524132 0 197917615.83524132 -98066424.093959808 0 0 0 0 -36155944.138557434 118533378.94528961 0 118533378.94528961 -134645028.01640987 0 0 0 0 -21201350.504066467 122430915.70797348 0 122430915.70797348 -74766625.039897919 0 0 0 0 -58329319.650138855 82406028.096719742 0 82406028.096719742 -21735294.202993393 0 0 0 0 1677634.6212348938 46918533.451200485 0 46918533.451200485 18207260.347000122 0 0 0 0 4196075.4580345154 103350242.03688765 0 103350242.03688765 -17536968.131401062 0 0 0 0 -167132176.98892212 79312240.562999725 0 79312240.562999725 -8683403.5971755981 0 0 0 0 -42458048.568122864 123339763.09768486 0 123339763.09768486 24191537.849838257 0 0 0 0 -18100717.538150787 135402718.68816185 0 135402718.68816185 8437870.2937469482 0 0 0 0 -151489513.78425598 192901986.83036423 0 192901986.83036423 15382505.826434374 0 0 0 0 16344350.19570484 24872268.372600637 0 24872268.372600637 21761214.602505714 0 0 0 0 -60681685.517105103 314927509.83940887 0 314927509.83940887 179343495.75851059 0 0 0 0 -150685580.91581726 203631219.79872704 0 203631219.79872704 103921763.3367157 0 0 0 0 -1255867649.1424866 697976926.56274033 0 697976926.56274033 -70652080.689468384 0 0 0 0 -115907758.53395844 774491331.71117401 0 774491331.71117401 -275619689.85948277 0 0 0 0 8254916.1556674689 1583713.3801037036 0 1583713.3801037036 -5790042.650342539 0 0 0 0 -421490175.74962711 -28973550.424328446 0 -28973550.424328446 -175807270.18841934 0 0 0 0 1942821722.7046204 -253112933.5771904 0 -253112933.5771904 -712982856.90102768 0 0 0 0 516393073.71690369 -829537167.67827225 0 -829537167.67827225 -422116155.92430496 0 0 0 0 2632978988.8998413 2182185243.1826172 0 2182185243.1826172 2688940854.1716309 0 0 0 0 8879497.2299249321 788114.16221528873 0 788114.16221528873 -6140856.5349399447 0 0 0 0 -55214575.709263802 -486398709.02152026 0 -486398709.02152026 -331616554.08277893 0 0 0 0 -91454588.864917755 -340084944.71083069 0 -340084944.71083069 581300170.94023895 0 0 0 0 -663092797.5998764 -392435399.86364746 0 -392435399.86364746 260596317.9173584 0 0 0 0 -732849573.13136673 -605353157.34645462 0 -605353157.34645462 -386065767.4778595 0 0 0 0 296036831.74127197 528745767.57556915 0 528745767.57556915 -617248899.40715027 0 0 0 0 312470691.0565033 749814585.53887939 0 749814585.53887939 142815666.58745766 0 0 0 0 -754257748.84796906 -1893445783.0088921 0 -1893445783.0088921 -1158101331.9383774 0 0 0 0 781738873.3321991 1313454703.8878708 0 1313454703.8878708 769835550.75907135 0 0 0 0 1793131120.8842945 21273088.433131218 0 21273088.433131218 -394944930.4458847 0 0 0 0 24921594.827005878 3062789.1497312412 0 3062789.1497312412 -6888231.653605219 0 0 0 0 270668655.8501358 782481396.81008911 0 782481396.81008911 2278641579.427361 0 0 0 0 284337974.48724365 -448231185.88446808 0 -448231185.88446808 106438036.01085281 0 0 0 0 199794956.9584465 -135517785.11839104 0 -135517785.11839104 -231764702.94724274 0 0 0 0 971730722.97606659 467532577.03786469 0 467532577.03786469 77580708.033996582 0 0 0 0 36359684.900298595 73446520.572970152 0 73446520.572970152 1084121684.3981094 0 0 0 0 348055010.13626099 601653832.44513321 0 601653832.44513321 869055893.27353096 0 0 0 0 2059899383.9767532 1260783334.3414268 0 1260783334.3414268 567235089.34463882 0 0 0 0 838674303.21279144 151874958.2743187 0 151874958.2743187 -45281417.095895767 0 0 0 0 757718133.15016937 11395699.325878143 0 11395699.325878143 -470285080.41742706 0 0 0 0 1252353146.3824425 81133251.275173187 0 81133251.275173187 -402080132.10585785 0 0 0 0 598167607.40668488 -144842833.75089836 0 -144842833.75089836 -396384672.69210815 0 0 0 0 543660227.4746933 335276334.98832703 0 335276334.98832703 -158841511.50154877 0 0 0 0 491210099.16609192 116470693.89481354 0 116470693.89481354 -163483331.07698822 0 0 0 0 320115406.52433777 102680731.06532288 0 102680731.06532288 -154336037.1738205 0 0 0 0 348352658.27108002 314569480.1399231 0 314569480.1399231 -154565774.19453239 0 0 0 0 394785681.22872925 -30048021.582363129 0 -30048021.582363129 -664613486.36339188 0 0 0 0 435376782.60238647 87836688.26335907 0 87836688.26335907 -428750496.480896 0 0 0 0 475571014.76546478 -63173573.970436096 0 -63173573.970436096 -182365115.42922914 0 0 0 0 510486829.92318916 15698430.168242931 0 15698430.168242931 -208237277.44012451 0 0 0 0 489502666.51807404 -132215458.64345551 0 -132215458.64345551 -334003075.33260345 0 0 0 0 48398733.016876221 -65389288.661148071 0 -65389288.661148071 -208967059.95756912 0 0 0 0 -137369537.13591576 137352418.35782909 0 137352418.35782909 -86165917.585426331 0 0 0 0 297896002.75470734 208554028.67843628 0 208554028.67843628 -82975238.76978302 0 0 0 0 -230491486.28394699 158248776.74554443 0 158248776.74554443 -239821833.84142303 0 0 0 0 121951085.8364563 21992973.800003052 0 21992973.800003052 -219861298.18721008 0 0 0 0 -334342238.67308426 -312008379.53071022 0 -312008379.53071022 -128637305.58988953 0 0 0 0 451518575.53384399 -301354722.40560913 0 -301354722.40560913 -213345711.12025452 0 0 0 0 581515295.68053436 -153191970.66081619 0 -153191970.66081619 -331077325.53836441 0 0 0 0 
</DataArray>
<DataArray type="Float64" Name="cross_section_updated" format="ascii">
1 1 1 1 1 0.04821908742111853 1 1 1 1 1 1 1 0.04881009736553809 1 1 1 1 0.04710142430765752 1 1 0.053463385703089158 1 1 1 1 0.040186922301341479 1 1 1 1 0.045558754223979807 1 1 1 1 1 1 1 1 1 1 1 1 1 0.049688692720620251 1 1 0.049918326419655212 1 1 1 1 1 0.051224903233189026 1 1 1 1 1 1 1 0.04072045094007605 1 1 1 1 0.048174592692096396 1 1 1 1 1 1 1 1 1 0.046486367077904246 1 1 0.050483554042256712 1 1 0.053134334069496691 1 1 1 1 0.05138322081198804 1 1 1 1 1 1 1 0.049379065022164749 0.049977202252128039 0.048493220953781613 1 1 0.04814022240309223 1 1 1 1 1 0.049848952731558351 1 1 1 1 1 1 1 1 1 1 1 1 1 0.050107354491717798 1 1 1 0.050760791037545924 1 1 1 1 1 1 0.050363177802319289 1 1 1 1 1 1 1 1 1 1 1 1 1 1 1 1 1 1 1 1 1 1 1 1 1 0.049668997434811395 1 1 1 0.047507407361714181 1 1 0.050102421081963486 1 1 1 1 1 1 1 1 1 1 1 0.050335050494585504 1 1 1 1 1 1 1 1 0.050821476592358208 1 1 1 1 1 1 1 1 0.0516561867717188 1 1 1 1 1 1 1 1 1 0.049108534944376322 1 1 1 1 1 1 1 1 1 1 1 1 1 1 1 1 1 1 1 1 1 1 1 0.049998773037528303 1 1 1 0.041659354193024564 1 0.050146806808010522 1 0.046939609814537091 1 1 0.054519855749616972 1 1 1 0.052739567809423793 1 0.047042683299693855 1 0.049925300040907242 1 0.048105289420540244 0.047109279170926145 1 0.048648236941297711 1 1 0.047871984875399523 1 0.052125910391631169 1 1 1 0.048618895182318461 1 0.047638678379516332 0.049708736971924662 1 1 0.051443543028364763 1 1 1 0.048586180705800647 1 0.054078381440902178 0.052957834984664803 0.048681248516134722 1 0.05012778994596874 1 1 1 0.050010328938001038 1 0.052429937770028981 0.046881262051054182 0.049019851422750768 1 1 0.053171508670880163 0.052841210876151332 1 1 1 1 0.054635218503833335 1 0.049962382198707883 1 1 0.051782225271075948 1 1 1 0.048470324761489401 1 0.049442789648276003 0.047755513180464657 0.04943206128875377 1 1 1 0.050691627911016543 1 0.048212022925248801 0.054027528004461499 0.050360575795717163 0.052957492902556302 1 1 1 0.049303070870215904 0.049994860854158718 1 1 0.046306346916481486 0.052498412209331692 0.052085387663620371 1 0.051203155135864556 1 1 1 1 0.049971735363208938 1 1 1 1 1 1 1 0.05105774044604363 1 1 1 1 1 1 0.049648161482404127 0.049980399618489102 1 1 1 0.05128378065575602 1 1 1 0.049982158921452705 1 0.052659174628240449 1 0.047878827331335597 0.054949967486356451 1 1 1 1 0.049430234202756752 1 1 0.055871147964884481 1 1 1 1 0.04987461172403812 1 0.049998511626835662 1 1 1 1 1 0.046999318939739916 0.054353842204638264 1 1 1 1 1 1 1 1 0.050167090462364484 1 1 1 0.049236588432923084 1 1 0.047970268088585011 1 0.049995465279173826 1 1 1 1 1 1 1 1 1 1 1 0.055455900292209988 1 0.0491702952856393 1 0.054812336028498339 1 1 1 0.050289495346112281 1 0.050052801310909278 1 0.047644006701021244 1 1 1 1 1 1 0.052162886086716986 1 0.047275456320160003 1 1 1 0.051570627430371489 1 1 1 0.0540070615179594 1 0.047315033727659855 0.05794847392494553 1 1 1 1 0.048597830415064318 1 1 1 1 0.043625390457610817 0.057027362590910319 1 1 0.052376975121406932 1 0.051093507422982548 1 0.050765300956147591 0.051687630134824011 1 1 1 0.049929540701712974 1 1 1 1 0.044890384922006088 1 1 1 1 1 1 1 1 1 1 1 0.049952802194589002 1 1 1 1 0.053637025827851563 1 1 1 0.046932325877957967 1 0.051641371121231648 0.04960539041222909 0.049998762221857194 1 1 1 0.055987765485707136 0.043047163724202898 1 0.041971177551250356 1 1 0.047868236241536508 1 1 1 1 0.043503682181025044 1 1 1 1 1 1 1 1 1 1 1 0.042302470029046704 0.059946380814856794 1 1 0.045747412365896911 1 1 1 0.050053879065478486 1 1 1 1 1 1 0.054935911750823394 1 1 1 0.049803048855660718 1 1 1 0.048647307366355759 1 1 1 1 1 1 1 1 1 1 1 0.054495994071348933 1 1 1 0.053843784451406862 1 1 1 1 1 1 1 0.048876335701062132 1 1 1 1 1 0.047058421966611363 1 1 1 1 1 1 1 1 1 1 1 1 1 1 1 1 1 1 1 0.051134197915470234 1 1 1 1 0.0510122829429401 1 1 0.050467034942572361 1 1 1 1 1 1 1 0.050536852084995129 1 1 1 1 1 1 1 1 0.049943272574019586 1 0.051665799452403641 1 1 0.048598749399268427 1 1 1 0.049211979193076939 1 1 0.051214932156704994 1 1 1 0.047487788448232274 1 0.048016812271949677 1 1 0.050008146625539415 1 0.049372745513702757 1 1 1 1 1 1 1 1 1 1 1 1 1 1 1 1 1 1 1 1 1 1 0.049747880857008889 1 0.048719149220960989 1 0.049568045676579214 1 1 1 1 1 1 1 1 1 1 1 1 1 1 1 0.049847456228692355 1 1 1 1 1 1 1 1 1 0.049900424628316536 1 1 1 1 1 1 1 1 1 1 1 1 1 1 1 1 1 1 1 1 1 1 1 1 1 1 1 1 1 0.049882933696567017 1 1 0.050053690525439551 1 1 1 0.047298871804117251 0.054658347773722665 1 0.054558037130459619 1 1 1 1 1 0.047362151155393051 1 1 1 1 1 0.047741172442739607 1 1 1 1 1 1 1 1 1 1 1 1 1 1 1 1 1 1 1 1 1 1 1 1 1 1 1 1 1 1 1 1 1 1 1 1 1 1 1 1 1 1 1 1 1 1 1 1 1 0.050779685829618698 1 1 1 1 1 1 1 1 1 1 1 1 1 1 1 0.053869557537229128 1 1 1 1 0.051651979674701178 1 1 1 1 1 1 1 1 1 1 1 1 1 1 1 1 1 1 1 1 1 1 1 1 1 1 1 0.051794522220471262 1 1 0.04875042433015081 1 0.045364435678507051 0.051173030970092355 0.051465239872289278 0.058082477700772711 1 1 0.049916463621665373 1 1 1 1 1 1 1 1 1 1 1 1 1 1 1 1 1 0.044658986149889668 1 1 0.051137675828162976 1 0.052792289460292352 1 1 1 1 0.042850695931782673 1 0.048236408565765096 1 1 1 1 0.049546135229446432 1 1 1 0.050127143443821465 1 1 1 1 1 0.046559869060323528 1 0.051803741937732808 1 1 0.050212499260145066 0.053108111188968743 1 0.049450883711058401 1 1 1 1 1 1 1 1 1 1 1 0.041643333235187131 1 1 1 0.042130653769439835 1 1 1 0.052522493533362469 1 1 0.040963462872791817 0.049955134695649994 0.049969437176328679 1 1 1 1 1 1 1 1 1 1 1 0.049817723274085568 1 1 1 1 1 1 1 1 0.041081613346047846 0.036198111287068985 0.041235612000237634 1 1 1 1 1 1 1 1 0.038915595636543857 0.049858799887406387 1 1 1 0.050609834235177259 1 1 0.048250662746230175 1 1 1 1 1 1 1 1 1 1 1 0.049419560116076032 1 1 1 1 1 1 1 1 0.048984400061989279 1 1 1 1 1 1 1 1 1 1 0.050022057430048131 1 0.048802369641163711 0.04741998688687607 0.048009493981963303 1 1 1 1 1 1 1 0.040110706174573761 0.038273583764303391 1 0.051517976455107937 1 1 1 1 1 0.051380284659565539 1 0.049825519564046482 0.046918703276131069 1 1 1 0.047021783523227917 1 0.046941083179409489 1 1 1 1 0.049884804346866735 1 1 1 1 1 1 1 1 1 1 1 1 1 1 1 1 1 0.052007079465139799 1 1 1 0.048521229618614152 1 1 1 1 1 0.050910244487964995 1 1 1 1 1 1 0.049032351357865947 1 0.049642303778336588 1 1 1 1 1 1 1 1 0.047244937312064431 1 1 1 0.051122064869436372 1 1 1 1 1 1 1 1 1 1 1 1 1 1 1 1 1 1 1 1 1 1 1 1 1 0.045991978844622472 0.050973049315148754 0.056287759668377249 1 1 1 1 0.04820846198252722 1 1 1 1 0.048165547313243066 1 1 1 1 1 1 1 0.051026400139929692 1 1 1 1 1 1 1 1 0.051790641093971385 1 1 1 1 1 1 1 1 1 1 1 1 0.052275831364055822 1 1 1 1 1 1 0.050893503207638628 1 1 1 1 1 1 1 1 0.048805093219908967 1 1 1 0.055379101568127975 1 1 1 1 1 1 1 1 1 1 1 1 0.050764240954041681 1 1 1 1 1 1 1 1 1 1 1 1 1 1 1 1 1 1 1 1 1 1 1 1 1 1 1 1 1 1 1 1 1 1 1 1 1 1 1 1 1 1 1 1 1 1 1 0.049557755198738208 1 1 1 1 1 1 1 1 1 1 1 1 1 1 1 1 1 1 1 1 1 1 1 1 0.051162369288360057 1 1 1 1 1 1 1 1 1 1 0.049835382865383603 1 1 0.053042308736749269 1 1 1 1 1 1 1 1 1 0.049359492153564132 1 0.048867196597211011 1 1 1 1 0.054238493448845286 1 1 0.049104166240702928 1 0.047743602687695064 1 1 1 1 1 0.048211023114594631 1 1 1 1 1 1 1 1 0.051976918263942462 1 1 1 1 1 1 1 1 1 1 1 1 1 1 0.048221148409279803 1 0.051806986402954829 0.04966781168198936 1 1 1 1 1 0.049891400185061607 1 1 1 1 1 1 1 1 1 1 1 1 1 1 1 0.04970965676101096 1 1 1 1 1 1 1 1 1 1 1 1 1 1 1 1 0.050101753210284025 1 1 1 1 1 0.046615913477093478 0.049359422089929869 1 1 0.048495047270070812 1 1 1 1 1 1 1 1 1 1 0.048863885641578696 1 1 1 1 1 1 1 1 1 0.045878862652236965 1 0.066384829200322182 1 1 1 1 1 0.048850426994061724 1 1 1 1 0.066733584635706736 1 1 1 0.04567684151657362 1 1 1 0.064596486669038028 1 1 0.047946981156341217 1 1 1 1 1 1 1 1 1 1 1 1 1 1 1 1 0.047578038688833847 1 1 1 1 1 1 1 0.048728137026892354 1 1 1 1 1 1 1 1 1 1 1 1 1 1 1 1 1 1 1 1 1 1 1 1 1 1 1 0.06315935216764923 1 1 1 1 0.049299798446141567 1 1 1 0.036710479029779391 1 1 1 1 1 1 1 1 1 0.036365389496110671 1 0.050009873892131691 1 1 1 1 1 1 1 1 1 1 1 1 1 1 1 1 1 1 0.050049302310536843 0.060715499017750967 1 1 1 0.046422776107113914 1 1 0.056614384754470511 1 1 0.050346871644264823 1 1 1 0.049885798567168765 1 1 0.050104749487199444 1 1 1 1 1 1 1 1 1 1 1 1 1 1 1 1 1 1 1 1 0.049987551777452788 1 0.052647623468341731 1 1 1 1 1 1 1 1 1 1 1 0.056599850162278545 1 0.05876638728368113 1 1 1 0.035678112149444156 1 1 1 1 1 0.050036216279119687 1 1 1 1 1 1 0.04645795765646063 1 1 1 1 1 1 1 1 1 1 1 0.049085625744117956 1 1 1 1 1 1 1 1 0.034570586531694855 1 1 1 0.043049983477422227 1 1 0.051551470627875351 1 1 1 1 1 0.051961849406318573 1 1 1 1 1 1 1 1 1 0.050079404046210904 1 1 0.058349424333331817 1 0.053456152003833669 1 0.046810983129714448 0.05278422467971737 0.050670318722759539 1 0.049742288522397031 1 1 1 1 1 1 0.044151458915936581 1 1 1 1 1 1 0.051058806954307576 1 1 1 1 1 1 1 0.045132956271398093 1 1 1 1 0.046300079291798954 1 1 1 1 1 0.052443105592024558 1 0.049920468811539165 1 1 1 1 1 1 1 1 1 1 0.052857014204533641 1 1 1 1 1 1 1 0.044839337442681121 1 1 1 1 1 1 1 0.050021771527495762 1 0.054255348666562543 1 1 1 1 1 1 1 1 0.058960346929301105 1 1 1 0.056471734977244815 0.050031549127931722 1 1 1 1 1 0.058338668819139773 0.049999572102645468 1 0.058603484026382623 1 1 0.043032189896784291 1 1 0.043123682187791362 1 1 1 1 1 1 1 1 0.036756137665369337 1 1 1 1 1 0.065662716016073625 1 1 1 1 0.059087096585435199 1 1 0.058004571492803712 1 1 1 1 1 1 1 1 1 1 1 1 1 1 1 1 1 1 1 1 1 1 1 1 1 1 1 1 1 1 1 1 1 1 1 1 1 1 1 1 1 0.048778395740290748 1 1 0.0503758042753671 1 1 1 1 1 0.051191974027141249 1 1 1 1 0.048918108026758861 1 1 1 1 1 1 1 1 1 1 1 1 1 1 1 1 1 1 1 1 1 1 1 1 0.051372991037405454 1 1 1 0.050673688911858326 1 1 1 1 1 1 0.050474102558523561 1 1 1 1 1 1 1 1 1 1 1 0.056338288037244388 1 0.045910629492864494 0.055609473150779187 1 1 0.052625743127226079 1 1 1 1 1 1 1 1 1 1 1 0.058712625814821076 1 1 0.053173577928651801 1 1 1 1 1 1 1 1 1 1 1 1 1 1 1 0.055777051495323249 1 1 1 1 1 1 1 0.049974345332935502 1 0.052070472121182307 1 1 1 1 0.046326160426767855 1 0.048300823963403114 1 1 1 1 1 1 1 1 1 0.047118114687191653 1 1 1 1 1 1 1 1 1 1 1 1 1 1 1 1 1 0.04718499490553061 1 1 1 1 1 1 1 1 1 1 1 1 1 1 1 1 1 1 1 1 1 1 1 1 1 0.048214496631185912 0.049570061674565812 1 1 1 1 1 1 1 1 1 1 1 0.048477252639968167 1 1 1 1 0.044346558076386391 1 1 1 1 0.04559906835345981 1 1 1 1 1 1 1 1 0.051220807070904366 1 1 1 1 1 1 1 1 1 0.050072173061587566 1 1 1 1 1 1 1 1 1 1 1 1 1 1 1 1 1 1 1 1 0.036136700565035901 1 1 1 1 1 1 1 1 1 1 1 1 1 1 0.057291155557799185 1 0.050508854647488832 1 1 1 1 1 1 1 1 0.056714704082782473 1 1 0.050982957206012383 1 1 1 1 1 1 1 1 1 1 1 1 1 1 1 1 1 1 1 1 1 1 1 1 1 1 1 1 1 1 1 1 1 1 1 1 0.050437495029313668 1 1 0.050318084853532924 1 1 1 1 0.047970999271448871 1 0.051724446786072326 1 1 0.050900257456992622 1 0.052464620345332641 1 1 1 1 1 0.051139594265345367 1 1 1 1 1 1 1 1 1 1 1 1 0.042734451177013716 1 1 1 0.04797723677877197 1 1 1 1 1 1 1 1 1 0.054433584298505464 1 1 1 1 0.053574638082815346 0.048442214298094172 1 1 1 1 1 1 1 1 0.049814929282126406 1 1 1 1 1 0.06274602582970254 1 1 1 0.058977617162622148 1 1 1 0.038439793745170578 1 1 1 1 0.057264959694247941 1 1 1 1 1 1 1 1 1 1 1 1 1 1 0.041359312498067291 1 1 1 1 1 1 0.048423965180510023 1 0.041220825500443481 0.050005659653594284 1 0.050805513103120814 1 0.052535477754667645 1 1 1 1 0.049699631591608194 1 1 1 1 0.049189754271915735 1 1 1 1 1 1 1 1 1 0.051075480186670068 1 1 1 1 1 1 1 1 1 1 1 1 1 1 0.052400506266657342 1 1 1 0.049983869275030166 1 1 1 0.049894742765595579 1 0.050194395560884231 1 1 1 1 1 1 1 1 1 1 1 1 1 1 1 1 0.050991196068900277 1 1 1 1 1 1 0.053227350200044751 1 1 1 1 1 1 1 1 1 1 1 1 1 1 1 1 1 1 0.058819911993347469 1 1 1 1 1 1 1 1 1 1 1 1 1 1 1 1 1 1 1 1 1 1 1 1 1 1 1 1 1 1 1 1 1 1 0.049333338047965559 1 1 1 1 0.049878454720056163 1 1 1 1 1 1 1 0.056517093319658852 1 1 1 1 1 1 1 1 1 0.042224093316352289 1 1 0.060743705164116577 1 1 1 1 1 0.050004251537031336 1 1 1 0.047600857480964258 1 1 0.049997475542722401 1 1 1 1 1 1 1 1 1 1 1 1 1 1 1 1 1 1 1 1 0.040939903102263572 1 1 1 1 1 1 1 1 1 1 0.05578205734379145 0.040469791461570384 1 0.058881782260065428 1 1 1 1 1 0.060739629599726737 1 1 1 1 0.052974367983172482 1 1 1 1 1 0.049732036739549838 1 0.049811196719088277 1 1 0.045972471112614294 1 1 1 1 1 1 1 1 0.048631933053833398 1 1 1 1 1 1 0.050410423428363452 1 1 1 1 1 1 0.050520453473058502 1 1 1 1 0.051443374152715771 1 1 0.050054875353386388 1 0.052085429194617387 1 1 0.049813011158916003 1 1 1 1 1 1 0.050777747299565648 1 1 1 1 0.049920452562563986 1 1 1 1 1 1 1 1 0.049654882950827151 0.052878971514376878 1 1 1 1 1 1 1 1 0.048895230623080946 1 1 1 1 1 1 0.049685126223186903 1 1 1 1 1 1 1 0.05107321020261698 1 1 1 0.053074292733056826 1 1 1 1 1 1 1 1 1 1 1 1 0.0462032121279706 1 1 1 1 0.045210786185133842 1 1 0.050490878179928755 1 1 1 1 0.050225688620574083 1 1 1 0.050088705773885966 0.052098808541933737 1 1 1 0.049509355326957126 1 1 1 0.044504882903055376 1 1 1 1 1 1 1 1 1 0.052647087578057153 1 1 1 0.050064506100689146 1 1 1 1 1 1 1 1 1 1 1 1 0.050186885640588243 1 0.049842107050485231 1 1 0.042056795113228698 1 1 0.045180711496629944 1 1 1 1 1 1 1 0.050073331814007818 1 1 1 1 1 0.049888446878687466 1 0.041908596861702362 1 1 1 0.04899448321854781 0.051426129207093579 1 0.053435597155817999 0.046287449672908938 1 0.04554150900909798 1 1 1 1 1 1 0.05075348437328215 1 0.060193442110013338 1 1 1 1 1 1 1 1 1 1 1 1 1 0.049894703153373202 1 1 0.054116358770532412 1 0.052308507604750754 1 1 0.056074115396347719 1 1 1 0.051393800196046335 0.047409465878661274 1 1 0.058275011581882238 1 1 1 1 1 1 1 1 1 1 1 1 1 1 1 1 1 1 1 1 1 1 1 0.048747994045334524 0.049971947270602196 1 0.050432804964632157 1 0.049761175081155663 1 1 0.050005010494076171 0.050002124035519575 1 1 0.049994856804099541 1 1 0.050679383692466461 1 1 0.048922900588591396 1 0.049876269749985006 1 1 1 1 0.050047782184432538 1 1 1 1 0.049573429471985786 1 0.048685186062588641 0.051436702859295663 1 0.051618963312970438 1 1 0.04952272087261303 0.048555596529381552 1 1 1 0.050283924079246943 1 1 1 1 0.054130724446488775 0.048832190353434828 1 1 1 1 1 0.050042968860865941 1 1 1 1 1 1 1 1 1 1 1 0.052647557525041216 1 0.047109268952884475 1 0.043266249175431495 1 1 0.050002851120648596 1 0.042421978005276265 1 1 1 1 1 1 1 1 0.049333703337412348 1 1 0.05225915666434082 1 1 1 1 0.050003735566231861 1 1 1 1 1 1 1 1 1 1 1 1 0.048938158580496834 1 1 1 1 1 1 1 1 1 1 1 0.050293366524224017 1 1 1 1 1 1 0.050390705349754178 1 0.052211127852956632 1 1 0.050833442468984753 1 1 1 1 1 1 1 1 1 1 1 1 1 1 1 1 1 0.048552009406487733 0.048234896315299175 1 1 1 0.04972273676165101 1 1 0.047288009018046979 1 1 1 1 1 1 1 1 1 1 1 1 1 1 1 1 1 1 1 1 1 1 1 1 1 0.050017777523941293 0.041566764770292974 1 1 1 1 1 1 1 1 1 1 1 0.040543830359299121 1 1 1 1 1 1 1 1 1 1 1 1 1 1 1 1 1 1 1 1 1 1 1 1 1 1 1 1 1 1 1 1 1 0.049542684967373282 1 1 1 1 1 0.049635648486661708 1 1 0.050940427415668794 1 1 0.046915201412982464 0.06294803726535475 1 1 1 1 1 1 1 1 1 1 1 1 1 0.062234714879748888 1 1 0.050353913624891458 1 1 1 1 1 1 0.049980706735424499 1 1 0.060895610941717471 1 1 1 1 1 1 1 1 1 1 1 1 1 0.059489580726536657 1 1 1 1 1 1 1 0.049970758355374588 1 1 1 1 1 1 1 1 1 1 1 1 0.050623127262605219 1 1 0.050232421912851058 1 1 1 1 1 1 1 1 1 1 1 1 1 1 1 1 1 1 1 1 0.056928404562808892 1 1 0.050335903902333279 1 0.053486937924814404 1 1 1 0.049877487049512725 1 1 0.045937923564711922 1 0.05441062288516732 1 1 1 0.045852268617466066 1 1 1 1 0.050003656702896755 1 1 1 1 1 1 1 0.050079846547265036 1 1 1 0.048914717061660756 1 1 1 1 1 1 1 1 1 1 1 1 0.051230206368779313 1 1 1 1 1 1 1 1 0.050613357852302039 1 1 1 1 1 1 1 1 1 1 1 0.048659369347857126 1 1 1 1 1 1 1 1 1 1 1 1 1 1 1 1 1 1 1 0.051619904297932527 0.047336427997845938 1 1 1 0.049126257936078825 1 1 1 1 1 1 1 1 1 1 1 1 0.050899368550677913 1 1 1 1 1 1 1 1 1 0.052468386338081166 1 1 1 1 1 1 1 1 1 1 1 1 1 1 1 1 0.047849430566748438 1 0.049096485680008115 1 1 1 1 1 0.048253499159721588 1 1 1 1 0.050460821090356378 1 1 1 0.050039956719332403 1 1 1 0.047769464222287769 1 1 1 1 1 1 1 1 1 0.049468203689346527 1 1 1 0.04867711618496811 1 1 0.049862280223527976 1 1 1 1 1 1 0.049872846747758104 1 1 1 1 1 1 1 1 0.049524771022497242 1 1 1 0.049668252570615593 1 1 1 1 1 1 1 1 1 1 1 1 1 1 1 1 1 1 1 1 1 1 1 1 1 1 1 0.048512908253647485 1 1 1 1 1 1 1 0.04935246644934628 1 1 1 1 1 1 1 1 1 1 1 1 1 1 1 1 1 1 1 1 1 1 1 1 1 0.050439116570219669 1 0.050221692762712246 1 1 1 1 1 1 0.050001121099142669 1 1 1 0.050044002643562055 1 1 0.050004236688885581 1 1 1 1 1 1 1 1 1 1 1 1 0.033368726850459302 1 1 1 1 1 0.034184106889045732 1 1 1 1 1 1 1 1 1 1 1 1 1 0.049783697291635245 1 1 1 0.049082583537309064 1 1 1 1 1 1 1 1 1 1 1 1 0.047512888020434248 0.057667307295484055 1 1 1 1 0.058046562695493222 1 1 1 1 1 1 1 1 1 0.050052249630428085 0.045443308857444513 1 1 1 1 1 0.043470239288874092 1 1 1 1 1 0.04975096311372508 1 1 1 1 1 0.050076588118086136 1 0.042862023326415213 1 1 1 1 0.04927173583071584 1 0.048410045786547534 1 0.056259718052044563 0.049998362441077956 1 1 1 1 1 1 1 0.05031723577734383 0.048802467241676195 1 1 1 1 1 1 0.050014544930038596 0.052948981174065116 0.050981617808705477 1 0.048279361499414572 0.048986956946299461 1 1 1 0.051774609583438505 1 1 1 1 1 0.056395568211346253 0.049610546517393217 0.050001043946670334 1 0.054310959955010188 1 1 1 0.049852378182836166 1 0.050185660793591699 0.051120261538375129 1 1 1 1 1 1 1 0.049275931926101753 0.050296160253183238 1 1 0.050605582291908209 0.047856716691354967 0.051979045254584889 1 1 1 1 1 1 1 1 1 1 1 1 1 1 1 1 1 1 1 1 1 1 1 1 1 1 1 1 1 1 1 1 1 1 1 1 1 1 1 1 0.050022693090202387 1 1 1 1 1 1 1 1 1 1 0.049372198053961723 1 1 1 1 1 1 0.048098548617614235 1 1 0.046349092166818887 1 1 1 1 1 1 1 1 1 1 1 1 1 0.051086959046637737 1 0.053252739536824106 1 1 1 1 0.051142134450991132 1 1 1 0.056502662677583908 1 1 0.057299467022224042 1 1 1 0.049960633038906029 1 1 0.049699130743329781 1 1 1 1 1 0.049709557047194756 1 1 1 1 1 1 1 0.049875791421234106 1 1 1 1 1 1 1 0.056629487865715075 1 1 0.055715366839362741 1 1 1 1 0.048820866935902443 1 0.050599190551496913 1 1 1 1 1 0.046064773009042576 1 1 1 1 0.051354364741310693 1 1 1 1 1 1 0.054095284408221471 0.041282912933657469 1 1 1 1 1 0.058253388555085647 1 1 0.049781565009435806 1 1 1 1 1 1 1 1 1 1 0.049486476305709882 1 1 1 1 1 1 1 1 1 1 1 1 1 1 1 1 1 1 0.04984304806510035 1 1 1 1 1 1 0.050042387994496285 1 1 1 1 1 1 1 0.049481789726052897 0.050005980316546947 1 1 1 1 0.049940533277528808 1 1 1 1 1 1 1 0.050605763132470005 1 1 0.042264645529361961 1 0.049126103033237889 0.056564815694511661 0.043571819405228487 1 1 1 1 1 1 0.044101804171606258 1 1 1 1 1 0.049996740328449953 1 1 1 1 0.044312496475431569 1 1 1 0.053943931639140415 1 1 1 0.053297962322581632 1 1 1 1 1 1 1 1 1 1 1 1 1 1 1 1 1 1 1 1 1 1 1 1 1 0.050463261095591849 1 1 1 1 1 1 1 0.052268282772884783 1 0.051017738224435484 1 1 1 1 1 1 0.056871455380947913 1 1 0.05116202055162318 1 1 1 0.049967565611271678 1 1 0.048237315170477732 1 1 1 1 1 0.04956459139724656 1 1 1 0.049869176059539472 0.049492651927487988 1 1 1 1 1 1 1 1 1 1 1 1 0.050876240336661771 1 1 1 1 1 1 1 1 1 0.052539830035250458 1 1 1 1 1 0.049921735521095058 0.04425590343494399 1 1 1 1 1 1 1 1 1 0.049294479633782674 1 1 1 1 1 1 1 1 0.046042202495248832 1 1 1 1 1 1 1 1 1 1 1 1 1 1 1 1 1 1 0.049223012355977022 1 1 1 1 0.048137729417637762 1 0.048599675328382372 1 0.049802203691038813 1 1 1 1 1 1 1 1 1 1 1 1 1 1 1 1 1 0.050078451477482779 1 1 1 1 1 0.046526735112256197 1 1 1 0.051417590208568849 0.045170425883464413 1 1 1 1 1 0.047654856076094362 1 1 1 1 0.049262333209732605 1 1 1 1 1 1 1 1 0.04545928099536662 1 1 1 1 1 1 1 0.046810874981819517 1 1 1 1 1 1 1 1 1 0.050314127158974639 1 1 1 1 1 1 1 1 1 1 1 1 1 1 1 1 1 1 0.049729830603237754 1 1 1 1 1 1 1 1 1 1 1 1 1 0.05039755944455683 1 1 1 1 1 1 0.04988559365129043 1 1 0.049856518451881646 1 1 0.04985018945801703 1 1 1 1 1 1 1 1 1 1 1 1 1 1 1 1 1 1 1 1 1 1 1 1 1 1 0.050185191113820492 1 0.049641929532610443 1 0.050005671076623424 0.050093919128443708 1 1 1 0.052174222235958828 1 1 1 1 1 1 1 1 1 0.049384354013459641 0.05121528780337261 1 0.062084796446472121 1 1 1 1 1 1 1 1 1 1 1 1 1 1 0.049994119813555282 1 0.047502592674045281 0.046843061162159583 1 0.054994574588479679 1 1 1 1 1 1 1 1 1 0.046970927094325904 0.049559433138321195 1 1 1 1 1 1 1 1 1 1 1 1 1 1 1 1 1 1 1 1 1 1 0.050739774668872889 1 1 1 1 1 0.049659811858639227 1 1 1 1 1 0.048846292952673717 1 1 1 0.05294172486001901 1 1 1 1 1 1 1 1 1 0.052478977226195267 1 1 1 1 0.061856747366296955 1 1 1 1 1 1 0.048008725628431302 1 1 1 1 1 1 1 0.048774320880711382 1 1 1 1 0.048299561028871903 1 1 1 1 1 1 1 1 1 1 0.050877674624524104 1 1 1 1 0.048811786527338294 1 1 1 0.05708162960128535 1 1 1 1 1 0.042471388145669316 1 1 1 1 1 1 1 1 1 1 1 1 1 1 0.046262070557906779 0.06139092848556281 1 1 0.05684584333837852 1 1 1 1 1 1 1 0.048576158861718455 1 1 1 1 1 1 0.047903581474896165 1 1 1 1 1 1 1 1 1 1 1 1 1 1 1 1 1 1 1 1 1 1 1 0.045012635332388369 1 1 1 1 1 1 1 1 0.049591173010491076 1 1 1 1 0.04902599444195984 1 1 1 1 1 0.043928167117965135 1 0.050048466941449932 1 0.050470221777338974 1 1 1 1 1 1 1 0.049996261600573064 1 1 1 0.051509487847411786 1 1 1 1 1 0.052441134761076577 1 1 1 1 1 0.049985283759247497 1 0.049990933864908792 1 1 0.050277979368788223 1 0.049563429274731279 1 1 1 1 1 0.048073017391358566 1 1 1 0.044668222486328908 1 1 1 1 1 1 1 1 1 1 0.050062492477215767 1 1 1 1 1 1 1 1 1 1 1 1 1 1 1 1 1 1 1 1 1 1 0.047459854108508788 1 1 1 1 1 1 1 1 1 1 1 1 1 1 1 1 1 1 0.043443421592995482 1 1 1 0.040752633351399906 1 1 1 1 1 1 0.05737589521521147 1 1 1 0.052027658103769761 0.051239613606017913 1 0.045089970175339972 1 0.050494309179881694 0.05493414026774561 1 0.055441873932618048 1 1 0.049975526423891817 1 1 0.050202933775312979 0.049801276729860053 1 1 1 1 1 1 1 1 0.049885982053828458 1 0.049995163758586168 1 1 1 1 1 1 1 1 1 1 1 1 1 1 1 1 1 1 1 1 1 1 0.052034488225246256 1 1 1 1 1 1 1 1 0.053545879969634946 1 1 0.050325114894248797 1 1 0.05470684080280086 0.050381178091945734 1 1 0.050117048225651994 1 1 1 1 1 1 1 1 1 1 1 1 1 1 1 1 1 1 1 1 1 1 1 1 1 1 1 1 1 1 1 1 1 1 1 1 1 1 1 0.056126075830119818 1 0.056626336360419527 1 1 1 1 1 1 1 1 1 1 1 1 1 1 1 1 1 1 1 1 1 1 1 1 1 1 1 1 1 1 1 1 1 1 1 1 1 1 1 1 0.047418726815158366 1 1 0.045982722689676722 1 1 1 1 1 0.050714692040678376 1 0.050908133772784886 1 1 0.049362602779063049 1 1 1 1 1 1 0.051014459639501207 1 1 1 1 1 1 1 1 1 1 1 0.04977879358001519 1 1 0.061205802650273269 0.052818244506133011 1 0.056117959186968158 1 1 0.043719171792120481 1 1 1 1 0.055999960363519202 1 1 1 1 1 1 1 1 1 0.049903098078324666 1 0.060242037897645387 1 1 1 1 1 1 1 0.050197101867901925 1 0.046106904643218538 1 1 1 1 1 1 1 1 1 0.050619299847809822 1 0.046866510948579083 1 1 1 1 1 1 1 1 1 1 0.052053015378904367 1 1 1 0.059082002069971225 1 1 0.049985359607364173 1 1 0.053079502830157513 1 1 1 1 0.051718366326630474 1 1 1 0.049964595806726617 1 1 1 1 1 1 1 1 1 1 1 1 1 1 0.050543302794906528 1 1 1 1 1 1 0.049865413938600819 1 0.049294718941831378 1 0.058689311856749603 1 1 1 0.048879847136201318 1 1 1 1 1 1 1 1 0.059042319761145989 1 1 1 1 1 0.049996925292727798 1 1 0.059155919011872546 1 1 1 1 1 1 1 1 1 0.055846683249804269 1 1 1 0.05230802155355211 1 1 1 1 1 1 0.058072046009167967 1 1 1 1 1 1 1 1 1 1 1 1 1 1 1 1 1 1 1 1 1 1 1 1 1 1 1 1 1 1 1 0.049267446147862506 1 1 1 1 1 0.049727350000316806 1 1 0.051125271696798522 0.048163432119822359 1 1 1 1 0.046565176469988701 1 1 1 1 1 0.051915499657723345 1 1 1 1 1 1 1 1 1 1 1 1 1 1 1 1 0.049578426926123804 1 1 1 1 1 1 1 1 0.048346168016160318 0.046963182901860592 1 1 1 1 1 1 0.048801859666686064 1 1 1 1 0.051137063095498328 1 1 1 1 1 1 1 1 1 1 1 1 1 1 1 1 1 1 1 1 1 1 1 1 0.049830329058795204 1 1 0.050141309837056516 1 1 1 1 1 1 1 1 1 1 1 1 1 1 1 1 1 1 1 1 1 1 1 1 1 1 1 0.049040107394715211 1 0.047713011297567817 1 1 1 1 1 0.045457847962477024 1 1 1 1 1 1 1 1 1 1 1 1 1 1 1 1 1 1 1 1 0.051566374694275788 0.046602929836497178 1 0.050655489996378998 1 1 1 1 1 1 1 1 1 1 1 1 1 1 1 1 0.050174822232609911 1 1 1 0.050023751791570203 1 1 1 1 1 1 1 1 1 1 1 1 1 0.047744836664909224 1 1 1 1 1 1 1 1 1 1 1 1 1 1 1 1 1 1 1 1 1 1 0.058449138743681198 1 1 1 1 1 1 1 1 1 1 1 1 1 0.05749213455060985 1 0.037886501193283351 1 1 0.052068113499943933 0.043543013968433172 1 1 1 1 1 1 1 1 1 1 1 1 1 1 1 1 1 1 1 1 0.051053136009497353 1 1 0.065576394882289071 1 1 1 0.051096560379212771 1 1 1 1 1 1 0.063824901280568377 1 1 1 0.049889341223718534 1 1 1 1 1 1 1 1 0.050072103376490103 1 1 0.047317914154689958 1 1 0.059206223658307647 1 0.057650443170642177 1 1 1 1 0.052948939446734351 0.057067789678344194 1 1 0.05146338169648975 0.057060085771958695 1 1 0.043669427818526008 1 1 1 1 0.050826747014074337 1 1 0.044444962718624817 0.041424197327335877 1 0.050014389042001242 1 1 1 1 1 1 1 1 1 1 1 1 1 1 1 1 1 1 1 1 0.04360336086578076 1 1 1 1 0.045739814694684362 1 1 1 1 0.049536573381768048 0.051423151745881836 1 1 1 1 1 1 1 1 1 1 1 1 0.050606114093448867 1 1 1 0.034516689291725418 1 1 1 1 1 1 1 0.036781443828372333 1 1 1 0.049569057412529448 1 1 0.050403709601975891 0.049708711031216726 1 1 1 0.037185541829314307 1 1 1 0.049900582679217237 1 1 1 1 1 1 1 1 1 1 1 1 1 1 1 1 1 1 0.049661044753027808 1 1 1 1 1 1 1 1 1 1 1 1 1 1 1 1 1 1 0.049985212761544148 0.049242114197484511 1 1 1 1 1 0.049216970934279305 0.049903091679188244 1 0.04945498861511638 1 1 1 1 1 1 1 1 1 0.057383859436277419 1 1 1 0.056033607271059098 1 1 1 1 1 1 1 1 1 1 1 1 1 1 0.059870112760136249 1 1 1 1 1 1 1 0.053343333094027369 1 1 0.05466902296809395 1 1 1 1 1 1 0.042290804990275571 1 1 1 1 0.042769094252158343 1 1 1 1 1 1 0.048351507659320225 1 1 1 1 1 1 1 1 0.050227630418730733 0.041973870503323615 1 1 1 0.048854042588125396 0.045538896556618316 1 1 1 1 1 0.049739211662352525 1 1 1 1 1 1 0.052525138956015516 1 1 1 1 0.049567685088558008 1 1 1 1 1 0.050862619877855397 1 1 1 1 0.0479431092490923 1 1 1 1 1 1 1 1 1 1 1 1 1 1 1 1 1 1 1 1 1 1 1 1 1 0.05037691783486517 1 1 1 1 0.053644796266647907 1 0.055701579107900676 1 0.054027083301795981 1 1 0.055996219778844419 1 1 0.045915869554064674 1 1 0.04830608953616107 1 1 1 1 1 1 0.052229595627272189 1 1 0.051311436365059158 1 0.051360178682117008 0.045030422446948035 0.05169729803952483 1 1 0.043222432620989945 1 0.050667707527563388 0.045027383830072147 1 1 1 0.047659629347835339 1 0.050090540376657333 1 1 1 1 1 1 0.052418835425174101 1 1 1 0.049955761151004238 1 1 1 1 1 1 1 0.054597468499454321 1 1 1 0.050147154282407153 1 0.053743384134424983 0.053647261652933528 1 1 1 1 1 1 1 0.048637687471561289 1 1 1 1 1 1 1 1 0.049525414678929056 0.052597892675694535 1 1 1 1 0.052448485834946657 1 1 0.052354758005153094 1 1 1 0.049997165734681832 1 1 1 0.052025715608872342 0.050166007583283503 1 1 1 1 0.049988103240914704 1 1 1 1 1 0.050106555333576434 0.051409547345960191 1 1 1 1 1 1 1 1 1 1 1 1 1 1 1 1 1 1 1 1 1 1 1 1 1 1 1 1 1 1 1 0.048611582138377726 1 1 1 0.050082581645164673 1 1 1 1 1 1 1 1 1 1 1 1 1 1 1 0.051108446286435995 1 0.050003233266737543 0.048491941555171628 1 1 0.051785150727812847 1 1 1 1 1 1 1 1 1 1 1 1 1 1 1 1 1 1 1 1 1 1 1 0.049954174636751281 1 1 0.051273172874712329 0.049991510256145649 1 1 1 1 1 1 1 0.050982974472614115 1 1 1 0.048895528662656285 1 1 1 1 0.049741105913681034 0.049910576369632711 1 1 1 1 1 1 1 0.051624554255496335 1 1 1 1 0.05089160457335886 1 1 1 1 0.050266726057573513 1 1 1 1 1 1 1 1 1 1 1 1 1 1 1 1 1 1 1 0.049295916900961079 1 1 1 1 1 1 1 1 1 1 1 1 1 1 1 1 0.050416845221387993 1 1 1 0.050029676689436232 1 1 1 1 1 1 1 1 1 0.050282698087655245 1 1 1 1 1 1 1 1 1 1 1 1 1 1 1 1 1 1 1 1 1 0.049950571816878987 1 1 1 1 1 1 1 1 1 1 1 1 1 1 1 1 1 0.04966271904513956 1 1 1 1 1 0.049896096265332757 1 1 1 1 1 1 1 1 1 1 1 1 1 1 1 1 1 1 1 1 1 1 1 1 1 1 1 0.049980344721254531 1 1 0.037774170246672942 1 1 1 0.036435463267368212 1 1 1 1 1 1 1 1 1 1 1 1 1 1 1 0.042114924795719037 1 0.048689953732022097 1 1 1 1 1 1 1 1 1 0.043188129623053961 1 1 1 1 1 1 1 1 1 0.048404564193772315 0.045486933148322216 1 1 1 1 1 1 1 1 1 1 1 1 1 1 1 1 1 1 1 1 1 1 1 1 1 1 1 1 1 1 1 1 1 1 1 1 1 1 1 1 1 1 1 1 1 1 1 1 1 1 1 1 1 1 1 1 1 1 1 1 1 1 1 1 1 1 1 1 1 1 1 0.048425339872386813 1 1 1 1 1 1 0.045769981969358643 1 1 1 1 1 1 1 1 1 0.048492230899585424 1 0.045749206290744145 1 1 1 1 1 1 1 1 1 1 1 1 1 1 1 1 1 1 1 1 1 1 1 1 1 1 1 1 1 1 1 1 1 1 0.053170581365209954 1 1 1 0.049804223044815854 0.049194465191830454 1 1 1 1 1 1 1 1 1 1 1 1 1 1 1 1 1 1 1 1 1 1 0.051132089946845885 0.049633227461286913 1 1 1 1 1 1 1 1 0.047327300527131223 1 1 1 1 1 1 0.046130011074879455 1 1 1 1 1 0.048653499583373186 1 1 1 1 0.049456473995910494 1 1 1 0.053487117584116915 1 1 1 0.052215857555659412 1 1 0.050215865671396569 1 1 1 1 1 1 1 1 1 1 1 1 1 0.049830046900511259 1 1 1 1 1 1 1 1 0.047531401703942273 1 1 1 1 1 1 1 1 1 1 1 0.050716208519422087 1 1 1 0.050203321636850921 1 1 1 1 0.049648897927183563 1 1 1 1 1 1 1 1 0.049220055169190223 1 0.053432435866836298 1 1 0.045593550415974356 1 1 1 1 1 0.05227034458655401 1 1 1 1 1 1 1 1 1 1 1 1 0.049598048955157285 1 1 1 1 1 1 1 1 1 0.048268087663567535 1 1 1 1 1 1 0.049598759284521274 1 1 1 1 1 1 1 0.049228394019905974 1 1 1 1 1 0.048826442975063243 1 1 1 1 1 1 1 1 1 1 1 1 1 1 1 1 1 1 1 1 1 1 1 1 1 1 1 1 1 1 1 1 1 1 1 1 1 1 1 1 1 1 1 1 1 1 1 0.050669991301856294 1 0.051603527730407744 1 1 1 1 1 1 1 1 1 1 1 1 1 1 0.050167858068275818 1 1 1 1 1 1 1 1 1 1 1 1 1 1 1 0.045929303964267851 1 1 0.051741287353547112 1 0.052956548929060238 1 1 1 1 1 0.05327013927174569 1 1 1 1 1 1 1 1 1 1 1 1 1 1 1 1 1 1 1 1 0.044449195363132271 1 1 1 1 1 1 1 1 1 1 1 0.043504220810523249 1 0.050423003425591639 1 1 0.042804566942435222 1 0.059247359188201246 1 1 1 1 1 1 1 0.049600240159035434 1 0.037149018623945845 1 1 1 1 0.031761111437236429 1 1 1 1 0.051330459520367647 0.044623439256298074 1 1 0.048203827571959221 1 1 1 1 1 1 1 1 1 1 1 1 1 1 1 1 0.048594464873894919 1 1 1 1 1 1 1 1 1 1 1 1 1 1 0.046057242621320549 1 0.05001563874053689 1 1 1 1 1 1 1 0.069146161587606308 1 0.063736669461049666 1 1 1 1 1 1 1 1 1 0.049709060887330181 0.033868389917134138 1 1 1 0.046022824204698137 1 1 1 1 0.059594699911184004 1 0.048420674397173936 1 1 0.048323803440824556 1 0.058617826384142757 0.05568414073938445 0.049868884431180364 1 1 0.050023668647894676 1 1 1 0.054596009430118955 0.045580264147127625 0.037690686571783802 1 1 1 1 1 1 1 1 1 1 1 0.041529887249032969 1 1 1 1 1 1 0.031575470841182916 1 1 1 0.049956846116431607 1 1 1 1 1 1 1 1 0.045068621055449627 1 1 1 0.048352412375836817 1 1 1 1 1 1 1 1 1 1 1 1 1 1 1 1 1 1 1 1 1 1 1 1 1 1 1 1 1 1 1 1 1 1 1 1 1 1 1 1 1 1 1 1 1 1 1 1 1 1 1 1 1 1 1 1 1 1 1 1 0.051163833274309033 1 1 1 1 1 0.052959745494873388 1 1 1 1 0.051340868767214276 1 1 1 0.056042850636288305 1 1 1 1 1 1 1 1 1 1 1 1 1 1 1 1 1 1 1 1 1 1 1 1 1 1 1 1 1 1 1 1 1 1 1 1 1 1 1 1 0.048501771192237739 1 1 0.045702059220807625 1 1 1 1 1 1 1 0.050873321354751519 1 1 1 1 1 1 1 1 1 1 1 0.05263053583524694 1 1 0.049924628783380096 1 0.053793027861850432 1 1 1 0.043135688234073648 1 1 1 1 1 1 1 1 0.049837204062119327 1 1 1 1 0.050819310575823701 1 1 1 1 0.041765414858049521 1 0.053443907578886618 1 1 1 1 1 1 1 1 1 1 1 1 0.043798560602457348 1 0.042600172806171482 1 1 1 1 1 1 1 1 1 1 1 1 1 0.050581711333437543 1 1 1 1 1 1 1 1 1 0.050987452447412596 1 1 1 0.050405741113975076 1 1 1 1 1 1 1 1 1 1 1 1 1 1 1 1 1 1 1 1 1 1 1 1 1 1 1 1 1 1 1 1 1 1 1 0.054509513904074117 1 1 0.049901592129613544 1 1 1 1 0.048265759385200571 1 1 1 1 1 1 1 1 1 1 1 1 1 1 1 0.052917841901412729 1 1 1 1 1 1 1 1 1 0.048893714232380987 1 0.051135008551171604 1 1 1 1 1 1 1 0.049924648935898888 1 1 1 1 1 1 1 1 1 1 1 1 1 1 0.049056633148287329 1 1 1 1 1 1 1 1 1 1 1 0.048034558034842779 1 1 1 1 1 1 1 1 1 1 1 1 1 1 1 1 1 1 1 1 1 1 1 0.049337864216182026 1 0.050672208449020692 1 1 1 1 1 1 0.043281947224090969 1 0.052608139800607231 1 1 1 0.042918622496810208 1 1 1 0.057989133824565116 1 1 1 0.042551970048975318 1 1 0.055842460659919456 1 1 1 1 1 1 1 0.052316024720495409 1 1 1 1 1 1 1 0.044984421956030515 1 1 1 1 1 1 1 1 1 1 1 1 1 0.047962236481263673 1 1 1 1 1 1 1 1 0.042529572444609094 1 1 1 1 1 1 1 1 1 1 1 1 1 1 1 1 1 1 1 1 0.047598950706020972 1 1 1 1 1 1 1 1 1 1 1 1 1 1 1 1 1 1 1 1 1 1 1 1 1 1 1 1 1 1 1 1 1 1 1 1 1 1 1 1 1 1 1 1 1 1 1 1 1 1 0.050871529347792883 1 0.045307827741127751 1 1 1 0.05276166474009443 1 1 0.049719566707151934 0.044257648714286994 1 0.052055254307481813 1 1 1 1 1 1 1 1 1 1 1 1 1 1 1 1 1 1 1 1 1 1 1 1 1 1 1 1 1 1 1 1 1 1 1 0.050065482117330216 1 1 1 1 0.05029749905266262 1 1 0.039454346222114446 1 1 1 0.049840428133633777 1 1 1 1 0.052100275227612618 1 0.049995006266838234 0.051720043183774447 1 1 1 1 0.052664256876274879 1 1 1 0.050430255844824634 1 1 1 0.050021329713059483 1 1 1 1 1 1 0.049719872143017832 1 1 1 1 1 1 1 1 1 1 1 1 1 1 1 1 1 1 1 1 0.05075213463214414 1 1 1 1 1 1 1 1 1 1 1 1 1 1 1 1 1 1 0.048575865481324497 1 1 0.046048142047981251 1 1 0.055293666876818796 1 1 1 1 1 1 1 1 1 1 1 0.043994137023048614 1 1 1 1 0.05109782985301705 1 1 1 1 0.049998879963410847 1 1 1 0.050985584730477332 1 1 1 1 1 1 1 1 1 1 1 1 1 1 1 1 1 1 1 1 1 1 1 1 1 0.048323784753512192 1 1 1 1 1 1 1 1 0.050984444011326825 1 1 1 0.054490325327072507 1 1 1 1 1 1 1 1 1 1 1 1 1 1 1 1 1 1 1 1 1 1 1 1 0.058964657021564726 1 1 1 0.045119674452988111 1 1 1 1 1 1 1 1 0.057742465893847371 1 1 0.046061249282344362 1 1 1 1 0.048596152250218391 1 1 1 1 1 1 1 0.060537289676205662 1 0.047055838406105339 1 1 0.046454886313086613 1 1 0.058962102146948435 0.049882400130865999 1 1 1 1 1 1 1 1 1 1 1 1 1 1 1 1 1 1 1 1 1 0.062900234859915333 1 1 1 1 0.061816361840650424 1 1 1 1 1 1 1 1 1 1 1 1 1 0.061332661462553367 1 1 0.051383553580686206 1 1 1 1 1 1 1 1 1 1 1 1 1 1 1 1 1 1 1 1 1 1 1 1 1 1 1 1 1 1 1 1 1 1 1 1 1 1 1 1 1 1 1 1 1 1 1 1 1 1 1 1 1 1 1 1 1 1 1 1 1 1 1 1 1 1 1 1 1 1 1 1 1 1 1 1 1 1 1 1 1 1 1 1 1 1 1 1 1 1 1 1 1 1 1 1 1 1 1 1 1 1 1 1 1 1 1 1 1 1 1 1 1 1 1 1 1 1 1 1 1 1 1 1 1 1 1 1 0.048952634942938458 1 1 1 1 1 1 1 0.052099547882049208 1 1 1 1 1 1 1 1 1 0.056078716066225748 1 0.0410985689015506 1 1 1 0.046414402544970666 1 1 0.04616617630804408 1 1 1 1 1 1 1 1 1 1 1 1 1 1 1 1 1 1 1 1 1 1 1 1 1 1 1 1 1 1 1 1 1 1 1 1 1 0.046953539297720691 1 1 0.046460370329307575 0.05612500690289416 1 1 0.050243530212531431 1 1 0.040998079552213858 1 1 1 0.043226233418102153 1 1 1 1 1 1 1 1 1 0.045917717025933794 1 1 1 1 1 1 0.048609852027622941 1 1 1 1 1 1 1 1 1 1 1 1 1 1 1 1 1 1 1 1 1 1 1 1 1 1 1 1 1 1 1 0.064379272848610503 1 1 1 1 1 1 1 1 1 1 1 1 1 1 1 1 1 1 1 1 1 1 1 1 1 1 1 1 1 1 1 1 1 1 1 1 1 1 1 1 1 1 1 1 1 1 0.039145324861463146 1 0.05190785859734974 1 1 1 1 0.050745704352438858 1 1 1 1 0.039254164142305766 1 1 1 1 0.050304556222063798 1 1 1 1 1 1 1 1 0.052623014693269195 1 1 0.051682133210652376 1 0.050141273306613984 1 1 1 1 0.053429077673379073 1 1 0.044888035229782172 0.055839497303927663 1 1 1 1 1 1 0.049622138844568141 1 1 1 1 1 1 1 1 1 1 0.043656907847455059 0.04757968828626076 1 1 1 1 1 0.045289230499120557 1 1 0.05086007102830515 1 1 1 1 0.058181106245508804 1 1 0.050126003568387964 1 1 1 1 1 1 1 1 1 1 1 1 1 1 1 1 1 1 1 1 1 1 1 1 1 1 1 1 1 0.049417655234189464 1 0.049803255984094977 1 1 1 1 1 1 1 1 1 1 1 1 1 0.05056929293044967 1 1 1 1 0.039164418515931332 0.03842802430645112 1 1 1 1 1 1 1 1 1 1 1 1 1 1 1 1 1 1 1 1 1 1 1 1 1 1 1 1 1 1 1 1 1 1 1 1 1 1 1 1 1 1 0.051140103620413206 1 1 1 0.050570810689963525 1 1 1 1 1 1 1 1 1 1 1 1 1 1 1 1 1 1 1 1 0.039960890573383111 1 1 0.040968980995924741 1 1 1 1 1 1 1 1 1 0.050077552159883833 1 1 1 1 1 0.03952097442804061 1 1 1 1 1 0.050122486973320515 1 0.049859826839976279 1 1 1 1 1 1 1 1 1 1 1 1 1 0.047753987450566623 1 1 1 0.054409349549626687 0.040556806858085361 1 1 1 1 1 1 1 1 0.050180293296197609 1 1 0.042751437236829011 1 1 0.050002934346308869 0.046462342035323276 1 1 1 1 1 0.050044880775853805 1 1 1 1 1 1 1 0.048704701749639819 1 1 0.046279484487891771 0.050657110477617576 1 1 1 1 1 1 0.049933274549090016 0.050014148342464392 1 1 1 0.049998285659330621 1 1 1 1 1 1 1 0.051613514350595545 1 1 1 1 1 1 1 1 1 1 1 1 1 1 1 1 1 1 1 1 1 1 1 1 1 1 0.023594582167234077 1 1 1 1 1 1 1 0.050371648621240661 1 1 1 1 1 1 1 1 1 1 1 0.028943996561776496 1 1 1 1 1 1 1 1 0.049973321014782919 1 1 1 1 1 1 1 1 1 1 1 1 1 1 1 1 0.050770487569273284 1 1 1 0.049901727818335406 1 1 1 1 1 0.052402564221033572 1 1 1 1 1 1 1 1 1 1 1 1 1 1 0.04675061412339699 1 1 1 1 0.040340416362953442 1 1 0.033960811786499179 1 1 1 1 1 0.050357584478509868 1 1 1 1 1 1 1 1 1 1 1 1 1 1 0.050298345421123027 1 0.059398590874690266 1 1 1 0.050201911712928877 1 0.039842420996354766 1 0.062148867803050192 1 1 1 1 1 1 0.050206288714805147 0.028492292413712483 1 1 1 1 1 1 0.027644748722107995 1 0.050526370442391888 1 1 1 1 1 1 1 1 1 1 1 1 1 1 1 1 1 0.058713839246205969 1 1 1 0.050224658965230908 0.057688782075992283 1 1 1 1 1 0.046978267145516749 1 1 0.050383563812536517 0.048809675065629575 1 1 1 1 1 1 1 1 1 1 1 1 1 1 1 1 1 1 1 1 1 1 1 1 1 1 1 1 1 1 1 1 1 1 1 1 1 1 1 1 1 1 1 1 0.059542959113703636 1 1 0.041160112723752515 0.044231053898578079 0.0530309197096442 1 1 1 1 1 1 0.050505590318374829 1 1 1 1 1 1 1 1 1 0.050945806075804123 1 1 1 0.056361247609074017 1 1 1 1 1 1 1 1 1 1 1 1 1 1 1 1 1 1 1 1 0.05387108746575861 1 1 1 1 0.051393767501740746 1 1 1 1 1 1 1 1 1 1 1 1 1 1 1 1 1 1 1 1 1 1 1 1 1 1 1 1 1 1 1 1 1 1 0.049977847739254802 1 0.049823751525386706 1 1 1 1 1 1 1 1 0.049819376980898097 1 1 1 0.049276144077589165 1 0.049995625455511408 1 1 1 1 1 1 1 1 0.035862195776439822 1 1 1 1 0.044867404332455688 1 1 1 1 0.046586287130326837 1 1 1 1 1 1 1 0.044650680813460672 1 1 1 1 0.047362690021468187 1 1 1 1 1 1 1 1 1 1 1 1 1 1 1 1 1 1 1 1 1 1 1 1 1 1 1 1 1 1 1 1 1 1 1 1 1 1 1 1 1 1 1 1 1 1 0.051610839646399134 1 1 1 1 0.050207065974460327 0.052497781091337251 1 1 0.055290287168730572 0.050998338721643853 1 1 1 1 1 1 1 1 1 1 1 1 1 1 1 1 1 1 1 0.050323927933458232 1 1 1 0.050691692672994705 0.050081133953843657 1 1 1 1 1 1 1 1 1 1 1 1 1 1 1 1 1 1 1 1 1 1 1 1 1 1 1 0.050505670593309925 1 1 1 1 1 1 1 0.0487814398006748 1 1 1 1 1 1 1 1 1 1 1 1 1 1 1 0.046697349824116594 1 1 1 1 1 1 1 1 0.050998693778307631 1 0.048903759970033225 0.052673531069137657 1 1 1 1 1 1 1 1 1 1 1 1 0.050071593196447516 1 1 1 1 1 1 1 1 1 1 1 1 1 1 1 1 1 1 0.052796640684134338 1 1 1 0.048866410094136961 1 1 1 1 1 1 1 1 0.049447603521646198 1 1 1 1 1 1 1 1 1 1 1 1 1 1 1 0.052345388672734056 1 1 1 0.050833439696283504 1 1 1 1 1 1 1 1 1 1 1 1 1 1 1 1 1 1 1 1 1 1 1 1 1 1 1 1 1 1 1 1 1 0.050926088241983726 1 0.050421083688609952 1 1 1 1 1 1 1 1 0.049930839343823981 1 1 1 1 1 1 1 1 1 0.04951868859669438 1 1 0.050883713544814982 1 1 1 1 1 0.050337260200228912 1 1 1 1 0.049818392563102998 1 1 1 1 0.049554561330311386 1 1 1 0.049459292075792805 1 0.047351803913270429 1 1 0.048258921877416455 1 1 1 1 1 1 1 1 1 1 1 1 1 1 0.049987408255031396 1 1 0.050069582964797299 1 0.050057984891893816 1 1 1 0.050129896523016054 1 1 0.045917613987262282 1 1 1 1 0.050639608025898751 1 0.051390694787364882 1 1 1 1 1 1 0.050508998346488344 1 0.050496931567919387 1 1 1 1 1 0.053305856678535039 1 1 1 1 0.051173319699449535 1 1 1 1 1 1 0.051976665837422359 1 1 1 1 1 1 1 1 1 1 1 1 1 1 1 1 1 1 1 1 1 1 1 1 1 1 1 1 1 1 1 1 1 0.050097999424070533 0.050089514211930974 1 1 1 1 1 1 1 1 1 1 0.055094002224610576 1 1 0.051608266569695388 0.050423307218986399 1 0.050013855141306393 1 1 1 1 1 1 1 0.054039200355101721 1 1 1 1 1 1 1 1 1 1 1 1 0.05013009597321099 1 1 1 1 0.050027363341751341 1 1 1 1 1 1 1 1 1 1 1 1 0.054912306375364317 1 1 1 1 1 1 1 1 1 1 1 1 1 1 1 1 1 0.054611942339405375 1 1 1 1 1 0.051520629054083916 1 1 1 0.050785607918435068 1 1 1 1 1 1 0.051242089618799933 1 0.05629424657655116 1 1 1 0.053002463622211345 1 1 1 1 1 1 1 1 1 0.058489029372238079 1 1 0.04994204199639888 1 1 1 1 1 1 1 0.050694134269363721 1 1 1 1 1 1 1 1 1 1 1 1 1 0.048793617479373413 1 1 0.052129110999616347 1 1 1 1 1 1 0.050136460387957688 1 1 1 1 1 1 0.059819001023910343 1 1 1 1 1 1 1 0.065328616706871165 1 1 1 1 1 1 1 1 1 1 1 1 1 1 1 1 1 1 1 1 1 1 0.051709373084134626 1 1 1 1 1 1 1 1 1 1 0.052174951240353235 1 1 1 1 0.051880851421949245 0.060208134216807735 1 1 1 1 0.059052710245137287 1 1 1 1 1 1 1 1 1 0.057329642173074374 1 1 1 1 1 1 1 1 1 1 1 0.057522182046004698 1 1 1 0.051905143309169309 1 1 1 0.052857909864263621 1 1 1 1 1 1 1 1 1 1 1 1 0.053131746969615527 1 1 1 1 1 0.05028839374382002 1 1 0.050691674689013838 1 1 1 1 1 1 1 1 1 1 1 1 1 1 0.049305208567333794 1 1 1 1 1 1 1 0.048057273117618898 1 1 1 0.047573302289451669 1 1 1 1 1 0.050747203150705841 1 1 1 1 1 1 1 1 1 0.050343922205512044 1 1 1 1 1 1 1 1 0.047304099769298502 1 1 1 1 1 0.051612459454556774 1 1 1 1 1 1 1 0.050563544359300612 1 1 1 1 1 1 1 1 1 1 1 1 1 1 1 1 1 1 1 1 1 1 1 1 1 1 1 1 1 1 1 1 1 1 1 1 1 1 1 1 1 1 1 1 1 1 1 1 0.050237652568998863 1 1 1 1 1 1 1 0.048718958589955424 1 1 1 1 1 1 1 1 1 1 1 1 1 1 1 1 1 1 1 1 1 1 0.05154523758844877 0.050227244947276664 1 1 0.04660415757551381 0.054452164969071709 1 1 1 1 1 1 1 0.054056096184907559 1 1 1 1 1 1 1 1 1 1 1 1 1 1 0.050530634392096103 1 1 1 1 1 1 1 1 0.050062442040525824 1 1 0.050284205867840208 1 1 1 0.050780859698960158 1 1 1 1 1 1 1 1 1 1 1 1 1 1 1 1 1 1 1 1 1 1 1 1 1 1 1 1 0.04943193837010796 1 1 1 1 1 1 1 1 0.049994208137024709 1 1 1 1 1 1 0.048179297812998505 0.049947105478124226 1 1 1 1 0.050882408034223357 1 1 0.049516356046511049 1 1 0.047565542893622796 1 1 1 1 1 1 0.049345541614878204 1 1 1 1 1 1 1 1 0.049870811055822771 1 1 1 1 1 1 1 1 1 1 1 0.049734034061759046 1 1 0.049862903895554929 1 1 1 1 1 1 1 0.046896270662518003 1 1 1 0.050201679445666447 1 0.052480955015497731 1 0.048091845211707472 1 1 1 1 1 1 1 1 1 1 1 1 1 1 1 1 1 0.057048042241903948 1 0.04998529576740092 1 1 1 1 1 1 1 1 1 1 0.05562009900235601 1 1 1 1 1 1 1 0.050709301095559767 1 1 1 0.049997034066504784 1 0.055221554741434309 0.048140055925585588 1 1 0.050987206206619749 1 1 1 1 0.057114589712891815 1 1 1 0.046776625468085406 1 1 1 0.054901908979396896 1 0.052407512339829362 0.057713709444854204 1 1 1 1 1 1 0.051732010821113672 1 1 1 1 1 1 1 1 0.049974452557504781 0.050015033639798201 0.049701880828722698 1 0.05224920868264845 1 1 0.053878965445117791 0.050004549601076101 1 1 0.046404047068610337 1 1 1 1 1 1 1 1 1 1 1 0.049974262348424087 1 1 1 1 1 1 1 1 1 1 1 1 1 0.045838347488655562 0.048714913401023227 1 1 1 1 0.047181659759814046 1 1 1 0.052429651154377241 1 1 1 1 1 0.047964297254398484 0.049993831283528078 1 1 1 0.050948026074413566 1 1 1 1 1 1 1 1 1 1 1 1 1 1 1 0.048808582209554315 1 1 1 0.052549280181133654 1 1 1 0.049319405493915891 1 1 1 1 1 1 0.059881906601681606 1 1 1 1 1 0.056961008134579084 1 1 1 1 1 1 1 1 0.050011527246149684 1 1 1 1 1 1 1 1 1 0.050831003615226078 1 1 1 1 0.049506713438456584 1 0.050312156971171487 1 1 0.046966099527248555 1 0.052766537731260124 1 1 1 1 1 1 0.051989271080207275 1 0.050115515218502896 0.054746097708842173 1 1 1 1 1 1 1 1 0.052473348120982588 1 0.049622820327941131 1 0.049963455870031412 1 0.056332476242844882 1 1 1 1 1 1 1 1 1 1 1 0.049833579604067063 1 1 1 0.049585013803919303 1 1 1 1 1 1 1 1 0.04975143419985225 1 1 1 1 1 1 1 1 1 0.049487128330209608 1 1 1 1 0.050844566891822721 1 1 0.052466340659660979 1 1 1 1 1 1 1 1 1 0.056143410556676668 1 1 1 0.054080660218307465 1 1 1 1 1 1 1 1 1 1 1 1 1 1 1 1 1 1 1 0.05827414778471264 1 1 1 1 1 1 1 1 1 1 0.051616003204168329 1 1 1 1 1 1 1 1 1 1 1 1 1 1 1 1 1 1 1 1 1 1 1 1 1 1 1 1 1 1 1 1 1 1 1 1 1 1 1 1 1 1 1 1 1 0.04845729466306662 0.050075224437304819 1 1 1 1 1 1 1 1 1 1 1 1 1 0.038200719891491458 0.052985535069907122 1 1 1 0.05327308297439369 1 1 0.056873449911265715 1 1 1 0.057814455338545123 1 1 1 0.049320403067444799 1 1 1 1 1 1 1 1 0.050017516800942033 1 1 0.050381669155020112 1 0.044538203101974275 0.048439898736421738 1 1 1 1 1 1 0.057331024088641436 1 0.047581830255042909 0.049829116314707884 0.05002587923368873 1 1 0.047611756843019291 1 1 0.056015221272583016 0.055307941580266723 1 1 1 1 1 1 1 1 1 1 1 1 1 1 1 1 1 1 1 1 1 0.059115237212639879 1 1 1 1 1 1 1 1 1 0.049163917853345736 1 1 1 1 1 1 1 0.051375889197788474 0.058431746926806222 1 1 1 1 1 1 1 1 1 1 1 1 1 1 1 1 1 1 1 1 1 1 1 0.049180448912251026 1 0.050065445270730306 1 1 1 1 1 1 1 0.054621173355573906 1 1 1 0.042563674108235638 0.054638279145863361 1 1 0.051143107036570296 1 1 1 1 0.042720312883794354 1 1 1 0.05776083274183768 1 1 1 0.045054506092834401 1 1 1 1 1 1 1 1 1 0.044277878024634183 0.054535569679989578 1 1 1 1 1 0.054957573788812206 1 1 0.045136219226111329 0.047848432719971877 0.036589791172880082 1 1 1 1 1 0.057337710803518731 1 1 1 1 1 1 1 1 1 0.050720719248319224 1 0.050308506113294363 1 1 1 1 1 1 1 1 1 1 1 1 1 1 1 1 1 1 1 1 1 1 1 1 0.050768379206586264 1 1 1 1 0.04673291099035707 0.052139235714968014 1 1 1 0.044556771016834633 1 1 1 1 1 1 1 1 1 1 1 1 1 1 1 1 0.062322215725275666 1 1 1 0.050207387741695989 1 1 0.048162529103118162 1 1 1 1 1 1 1 1 1 1 1 1 1 0.05314147997763724 1 1 0.058235725113279922 1 1 1 0.0451010087892144 1 0.046019041950291606 1 0.050577307728721349 1 0.050120537469239099 0.060229188064671597 0.050139594035003482 1 1 1 1 1 1 1 1 0.050406563399560553 1 1 1 1 1 1 1 1 0.060374260120502302 1 1 0.04268213592153295 1 1 1 1 1 1 1 1 1 1 1 1 1 1 1 1 1 1 1 1 1 0.046073836428157204 1 1 1 1 1 1 1 1 1 1 0.047179355603299861 1 0.044086040535823504 1 1 0.04857730676278578 1 0.052178895038216141 1 0.049944489696502947 1 1 0.050177941320754239 1 0.058325131130042798 1 1 0.04721893161698032 1 1 1 0.049579847668163916 1 1 1 1 1 1 1 1 1 1 1 1 1 1 1 1 1 1 1 1 1 1 1 1 1 1 1 1 1 1 1 1 1 1 1 1 1 1 1 1 1 1 1 1 1 1 1 1 1 1 1 1 1 1 1 1 1 1 1 1 1 0.055094129088109775 1 1 0.060384998391182262 1 1 1 1 1 1 0.048793803168383651 0.05782368693585356 1 1 1 1 1 1 1 1 1 1 1 1 1 1 1 1 1 1 0.056321091012477183 1 1 1 0.050691255464898895 1 1 1 1 1 1 1 1 1 1 1 1 1 1 1 1 0.049761227646441045 1 1 1 1 1 1 1 0.060689574237608311 1 1 1 1 1 1 1 1 0.058295553538753681 1 0.050597075785850404 1 1 1 1 1 1 1 1 1 1 1 1 1 1 1 1 0.049954911927108381 1 1 1 1 1 1 1 0.049785743765024475 1 1 1 1 0.050375292946025468 1 1 1 1 1 1 1 0.051142213210837201 1 1 0.044084581394481924 0.049905137239931119 1 1 0.05058014135627692 1 1 1 1 1 1 0.049568934610548607 1 1 1 1 1 1 1 1 1 0.050855229785390872 1 1 0.049804518890283124 1 1 0.049980734133144349 1 1 0.042742322828183833 1 1 1 1 1 0.042275974841453762 1 1 1 1 1 1 1 1 0.048961079570661335 1 1 1 1 1 1 1 0.046126496265629084 1 1 1 1 1 1 1 1 1 1 1 1 0.048912983579298075 1 1 1 1 1 1 1 0.050396398723642606 0.049816630210406235 1 0.055395289919203006 1 0.043510954910131731 1 1 1 1 1 1 1 1 1 1 1 1 1 1 1 0.050066740407588926 1 0.041834274668372584 1 1 1 1 1 1 1 1 0.046820793500633173 1 0.050406405817538129 1 0.044531777172854149 1 0.046518427354899312 1 0.050493990448031344 1 1 0.04944030017665757 1 1 1 1 1 0.048307005027545258 1 1 1 1 1 1 1 1 0.049894433756820185 1 1 1 1 1 0.049646398830474732 1 1 0.055034403537234225 1 0.049091666875714604 0.048590381721905468 1 1 1 1 1 1 1 1 0.049997326045696545 1 1 1 1 1 1 1 1 1 1 1 1 1 0.047561739942549308 1 1 1 1 1 1 1 0.049902455259699885 1 1 1 0.049902607096982465 1 1 1 1 1 1 1 1 1 1 1 1 1 1 1 1 1 0.051142183397681278 1 1 1 1 1 1 1 0.050415731420823937 1 1 0.049102652272328545 1 1 1 1 1 1 1 1 1 1 1 1 1 1 1 0.049298293367602677 1 1 1 1 0.051977025193915227 1 1 1 1 1 1 1 1 1 1 1 1 1 1 1 1 1 1 1 1 1 1 1 1 1 0.049210885357766486 1 1 1 1 1 1 0.049644623849182806 1 1 1 1 1 1 1 1 1 0.051360656833682364 0.050318887147886682 1 1 1 0.054239733723397271 1 0.050054234818376661 1 1 1 1 1 1 1 1 1 1 1 1 1 1 1 0.049610585560392252 1 1 1 1 1 1 1 1 1 1 1 1 0.050465878955216766 0.050894391854400998 1 1 1 1 1 1 1 1 0.049087352090876196 1 1 0.050119532919847831 1 1 0.045843183031838521 0.053331085286671479 1 1 1 1 1 1 1 0.048530778365774831 1 1 1 1 1 1 1 1 1 0.050428512899184257 1 1 1 0.048466696904921239 1 1 1 1 1 0.048931602997970502 1 1 1 1 1 1 1 1 1 1 1 1 0.048721263300349316 1 1 1 0.050016006517814952 1 1 1 0.050031831506113164 1 1 1 1 1 1 1 1 1 1 1 1 1 1 1 1 1 1 1 1 1 1 1 1 1 1 1 1 1 1 1 1 0.049539099223521108 1 1 1 1 1 1 1 1 1 1 1 1 1 1 1 1 1 1 1 1 1 1 1 1 0.050020042481615547 1 0.050048965121175716 1 1 0.046302078631025173 1 1 1 1 1 1 1 1 1 0.053997392977631904 1 1 1 1 1 1 1 1 1 1 1 1 1 1 0.047280482042012927 1 1 1 1 0.048580894015932671 1 1 1 0.049633552996064478 1 1 1 1 1 1 1 1 1 1 1 1 1 1 1 1 1 1 1 1 1 1 1 1 1 1 1 1 1 1 1 1 1 1 1 1 1 1 1 1 1 1 1 1 1 1 1 1 1 1 1 1 1 1 1 1 1 1 1 1 1 1 1 1 1 1 1 1 1 1 1 1 1 1 1 1 1 1 1 1 1 1 1 1 1 1 1 1 1 1 1 1 1 1 1 1 1 1 1 1 1 1 1 1 1 1 1 1 1 1 1 1 1 1 1 1 1 1 1 1 1 1 1 1 1 1 1 1 1 1 1 1 1 1 1 1 1 1 1 1 1 1 1 1 1 1 1 1 1 1 1 1 1 1 1 1 1 1 1 1 1 1 1 1 1 1 1 1 1 1 1 1 1 1 1 1 1 1 1 1 1 1 1 1 1 1 1 1 1 0.061974033824814201 1 1 1 1 1 1 1 1 1 1 1 1 1 1 1 1 0.051775778221575877 1 1 1 1 1 1 1 1 0.067619093506996908 1 1 1 1 0.048819834622247239 1 1 1 1 1 1 1 1 1 1 1 1 1 1 1 1 1 1 1 1 1 1 0.052677941951765783 1 1 1 1 1 1 1 1 1 1 1 1 1 0.048610009299606599 0.060780266281538049 1 1 1 1 1 0.056818323769636539 1 0.055898517264163769 1 1 1 1 1 1 1 1 1 1 1 0.053011907386490018 1 1 1 1 1 1 1 0.042727237041374232 1 1 1 1 1 1 1 1 1 1 1 1 1 1 1 0.049819952105973647 0.043696184968910111 1 1 1 1 1 1 1 1 1 1 1 1 0.053725430393922351 1 1 1 1 1 1 1 1 1 1 1 1 1 1 1 1 0.051286545892206936 1 1 1 1 1 1 1 0.042814132745392613 1 1 1 1 1 1 1 1 1 1 0.049943447397117091 0.036748744418055743 1 1 1 1 1 1 1 1 1 1 1 1 1 1 1 1 1 1 1 1 1 1 1 1 1 1 1 1 1 1 0.052479643722860653 1 1 1 1 1 0.052057236202273371 1 1 1 1 1 1 1 1 1 1 0.050918548998457339 1 1 1 1 0.048864408617015805 1 1 1 1 1 1 1 1 1 1 0.05173267277561644 1 0.0505939855718004 1 1 1 1 1 1 1 1 1 1 1 1 1 1 1 1 1 1 1 1 1 1 1 1 1 1 1 1 1 1 1 0.049796582530306097 1 1 1 1 1 0.049616534636279748 1 1 1 1 1 1 1 1 1 1 1 1 1 1 1 1 1 1 0.046619074050751948 1 1 0.031538527106133737 1 1 1 0.048862967141766973 1 1 1 1 1 0.037975271710082886 1 1 1 1 1 1 1 1 1 1 0.061593888058698851 1 1 1 1 1 1 0.050490564496530756 1 1 1 1 1 0.039377983243029401 0.050001303275552286 1 1 0.02944694304897489 1 1 0.050287486800195971 1 1 1 1 1 1 1 1 1 1 0.050480697380263867 1 1 0.052545770826825385 1 1 0.050727330601507206 1 1 0.054229638699499337 1 1 0.050939693988445577 1 1 0.050205452703293782 1 1 1 1 1 1 0.050678190134913197 1 1 1 1 1 1 1 1 1 1 1 0.029006446793590823 1 1 1 1 1 1 1 0.051109761930186633 1 1 1 1 0.047811424698042761 1 1 1 0.029747849930136152 1 1 1 1 1 1 1 1 1 1 1 0.043475389708807884 1 1 1 1 1 1 1 1 1 1 1 1 1 1 1 1 1 1 1 1 1 1 1 1 0.050152818169537365 1 1 1 1 1 0.050210629125741452 1 1 1 1 1 1 1 1 1 1 1 1 1 1 0.048434793831882018 1 1 0.043437846820404968 1 0.064234981584906911 1 1 1 1 0.070105060275425388 1 0.047924634579609875 0.035624053936015976 1 0.034363232416211489 1 1 1 1 1 1 1 0.050160453776087834 1 0.054206337884380271 1 1 1 1 1 1 0.049012793208839625 1 1 1 1 1 1 0.050368255071823381 1 1 1 1 0.051011095826649984 1 1 1 1 1 0.05028927855749505 1 1 0.050916702126200808 1 1 1 1 0.051469230814206235 1 1 1 1 0.053359599084959027 1 1 1 1 1 1 0.049716719548961001 1 1 1 1 1 1 1 1 1 0.050188321783620871 1 1 1 1 1 1 0.051936996165832791 1 1 1 1 0.055107166860814377 1 1 1 1 1 1 1 1 1 1 1 1 1 1 1 1 0.050049271918771336 1 1 1 0.049100481781397809 1 1 0.060901097559886985 1 1 1 1 1 1 1 1 1 1 1 1 1 1 1 1 0.0501001322738883 1 0.060479592296753648 1 1 1 1 1 1 1 1 1 1 1 1 1 1 1 1 1 1 1 1 1 1 1 1 1 1 0.064245922184016327 1 1 0.059400768288791671 1 1 1 1 1 1 1 1 1 1 0.056990911998668042 1 1 1 1 0.050507633771678086 1 1 1 1 0.050407501497789775 1 1 1 1 1 1 1 1 1 0.054000084709436069 1 1 1 1 1 1 1 1 1 1 1 1 1 1 1 1 1 1 1 1 1 1 1 1 1 1 1 1 
</DataArray>
</CellData>
</Piece>
</UnstructuredGrid>
</VTKFile>
